Li17 Co18 O36
1.0
8.054045 -0.003878 2.376255
3.677866 7.165705 2.375734
-0.011186 -0.006201 9.891786
Li Co O
17 18 36
direct
0.333578 0.342384 0.499544 Li
0.333331 0.333784 -0.001068 Li
0.333064 0.666950 0.000002 Li
0.333207 -0.008616 0.500218 Li
0.333284 0.999631 1.000959 Li
0.657271 0.342741 0.500011 Li
0.666825 0.333181 0.000011 Li
0.657642 0.666404 0.500474 Li
0.666235 0.666666 0.001084 Li
0.666244 -0.000117 0.500530 Li
0.666532 -0.000109 1.000354 Li
0.000148 0.333757 0.499478 Li
1.000095 0.333496 0.999654 Li
0.008644 0.666800 0.499787 Li
0.000351 0.666726 0.999053 Li
1.008799 0.991164 0.500024 Li
0.999955 1.000041 1.000004 Li
0.166089 0.167808 0.249055 Co
0.167684 0.167291 0.749766 Co
0.166590 0.499425 0.248606 Co
0.167403 0.501070 0.747644 Co
0.166343 0.832271 0.251661 Co
0.167740 0.833661 0.748334 Co
0.499380 0.166273 0.249718 Co
0.500805 0.165506 0.750727 Co
0.498924 0.500394 0.250950 Co
0.499610 0.501084 0.749053 Co
0.498994 0.832558 0.252329 Co
0.500588 0.833444 0.751365 Co
0.833014 0.165733 0.250987 Co
0.834267 0.166979 0.749029 Co
0.834509 0.499195 0.249300 Co
0.833727 0.500604 0.750298 Co
0.832699 0.832320 0.250238 Co
0.832176 0.833876 0.750918 Co
0.253216 0.253668 0.359092 O
0.253258 0.254313 0.859773 O
0.252300 0.585632 0.355703 O
0.253415 0.587416 0.858698 O
0.251895 0.924439 0.356121 O
0.253099 0.920724 0.860197 O
0.585839 0.253538 0.359925 O
0.587769 0.253737 0.859889 O
0.590922 0.585462 0.355964 O
0.587162 0.586243 0.860628 O
0.586185 0.919697 0.360642 O
0.586351 0.919532 0.862875 O
0.920099 0.253351 0.359533 O
0.920864 0.253690 0.859403 O
0.920510 0.586017 0.359286 O
0.920968 0.586323 0.859987 O
0.919718 0.918943 0.360536 O
0.920840 0.920880 0.859757 O
0.079109 0.079148 0.140228 O
0.081074 0.080257 0.639453 O
0.080483 0.413627 0.137125 O
0.080300 0.413792 0.639342 O
0.079274 0.746929 0.139786 O
0.075535 0.748131 0.643841 O
0.413665 0.079003 0.140013 O
0.414016 0.079496 0.640715 O
0.413782 0.412818 0.139346 O
0.414518 0.409075 0.644055 O
0.412587 0.746563 0.141291 O
0.414374 0.747699 0.644273 O
0.746305 0.079106 0.140599 O
0.746643 0.079872 0.640479 O
0.746301 0.412236 0.140134 O
0.746457 0.414152 0.640073 O
0.745733 0.746703 0.140222 O
0.746361 0.746755 0.640906 O
