Li47 P16 O64                            
   1.00000000000000     
    10.4705440000000003   -0.0032170000000000    0.0075350000000000
    -0.0037080000000000   12.1907029999999992    0.0049910000000000
     0.0070900000000000    0.0040180000000000    9.8401040000000002
   Li   P    O 
    47    16    64
Direct
  0.3927760410095591  0.3699250820122866  0.1226569328139468
  0.6595815995959358  0.2496466886877650  0.0991345183913756
  0.6639780523371442  0.2503512516744165  0.5979879477155785
  0.6633034066233494  0.7485582104988397  0.0976547360257409
  0.6642820707962712  0.7506556280970752  0.5975942653734208
  0.1576655384125114  0.4991529898784727  0.1536268893424924
  0.1632312273088203  0.5011845143911137  0.6520924860861876
  0.1652094123600840  0.0022953476831847  0.1501446441969361
  0.1637901076521570  0.0011567994391670  0.6522859503405940
  0.3363681728570982  0.0009813455644472  0.3998375079694941
  0.3365416717775636  0.0002615905583764  0.9053982155169081
  0.3344720089709954  0.5004711807797794  0.4037819054369713
  0.3337724421552019  0.4996886959360347  0.9014510954237622
  0.8366597414228848  0.2485493749844994  0.3474882095475108
  0.8348861046825181  0.2500136106346136  0.8496225250322473
  0.8366725038739876  0.7492816741078541  0.3475460174226801
  0.8364567489617822  0.7492757852397093  0.8478340399670873
  0.3346371302238828  0.2460564898536256  0.4021749588556965
  0.3325998078148816  0.2479314433359573  0.9038944031844515
  0.3359665040498098  0.7491724962826816  0.4017122800752590
  0.3351164684989686  0.7487624103173269  0.9024442435360027
  0.8374371055157596  0.0019005773406521  0.3460282783721923
  0.8361654804613599  0.0011862140196788  0.8474686643188957
  0.8365069213176385  0.4986926982331360  0.3468920905343941
  0.8346328686141787  0.4998876702515172  0.8501750721336377
  0.6602632402224886  0.4956921932941125  0.0973738199326172
  0.6638156187827936  0.4987492592370841  0.5980119357192049
  0.6630309699224666  0.9955564546510439  0.0963639467174958
  0.6648832636574614  0.9988604213329622  0.5979383894878967
  0.1624716651417722  0.2530822356805653  0.6478597123255914
  0.1630793062681108  0.7517308044808180  0.1532591319562672
  0.1640791054919327  0.7520768082600864  0.6518134256739279
  0.9333988724407136  0.3675852217585290  0.1497733415636423
  0.9227157228357993  0.3756990630135675  0.6515121427470449
  0.9240526030364615  0.8762127649287151  0.1489250132799209
  0.9248627022529333  0.8760413353441184  0.6488237138317416
  0.4234824712618255  0.3739602631859496  0.6030230378672692
  0.4257092056989211  0.8727601957582058  0.1014268177087273
  0.4240913488673180  0.8754335863157500  0.6004081437588075
  0.0797802888128831  0.1328540352577202  0.3373602993200696
  0.0764291212851716  0.1291663894924285  0.8578690337020908
  0.0758981285881366  0.6245039187659900  0.3525700101501468
  0.0755872128944971  0.6247183308535078  0.8502610721695696
  0.5763159678630152  0.1244362152029963  0.3969039698103768
  0.5750733845542999  0.1245731186921811  0.9021992847803951
  0.5756356842484107  0.6240950888646125  0.3989473773429683
  0.5744230004912696  0.6237467956688165  0.8992918477485408
  0.9084879547788376  0.1220226535545709  0.0952365203306730
  0.9124581828024027  0.1250296109869786  0.5951163779629325
  0.9100050921570615  0.6248567247226413  0.0955842418119405
  0.9110510183947585  0.6261015766253554  0.5952836532496010
  0.4139448631081367  0.1220602235246349  0.1536952220980932
  0.4127414120058616  0.1237323413040461  0.6550476610426101
  0.4092782771119303  0.6244257221253666  0.1548742632934419
  0.4118136582965571  0.6255482138521985  0.6547150611683963
  0.0886241581082869  0.3747469405674723  0.4085235527278018
  0.0879793800587227  0.3775228256565586  0.9028484683452214
  0.0889552182811300  0.8758516546330800  0.4045539619775868
  0.0885989342453182  0.8752237382830385  0.9048451268278711
  0.5859612938175147  0.3743697646052621  0.3453051117437454
  0.5848937189644507  0.3747461119173848  0.8448117598050566
  0.5890997415976068  0.8737024672902499  0.3455717153263532
  0.5881828265202158  0.8737295199504771  0.8445915514686073
  0.8352748449293006  0.0186557669684210  0.1444717409233431
  0.8419816460255612  0.0212245499570768  0.6460969481580870
  0.8403172291122551  0.5214032454266625  0.1465646657283238
  0.8403882616545545  0.5238209659768822  0.6482351633038707
  0.3480776778675208  0.2231925401966257  0.0963014013520873
  0.3432429067723987  0.2275167282752521  0.6047442294106520
  0.3405861536587236  0.7284729547508575  0.1040236670877229
  0.3419672980950263  0.7286530110857032  0.6027822684318419
  0.1605865878504074  0.2707743905849134  0.3712039715105467
  0.1575345114259626  0.2749261095488287  0.8487825699062949
  0.1584449394589342  0.7716361819198041  0.3543192711945662
  0.1586322731401386  0.7721113618522734  0.8525172879764236
  0.6565528334323562  0.4777724416925442  0.3962541939474472
  0.6550608840676380  0.4779402506383272  0.8969323102836969
  0.6593680820100438  0.9767155772317488  0.3968169962933677
  0.6581788913487265  0.9768864984355886  0.8953400447565095
  0.1582030291592910  0.4782096069239236  0.3540491543183372
  0.1575724035693663  0.4808634673729706  0.8469858351208595
  0.1595909338223612  0.9781568127769975  0.3523822699099445
  0.1588840375043841  0.9786615560199281  0.8538740455744538
  0.6571524751535739  0.2719071408199090  0.3970563466755013
  0.6542936062267387  0.2718131911076251  0.8979132616688211
  0.6589164928129372  0.7703611611158173  0.3978808512195900
  0.6581814264682516  0.7704295277764638  0.8963166317451253
  0.8387462877951430  0.2254783811682029  0.1478726272388826
  0.8409979644508115  0.2276359585612132  0.6464453862607795
  0.8393038618584302  0.7283722425352714  0.1465019046356488
  0.8413786058507002  0.7299797442651144  0.6459768169160057
  0.3447597042841223  0.0162891442596329  0.1050921760824561
  0.3421904652635733  0.0209794726178537  0.6018989986350124
  0.3361057909074416  0.5225919469658763  0.1044684117103791
  0.3419869456204083  0.5223543902358974  0.6029123942475209
  0.5545371855678755  0.1186529746227571  0.1051605178547775
  0.5510446936362717  0.1236205033715451  0.6019565789814264
  0.5471053176912333  0.6233519831482198  0.1013154502474284
  0.5504024446615275  0.6253430925727358  0.6029487139327726
  0.0448104034806057  0.1170666825062640  0.1466190030394716
  0.0498276816146029  0.1252794580040786  0.6500115870177795
  0.0479795748822305  0.6271441844256723  0.1493936653566496
  0.0495820308088158  0.6275227258031532  0.6465295634581710
  0.4475924160128849  0.3745049653500587  0.3981704811753552
  0.4448639438177145  0.3754750591829333  0.8908733869790959
  0.4506964958890024  0.8739837691434623  0.3976603280924166
  0.4497808686900166  0.8733161507030852  0.8970939169749546
  0.9511331653007983  0.3736677862159906  0.3523266418529206
  0.9486471356305972  0.3760754534392598  0.8505037250171005
  0.9503701883999311  0.8750188347269120  0.3523949086653294
  0.9502685271895235  0.8749981775101210  0.8521854118159772
  0.5830831432323454  0.3740043616050374  0.1886270993043801
  0.5904636716866967  0.3747963891717314  0.6877526243069289
  0.5898840655221593  0.8719168586269374  0.1889031545171093
  0.5888579413190907  0.8737608961113511  0.6878608516287226
  0.0887298870013170  0.3825596833675800  0.0572503635121607
  0.0839185292453924  0.3817781308814216  0.5654431224422951
  0.0890628661019153  0.8743276825968130  0.0614073334704795
  0.0893085241174681  0.8760013460656174  0.5615556279644432
  0.4127229756879950  0.1238375094823512  0.3114139617917691
  0.4119826247602316  0.1222325619071464  0.8115009547691246
  0.4101554740982180  0.6244839007351520  0.3117648657597954
  0.4103702358564918  0.6256886779177681  0.8115370103512817
  0.9129464014356076  0.1248210167016026  0.4384251105938657
  0.9067125720498429  0.1244374000726603  0.9378896465394974
  0.9098911846699996  0.6248764058155802  0.4383319970853274
  0.9104804508493646  0.6254269439594468  0.9387614722644139
 
             NaN             NaN             NaN
             NaN             NaN             NaN
             NaN             NaN             NaN
             NaN             NaN             NaN
             NaN             NaN             NaN
             NaN             NaN             NaN
             NaN             NaN             NaN
             NaN             NaN             NaN
             NaN             NaN             NaN
             NaN             NaN             NaN
             NaN             NaN             NaN
             NaN             NaN             NaN
             NaN             NaN             NaN
             NaN             NaN             NaN
             NaN             NaN             NaN
             NaN             NaN             NaN
             NaN             NaN             NaN
             NaN             NaN             NaN
             NaN             NaN             NaN
             NaN             NaN             NaN
             NaN             NaN             NaN
             NaN             NaN             NaN
             NaN             NaN             NaN
             NaN             NaN             NaN
             NaN             NaN             NaN
             NaN             NaN             NaN
             NaN             NaN             NaN
             NaN             NaN             NaN
             NaN             NaN             NaN
             NaN             NaN             NaN
             NaN             NaN             NaN
             NaN             NaN             NaN
             NaN             NaN             NaN
             NaN             NaN             NaN
             NaN             NaN             NaN
             NaN             NaN             NaN
             NaN             NaN             NaN
             NaN             NaN             NaN
             NaN             NaN             NaN
             NaN             NaN             NaN
             NaN             NaN             NaN
             NaN             NaN             NaN
             NaN             NaN             NaN
             NaN             NaN             NaN
             NaN             NaN             NaN
             NaN             NaN             NaN
             NaN             NaN             NaN
             NaN             NaN             NaN
             NaN             NaN             NaN
             NaN             NaN             NaN
             NaN             NaN             NaN
             NaN             NaN             NaN
             NaN             NaN             NaN
             NaN             NaN             NaN
             NaN             NaN             NaN
             NaN             NaN             NaN
             NaN             NaN             NaN
             NaN             NaN             NaN
             NaN             NaN             NaN
             NaN             NaN             NaN
             NaN             NaN             NaN
             NaN             NaN             NaN
             NaN             NaN             NaN
             NaN             NaN             NaN
             NaN             NaN             NaN
             NaN             NaN             NaN
             NaN             NaN             NaN
             NaN             NaN             NaN
             NaN             NaN             NaN
             NaN             NaN             NaN
             NaN             NaN             NaN
             NaN             NaN             NaN
             NaN             NaN             NaN
             NaN             NaN             NaN
             NaN             NaN             NaN
             NaN             NaN             NaN
             NaN             NaN             NaN
             NaN             NaN             NaN
             NaN             NaN             NaN
             NaN             NaN             NaN
             NaN             NaN             NaN
             NaN             NaN             NaN
             NaN             NaN             NaN
             NaN             NaN             NaN
             NaN             NaN             NaN
             NaN             NaN             NaN
             NaN             NaN             NaN
             NaN             NaN             NaN
             NaN             NaN             NaN
             NaN             NaN             NaN
             NaN             NaN             NaN
             NaN             NaN             NaN
             NaN             NaN             NaN
             NaN             NaN             NaN
             NaN             NaN             NaN
             NaN             NaN             NaN
             NaN             NaN             NaN
             NaN             NaN             NaN
             NaN             NaN             NaN
             NaN             NaN             NaN
             NaN             NaN             NaN
             NaN             NaN             NaN
             NaN             NaN             NaN
             NaN             NaN             NaN
             NaN             NaN             NaN
             NaN             NaN             NaN
             NaN             NaN             NaN
             NaN             NaN             NaN
             NaN             NaN             NaN
             NaN             NaN             NaN
             NaN             NaN             NaN
             NaN             NaN             NaN
             NaN             NaN             NaN
             NaN             NaN             NaN
             NaN             NaN             NaN
             NaN             NaN             NaN
             NaN             NaN             NaN
             NaN             NaN             NaN
             NaN             NaN             NaN
             NaN             NaN             NaN
             NaN             NaN             NaN
             NaN             NaN             NaN
             NaN             NaN             NaN
             NaN             NaN             NaN
             NaN             NaN             NaN
             NaN             NaN             NaN
             NaN             NaN             NaN
