Mg7 Sc16 Se32                           
   1.00000000000000     
    11.2464320000000004    0.0000110000000000   -0.0000250000000000
     0.0000110000000000   11.2465189999999993    0.0000720000000000
    -0.0000250000000000    0.0000890000000000   11.2461749999999991
   Mg   Sc   Se
     7    16    32
Direct
  0.4999219819493572  0.4999194232378994  0.4999251192838984
  0.6241222289955035  0.1275821432321810  0.1275891532298248
  0.1275727764631417  0.6241061942863518  0.1275853876772260
  0.1275861258252054  0.1275960020920845  0.6241204962670903
  0.3758540186383747  0.8724591055705758  0.8724475819334149
  0.8724497161351389  0.3758489009432257  0.8724499161017876
  0.8724364186691181  0.8724555778396524  0.3758458098914241
  0.9944073960257767  0.7514267102850740  0.7514277229545901
  0.7514366785617589  0.9943602167082461  0.7514289870196055
  0.7514321467203781  0.7514198971240467  0.9944097409988915
  0.9998332160054849  0.9998328664828455  0.9998352604553161
  0.0056978740630173  0.2485472059507211  0.2485446926507306
  0.2485389075979933  0.0057171310989179  0.2485362188879633
  0.2485453042354737  0.2485385231791100  0.0056866613786929
  0.7477703166600299  0.4999775544626506  0.2522413634408651
  0.7477803627805166  0.2522597384029850  0.4999897892434509
  0.0000184615628738  0.5000692404679979  0.5000715606294935
  0.2522870351783343  0.5000089882969462  0.7478042833699015
  0.2522525868446484  0.7477608950401068  0.4999582678018182
  0.4999062726941887  0.7477062847397304  0.2521880317083999
  0.4999977446587383 -0.0000208068135607  0.4999827908292416
  0.4999840092087938  0.2522361368605435  0.7477658345485656
  0.5000199835337644  0.5000004239052345 -0.0000170566665709
  0.7574540311560163  0.9941546735252489  0.9941658396058390
  0.9941637237452909  0.7574597106532942  0.9941733090389420
  0.9941641500266458  0.9941553349632956  0.7574456334782480
  0.7594664286975107  0.7594332620937847  0.7594609998477955
  0.2424481865201376  0.0058480932939541  0.0058368195480091
  0.0058434599530180  0.2424500215355780  0.0058424366950516
  0.0058450292389006  0.0058525311402914  0.2424610145884704
  0.2406539713825103  0.2406583798950329  0.2406430637680233
  0.7513145719265352  0.4920410613824377  0.4920368192800835
  0.9923752915313252  0.2583815065601363  0.4925229985731279
  0.9923649646316427  0.4925146581378650  0.2583703128594136
  0.7601182629068670  0.2568538827490824  0.2568503084951906
  0.2486464003799494  0.5079614843794097  0.5079682691404456
  0.0076383388176888  0.7416888093797959  0.5074962317136061
  0.0076578540064271  0.5075042510298657  0.7416999618169480
  0.2399445351133545  0.7431434841665417  0.7431359156498850
  0.2583486164411247  0.9923683119822859  0.4925116841579564
  0.4920223238291234  0.7513081789501741  0.4920095868965436
  0.4925015583844323  0.9923475150470860  0.2583338127395949
  0.2568202300078963  0.7601206335354956  0.2568360010632537
  0.7416641056548191  0.0076419853959320  0.5074908300044199
  0.5079584532117123  0.2486445649573437  0.5079569401311024
  0.5074977802212050  0.0076325588941231  0.7416647000176113
  0.7431354572000090  0.2399227302130955  0.7431490682991878
  0.2583646719018928  0.4925093638150961  0.9923847495289086
  0.4925105365894732  0.2583584108757627  0.9923756763643913
  0.4920464047437047  0.4920348175728822  0.7513237983415830
  0.2568546552494633  0.2568657888474906  0.7601174592118395
  0.7416685698466137  0.5074979722330406  0.0076311361920152
  0.5074966002762901  0.7416570977621807  0.0076118001725795
  0.5079431648204249  0.5079349699330669  0.2486241343628532
  0.7431049734082932  0.7431334640141997  0.2399399417705967
 
             NaN             NaN             NaN
             NaN             NaN             NaN
             NaN             NaN             NaN
             NaN             NaN             NaN
             NaN             NaN             NaN
             NaN             NaN             NaN
             NaN             NaN             NaN
             NaN             NaN             NaN
             NaN             NaN             NaN
             NaN             NaN             NaN
             NaN             NaN             NaN
             NaN             NaN             NaN
             NaN             NaN             NaN
             NaN             NaN             NaN
             NaN             NaN             NaN
             NaN             NaN             NaN
             NaN             NaN             NaN
             NaN             NaN             NaN
             NaN             NaN             NaN
             NaN             NaN             NaN
             NaN             NaN             NaN
             NaN             NaN             NaN
             NaN             NaN             NaN
             NaN             NaN             NaN
             NaN             NaN             NaN
             NaN             NaN             NaN
             NaN             NaN             NaN
             NaN             NaN             NaN
             NaN             NaN             NaN
             NaN             NaN             NaN
             NaN             NaN             NaN
             NaN             NaN             NaN
             NaN             NaN             NaN
             NaN             NaN             NaN
             NaN             NaN             NaN
             NaN             NaN             NaN
             NaN             NaN             NaN
             NaN             NaN             NaN
             NaN             NaN             NaN
             NaN             NaN             NaN
             NaN             NaN             NaN
             NaN             NaN             NaN
             NaN             NaN             NaN
             NaN             NaN             NaN
             NaN             NaN             NaN
             NaN             NaN             NaN
             NaN             NaN             NaN
             NaN             NaN             NaN
             NaN             NaN             NaN
             NaN             NaN             NaN
             NaN             NaN             NaN
             NaN             NaN             NaN
             NaN             NaN             NaN
             NaN             NaN             NaN
             NaN             NaN             NaN
