Li16 Co18 O36
1.0
8.028264 -0.013835 2.457499
3.677377 7.163594 2.392909
-0.119613 -0.020808 9.943594
Li Co O
16 18 36
direct
0.311024 0.376885 0.500743 Li
0.332496 0.333700 -0.000384 Li
0.333088 0.661093 1.000287 Li
0.330569 -0.002950 0.500177 Li
0.333131 0.005151 0.000808 Li
0.657661 0.343852 0.498832 Li
0.666912 0.330778 0.001074 Li
0.669775 0.662811 0.496151 Li
0.673313 0.662156 1.000324 Li
0.669268 -0.002059 0.500749 Li
0.667103 0.001108 1.002464 Li
-0.000077 0.344137 0.498832 Li
1.000236 0.337789 -0.002835 Li
1.000459 0.663831 0.998635 Li
1.015144 0.970281 0.503875 Li
0.994793 1.001367 0.000018 Li
0.165744 0.169417 0.249174 Co
0.168432 0.164714 0.751511 Co
0.164849 0.502010 0.247932 Co
0.167351 0.499493 0.748782 Co
0.165253 0.832864 0.252023 Co
0.167347 0.830602 0.751419 Co
0.499111 0.167756 0.249202 Co
0.500765 0.164931 0.750746 Co
0.500163 0.501713 0.248545 Co
0.501149 0.497853 0.750277 Co
0.498728 0.834330 0.251066 Co
0.500471 0.830694 0.753875 Co
0.832691 0.169176 0.248196 Co
0.835397 0.164452 0.749891 Co
0.833193 0.501080 0.245756 Co
0.835398 0.498043 0.750636 Co
0.832597 0.832928 0.249493 Co
0.834829 0.830952 0.751635 Co
0.252157 0.256783 0.358142 O
0.254146 0.252031 0.861035 O
0.251316 0.593750 0.349580 O
0.254719 0.584717 0.860699 O
0.249722 0.925646 0.355997 O
0.259408 0.916642 0.862209 O
0.586253 0.256222 0.357421 O
0.588068 0.251678 0.859934 O
0.591010 0.587070 0.354337 O
0.586892 0.586038 0.861759 O
0.586227 0.921289 0.359692 O
0.583037 0.916908 0.862292 O
0.918904 0.256636 0.356202 O
0.921440 0.251598 0.860743 O
0.917593 0.586836 0.353721 O
0.920240 0.585162 0.860993 O
0.923702 0.922436 0.353879 O
0.920560 0.918794 0.861730 O
0.083759 0.074141 0.140734 O
0.082580 0.076335 0.642186 O
0.081472 0.413334 0.136333 O
0.082090 0.406058 0.644384 O
0.079906 0.748997 0.139252 O
0.077353 0.746780 0.648294 O
0.413384 0.080321 0.139790 O
0.416172 0.072563 0.643922 O
0.413506 0.413479 0.138601 O
0.416461 0.406331 0.644153 O
0.406339 0.751675 0.141451 O
0.419595 0.746816 0.646967 O
0.746395 0.080036 0.139483 O
0.747980 0.076295 0.641802 O
0.746077 0.412994 0.136274 O
0.748423 0.411070 0.641421 O
0.744756 0.749328 0.137850 O
0.736675 0.746966 0.646824 O
