Li7 Mn16 O32                            
   1.00000000000000     
     8.1529790000000002    0.0001260000000000   -0.0001000000000000
     0.0001260000000000    8.1529539999999994   -0.0000390000000000
    -0.0001000000000000   -0.0000390000000000    8.1529600000000002
   Li   Mn   O 
     7    16    32
Direct
  0.1581742029073936  0.5918219818926064  0.6581787613681153
  0.8758161729079685  0.8741870595176571  0.8746323003382963
  0.1274315833705252  0.1274484205307173  0.1225523204708692
  0.8758157751353132  0.3753670774277765  0.3758120521173380
  0.3746353644869140  0.8741871917364425  0.3758124135482437
  0.6225484229524020  0.1274486298778176  0.6274353883422672
  0.6225481992332559  0.6225649788363200  0.1225520969862056
  0.4999898578803056  0.2500100220949811  0.2480304464381926
  0.2503691442695105  0.4996306792216907  0.2479712245844196
  0.2504925149329855  0.2485419598953693  0.5006891837864762
  0.5014587117569679  0.4995079275159734  0.5006885439469202
  0.5014605517210774  0.7493120924562586  0.7504914300210739
  0.7479713312464372  0.4996311452422304  0.7503697768825507
  0.7517121373797108  0.7499821261288054  0.5000186632395505
  0.2503695275109568  0.0020293983634613  0.7503707061457249
  0.2504913833951818  0.7493110970702787  1.0014605034800483
  0.4999893792488576  0.0019702367192134  0.9999897735016233
  0.7501323988414805  0.9998678262137939  0.2501325859829446
  0.7480294154508869  0.2500102555903227  0.9999900668085567
  0.0006885009540397  0.2485397972695201  0.7504920097093611
  0.0006888727315749  0.4995086282538326  1.0014607805865114
  1.0000192601434437  0.7499807425160044  0.2517111135589089
  1.0000178225518446  0.9982882373572751  0.5000187384063509
  0.7375055493453405  0.0124938467497242  0.0131112376611190
  0.0128196924750008  0.7371807074010344  0.0137622831932425
  0.0127892576699090  0.0119003967118499  0.7370130558454460
  0.7381000674884803  0.7372121067701294  0.7370135317953141
  0.2635137454778944  0.9877175261058656  0.9871325810443889
  0.9865763780109076  0.2626268832061072  0.9873721681290547
  0.9872994676833823  0.9870856448992475  0.2629152889370052
  0.2635135831791156  0.2628662356776008  0.2622836552157299
  0.7381002465014967  0.5129848605007821  0.5127886481762002
  0.0128196769071435  0.2362386082701968  0.5128201713776607
  0.0127896154166584  0.5129855286325028  0.2380984367853653
  0.7375051608152253  0.2368890395381631  0.2375047573086027
  0.2652995055430131  0.4847012853980590  0.4861411442947811
  0.9875635997082753  0.7624361507503041  0.4875631233116018
  0.9861410704631018  0.4847002750949599  0.7653000563986959
  0.2652993470029373  0.7638579872619115  0.7652990863332355
  0.2370146496197713  0.0118994963986257  0.5127888835505863
  0.5137619751977460  0.7371810555405529  0.5128196748707525
  0.5131116951925477  0.0124946950600942  0.2375042144920855
  0.2370145262365834  0.7372115409530885  0.2380990628876750
  0.7629140865898293  0.9870863402011352  0.4872994484754246
  0.4873726286286588  0.2626271408594481  0.4865762873513719
  0.4871317407576763  0.9877172231795004  0.7635148861351807
  0.7622826992814820  0.2628670117197109  0.7635140660183199
  0.2344594188230628  0.5155396621434628  0.0147123937093430
  0.5151204802894261  0.2348795377746278  0.0151208698548448
  0.5147145437999153  0.5155420320816390  0.7344579442757768
  0.2344589541376199  0.2352876037995333  0.7344598273239860
  0.7622828115003416  0.4864867190970705  0.9871325144061712
  0.4873729089837722  0.7634228700156094  0.9873719357222774
  0.4871323440044290  0.4864858629605862  0.2622839292893872
  0.7629138504628156  0.7626988031242560  0.2629141472552926
 
             NaN             NaN             NaN
             NaN             NaN             NaN
             NaN             NaN             NaN
             NaN             NaN             NaN
             NaN             NaN             NaN
             NaN             NaN             NaN
             NaN             NaN             NaN
             NaN             NaN             NaN
             NaN             NaN             NaN
             NaN             NaN             NaN
             NaN             NaN             NaN
             NaN             NaN             NaN
             NaN             NaN             NaN
             NaN             NaN             NaN
             NaN             NaN             NaN
             NaN             NaN             NaN
             NaN             NaN             NaN
             NaN             NaN             NaN
             NaN             NaN             NaN
             NaN             NaN             NaN
             NaN             NaN             NaN
             NaN             NaN             NaN
             NaN             NaN             NaN
             NaN             NaN             NaN
             NaN             NaN             NaN
             NaN             NaN             NaN
             NaN             NaN             NaN
             NaN             NaN             NaN
             NaN             NaN             NaN
             NaN             NaN             NaN
             NaN             NaN             NaN
             NaN             NaN             NaN
             NaN             NaN             NaN
             NaN             NaN             NaN
             NaN             NaN             NaN
             NaN             NaN             NaN
             NaN             NaN             NaN
             NaN             NaN             NaN
             NaN             NaN             NaN
             NaN             NaN             NaN
             NaN             NaN             NaN
             NaN             NaN             NaN
             NaN             NaN             NaN
             NaN             NaN             NaN
             NaN             NaN             NaN
             NaN             NaN             NaN
             NaN             NaN             NaN
             NaN             NaN             NaN
             NaN             NaN             NaN
             NaN             NaN             NaN
             NaN             NaN             NaN
             NaN             NaN             NaN
             NaN             NaN             NaN
             NaN             NaN             NaN
             NaN             NaN             NaN
