Li7 Mn16 O32
1.0
8.152979 0.000126 -0.000100
0.000126 8.152954 -0.000039
-0.000100 -0.000039 8.152960
Li Mn O
7 16 32
direct
0.158279 0.591722 0.658279 Li
0.875334 0.874664 0.874668 Li
0.127364 0.127368 0.122636 Li
0.875334 0.375331 0.375337 Li
0.374666 0.874664 0.375337 Li
0.622636 0.127366 0.627363 Li
0.622634 0.622638 0.122635 Li
0.499932 0.250067 0.248499 Mn
0.250071 0.499929 0.248724 Mn
0.250071 0.250297 0.501501 Mn
0.499704 0.499929 0.501501 Mn
0.499705 0.748501 0.750071 Mn
0.748724 0.499929 0.750072 Mn
0.750316 0.750093 0.499908 Mn
0.250072 0.001275 0.750072 Mn
0.250072 0.748498 0.999703 Mn
0.499932 0.001501 0.999932 Mn
0.750089 0.999911 0.250089 Mn
0.748497 0.250068 0.999932 Mn
0.001499 0.250296 0.750071 Mn
0.001501 0.499929 0.999704 Mn
0.999911 0.750091 0.250316 Mn
0.999905 0.999682 0.499905 Mn
0.737405 0.012594 0.013095 O
0.012670 0.737330 0.013118 O
0.012669 0.012618 0.736833 O
0.737382 0.737331 0.736830 O
0.263322 0.987124 0.986749 O
0.987052 0.263250 0.986748 O
0.987194 0.987267 0.262732 O
0.263322 0.263250 0.262878 O
0.737383 0.513168 0.512670 O
0.012669 0.236885 0.512672 O
0.012669 0.513169 0.237382 O
0.737404 0.236905 0.237404 O
0.263584 0.486416 0.486790 O
0.986934 0.763065 0.486932 O
0.986790 0.486417 0.763583 O
0.263585 0.763212 0.763582 O
0.236832 0.012617 0.512671 O
0.513117 0.737331 0.512671 O
0.513094 0.012594 0.237405 O
0.236830 0.737330 0.237382 O
0.762732 0.987268 0.487194 O
0.486748 0.263251 0.487051 O
0.486750 0.987125 0.763322 O
0.762878 0.263251 0.763321 O
0.234995 0.515004 0.014952 O
0.514932 0.235068 0.014933 O
0.514953 0.515007 0.734994 O
0.234993 0.235048 0.734995 O
0.762876 0.486679 0.986748 O
0.486749 0.762948 0.986748 O
0.486750 0.486679 0.262877 O
0.762734 0.762806 0.262733 O
