Mg1 Ti16 S32                            
   1.00000000000000     
    10.0344899999999999   -0.0222180000000000   -0.0105820000000000
    -0.0222200000000000   10.0348430000000004    0.0105720000000000
    -0.0102440000000000    0.0103990000000000   10.0570670000000000
   Mg   Ti   S 
     1    16    32
Direct
  0.4396610301076651  0.3103259288999872  0.8091046439049939
  0.2493285961584509  0.7494806289681419 -0.0016313749921108
  0.4988076607328704  0.9925454570656244  0.0073484774679206
  0.7574364790722418  0.2511938299623255  0.0073775011744639
  1.0005222931260258  0.5006859339442113 -0.0016192303071869
  0.5018036948932254  0.2481854020697023  0.2664537839597534
  0.2491295229036025  0.5008575702367017  0.2472238650133979
  0.2403981977957782  0.2510833332373286  0.4902460100971698
  0.4988979330709479  0.5096050270282398  0.4902408039096861
  0.5019864432516644  0.7687527058965755  0.7456759249754392
  0.7576389214130620  0.5100301517538683  0.7485858104890454
  0.7520009083672945  0.7519115858168984  0.4953595428756879
  0.2399955972082468  0.9923641462521319  0.7485758195103132
  0.7518980154913326  0.9981007542137562  0.2493014816890844
  0.9812465586474965  0.2480002471543446  0.7456669342545736
  1.0002341572865421  0.7497617687049489  0.2471718106288479
  0.9981070100855608  0.9979891742226762  0.4953591598493417
  0.7447113021794308  0.0052905816644729  0.0042322996398404
  0.0049471804578746  0.7450656253964918  0.0003073168854291
 -0.0035974617952871  0.0021704049755376  0.7428883104328944
  0.7478475039788121  0.7535938099597089  0.7428912617732244
  0.2520892030579865  0.9942349752987876  0.9949773876393014
  0.9965138312119428  0.2521817620996053  0.9915162885420808
  0.9971378002403196  0.9954982184343533  0.2506422087622419
  0.2554007265718304  0.2522477057774357  0.2514817059389766
  0.7448267660285462  0.5065196634780416  0.5031200062806021
 -0.0032423016131151  0.2458350935999642  0.5003325131641426
  0.0047226404597912  0.5023761914327715  0.2424476293171481
  0.7476812585177844  0.2460023633988180  0.2504888149441384
  0.2521761987314877  0.4978089926044684  0.4917111465702949
  0.9970546903531433  0.7529515047819422  0.4923944866940623
  0.9967593784552280  0.4943444881965219  0.7501876344978416
  0.2556543600747613  0.7532469802548185  0.7501943673055222
  0.2434896459389986  0.0051770987233014  0.5031227929275315
  0.5041582946065631  0.7532414192613258  0.5003240207817321
  0.5039849308550599  1.0023377873744115  0.2504877820651344
  0.2476308255978120  0.7452721170602409  0.2424470437820418
  0.7533278360119040  0.9966650312527586  0.4936054382763517
  0.4903520572980858  0.2596572189122201  0.5071305495253545
  0.4901813630609443  1.0101282525263156  0.7576196806495785
  0.7398287001337333  0.2598250018391867  0.7576185536519957
  0.2481560676865925  0.5018317771975143 -0.0000042331307197
  0.5076486013344497  0.2423379849933942  1.0209846505713362
  0.5077215244718710  0.5225381948609001  0.7396798435760159
  0.2274533722741731  0.2422718344155622  0.7396787786902744
  0.7557598160832532  0.4979119152849031  0.9949762065929809
  0.4978286734095998  0.7534824962933747  0.9915130720328063
  0.4977574111834248  0.4945947220221306  0.2514774123129219
  0.7544988681359035  0.7528835842274600  0.2506501982818810
 
             NaN             NaN             NaN
             NaN             NaN             NaN
             NaN             NaN             NaN
             NaN             NaN             NaN
             NaN             NaN             NaN
             NaN             NaN             NaN
             NaN             NaN             NaN
             NaN             NaN             NaN
             NaN             NaN             NaN
             NaN             NaN             NaN
             NaN             NaN             NaN
             NaN             NaN             NaN
             NaN             NaN             NaN
             NaN             NaN             NaN
             NaN             NaN             NaN
             NaN             NaN             NaN
             NaN             NaN             NaN
             NaN             NaN             NaN
             NaN             NaN             NaN
             NaN             NaN             NaN
             NaN             NaN             NaN
             NaN             NaN             NaN
             NaN             NaN             NaN
             NaN             NaN             NaN
             NaN             NaN             NaN
             NaN             NaN             NaN
             NaN             NaN             NaN
             NaN             NaN             NaN
             NaN             NaN             NaN
             NaN             NaN             NaN
             NaN             NaN             NaN
             NaN             NaN             NaN
             NaN             NaN             NaN
             NaN             NaN             NaN
             NaN             NaN             NaN
             NaN             NaN             NaN
             NaN             NaN             NaN
             NaN             NaN             NaN
             NaN             NaN             NaN
             NaN             NaN             NaN
             NaN             NaN             NaN
             NaN             NaN             NaN
             NaN             NaN             NaN
             NaN             NaN             NaN
             NaN             NaN             NaN
             NaN             NaN             NaN
             NaN             NaN             NaN
             NaN             NaN             NaN
             NaN             NaN             NaN
