Mg1 Ti16 S32
1.0
10.034490 -0.022218 -0.010582
-0.022220 10.034843 0.010572
-0.010244 0.010399 10.057067
Mg Ti S
1 16 32
direct
0.437602 0.312404 0.749761 Mg
0.248503 0.751002 0.003133 Ti
0.501423 -0.004587 0.005907 Ti
0.754598 0.248559 0.005891 Ti
0.998993 0.501472 0.003121 Ti
0.500512 0.249524 0.250027 Ti
0.248639 0.501351 0.250572 Ti
0.245756 0.249268 0.492426 Ti
0.500729 0.504264 0.492449 Ti
0.501553 0.751455 0.750056 Ti
0.754962 0.504812 0.750009 Ti
0.751303 0.750945 0.498692 Ti
0.245186 -0.004960 0.750009 Ti
0.751404 -0.001397 0.249557 Ti
0.998547 0.248444 0.750039 Ti
0.999509 0.750473 0.250047 Ti
0.999065 0.998686 0.498678 Ti
0.747253 0.002733 0.004160 S
0.003239 0.746736 0.003982 S
0.002219 0.003287 0.746443 S
0.746709 0.747787 0.746458 S
0.254505 0.995734 0.995263 S
0.998032 0.253770 0.994799 S
0.997029 0.996153 0.254134 S
0.250572 0.254138 0.253639 S
0.746284 0.504863 0.504745 S
0.002046 0.246084 0.505269 S
1.001588 0.504675 0.246227 S
0.750392 0.244420 0.246136 S
0.253965 0.496034 0.497260 S
0.996370 0.753619 0.496313 S
0.997802 0.495933 0.754045 S
0.254058 0.752200 0.754041 S
0.245150 0.003706 0.504738 S
0.503906 0.747972 0.505283 S
0.505576 -0.000331 0.246154 S
0.245289 0.748385 0.246218 S
0.753846 0.996162 0.495592 S
0.493837 0.256184 0.500204 S
0.495224 0.996150 0.754391 S
0.753853 0.254767 0.754373 S
0.245121 0.504875 1.003173 S
0.506764 0.243250 -0.000376 S
0.505054 0.504455 0.745240 S
0.245553 0.244942 0.745237 S
0.754271 0.495475 0.995256 S
0.496206 0.751980 0.994815 S
0.495886 0.499462 0.253636 S
0.753811 0.752977 0.254145 S
