Mg8 Sc16 Se32                           
   1.00000000000000     
    11.2070482474296007    0.0000008727624099    0.0000016945611817
     0.0000008320138517   11.2070458435956049    0.0000001160539880
     0.0000017178792233    0.0000001069972476   11.2070482226418093
   Mg   Sc   Se
     7    16    32
Direct
  0.6225787203594564  0.6225787530647011  0.6225787536399139
  0.6225787382184151  0.1274212956227032  0.1274212619908184
  0.1274212548012343  0.6225787740952242  0.1274212621133017
  0.1274212800695622  0.1274212841073137  0.6225787672813112
  0.3749999882174819  0.8749999669088666  0.8749999910320341
  0.8749999950370011  0.3749999763330507  0.8750000014955290
  0.8750000099142099  0.8749999650661806  0.3749999719420387
  0.9998751898084848  0.7501248084920817  0.7501248122801343
  0.7501247964677589  0.9998752146902632  0.7501248051194480
  0.7501247905414559  0.7501248170330399  0.9998752108854490
  0.9998752337028023  0.9998752270181299  0.9998752400125426
  0.0063782725849322  0.2503502751431839  0.2503502509206399
  0.2503502570515224  0.0063783279589416  0.2503502546755740
  0.2503502358602887  0.2503502452463024  0.0063783157832376
  0.7436216643078239  0.4996497412480423  0.2503502690972681
  0.7436217178641726  0.2503502491169556  0.4996497702188520
  0.0063783207247354  0.4996497376729394  0.4996497402249389
  0.2503501951937892  0.4996497868753238  0.7436216911382232
  0.2503502141056799  0.7436217225086921  0.4996497552828316
  0.4996497490714020  0.7436217022092677  0.2503502284146109
  0.4996497843455003  0.0063782704910551  0.4996497903770489
  0.4996497535301145  0.2503502272041445  0.7436216756710294
  0.4996497899309773  0.4996497718541590  0.0063782660338489
  0.7569658294722643  0.9930341753980514  0.9930341815061396
  0.9930341869136186  0.7569658278037252  0.9930341840642711
  0.9930341935724982  0.9930341735365431  0.7569658216221669
  0.7569658051936727  0.7569658217234263  0.7569658176298901
  0.2419127512993740  0.0071743727612272  0.0071743548339853
  0.0071743554002310  0.2419127627092763  0.0071743535809361
  0.0071743588051447  0.0071743737955074  0.2419127826442988
  0.2439056957183041  0.2439057056906577  0.2439057107080558
  0.7600049804134272  0.4928619256655580  0.4928619560248322
  0.9899950313232182  0.2571380451867498  0.4928619736711894
  0.9899950162903295  0.4928619442865525  0.2571380385077973
  0.7600049626423981  0.2571380454579568  0.2571380383355546
  0.2439057209598730  0.5060943225594627  0.5060942706197480
  0.0071743396667117  0.7428256390441561  0.5080872312333256
  0.0071743292016109  0.5080872738212463  0.7428256477060984
  0.2419127373228918  0.7428256655040713  0.7428256621700271
  0.2571380757346873  0.9899950215154050  0.4928619523025120
  0.4928619359273796  0.7600049655222278  0.4928619454952852
  0.4928619538871786  0.9899950171309797  0.2571380568750001
  0.2571380414981661  0.7600049756590082  0.2571380335294506
  0.7428256612452770  0.0071743693349404  0.5080872318414293
  0.5060943069766068  0.2439056811994860  0.5060942767487120
  0.5080872664924456  0.0071743433821041  0.7428256672783462
  0.7428256571418217  0.2419127556244192  0.7428256644394011
  0.2571380635404736  0.4928619414382283  0.9899950247504634
  0.4928619597286357  0.2571380612561143  0.9899950192768259
  0.4928619308339606  0.4928619336012687  0.7600049570828062
  0.2571380334445763  0.2571380602883337  0.7600049643920244
  0.7428256468765468  0.5080872820764810  0.0071743530320703
  0.5080872622881571  0.7428256502469850  0.0071743221377361
  0.5060942743118986  0.5060943077699065  0.2439057027215910
  0.7428256541773450  0.7428256481457467  0.2419127707094404
 
  0.00000000E+00  0.00000000E+00  0.00000000E+00
  0.00000000E+00  0.00000000E+00  0.00000000E+00
  0.00000000E+00  0.00000000E+00  0.00000000E+00
  0.00000000E+00  0.00000000E+00  0.00000000E+00
  0.00000000E+00  0.00000000E+00  0.00000000E+00
  0.00000000E+00  0.00000000E+00  0.00000000E+00
  0.00000000E+00  0.00000000E+00  0.00000000E+00
  0.00000000E+00  0.00000000E+00  0.00000000E+00
  0.00000000E+00  0.00000000E+00  0.00000000E+00
  0.00000000E+00  0.00000000E+00  0.00000000E+00
  0.00000000E+00  0.00000000E+00  0.00000000E+00
  0.00000000E+00  0.00000000E+00  0.00000000E+00
  0.00000000E+00  0.00000000E+00  0.00000000E+00
  0.00000000E+00  0.00000000E+00  0.00000000E+00
  0.00000000E+00  0.00000000E+00  0.00000000E+00
  0.00000000E+00  0.00000000E+00  0.00000000E+00
  0.00000000E+00  0.00000000E+00  0.00000000E+00
  0.00000000E+00  0.00000000E+00  0.00000000E+00
  0.00000000E+00  0.00000000E+00  0.00000000E+00
  0.00000000E+00  0.00000000E+00  0.00000000E+00
  0.00000000E+00  0.00000000E+00  0.00000000E+00
  0.00000000E+00  0.00000000E+00  0.00000000E+00
  0.00000000E+00  0.00000000E+00  0.00000000E+00
  0.00000000E+00  0.00000000E+00  0.00000000E+00
  0.00000000E+00  0.00000000E+00  0.00000000E+00
  0.00000000E+00  0.00000000E+00  0.00000000E+00
  0.00000000E+00  0.00000000E+00  0.00000000E+00
  0.00000000E+00  0.00000000E+00  0.00000000E+00
  0.00000000E+00  0.00000000E+00  0.00000000E+00
  0.00000000E+00  0.00000000E+00  0.00000000E+00
  0.00000000E+00  0.00000000E+00  0.00000000E+00
  0.00000000E+00  0.00000000E+00  0.00000000E+00
  0.00000000E+00  0.00000000E+00  0.00000000E+00
  0.00000000E+00  0.00000000E+00  0.00000000E+00
  0.00000000E+00  0.00000000E+00  0.00000000E+00
  0.00000000E+00  0.00000000E+00  0.00000000E+00
  0.00000000E+00  0.00000000E+00  0.00000000E+00
  0.00000000E+00  0.00000000E+00  0.00000000E+00
  0.00000000E+00  0.00000000E+00  0.00000000E+00
  0.00000000E+00  0.00000000E+00  0.00000000E+00
  0.00000000E+00  0.00000000E+00  0.00000000E+00
  0.00000000E+00  0.00000000E+00  0.00000000E+00
  0.00000000E+00  0.00000000E+00  0.00000000E+00
  0.00000000E+00  0.00000000E+00  0.00000000E+00
  0.00000000E+00  0.00000000E+00  0.00000000E+00
  0.00000000E+00  0.00000000E+00  0.00000000E+00
  0.00000000E+00  0.00000000E+00  0.00000000E+00
  0.00000000E+00  0.00000000E+00  0.00000000E+00
  0.00000000E+00  0.00000000E+00  0.00000000E+00
  0.00000000E+00  0.00000000E+00  0.00000000E+00
  0.00000000E+00  0.00000000E+00  0.00000000E+00
  0.00000000E+00  0.00000000E+00  0.00000000E+00
  0.00000000E+00  0.00000000E+00  0.00000000E+00
  0.00000000E+00  0.00000000E+00  0.00000000E+00
  0.00000000E+00  0.00000000E+00  0.00000000E+00
