Li47 P16 O64
1.0
10.452418 -0.001584 -0.013307
-0.001823 12.219084 -0.002944
-0.012566 -0.002367 9.835527
Li P O
47 16 64
direct
0.543397 0.310726 0.097580 Li
0.664454 0.251143 0.600349 Li
0.663639 0.750237 0.097266 Li
0.664033 0.751421 0.598445 Li
0.164972 0.497701 0.151611 Li
0.164497 0.498869 0.652238 Li
0.164018 0.997234 0.152665 Li
0.164725 0.998753 0.652267 Li
0.336567 0.000928 0.401290 Li
0.336843 0.001194 0.904719 Li
0.338187 0.499438 0.399156 Li
0.337933 0.497742 0.906012 Li
0.833239 0.249159 0.344848 Li
0.833963 0.248968 0.851588 Li
0.836108 0.748614 0.347712 Li
0.836201 0.748890 0.847720 Li
0.337894 0.250730 0.399563 Li
0.337789 0.250907 0.905623 Li
0.336798 0.749223 0.400980 Li
0.336653 0.749316 0.903857 Li
0.836499 0.001929 0.347316 Li
0.836454 0.001761 0.848047 Li
0.834089 0.500615 0.347803 Li
0.834183 0.500166 0.848989 Li
0.659131 0.494569 0.096474 Li
0.664631 0.501361 0.597903 Li
0.664729 1.001587 0.098986 Li
0.663858 1.000575 0.598125 Li
0.164447 0.250970 0.150768 Li
0.164396 0.251037 0.652290 Li
0.164583 0.750602 0.151884 Li
0.164422 0.751136 0.652598 Li
0.920152 0.374268 0.147875 Li
0.922592 0.374657 0.649020 Li
0.923034 0.875388 0.148953 Li
0.923647 0.875405 0.648807 Li
0.424230 0.375482 0.604065 Li
0.426845 0.875451 0.101456 Li
0.424756 0.875611 0.600716 Li
0.076665 0.125593 0.349267 Li
0.077276 0.125309 0.852440 Li
0.076404 0.624057 0.350572 Li
0.076852 0.624094 0.851864 Li
0.576130 0.127987 0.396189 Li
0.576314 0.129020 0.905585 Li
0.576048 0.624133 0.399485 Li
0.574869 0.623610 0.899055 Li
0.913354 0.125028 0.095618 P
0.912998 0.124917 0.595249 P
0.911128 0.624947 0.095293 P
0.912597 0.625388 0.595431 P
0.409230 0.121186 0.154265 P
0.411505 0.124582 0.654849 P
0.410804 0.626772 0.153917 P
0.410930 0.626161 0.654817 P
0.087553 0.375244 0.404656 P
0.087208 0.375035 0.904614 P
0.087813 0.874608 0.405083 P
0.088034 0.874546 0.904846 P
0.589463 0.376270 0.348730 P
0.587329 0.374632 0.839172 P
0.589642 0.875161 0.345525 P
0.589204 0.875443 0.845189 P
0.843132 0.021507 0.146952 O
0.842655 0.021618 0.646262 O
0.840191 0.522559 0.146359 O
0.842807 0.522896 0.648050 O
0.335736 0.220239 0.099525 O
0.340873 0.227084 0.602577 O
0.343214 0.732646 0.105639 O
0.341479 0.729847 0.603181 O
0.157456 0.272268 0.352962 O
0.157308 0.272162 0.852895 O
0.157744 0.771516 0.353499 O
0.158243 0.771428 0.853624 O
0.659355 0.479747 0.403070 O
0.656191 0.477375 0.895638 O
0.659215 0.978468 0.397402 O
0.659664 0.978011 0.897171 O
0.158094 0.478250 0.353544 O
0.157430 0.478016 0.852972 O
0.157780 0.977596 0.354086 O
0.158586 0.977358 0.853671 O
0.659383 0.273102 0.402287 O
0.656272 0.270871 0.886179 O
0.659375 0.772060 0.398074 O
0.658773 0.771672 0.896011 O
0.846892 0.227877 0.148076 O
0.843637 0.227517 0.647791 O
0.841652 0.728538 0.146505 O
0.842489 0.728696 0.646471 O
0.340145 0.015416 0.107083 O
0.341745 0.020963 0.602835 O
0.336777 0.527902 0.100237 O
0.340744 0.523903 0.601441 O
0.546793 0.119736 0.102307 O
0.549905 0.124714 0.602339 O
0.549391 0.626102 0.101135 O
0.549934 0.627040 0.603881 O
0.053064 0.122450 0.146128 O
0.051901 0.124075 0.647449 O
0.049881 0.624831 0.147795 O
0.051468 0.625685 0.647452 O
0.451109 0.375469 0.403161 O
0.447108 0.374382 0.882035 O
0.450795 0.874950 0.396996 O
0.450486 0.875126 0.896712 O
0.948734 0.375907 0.352942 O
0.948390 0.375216 0.852106 O
0.948968 0.874628 0.352936 O
0.949508 0.874744 0.851654 O
0.592130 0.378642 0.194698 O
0.592925 0.378629 0.682639 O
0.591918 0.874606 0.188828 O
0.590122 0.875701 0.688169 O
0.087176 0.375145 0.061331 O
0.088682 0.375105 0.561738 O
0.087770 0.873926 0.061582 O
0.088688 0.874487 0.562011 O
0.409092 0.124300 0.311719 O
0.410361 0.124202 0.811559 O
0.411488 0.625576 0.311169 O
0.409212 0.625546 0.811601 O
0.911946 0.125208 0.438359 O
0.912045 0.124303 0.938357 O
0.911434 0.625028 0.438537 O
0.910801 0.625126 0.938256 O
