Li16 Co18 O36                           
   1.00000000000000     
     8.1674650000000000   -0.0042730000000000    2.4395579999999999
     3.7218429999999998    7.2702920000000004    2.4397250000000001
     0.0237340000000000    0.0147830000000000   10.0012209999999993
   Li   Co   O 
    16    18    36
Direct
  0.2408534403054363  0.5742449542318286  0.5222376181616181
  0.3346573188751757  0.3321259276732642  0.0013505880455523
  0.3335475771802998  0.6668872429344495  0.9999955717227480
  0.3331882189987977  0.9999247272595229  0.0009137600294736
  0.3327252851012361  0.0010762136076868  0.5015062242927231
  0.6672330356065512  0.3337187975566800  0.9990989773739470
  0.6501676944097425  0.3417194748970526  0.4994318598321406
  0.6665854024749812  0.6665215115350225  0.0009167181744754
  0.6677495299081403  0.6660502095417076  0.5015065463077661
  0.6666018985379930  0.9999458794461457  1.0008735372026101
  0.6668868151025420  1.0002146228903070  0.5013356667259271
  0.9992303334824767  0.3325710746455210  0.0011147116664598
  0.0191863711026580  0.3525055945087127  0.5005874922720178
  0.9987830312704974  0.6679990995166262  0.0013543785180481
  0.0003737853914254  0.0005784194870824  0.9990985786655429
  0.0083138827935416  0.9836632091491467  0.4994235161466304
  0.1661696460138417  0.1668401003424756  0.2467445230396839
  0.1684619620188659  0.1671311204729004  0.7521782222510497
  0.1660094716689973  0.4993394001903154  0.2464747308766183
  0.1653000108176818  0.4986940251778400  0.7599404833901370
  0.1658161611957938  0.8346659703106066  0.2464643930454677
  0.1681097371250859  0.8335086595631978  0.7528532455409551
  0.4990515109962131  0.1664336806872500  0.2506771550525171
  0.5001468992387474  0.1667229191901322  0.7520916696990549
  0.5013262562984130  0.4991509919733207  0.2464649144750788
  0.5001307894960297  0.5014815664628214  0.7528524392609490
  0.4987994231171414  0.8321042175149014  0.2509372307194092
  0.4997439005389153  0.8331119055391094  0.7558911756221363
  0.8337729213508296  0.1670840320955424  0.2460303728699255
  0.8345990733550042  0.1679761701290141  0.7495054603264633
  0.8335324915206228  0.4994777694278480  0.2467493469369527
  0.8337707995935564  0.5018203114812440  0.7521799496298014
  0.8331252501553678  0.8323610116938189  0.2506757303718425
  0.8333537295705845  0.8335251428497709  0.7520922840256021
  0.2512458462206406  0.2533708301530675  0.3522695938449552
  0.2549483659426749  0.2507248883730948  0.8635251707813604
  0.2562285567391441  0.5895582873491109  0.3398127891223993
  0.2542865294380068  0.5876634378685666  0.8640800365064768
  0.2509335736918993  0.9233820486238959  0.3530141260786778
  0.2515867798019627  0.9209454043052057  0.8630944412939093
  0.5912559374992846  0.2534264050154095  0.3521669574912381
  0.5888661582006841  0.2533298268055140  0.8593330047789836
  0.5900702104082256  0.5842388851151677  0.3530165554494933
  0.5875893901962339  0.5849405915029964  0.8630927822712046
  0.5859285070664747  0.9192256901818716  0.3595863418243815
  0.5879541582127962  0.9213145918721617  0.8624521426700930
  0.9202538355114429  0.2535519339331368  0.3525835169229698
  0.9204220521134400  0.2537836986674670  0.8590471327300427
  0.9200626379381948  0.5845521405737392  0.3522742802464566
  0.9173546043459475  0.5883214754695890  0.8635274609937807
  0.9201098583796842  0.9245724198927123  0.3521683470387161
  0.9199582060739333  0.9222398149099119  0.8593360488236004
  0.0803887759131870  0.0806450057449403  0.1367480815228518
  0.0823164894995969  0.0800837487123871  0.6435062202615405
  0.0801382334762818  0.4134545314817280  0.1370922235284220
  0.0803104505911942  0.4136824534952881  0.6516803469210315
  0.0772854401661019  0.7478900607752932  0.1387641962498732
  0.0800727934849770  0.7448622988453800  0.6510644919266120
  0.4142898285377959  0.0784903745392318  0.1416017871983077
  0.4149164222512159  0.0745721745997785  0.6496385971858708
  0.4145626481122209  0.4106088467789514  0.1387664872412308
  0.4114655764553995  0.4134590814854491  0.6510647878576172
  0.4143542708377239  0.7476824943783553  0.1390683504833737
  0.4146844618497973  0.7480602454708560  0.6497923676700944
  0.7452951462402290  0.0786126566796461  0.1407581977250848
  0.7467644039068916  0.0801528214900832  0.6426853295976054
  0.7473124633300781  0.4137123275529519  0.1367557449018214
  0.7466988966306719  0.4156975920996330  0.6435106257016320
  0.7451796262562324  0.7475953635047811  0.1416031818149786
  0.7412019569332677  0.7482870773499487  0.6496424307434436
 
             NaN             NaN             NaN
             NaN             NaN             NaN
             NaN             NaN             NaN
             NaN             NaN             NaN
             NaN             NaN             NaN
             NaN             NaN             NaN
             NaN             NaN             NaN
             NaN             NaN             NaN
             NaN             NaN             NaN
             NaN             NaN             NaN
             NaN             NaN             NaN
             NaN             NaN             NaN
             NaN             NaN             NaN
             NaN             NaN             NaN
             NaN             NaN             NaN
             NaN             NaN             NaN
             NaN             NaN             NaN
             NaN             NaN             NaN
             NaN             NaN             NaN
             NaN             NaN             NaN
             NaN             NaN             NaN
             NaN             NaN             NaN
             NaN             NaN             NaN
             NaN             NaN             NaN
             NaN             NaN             NaN
             NaN             NaN             NaN
             NaN             NaN             NaN
             NaN             NaN             NaN
             NaN             NaN             NaN
             NaN             NaN             NaN
             NaN             NaN             NaN
             NaN             NaN             NaN
             NaN             NaN             NaN
             NaN             NaN             NaN
             NaN             NaN             NaN
             NaN             NaN             NaN
             NaN             NaN             NaN
             NaN             NaN             NaN
             NaN             NaN             NaN
             NaN             NaN             NaN
             NaN             NaN             NaN
             NaN             NaN             NaN
             NaN             NaN             NaN
             NaN             NaN             NaN
             NaN             NaN             NaN
             NaN             NaN             NaN
             NaN             NaN             NaN
             NaN             NaN             NaN
             NaN             NaN             NaN
             NaN             NaN             NaN
             NaN             NaN             NaN
             NaN             NaN             NaN
             NaN             NaN             NaN
             NaN             NaN             NaN
             NaN             NaN             NaN
             NaN             NaN             NaN
             NaN             NaN             NaN
             NaN             NaN             NaN
             NaN             NaN             NaN
             NaN             NaN             NaN
             NaN             NaN             NaN
             NaN             NaN             NaN
             NaN             NaN             NaN
             NaN             NaN             NaN
             NaN             NaN             NaN
             NaN             NaN             NaN
             NaN             NaN             NaN
             NaN             NaN             NaN
             NaN             NaN             NaN
             NaN             NaN             NaN
