Li16 Co18 O36
1.0
8.167465 -0.004273 2.439558
3.721843 7.270292 2.439725
0.023734 0.014783 10.001221
Li Co O
16 18 36
direct
0.232317 0.565674 0.553137 Li
0.333409 0.333228 0.000025 Li
0.333533 0.666856 0.999621 Li
0.332514 0.999893 0.000495 Li
0.332351 0.009278 0.501405 Li
0.666781 0.334103 0.999536 Li
0.657308 0.334320 0.498570 Li
0.666524 0.665855 0.000491 Li
0.675963 0.665666 0.501397 Li
0.666677 0.999977 0.999993 Li
0.666682 0.999981 0.499971 Li
0.999775 0.333110 0.000412 Li
0.023530 0.356854 0.499471 Li
0.999903 0.666739 0.000003 Li
0.000807 0.000118 0.999519 Li
0.000982 0.990711 0.498559 Li
0.166262 0.166462 0.247964 Co
0.167494 0.166625 0.751879 Co
0.166403 0.499697 0.250097 Co
0.166945 0.500300 0.749934 Co
0.165856 0.833402 0.248105 Co
0.167080 0.833548 0.752029 Co
0.499210 0.166607 0.250500 Co
0.500013 0.167506 0.749494 Co
0.500087 0.499149 0.248119 Co
0.500181 0.500458 0.752023 Co
0.499212 0.832501 0.250766 Co
0.499282 0.832681 0.754695 Co
0.834049 0.167334 0.245291 Co
0.834128 0.167499 0.749235 Co
0.833158 0.499543 0.247986 Co
0.833245 0.500867 0.751881 Co
0.833321 0.832494 0.250512 Co
0.834125 0.833391 0.749497 Co
0.252054 0.252563 0.353107 O
0.254808 0.253595 0.859340 O
0.256382 0.589695 0.346923 O
0.253301 0.586660 0.860097 O
0.251870 0.920189 0.356016 O
0.251995 0.919671 0.862818 O
0.592333 0.252652 0.351357 O
0.588052 0.252945 0.858027 O
0.586859 0.585162 0.356036 O
0.586252 0.585423 0.862814 O
0.586504 0.919773 0.358776 O
0.587906 0.921286 0.859772 O
0.919875 0.253118 0.352846 O
0.919624 0.252958 0.859156 O
0.919305 0.585341 0.353121 O
0.920235 0.588146 0.859331 O
0.919418 0.925584 0.351352 O
0.919616 0.921392 0.858039 O
0.081315 0.080396 0.137159 O
0.081461 0.079852 0.643982 O
0.080023 0.413336 0.139929 O
0.076980 0.410313 0.653071 O
0.078536 0.746406 0.140674 O
0.081281 0.747447 0.646904 O
0.413762 0.078584 0.141936 O
0.413938 0.074409 0.648616 O
0.413095 0.411824 0.140685 O
0.414082 0.414675 0.646894 O
0.413741 0.747052 0.140848 O
0.413465 0.746856 0.647154 O
0.745412 0.078707 0.140219 O
0.746827 0.080210 0.641241 O
0.747070 0.414610 0.137172 O
0.746462 0.414852 0.644009 O
0.745293 0.747029 0.141978 O
0.741007 0.747357 0.648620 O
