Li47 P16 O64                            
   1.00000000000000     
    10.4583560000000002   -0.0019800000000000   -0.0127470000000000
    -0.0022790000000000   12.2101319999999998   -0.0036800000000000
    -0.0120290000000000   -0.0029590000000000    9.8369540000000004
   Li   P    O 
    47    16    64
Direct
  0.4990716018147002  0.3032178961089141  0.0744202658438043
  0.6641277217350520  0.2521442232221957  0.6007017897129239
  0.6638455309454084  0.7512681932631968  0.0976643398650080
  0.6642192056550420  0.7521170224130116  0.5984087768096346
  0.1655056761548660  0.4974568460618071  0.1521344570559788
  0.1648215789689751  0.4989879218934369  0.6521398831480931
  0.1634699712057397  0.9950032569470676  0.1533213729380248
  0.1640700702858626  0.9987401369285447  0.6524275209864581
  0.3355919800334295  0.0001079542937175  0.4033531203434323
  0.3367129293239935  0.0003168190137900  0.9030609434082788
  0.3383841195488042  0.4998368198431178  0.3969508981771605
  0.3388692008553641  0.4964530055377481  0.9112071987894118
  0.8326083972757011  0.2491203974528034  0.3426015516113903
  0.8348886122974246  0.2491055218868868  0.8554280677993159
  0.8361441571493144  0.7487163790837345  0.3476117819013078
  0.8362859611332356  0.7489039655338549  0.8478942880514875
  0.3373334042592029  0.2506198563943650  0.3997218930000697
  0.3322646915743028  0.2493306933044842  0.8996589277924452
  0.3367963160627364  0.7492798474705021  0.4011750314594142
  0.3365301778652488  0.7488575120471234  0.9047163159767313
  0.8367534718729391  0.0023558726227855  0.3471379698875627
  0.8369125145593631  0.0016899200005753  0.8486810590973668
  0.8345942496154928  0.5006994115822997  0.3484196988655993
  0.8357927991058117  0.5008896404847936  0.8489718952276191
  0.6605404476867117  0.4965152620946447  0.0970207210181219
  0.6641423015219421  0.5023285162543131  0.5995332145642818
  0.6661510725529444  0.0051360989950938  0.1006479803627413
  0.6640885028608027  0.0008482516442362  0.5977199603142397
  0.1647868216102871  0.2515465864625890  0.1506402070661172
  0.1631636008671409  0.2505937970594635  0.6515269131310762
  0.1653600886089891  0.7503898423889460  0.1520758380205534
  0.1643131229853893  0.7511753828319269  0.6528227477827054
  0.9194231636632506  0.3739826991971054  0.1474827200912004
  0.9230399842460896  0.3742818910375991  0.6490903931810961
  0.9233051176139501  0.8756108923789047  0.1490061128856476
  0.9236678905194617  0.8755478783622097  0.6489513065469587
  0.4228749059213626  0.3761779470617089  0.5992743516655183
  0.4273900530688641  0.8753489895334841  0.1010217787452742
  0.4249426541787899  0.8752816409239325  0.6013202890026532
  0.0758968591985497  0.1256817841297761  0.3479016485805136
  0.0761934710425133  0.1246010438151366  0.8524740293351489
  0.0763684189867033  0.6239710459325279  0.3503077080251206
  0.0776547789194903  0.6239667054430584  0.8520806652892650
  0.5765569776956395  0.1288619201058352  0.3956051831419403
  0.5803432930739729  0.1279489717242442  0.9045013661767261
  0.5761454484074178  0.6247591213393666  0.4004094067449204
  0.5744739551355796  0.6244310764152172  0.8993330167742838
  0.9162689985591893  0.1251328654605997  0.0960164768978406
  0.9123762675866650  0.1251700719168378  0.5954996527672520
  0.9117037733642391  0.6253729304705032  0.0954465833834163
  0.9127081337079390  0.6254639483974147  0.5955307626085148
  0.4072320647020848  0.1184971541306225  0.1544215664723514
  0.4118573749275333  0.1247787567676826  0.6550929957009124
  0.4107781543808611  0.6282991096975159  0.1543537274150377
  0.4107322267751783  0.6259777315338820  0.6551764306617174
  0.0874672575161015  0.3753957264149853  0.4048189253364998
  0.0870198196140870  0.3752202429687682  0.9046401147009626
  0.0876286215685179  0.8743485711937223  0.4053549605615509
  0.0880655100454558  0.8741486284110808  0.9047761915681872
  0.5896701831228598  0.3774294848293303  0.3499256536846297
  0.5889409976353664  0.3749890202209126  0.8389155401834298
  0.5895217820673369  0.8759962960290063  0.3455494341867047
  0.5894696920066804  0.8756888125521738  0.8453526876567579
  0.8452632504376651  0.0217647307026685  0.1477766692233295
  0.8422460695024825  0.0216467391354785  0.6464834998844602
  0.8406266269971604  0.5230970428038683  0.1466977639394768
  0.8429723885748238  0.5228291171483145  0.6481287876129991
  0.3373693588790723  0.2201343762636410  0.0987145272482561
  0.3406668316165368  0.2274657868880555  0.6037513936309105
  0.3445793901168136  0.7355210903207225  0.1073934108269491
  0.3412245027084579  0.7298142329293074  0.6039679479578391
  0.1573722117799254  0.2723031091269762  0.3528012264205164
  0.1558754016370783  0.2716801771641507  0.8522315867798214
  0.1576571702610866  0.7712973252329410  0.3537940269519532
  0.1585179766703200  0.7711512384255649  0.8534648728696131
  0.6593158386198698  0.4807135646384298  0.4048720311902307
  0.6576139490114208  0.4784069838469682  0.8932769977681131
  0.6590236433975303  0.9794254021127270  0.3974425184756578
  0.6598238717725251  0.9781916483500557  0.8979929674708172
  0.1581629384500755  0.4783826951195577  0.3538714678657378
  0.1584368424712386  0.4774723588004546  0.8526437606397553
  0.1577037061488113  0.9774068348763472  0.3545282088211152
  0.1586129400643540  0.9770713753194321  0.8535828593618330
  0.6593435276847128  0.2741097024201122  0.4028362326277777
  0.6578323091992951  0.2710846667492900  0.8845761491936803
  0.6595099039604707  0.7728517310956764  0.3975958671045150
  0.6589194146863995  0.7718555178526540  0.8959473361692021
  0.8540140569972888  0.2283366124464110  0.1501106079346833
  0.8431098003089466  0.2276904171218318  0.6487779884783325
  0.8420758050171870  0.7290462159362839  0.1464181252404931
  0.8424077182240211  0.7287539227917132  0.6465885136718044
  0.3385656990630284  0.0137274942197423  0.1063476352590015
  0.3417311044740528  0.0211499388006569  0.6037428350057151
  0.3343279008403932  0.5314863260489334  0.1008021953465402
  0.3410418710920387  0.5237355141934836  0.6007517494736520
  0.5440366673765685  0.1227313564908159  0.1008906985607794
  0.5498255455351777  0.1251938603675531  0.6017902185807857
  0.5492558553589955  0.6269106417239428  0.1007983770533888
  0.5498372744884219  0.6277201033415325  0.6047185567915304
  0.0571846751957580  0.1203496606628863  0.1437625345807258
  0.0512995812308073  0.1239708414647385  0.6475637541898885
  0.0502907824865394  0.6250795861900015  0.1480109293470991
  0.0514414012877300  0.6257836919569163  0.6476988149481592
  0.4511096778411802  0.3753909095863945  0.4034865870985734
  0.4513797253808400  0.3712905508405555  0.8943389265731545
  0.4509239959102992  0.8753463761619733  0.3976077465615313
  0.4506747400197925  0.8751651352270193  0.8964869050758519
  0.9486825826662028  0.3763583362644127  0.3539640227183375
  0.9484052896582380  0.3759648514830362  0.8521848362870993
  0.9489072571973627  0.8745295877704313  0.3533126381600313
  0.9497267260207932  0.8744945774757695  0.8514032370349665
  0.5921006577435128  0.3815371129762062  0.1960579568738095
  0.5870991104403439  0.3795384531073510  0.6824024710721636
  0.5916636412817528  0.8764628963630253  0.1888165163462642
  0.5904065035632190  0.8763426554101641  0.6883519404466202
  0.0873414219873585  0.3752202778440319  0.0611299893332060
  0.0891493148706649  0.3749807305547478  0.5619395540497470
  0.0876290287269701  0.8730752917255791  0.0614046772500586
  0.0885855562768313  0.8743308168430618  0.5622517806236391
  0.4072932182986435  0.1225506322917066  0.3115214801074303
  0.4116557169248255  0.1243553546428435  0.8119355162539362
  0.4127471726559038  0.6266089219877607  0.3117714492972313
  0.4086911198324975  0.6243235599128062  0.8119483728468727
  0.9114000916141947  0.1256968920836353  0.4386934235914554
  0.9128652619353301  0.1237243341924808  0.9386025087443066
  0.9116425212212371  0.6252196667926384  0.4387084569761726
  0.9115850410156275  0.6254720871254023  0.9384279608801280
 
             NaN             NaN             NaN
             NaN             NaN             NaN
             NaN             NaN             NaN
             NaN             NaN             NaN
             NaN             NaN             NaN
             NaN             NaN             NaN
             NaN             NaN             NaN
             NaN             NaN             NaN
             NaN             NaN             NaN
             NaN             NaN             NaN
             NaN             NaN             NaN
             NaN             NaN             NaN
             NaN             NaN             NaN
             NaN             NaN             NaN
             NaN             NaN             NaN
             NaN             NaN             NaN
             NaN             NaN             NaN
             NaN             NaN             NaN
             NaN             NaN             NaN
             NaN             NaN             NaN
             NaN             NaN             NaN
             NaN             NaN             NaN
             NaN             NaN             NaN
             NaN             NaN             NaN
             NaN             NaN             NaN
             NaN             NaN             NaN
             NaN             NaN             NaN
             NaN             NaN             NaN
             NaN             NaN             NaN
             NaN             NaN             NaN
             NaN             NaN             NaN
             NaN             NaN             NaN
             NaN             NaN             NaN
             NaN             NaN             NaN
             NaN             NaN             NaN
             NaN             NaN             NaN
             NaN             NaN             NaN
             NaN             NaN             NaN
             NaN             NaN             NaN
             NaN             NaN             NaN
             NaN             NaN             NaN
             NaN             NaN             NaN
             NaN             NaN             NaN
             NaN             NaN             NaN
             NaN             NaN             NaN
             NaN             NaN             NaN
             NaN             NaN             NaN
             NaN             NaN             NaN
             NaN             NaN             NaN
             NaN             NaN             NaN
             NaN             NaN             NaN
             NaN             NaN             NaN
             NaN             NaN             NaN
             NaN             NaN             NaN
             NaN             NaN             NaN
             NaN             NaN             NaN
             NaN             NaN             NaN
             NaN             NaN             NaN
             NaN             NaN             NaN
             NaN             NaN             NaN
             NaN             NaN             NaN
             NaN             NaN             NaN
             NaN             NaN             NaN
             NaN             NaN             NaN
             NaN             NaN             NaN
             NaN             NaN             NaN
             NaN             NaN             NaN
             NaN             NaN             NaN
             NaN             NaN             NaN
             NaN             NaN             NaN
             NaN             NaN             NaN
             NaN             NaN             NaN
             NaN             NaN             NaN
             NaN             NaN             NaN
             NaN             NaN             NaN
             NaN             NaN             NaN
             NaN             NaN             NaN
             NaN             NaN             NaN
             NaN             NaN             NaN
             NaN             NaN             NaN
             NaN             NaN             NaN
             NaN             NaN             NaN
             NaN             NaN             NaN
             NaN             NaN             NaN
             NaN             NaN             NaN
             NaN             NaN             NaN
             NaN             NaN             NaN
             NaN             NaN             NaN
             NaN             NaN             NaN
             NaN             NaN             NaN
             NaN             NaN             NaN
             NaN             NaN             NaN
             NaN             NaN             NaN
             NaN             NaN             NaN
             NaN             NaN             NaN
             NaN             NaN             NaN
             NaN             NaN             NaN
             NaN             NaN             NaN
             NaN             NaN             NaN
             NaN             NaN             NaN
             NaN             NaN             NaN
             NaN             NaN             NaN
             NaN             NaN             NaN
             NaN             NaN             NaN
             NaN             NaN             NaN
             NaN             NaN             NaN
             NaN             NaN             NaN
             NaN             NaN             NaN
             NaN             NaN             NaN
             NaN             NaN             NaN
             NaN             NaN             NaN
             NaN             NaN             NaN
             NaN             NaN             NaN
             NaN             NaN             NaN
             NaN             NaN             NaN
             NaN             NaN             NaN
             NaN             NaN             NaN
             NaN             NaN             NaN
             NaN             NaN             NaN
             NaN             NaN             NaN
             NaN             NaN             NaN
             NaN             NaN             NaN
             NaN             NaN             NaN
             NaN             NaN             NaN
             NaN             NaN             NaN
             NaN             NaN             NaN
             NaN             NaN             NaN
