Li47 P16 O64
1.0
10.458356 -0.001980 -0.012747
-0.002279 12.210132 -0.003680
-0.012029 -0.002959 9.836954
Li P O
47 16 64
direct
0.515591 0.325046 0.097662 Li
0.663909 0.251643 0.601009 Li
0.663733 0.750284 0.097175 Li
0.663959 0.751624 0.598441 Li
0.165007 0.497808 0.151754 Li
0.164273 0.498994 0.652194 Li
0.163902 0.996885 0.152856 Li
0.164591 0.998777 0.652184 Li
0.336449 0.000965 0.401509 Li
0.336943 0.001248 0.904602 Li
0.337784 0.499731 0.399657 Li
0.337866 0.498139 0.905104 Li
0.832722 0.249195 0.344283 Li
0.834146 0.248929 0.852139 Li
0.835986 0.748679 0.347659 Li
0.836146 0.748930 0.847784 Li
0.337417 0.250478 0.400167 Li
0.337686 0.250172 0.904619 Li
0.336739 0.749223 0.401122 Li
0.336706 0.749390 0.903525 Li
0.836475 0.002000 0.347164 Li
0.836462 0.001884 0.848193 Li
0.833785 0.500523 0.347977 Li
0.834420 0.499988 0.848890 Li
0.660258 0.494073 0.096279 Li
0.664130 0.501487 0.597952 Li
0.665095 1.001995 0.099325 Li
0.663740 1.000871 0.598041 Li
0.164351 0.250531 0.150701 Li
0.164148 0.250889 0.652259 Li
0.164608 0.750410 0.151880 Li
0.164212 0.751084 0.652598 Li
0.920511 0.374085 0.147891 Li
0.922815 0.374571 0.648941 Li
0.923251 0.875485 0.148875 Li
0.923570 0.875506 0.648881 Li
0.423361 0.375603 0.603109 Li
0.426502 0.875563 0.101408 Li
0.424819 0.875764 0.600785 Li
0.076370 0.125504 0.348959 Li
0.077156 0.125130 0.852447 Li
0.076044 0.624059 0.350591 Li
0.076626 0.624124 0.851727 Li
0.576102 0.128314 0.395336 Li
0.577021 0.129729 0.907142 Li
0.576000 0.624336 0.399456 Li
0.575216 0.623559 0.898979 Li
0.914014 0.125074 0.095688 P
0.912800 0.125057 0.595197 P
0.911231 0.624894 0.095282 P
0.912298 0.625325 0.595425 P
0.409269 0.121323 0.154333 P
0.411572 0.124603 0.654866 P
0.411237 0.626125 0.153898 P
0.410854 0.626325 0.654827 P
0.087485 0.375304 0.404671 P
0.087620 0.375044 0.904624 P
0.087784 0.874510 0.405123 P
0.088142 0.874433 0.904781 P
0.588743 0.376587 0.348705 P
0.587442 0.374540 0.839305 P
0.589549 0.875201 0.345435 P
0.589268 0.875554 0.845302 P
0.843603 0.021528 0.147042 O
0.842456 0.021711 0.646278 O
0.840458 0.522418 0.146456 O
0.842515 0.522717 0.647926 O
0.336767 0.221447 0.099859 O
0.340585 0.227174 0.603049 O
0.342955 0.731484 0.104966 O
0.341299 0.730057 0.603435 O
0.157296 0.272271 0.352812 O
0.157690 0.272097 0.852870 O
0.157780 0.771358 0.353526 O
0.158288 0.771225 0.853489 O
0.658865 0.480021 0.403042 O
0.656719 0.477278 0.895458 O
0.659130 0.978579 0.397176 O
0.659857 0.978022 0.897352 O
0.158093 0.478377 0.353539 O
0.157842 0.478126 0.852966 O
0.157825 0.977532 0.354259 O
0.158716 0.977256 0.853548 O
0.658900 0.273540 0.402064 O
0.656821 0.270530 0.883634 O
0.659330 0.772080 0.398015 O
0.658743 0.771582 0.895903 O
0.848834 0.228127 0.148603 O
0.843553 0.227799 0.647602 O
0.841752 0.728528 0.146482 O
0.842248 0.728681 0.646540 O
0.339119 0.016093 0.106772 O
0.341632 0.020956 0.603002 O
0.338067 0.526229 0.100749 O
0.340424 0.524059 0.601629 O
0.546433 0.119014 0.102606 O
0.549597 0.124902 0.601682 O
0.549680 0.625782 0.101141 O
0.549633 0.627291 0.603609 O
0.053931 0.121817 0.145612 O
0.051627 0.124115 0.647486 O
0.049951 0.624784 0.147696 O
0.051085 0.625585 0.647490 O
0.450425 0.375586 0.403358 O
0.447887 0.374227 0.885443 O
0.450779 0.874937 0.397012 O
0.450627 0.875157 0.896980 O
0.948725 0.376133 0.353269 O
0.948953 0.375270 0.852094 O
0.949080 0.874535 0.352868 O
0.949679 0.874680 0.851661 O
0.590054 0.379553 0.194707 O
0.590417 0.379537 0.682717 O
0.591611 0.874507 0.188767 O
0.589988 0.875876 0.688281 O
0.087793 0.375181 0.061309 O
0.088901 0.375131 0.561735 O
0.087959 0.873658 0.061490 O
0.088521 0.874358 0.562018 O
0.408519 0.124394 0.311769 O
0.410922 0.124143 0.811555 O
0.411514 0.625451 0.311081 O
0.409485 0.625542 0.811607 O
0.911858 0.125249 0.438340 O
0.912401 0.124244 0.938402 O
0.911217 0.625046 0.438562 O
0.910846 0.625043 0.938276 O
