Li47 P16 O64                            
   1.00000000000000     
    10.5647359999999999    0.0006840000000000   -0.0031430000000000
     0.0007980000000000   12.3443330000000007    0.0002960000000000
    -0.0029820000000000    0.0002290000000000    9.9798120000000008
   Li   P    O 
    47    16    64
Direct
  0.2172204798615723  0.3018227239162513  0.1628178237477849
  0.6591017939271537  0.2518040302047749  0.0975962969141330
  0.6676097635778406  0.2478000677339897  0.5989592133142536
  0.6595709393900077  0.7488026915699348  0.0975288466435162
  0.6641543882748016  0.7504917687213944  0.5993855999923527
  0.1581602864335999  0.5106606745663099  0.1481539397283330
  0.1655171062740775  0.5009436512019732  0.6505871950243024
  0.1644639318075205  1.0001941473815077  0.1494539300287145
  0.1642725642469070  1.0003369384461684  0.6516440978394128
  0.3372659298531804  0.0001854984618265  0.3991220839574522
  0.3371825853134248 -0.0008206687047324  0.9013298104372043
  0.3383305814517379  0.5002729497206221  0.3981157894469757
  0.3385881412545417  0.4972924425455402  0.9076577593156275
  0.8383088767623262  0.2490428827594315  0.3484003035004620
  0.8366803507704651  0.2495422080437852  0.8510725545956115
  0.8354524100548317  0.7488717401623156  0.3488843480238378
  0.8360860375423469  0.7497487127639600  0.8486367035981762
  0.3420656533752939  0.2473505352878176  0.4060929466327596
  0.3396794397231166  0.2501315752240867  0.9024929956533270
  0.3371518273899161  0.7488811192809198  0.4005589266266090
  0.3357593279846353  0.7482883752648589  0.9013459155162017
  0.8385725966518270  0.0021076494026973  0.3500413323232698
  0.8368786084830376  0.0010757408768946  0.8471066933896563
  0.8376868930397305  0.4999339322876462  0.3465929901669122
  0.8359661049995084  0.5011221424943817  0.8527311606725876
  0.6577953996978714  0.4959608499355060  0.0974685919121987
  0.6675882529965189  0.5008349836019099  0.5992805999868530
  0.6636608826517688  0.9954996605249816  0.0976023093851453
  0.6651617183538305  0.9978803085481111  0.5981100606508538
  0.1654257589333673  0.2520930762899259  0.6520838515464715
  0.1634395591673146  0.7545201231961594  0.1525269200218660
  0.1642807774414716  0.7525672222995881  0.6504804921518966
  0.9304642737238709  0.3718087622054638  0.1464487016792980
  0.9271670640225548  0.3754950587695843  0.6516945788127284
  0.9235989891918308  0.8744572382851041  0.1482341751349271
  0.9259565713314643  0.8755059256492610  0.6483541749443728
  0.4260880524549677  0.3752372367391574  0.6107630552827898
  0.4271065416321628  0.8733768621211736  0.1010652282434507
  0.4258736026643496  0.8745077029334777  0.6002656202200295
  0.0790038869563942  0.1317767969344263  0.3427778856643630
  0.0770002698022917  0.1271157757187251  0.8559047684605976
  0.0738020635517111  0.6285272288914022  0.3528434970791488
  0.0741241527994290  0.6263908775184409  0.8501387769806396
  0.5764484472091248  0.1236467339073886  0.3977092560994410
  0.5750277523277847  0.1233906972760359  0.8982717113464618
  0.5746617984706796  0.6241722943199843  0.3993356951733290
  0.5724822752622372  0.6234446622677697  0.8974480870906859
  0.9100003060055060  0.1237109933415760  0.0965151599747356
  0.9150443746535958  0.1260104016396050  0.5967193422893369
  0.9085839299007020  0.6268774760805170  0.0969238325995405
  0.9123428929425416  0.6254554808700499  0.5970293878994196
  0.4135668870797652  0.1203521483284014  0.1526577184740346
  0.4119965248804087  0.1233209030976922  0.6535462123104750
  0.4084303155226360  0.6267367852702624  0.1530163659954389
  0.4111809259202645  0.6247952505309233  0.6533929115603341
  0.0913037466817623  0.3778909527562751  0.4032239626628739
  0.0910811085846291  0.3773075997967186  0.9043132181618141
  0.0891343943158486  0.8769480333727411  0.4029663841583114
  0.0887826714642437  0.8756928441411050  0.9035039656469424
  0.5926480676810727  0.3740363060071974  0.3497659995361568
  0.5893141665046988  0.3741795684019738  0.8400048617557825
  0.5896059057324979  0.8741300343519536  0.3468863856801232
  0.5886926778726029  0.8734648139738520  0.8452001241998818
  0.8373961827196426  0.0196907201552436  0.1473256637214708
  0.8431207707912489  0.0224695812771149  0.6461844926238223
  0.8404334302362103  0.5220614575520587  0.1468621581057976
  0.8441913039591655  0.5220848082881593  0.6511920435043185
  0.3428234678523968  0.2190465411896695  0.0929555888203354
  0.3432626114704079  0.2273557809748742  0.6033774266753495
  0.3417641497604691  0.7330557651369703  0.1047544658712861
  0.3416795173074208  0.7282235094835640  0.6014031224475732
  0.1671879775965813  0.2775565781399438  0.3524798346010082
  0.1599306085959907  0.2744439252393117  0.8516927884627067
  0.1600387701725000  0.7733825889251605  0.3528904562927586
  0.1587936831920591  0.7724588984445071  0.8519816673760232
  0.6608269002723614  0.4778547576973740  0.4025392562519571
  0.6557375543644379  0.4772857554315748  0.8966762162328342
  0.6600852994824267  0.9771860133868476  0.3973943016359676
  0.6597353049554869  0.9764011756424832  0.8969649579827110
  0.1582354023607056  0.4823201673407739  0.3511228366039046
  0.1582871042180094  0.4802885108444661  0.8493985765579946
  0.1588881811602810  0.9797810890191850  0.3513291304690989
  0.1594840529381246  0.9789261888651120  0.8526884944350294
  0.6610960179558476  0.2703288350860474  0.4027720508769202
  0.6552826767380138  0.2707418553458671  0.8965790324070932
  0.6590226492720589  0.7707124419310811  0.3989337078617951
  0.6581747671715127  0.7696447127933699  0.8963428305122134
  0.8399121580945547  0.2280115989568587  0.1479208071894806
  0.8444749247227706  0.2289285190211664  0.6495952058973037
  0.8360781942438217  0.7290987979406049  0.1477011624243332
  0.8419604030483760  0.7284619211587176  0.6481594282160050
  0.3451175532593714  0.0156757345435193  0.1041390052701414
  0.3417717358873693  0.0210816404170896  0.6006832167576084
  0.3304380213851241  0.5294145327075914  0.0993038165884369
  0.3425185037894839  0.5217420594711344  0.5993251980139377
  0.5524132128537241  0.1206812243237974  0.1012327650677643
  0.5513188398431529  0.1233385373673137  0.6010877386034904
  0.5464082674923075  0.6235227263555803  0.0981841620460294
  0.5506986381873229  0.6249948072306658  0.6026721362319719
  0.0485059603081351  0.1209151389743770  0.1495357811716448
  0.0526519164197908  0.1257831545000244  0.6509327871358455
  0.0461599126667305  0.6306565540524970  0.1509553905504629
  0.0518715416268730  0.6268395878243140  0.6468328612870554
  0.4533675220913815  0.3740836552435578  0.3996843002361167
  0.4450760559917457  0.3742713625424700  0.8716165451141916
  0.4507812788235299  0.8747650259772290  0.3986845027107234
  0.4502659923250497  0.8735444739219803  0.8974743365990416
  0.9531444577518347  0.3741052881171950  0.3490792044263163
  0.9499834652663239  0.3755165574718615  0.8570143442580916
  0.9504718677029280  0.8751036966641303  0.3506577190796345
  0.9500642131645842  0.8757004588739226  0.8498224787812999
  0.5997227836283038  0.3738274116685696  0.1950948565022611
  0.6005974524643489  0.3743021518426737  0.6836813380694495
  0.5899693407534534  0.8729716719925276  0.1901616975918204
  0.5897869894138652  0.8743412616445112  0.6888091500875392
  0.0952224023173305  0.3808033292787752  0.0602222761578433
  0.0901505606287378  0.3773785104090420  0.5595874828340485
  0.0880315988740648  0.8757298323823962  0.0593477569195517
  0.0894624087705421  0.8770645907567900  0.5599327302199821
  0.4120232017854165  0.1248670069237812  0.3080218576679453
  0.4116280127118994  0.1222031520211420  0.8099632900668267
  0.4112283013809229  0.6251404447056986  0.3093876261403836
  0.4087627948298009  0.6241604971455426  0.8093750694490240
  0.9153268489203331  0.1269839459345169  0.4405157374935490
  0.9091481372632884  0.1241516326584340  0.9384300012641993
  0.9093736635343231  0.6242725973932982  0.4405078220110549
  0.9099055844955548  0.6266680677568314  0.9404603461376130
 
             NaN             NaN             NaN
             NaN             NaN             NaN
             NaN             NaN             NaN
             NaN             NaN             NaN
             NaN             NaN             NaN
             NaN             NaN             NaN
             NaN             NaN             NaN
             NaN             NaN             NaN
             NaN             NaN             NaN
             NaN             NaN             NaN
             NaN             NaN             NaN
             NaN             NaN             NaN
             NaN             NaN             NaN
             NaN             NaN             NaN
             NaN             NaN             NaN
             NaN             NaN             NaN
             NaN             NaN             NaN
             NaN             NaN             NaN
             NaN             NaN             NaN
             NaN             NaN             NaN
             NaN             NaN             NaN
             NaN             NaN             NaN
             NaN             NaN             NaN
             NaN             NaN             NaN
             NaN             NaN             NaN
             NaN             NaN             NaN
             NaN             NaN             NaN
             NaN             NaN             NaN
             NaN             NaN             NaN
             NaN             NaN             NaN
             NaN             NaN             NaN
             NaN             NaN             NaN
             NaN             NaN             NaN
             NaN             NaN             NaN
             NaN             NaN             NaN
             NaN             NaN             NaN
             NaN             NaN             NaN
             NaN             NaN             NaN
             NaN             NaN             NaN
             NaN             NaN             NaN
             NaN             NaN             NaN
             NaN             NaN             NaN
             NaN             NaN             NaN
             NaN             NaN             NaN
             NaN             NaN             NaN
             NaN             NaN             NaN
             NaN             NaN             NaN
             NaN             NaN             NaN
             NaN             NaN             NaN
             NaN             NaN             NaN
             NaN             NaN             NaN
             NaN             NaN             NaN
             NaN             NaN             NaN
             NaN             NaN             NaN
             NaN             NaN             NaN
             NaN             NaN             NaN
             NaN             NaN             NaN
             NaN             NaN             NaN
             NaN             NaN             NaN
             NaN             NaN             NaN
             NaN             NaN             NaN
             NaN             NaN             NaN
             NaN             NaN             NaN
             NaN             NaN             NaN
             NaN             NaN             NaN
             NaN             NaN             NaN
             NaN             NaN             NaN
             NaN             NaN             NaN
             NaN             NaN             NaN
             NaN             NaN             NaN
             NaN             NaN             NaN
             NaN             NaN             NaN
             NaN             NaN             NaN
             NaN             NaN             NaN
             NaN             NaN             NaN
             NaN             NaN             NaN
             NaN             NaN             NaN
             NaN             NaN             NaN
             NaN             NaN             NaN
             NaN             NaN             NaN
             NaN             NaN             NaN
             NaN             NaN             NaN
             NaN             NaN             NaN
             NaN             NaN             NaN
             NaN             NaN             NaN
             NaN             NaN             NaN
             NaN             NaN             NaN
             NaN             NaN             NaN
             NaN             NaN             NaN
             NaN             NaN             NaN
             NaN             NaN             NaN
             NaN             NaN             NaN
             NaN             NaN             NaN
             NaN             NaN             NaN
             NaN             NaN             NaN
             NaN             NaN             NaN
             NaN             NaN             NaN
             NaN             NaN             NaN
             NaN             NaN             NaN
             NaN             NaN             NaN
             NaN             NaN             NaN
             NaN             NaN             NaN
             NaN             NaN             NaN
             NaN             NaN             NaN
             NaN             NaN             NaN
             NaN             NaN             NaN
             NaN             NaN             NaN
             NaN             NaN             NaN
             NaN             NaN             NaN
             NaN             NaN             NaN
             NaN             NaN             NaN
             NaN             NaN             NaN
             NaN             NaN             NaN
             NaN             NaN             NaN
             NaN             NaN             NaN
             NaN             NaN             NaN
             NaN             NaN             NaN
             NaN             NaN             NaN
             NaN             NaN             NaN
             NaN             NaN             NaN
             NaN             NaN             NaN
             NaN             NaN             NaN
             NaN             NaN             NaN
             NaN             NaN             NaN
             NaN             NaN             NaN
             NaN             NaN             NaN
             NaN             NaN             NaN
