Na47 P16 S64
1.0
13.741517 -0.004285 0.000007
-0.004338 13.748974 -0.000634
-0.000118 -0.000301 14.196755
Na P S
47 16 64
direct
0.568692 0.747369 0.725385 Na
0.999800 0.250676 0.204835 Na
0.999113 0.250358 0.704394 Na
0.999108 0.750661 0.209549 Na
0.979384 0.752997 0.716153 Na
0.500202 0.249320 0.205280 Na
0.500882 0.249649 0.704975 Na
0.500877 0.749348 0.208938 Na
0.249238 0.999555 0.294172 Na
0.249007 0.998688 0.793671 Na
0.251062 0.500447 0.295733 Na
0.250580 0.501722 0.795156 Na
0.748959 0.998871 0.292114 Na
0.746789 0.978567 0.785469 Na
0.750743 0.501129 0.290562 Na
0.753644 0.521034 0.784000 Na
0.252634 0.999469 0.043687 Na
0.244871 0.998633 0.545097 Na
0.247487 0.500024 0.045756 Na
0.254961 0.502789 0.546995 Na
0.752794 0.999920 0.040312 Na
0.744570 0.998523 0.540706 Na
0.747073 0.500620 0.038259 Na
0.755613 0.500017 0.538802 Na
0.500180 0.252043 0.455394 Na
0.501809 0.246137 0.953555 Na
0.500261 0.752333 0.465071 Na
0.500462 0.745659 0.956929 Na
0.999803 0.247946 0.454510 Na
0.998223 0.253864 0.953320 Na
0.999748 0.747653 0.461844 Na
0.999533 0.754340 0.960411 Na
0.993772 0.996213 0.501709 Na
0.004298 0.008894 0.000809 Na
0.009632 0.495268 0.499114 Na
0.995984 0.503297 0.998214 Na
0.491135 0.003509 0.499363 Na
0.505699 0.995503 0.998541 Na
0.505443 0.505022 0.501963 Na
0.493997 0.492306 0.001144 Na
0.249728 0.250460 0.249986 Na
0.249697 0.250783 0.750061 Na
0.250487 0.749589 0.250642 Na
0.264386 0.749643 0.749199 Na
0.750286 0.249549 0.249236 Na
0.750286 0.249225 0.750798 Na
0.749497 0.750413 0.249903 Na
0.499693 0.499266 0.250126 P
0.500517 0.497764 0.752467 P
0.499243 0.000304 0.250275 P
0.497581 0.999833 0.747777 P
0.000984 0.499571 0.249969 P
0.002610 0.499596 0.747619 P
0.000100 0.000867 0.249817 P
0.999321 0.002803 0.752297 P
0.249932 0.250173 0.999933 P
0.249838 0.250346 0.500018 P
0.250168 0.749344 0.000972 P
0.249794 0.750811 0.499948 P
0.750095 0.249830 0.999751 P
0.750152 0.249638 0.498945 P
0.749820 0.750665 0.002747 P
0.750230 0.749174 0.496908 P
0.153633 0.174457 0.082245 S
0.153123 0.174961 0.581740 S
0.152793 0.675371 0.083513 S
0.154530 0.675457 0.582770 S
0.654490 0.173529 0.082688 S
0.653279 0.175241 0.581179 S
0.654503 0.673813 0.085507 S
0.654629 0.670273 0.576035 S
0.346465 0.325405 0.082404 S
0.346504 0.325364 0.582008 S
0.346977 0.824395 0.083159 S
0.345574 0.827212 0.581050 S
0.845462 0.326632 0.082528 S
0.847062 0.324426 0.580912 S
0.845692 0.826448 0.085881 S
0.845311 0.827051 0.577745 S
0.174503 0.346937 0.417828 S
0.174585 0.347019 0.918441 S
0.172676 0.845125 0.416377 S
0.176131 0.845233 0.917645 S
0.675659 0.346456 0.416364 S
0.674958 0.345565 0.917407 S
0.673292 0.844791 0.414402 S
0.671631 0.847496 0.923969 S
0.325053 0.154037 0.417463 S
0.324992 0.153830 0.917803 S
0.326719 0.655138 0.417582 S
0.325173 0.651515 0.920192 S
0.824750 0.152529 0.416747 S
0.825473 0.153610 0.918026 S
0.827326 0.654906 0.413204 S
0.827032 0.655779 0.921431 S
0.097251 0.424032 0.167742 S
0.102125 0.422252 0.670261 S
0.096335 0.925449 0.167333 S
0.092303 0.923283 0.670226 S
0.595245 0.423784 0.167031 S
0.597593 0.424995 0.668707 S
0.595501 0.925038 0.168363 S
0.589250 0.925651 0.660662 S
0.403389 0.075528 0.167261 S
0.398998 0.077437 0.669560 S
0.402791 0.574699 0.168399 S
0.407388 0.578021 0.671237 S
0.904113 0.076649 0.167502 S
0.901292 0.075291 0.669408 S
0.905380 0.574820 0.167297 S
0.911068 0.573027 0.659661 S
0.075691 0.096827 0.332422 S
0.077540 0.101741 0.829632 S
0.076475 0.595454 0.332655 S
0.074454 0.596656 0.831817 S
0.574556 0.096939 0.332527 S
0.577769 0.093931 0.828634 S
0.575187 0.595164 0.332132 S
0.574638 0.588216 0.841089 S
0.424622 0.403024 0.332914 S
0.422424 0.398627 0.829822 S
0.423574 0.904454 0.332714 S
0.424315 0.904390 0.832549 S
0.925120 0.403218 0.332036 S
0.922276 0.405697 0.828452 S
0.924760 0.904932 0.332068 S
0.926585 0.910749 0.840343 S
