Mg1 Ti16 S32
1.0
9.824979 -0.000647 -0.000743
-0.000096 9.824835 0.000770
-0.000697 0.000701 9.824411
Mg Ti S
1 16 32
direct
0.500089 0.249915 0.749839 Mg
0.247516 0.749636 0.002930 Ti
0.500045 -0.009141 0.009125 Ti
0.759132 0.249919 0.009147 Ti
1.000327 0.502463 0.002905 Ti
0.500024 0.249969 0.250001 Ti
0.247361 0.502626 0.249750 Ti
0.240796 0.249901 0.490891 Ti
0.500032 0.509166 0.490878 Ti
0.499997 0.750005 0.750040 Ti
0.759146 0.509128 0.750031 Ti
0.752876 0.750266 0.497485 Ti
0.240869 -0.009152 0.750038 Ti
0.752707 -0.002714 0.250277 Ti
0.999991 0.250003 0.750043 Ti
1.000011 0.749981 0.250025 Ti
0.999683 0.997070 0.497479 Ti
0.747184 0.002832 0.004394 S
0.002344 0.747678 0.003031 S
0.000041 1.002770 0.747551 S
0.747229 0.749978 0.747536 S
0.253105 -0.004339 0.997155 S
1.000098 0.252414 0.997119 S
0.997934 0.996943 0.252272 S
0.253036 0.252464 0.249926 S
0.747141 0.504324 0.503036 S
-0.000050 0.247214 0.502948 S
0.002319 0.502743 0.247989 S
0.747135 0.247308 0.250105 S
0.253014 0.496997 0.495671 S
0.998023 0.751976 0.497192 S
1.000146 0.496913 0.752752 S
0.253088 0.749865 0.752742 S
0.245691 1.002868 0.503034 S
0.502791 0.750065 0.502951 S
0.502708 0.002875 0.250110 S
0.247250 0.747696 0.247981 S
0.753295 0.996724 0.496874 S
0.495103 0.254899 0.495442 S
0.495146 -0.004574 0.754959 S
0.754579 0.254866 0.754952 S
0.246823 0.503202 0.003308 S
0.504996 0.245019 0.004451 S
0.505008 0.504423 0.745072 S
0.245576 0.244998 0.745056 S
0.754372 0.496923 0.997153 S
0.497601 0.749917 0.997121 S
0.497543 0.496977 0.249938 S
0.753059 0.752067 0.252257 S
