Mg15 Mn32 O64                           
   1.00000000000000     
    11.4996939999999999   -0.0000110000000000    0.0004300000000000
    -0.0000240000000000   11.5156060000000000   -0.0000010000000000
     0.0001830000000000    0.0000010000000000    9.1704469999999993
   Mg   Mn   O 
    15    32    64
Direct
  0.5006904298673435  0.5966850818870433  0.5839896015935284
  0.4992452158954530  0.2626170600944399  0.7609008327414560
  0.9991393169301996  0.2620018843972734  0.7633691621925430
  0.0006134135975734  0.7612601954009085  0.7595318610264025
  0.4991475245931762  0.0082560130677437  0.5150139715722019
 -0.0005955173861056  0.0123690879662828  0.5112536023337435
  1.0004243680256413  0.5094882845725186  0.5097452509184185
  0.2478729006601123  0.0150917966239137  0.2609807071685738
  0.2512463234942717  0.5074837040853875  0.2625587491725981
  0.7504053738926031  0.0146026181117859  0.2608506807975957
  0.7499791338544952  0.5073230633255819  0.2615051074518236
  0.2493001984525559  0.2600187929634696  0.0089768769519456
  0.2548232018023029  0.7609342723715483  0.0109423483461892
  0.7484074415895638  0.2604440022219588  0.0086574342687552
  0.7470059222560901  0.7616493048983727  0.0118273989396519
  0.1236258328270969  0.2611343936699573  0.3864446544393178
  0.1260727988017482  0.7627497503655537  0.3817357305000587
  0.6222308403730386  0.2609485251524654  0.3893819294896823
  0.6283815026481507  0.7609834768663422  0.3815093133131691
  0.3755866390686514  0.2609757200113643  0.3894007043661244
  0.3746939747866000  0.7612980141384583  0.3821259309254618
  0.8732311676629951  0.2610686261317105  0.3867885826278679
  0.8774501379570089  0.7612731615376575  0.3820774782723976
  0.1250534930254226  0.0091224118067595  0.8836268304328012
  0.1268168472690481  0.5117351613822458  0.8863854604173629
  0.6222940228519824  0.0097598872200279  0.8863892836350524
  0.6251483486727542  0.5116191518766527  0.8905258296502337
  0.3761663627246311  0.0090371195131029  0.8875552980346197
  0.3772660382501665  0.5108098747952509  0.8892906016612575
  0.8738544430351113  0.0093311006355352  0.8832001509928015
  0.8756268663804414  0.5129676973930860  0.8869989926681509
 -0.0019828119884185  0.1365568239500772  0.1335359974277114
  1.0020284705587377  0.6365379048684454  0.1334504332885780
  0.4981746673416266  0.1364842017644915  0.1381005595728692
  0.5003529212296361  0.6329075422398697  0.1390238054201368
  0.9996520088248421  0.3863698061651175  0.1359047276057681
  0.0003274046807275  0.8866589917124208  0.1323267287957724
  0.4997891280248539  0.3837671399747075  0.1402482673229521
  0.5000077562464671  0.8891170031712070  0.1384685907941802
  0.2504264319764136  0.3858224365067618  0.6361695678685430
  0.2528876208784814  0.8838925020362408  0.6346347391195930
  0.7492370690179299  0.3854458175918914  0.6372349899194411
  0.7470400929586524  0.8836256730403521  0.6345292798517667
  0.2478584532511283  0.1355601143423519  0.6371905297646597
  0.2481333634957016  0.6347402181685012  0.6342632097498173
  0.7497161690086065  0.1346343022652251  0.6367909740244659
  0.7533727909927063  0.6345005620261791  0.6344600129089276
  0.1357243420447559  0.2611663899758241  0.6335565755468551
  0.1392099073740487  0.7616552034070050  0.6293305718619882
  0.6376513159456511  0.2598627569463622  0.6345249649535961
  0.6347807173699218  0.7519253407667811  0.5884241054638698
  0.3609445054373288  0.2601259587887693  0.6340985398992787
  0.3670237427150845  0.7524042988720828  0.5886962903623036
  0.8624705792926002  0.2604984335730285  0.6335347300279349
  0.8620114068692157  0.7619129027156882  0.6293801001552686
  0.1361414434895981  0.5101917510609462  0.6400477538534571
  0.1365580140848079  0.0088615417258409  0.6393816716392281
  0.6398434415128296  0.5147094086126273  0.6458062029640222
  0.6373032436197534  0.0076133118692894  0.6394583462453449
  0.3610724587663955  0.5147601925936079  0.6437381985199203
  0.3611152552094232  0.0087355227776454  0.6398393641061337
  0.8648458369080230  0.5097300875702799  0.6403507462473680
  0.8619009731539382  0.0090017473664782  0.6390596269987759
  0.4990365254748197  0.1251579298862396  0.8901974832858219
  0.5010355505516992  0.6195736317525200  0.9002870109185310
 -0.0006912983420075  0.1227455395136951  0.8890386947539952
  1.0018070296160453  0.6251151477290844  0.8895236344505738
  0.5010023014230242  0.3962004766701893  0.8929639930381310
  0.4994164666435386  0.9017972108469869  0.9075764450056911
  1.0005405208081639  0.3994460867120835  0.8915497524064129
 -0.0006006667884525  0.8972645150232217  0.8886481050472357
  0.4988002056746915  0.3682085287249605  0.3773676514739066
  0.5012545203680435  0.8702499481879383  0.3839383183781042
  0.9986469486655934  0.3740447656085820  0.3805284535578866
  0.0013143839318250  0.8746103511607384  0.3814937392853439
  0.4991892621260186  0.1440685742865132  0.3845988478271845
  0.5009896264664918  0.6531129675074209  0.3803791044298105
 -0.0014388305009905  0.1479559667057745  0.3809332143222605
  0.0018973812912267  0.6488237966902903  0.3822060738723585
  0.3878635409243865  0.5103380100827274  0.1356002021859394
  0.3854631442526684  0.0112888642520594  0.1360169609154376
  0.8879616432694181  0.5123419443883738  0.1326051019221394
  0.8859687678747986  0.0105813918084720  0.1303402456408569
  0.1121391193078473  0.0114937883351176  0.1305426782769161
  0.1141352997334626  0.5114741962695433  0.1324569119506852
  0.6122862956919611  0.0115377888510495  0.1362015406961045
  0.6134183004063505  0.5106986410417708  0.1344165615659699
  0.3847395378379334  0.2596988167520804  0.1405992114375190
  0.3857389373540039  0.7614973341807043  0.1634824412337677
  0.8853153756176633  0.2615524124564006  0.1390780291997629
  0.8879532193450936  0.7615225348617564  0.1384629411062181
  0.1117128877312634  0.2609016517671141  0.1387359897535363
  0.1149550488521997  0.7624529455873053  0.1386642977043351
  0.6124733015528058  0.2595943301533798  0.1399300488348611
  0.6159507374209591  0.7613306630831660  0.1638510299098409
  0.2471875551790555  0.3742391500667458  0.3935755642749406
  0.2543968326214737  0.8738910974282610  0.3856457783672911
  0.7501675526912160  0.3742025856885222  0.3934533076557415
  0.7489136708325002  0.8728269228455161  0.3848418004592042
  0.2480531844273302  0.1483464505047057  0.3930401312042264
  0.2520137692558238  0.6513083550797458  0.3799207854235480
  0.7495703749938603  0.1478813049105502  0.3929083739402001
  0.7506138838614181  0.6503053736486801  0.3801751094132499
  0.2488083671841156  0.1217486506489788  0.8814824158286119
  0.2510955315563729  0.6258019945973141  0.8801334001567602
  0.7496951550893268  0.1221383226525681  0.8811130188559987
  0.7518372966136868  0.6269168113152392  0.8805486951718463
  0.2503865883956345  0.3985004252761153  0.8824503080028093
  0.2500837250587608  0.8944662117370569  0.8768433677251666
  0.7514040118046310  0.3995925537664715  0.8834931979853058
  0.7486613525062068  0.8951218716624775  0.8772419386524729
 
             NaN             NaN             NaN
             NaN             NaN             NaN
             NaN             NaN             NaN
             NaN             NaN             NaN
             NaN             NaN             NaN
             NaN             NaN             NaN
             NaN             NaN             NaN
             NaN             NaN             NaN
             NaN             NaN             NaN
             NaN             NaN             NaN
             NaN             NaN             NaN
             NaN             NaN             NaN
             NaN             NaN             NaN
             NaN             NaN             NaN
             NaN             NaN             NaN
             NaN             NaN             NaN
             NaN             NaN             NaN
             NaN             NaN             NaN
             NaN             NaN             NaN
             NaN             NaN             NaN
             NaN             NaN             NaN
             NaN             NaN             NaN
             NaN             NaN             NaN
             NaN             NaN             NaN
             NaN             NaN             NaN
             NaN             NaN             NaN
             NaN             NaN             NaN
             NaN             NaN             NaN
             NaN             NaN             NaN
             NaN             NaN             NaN
             NaN             NaN             NaN
             NaN             NaN             NaN
             NaN             NaN             NaN
             NaN             NaN             NaN
             NaN             NaN             NaN
             NaN             NaN             NaN
             NaN             NaN             NaN
             NaN             NaN             NaN
             NaN             NaN             NaN
             NaN             NaN             NaN
             NaN             NaN             NaN
             NaN             NaN             NaN
             NaN             NaN             NaN
             NaN             NaN             NaN
             NaN             NaN             NaN
             NaN             NaN             NaN
             NaN             NaN             NaN
             NaN             NaN             NaN
             NaN             NaN             NaN
             NaN             NaN             NaN
             NaN             NaN             NaN
             NaN             NaN             NaN
             NaN             NaN             NaN
             NaN             NaN             NaN
             NaN             NaN             NaN
             NaN             NaN             NaN
             NaN             NaN             NaN
             NaN             NaN             NaN
             NaN             NaN             NaN
             NaN             NaN             NaN
             NaN             NaN             NaN
             NaN             NaN             NaN
             NaN             NaN             NaN
             NaN             NaN             NaN
             NaN             NaN             NaN
             NaN             NaN             NaN
             NaN             NaN             NaN
             NaN             NaN             NaN
             NaN             NaN             NaN
             NaN             NaN             NaN
             NaN             NaN             NaN
             NaN             NaN             NaN
             NaN             NaN             NaN
             NaN             NaN             NaN
             NaN             NaN             NaN
             NaN             NaN             NaN
             NaN             NaN             NaN
             NaN             NaN             NaN
             NaN             NaN             NaN
             NaN             NaN             NaN
             NaN             NaN             NaN
             NaN             NaN             NaN
             NaN             NaN             NaN
             NaN             NaN             NaN
             NaN             NaN             NaN
             NaN             NaN             NaN
             NaN             NaN             NaN
             NaN             NaN             NaN
             NaN             NaN             NaN
             NaN             NaN             NaN
             NaN             NaN             NaN
             NaN             NaN             NaN
             NaN             NaN             NaN
             NaN             NaN             NaN
             NaN             NaN             NaN
             NaN             NaN             NaN
             NaN             NaN             NaN
             NaN             NaN             NaN
             NaN             NaN             NaN
             NaN             NaN             NaN
             NaN             NaN             NaN
             NaN             NaN             NaN
             NaN             NaN             NaN
             NaN             NaN             NaN
             NaN             NaN             NaN
             NaN             NaN             NaN
             NaN             NaN             NaN
             NaN             NaN             NaN
             NaN             NaN             NaN
             NaN             NaN             NaN
             NaN             NaN             NaN
