Li46 P16 O64                            
   1.00000000000000     
    10.4269200000000009    0.0042400000000000   -0.0069030000000000
     0.0045230000000000   12.1861409999999992    0.0001020000000000
    -0.0062340000000000   -0.0004490000000000    9.7954880000000006
   Li   P    O 
    46    16    64
Direct
  0.3148204057878269  0.3625637086756618  0.1565462534983957
  0.6659750328815862  0.2473010680206981  0.6040223632319587
  0.6598951018814904  0.7464468213567804  0.0975950900771887
  0.6638893259662667  0.7505052599869657  0.5987929000422212
  0.1551637298741186  0.5083349703182186  0.1513521201917875
  0.1645309490927383  0.5011458120744194  0.6525219164129913
  0.1662207436341402  0.9949636100467449  0.1543388191066774
  0.1641125244543167  0.9994232244793508  0.6531731676508941
  0.3354964510749284  0.9992319255182124  0.4035154214983712
  0.3365652171018920  0.9994319832250996  0.9014964744081376
  0.3352397558738340  0.5033156791408522  0.4062975301247916
  0.3378504731904384  0.4977663226575477  0.9052125180133102
  0.8363959644611753  0.2499777285629217  0.3479442771744800
  0.8365246601660564  0.2504878828389767  0.8529988412809176
  0.8350611261196967  0.7484850951517841  0.3484844366141708
  0.8350998904528606  0.7492099508223252  0.8477482221364305
  0.3361336031706112  0.2432862818634945  0.4084702456727978
  0.3377984272494988  0.2480289397502086  0.9001271014100338
  0.3362499744225029  0.7484652979966966  0.4023338384037241
  0.3353015987798431  0.7473838448562178  0.9018668131475099
  0.8376404962214768  0.0015955240490604  0.3507092349294467
  0.8351076504160727  0.0011282781719980  0.8451155081307966
  0.8351096706747173  0.4991655160095888  0.3448112540251543
  0.8360278012433774  0.4994996692202857  0.8513109252630736
  0.6604177992220084  0.4880609738826338  0.0922754013487597
  0.6670311386456851  0.5018798726506413  0.5948543588428399
  0.6663359014091406  0.9943177148762734  0.0971567516890994
  0.6648821558531406  0.9981501882030226  0.5975337417745780
  0.1640958712652177  0.2520491790177815  0.6516232932119109
  0.1632650767992363  0.7509325478168996  0.1528585029513082
  0.1642293268425901  0.7517111006482441  0.6522551650682951
  0.9348651609519042  0.3736926042040545  0.1447625152595764
  0.9258192605093973  0.3756531846377864  0.6540177245143272
  0.9217529125391091  0.8730512071767073  0.1493784903543233
  0.9235707514964606  0.8753522429689526  0.6485728056160823
  0.4180097760802847  0.3748082648632799  0.6114048723402361
  0.4239292122444507  0.8705503699983623  0.1008381308525648
  0.4238473454658097  0.8743016769478738  0.6015460830108761
  0.0820013848007640  0.1306887368089590  0.3427894030207378
  0.0793872350993763  0.1276852091125540  0.8558417003513966
  0.0750417552264196  0.6258828666156042  0.3539694744356998
  0.0756947348052370  0.6248241269381083  0.8501238352698880
  0.5773804301448837  0.1231165110234324  0.3945902019527721
  0.5796944331898268  0.1272371798018936  0.9076059602239063
  0.5760803295317988  0.6246704272966705  0.3986040846600468
  0.5761185329337017  0.6215897878401813  0.8982423372139814
  0.9127932387568587  0.1216573497199227  0.0949603674129926
  0.9147737621551824  0.1258670229838906  0.5951715789514630
  0.9079606128074740  0.6254680392886365  0.0954541542582108
  0.9117379006849796  0.6251241981741973  0.5954960205548886
  0.4121619231166503  0.1191458260460588  0.1548350853005700
  0.4135818349977234  0.1227285841049566  0.6554231169986746
  0.4096785578310175  0.6212722366227200  0.1549996857731456
  0.4120460337608854  0.6250225070861900  0.6551574095235583
  0.0907659470628221  0.3756386517150588  0.4048122602624747
  0.0932639941070150  0.3768991484662597  0.9061767056083218
  0.0882431880524789  0.8750735055504142  0.4050802795454750
  0.0874425023812844  0.8749190452040546  0.9048328330165966
  0.5850726465514550  0.3736250898070603  0.3459439571548304
  0.5867453027079785  0.3734855768428779  0.8340520773163953
  0.5882931696425715  0.8733468728792527  0.3454336661966352
  0.5880396581530177  0.8732600297163622  0.8455236798601291
  0.8388735475139319  0.0213792649602305  0.1485425318999474
  0.8427090945464412  0.0226232358594744  0.6451046621127148
  0.8402135995064766  0.5204005559256397  0.1448513158389735
  0.8430088266242622  0.5220613377821967  0.6496558874402790
  0.3494599486252794  0.2215375952959559  0.0944375635601205
  0.3430128129102016  0.2266261184414745  0.6052899813275262
  0.3409097456742601  0.7255182192361842  0.1027806829991918
  0.3418528538332997  0.7286080382759029  0.6038864708132216
  0.1642284252421793  0.2729729712892486  0.3603652574740935
  0.1606685813944743  0.2736929502120412  0.8503199816866600
  0.1587120433104968  0.7715027930559588  0.3540948310586124
  0.1575922411885671  0.7714921483408573  0.8533011204012243
  0.6554887629738247  0.4770752886851725  0.3965605442029668
  0.6562268169633417  0.4743594324074742  0.8930296083026203
  0.6591268826502952  0.9765888366324796  0.3960847777403267
  0.6594026695193982  0.9756129672655314  0.8977928240579559
  0.1602026984674154  0.4791054862769948  0.3508522436291474
  0.1599549410495184  0.4803571912985730  0.8484384666383699
  0.1586893340675672  0.9779056708769767  0.3532646615998143
  0.1583097249946773  0.9780175858290665  0.8542333542457516
  0.6558263703632857  0.2710452958994738  0.3980483216196993
  0.6555705817881611  0.2675563297326323  0.8748557092277414
  0.6580648836144729  0.7702005716911421  0.3982444036363436
  0.6569820933086729  0.7689691874577473  0.8965805303462240
  0.8573679810634410  0.2288208095809291  0.1519415001402788
  0.8448883306450944  0.2293017687094963  0.6472512461670853
  0.8359549150093942  0.7278166143161444  0.1472062046131048
  0.8414967558319645  0.7286971443333921  0.6465475805044409
  0.3404101798354156  0.0162742974639529  0.1044827702010349
  0.3419763792063348  0.0202334739595257  0.6031614432724448
  0.3347506748368309  0.5194408077401182  0.1068970729314033
  0.3416447848908523  0.5223814006285841  0.6020357012576746
  0.5502542181800874  0.1135544327701458  0.1039256079105928
  0.5513368404788830  0.1230793625571470  0.5997566167585044
  0.5478662043011205  0.6187253759225095  0.1008647994817173
  0.5509836697477549  0.6252688682235786  0.6029168551757833
  0.0512417887890353  0.1150724832175270  0.1457758987451271
  0.0528489247757320  0.1250058128833503  0.6495996575287309
  0.0460512656621741  0.6288545901331806  0.1504802351379758
  0.0514547007544841  0.6266653105825648  0.6452773336777862
  0.4444470024798060  0.3737061191130551  0.3946291875550872
  0.4448002868054109  0.3729574885018442  0.8728408803442881
  0.4492832657063327  0.8741369942226461  0.3974972664722699
  0.4489544652280176  0.8734282675628878  0.8975740851228133
  0.9520955515893683  0.3745935238700723  0.3509029837526972
  0.9515001442503025  0.3755113475532149  0.8598091146542959
  0.9492054208355915  0.8743782051602006  0.3523441814996452
  0.9484549800236861  0.8753122079156592  0.8523069084098607
  0.5827266131930321  0.3705503194175239  0.1892880383776563
  0.5923638605663127  0.3788797057690677  0.6760471633194902
  0.5886873892747495  0.8717888766875965  0.1880158176785822
  0.5891015290539723  0.8743058313991299  0.6880731180525473
  0.1021344046375568  0.3808826276163007  0.0622237762049569
  0.0886924767820895  0.3790184902260931  0.5624889298240626
  0.0874419666068520  0.8741307424748068  0.0623970989091388
  0.0887502453364243  0.8754475804252201  0.5624288432993613
  0.4089360722453788  0.1226783930582665  0.3117238260095171
  0.4143683598463871  0.1216175977560620  0.8123291552342539
  0.4111004215775204  0.6238326268866151  0.3125203401279226
  0.4108907484913001  0.6239161948731267  0.8123468991760656
  0.9149242483336483  0.1263514523644378  0.4377086955743030
  0.9089991311378303  0.1231238969436612  0.9383258863757286
  0.9085776605209900  0.6235059039795577  0.4379665711904730
  0.9098612025490712  0.6260140255315035  0.9380983823759615
 
             NaN             NaN             NaN
             NaN             NaN             NaN
             NaN             NaN             NaN
             NaN             NaN             NaN
             NaN             NaN             NaN
             NaN             NaN             NaN
             NaN             NaN             NaN
             NaN             NaN             NaN
             NaN             NaN             NaN
             NaN             NaN             NaN
             NaN             NaN             NaN
             NaN             NaN             NaN
             NaN             NaN             NaN
             NaN             NaN             NaN
             NaN             NaN             NaN
             NaN             NaN             NaN
             NaN             NaN             NaN
             NaN             NaN             NaN
             NaN             NaN             NaN
             NaN             NaN             NaN
             NaN             NaN             NaN
             NaN             NaN             NaN
             NaN             NaN             NaN
             NaN             NaN             NaN
             NaN             NaN             NaN
             NaN             NaN             NaN
             NaN             NaN             NaN
             NaN             NaN             NaN
             NaN             NaN             NaN
             NaN             NaN             NaN
             NaN             NaN             NaN
             NaN             NaN             NaN
             NaN             NaN             NaN
             NaN             NaN             NaN
             NaN             NaN             NaN
             NaN             NaN             NaN
             NaN             NaN             NaN
             NaN             NaN             NaN
             NaN             NaN             NaN
             NaN             NaN             NaN
             NaN             NaN             NaN
             NaN             NaN             NaN
             NaN             NaN             NaN
             NaN             NaN             NaN
             NaN             NaN             NaN
             NaN             NaN             NaN
             NaN             NaN             NaN
             NaN             NaN             NaN
             NaN             NaN             NaN
             NaN             NaN             NaN
             NaN             NaN             NaN
             NaN             NaN             NaN
             NaN             NaN             NaN
             NaN             NaN             NaN
             NaN             NaN             NaN
             NaN             NaN             NaN
             NaN             NaN             NaN
             NaN             NaN             NaN
             NaN             NaN             NaN
             NaN             NaN             NaN
             NaN             NaN             NaN
             NaN             NaN             NaN
             NaN             NaN             NaN
             NaN             NaN             NaN
             NaN             NaN             NaN
             NaN             NaN             NaN
             NaN             NaN             NaN
             NaN             NaN             NaN
             NaN             NaN             NaN
             NaN             NaN             NaN
             NaN             NaN             NaN
             NaN             NaN             NaN
             NaN             NaN             NaN
             NaN             NaN             NaN
             NaN             NaN             NaN
             NaN             NaN             NaN
             NaN             NaN             NaN
             NaN             NaN             NaN
             NaN             NaN             NaN
             NaN             NaN             NaN
             NaN             NaN             NaN
             NaN             NaN             NaN
             NaN             NaN             NaN
             NaN             NaN             NaN
             NaN             NaN             NaN
             NaN             NaN             NaN
             NaN             NaN             NaN
             NaN             NaN             NaN
             NaN             NaN             NaN
             NaN             NaN             NaN
             NaN             NaN             NaN
             NaN             NaN             NaN
             NaN             NaN             NaN
             NaN             NaN             NaN
             NaN             NaN             NaN
             NaN             NaN             NaN
             NaN             NaN             NaN
             NaN             NaN             NaN
             NaN             NaN             NaN
             NaN             NaN             NaN
             NaN             NaN             NaN
             NaN             NaN             NaN
             NaN             NaN             NaN
             NaN             NaN             NaN
             NaN             NaN             NaN
             NaN             NaN             NaN
             NaN             NaN             NaN
             NaN             NaN             NaN
             NaN             NaN             NaN
             NaN             NaN             NaN
             NaN             NaN             NaN
             NaN             NaN             NaN
             NaN             NaN             NaN
             NaN             NaN             NaN
             NaN             NaN             NaN
             NaN             NaN             NaN
             NaN             NaN             NaN
             NaN             NaN             NaN
             NaN             NaN             NaN
             NaN             NaN             NaN
             NaN             NaN             NaN
             NaN             NaN             NaN
             NaN             NaN             NaN
             NaN             NaN             NaN
             NaN             NaN             NaN
             NaN             NaN             NaN
