Li46 P16 O64                            
   1.00000000000000     
    10.4269200000000009    0.0042400000000000   -0.0069030000000000
     0.0045230000000000   12.1861409999999992    0.0001020000000000
    -0.0062340000000000   -0.0004490000000000    9.7954880000000006
   Li   P    O 
    46    16    64
Direct
  0.3460423832197072  0.3650647408791542  0.1587101887135784
  0.6655635069380117  0.2476090046924382  0.6023896423611032
  0.6604328522255375  0.7465338845598233  0.0974371649188728
  0.6638824026770604  0.7506557118446469  0.5988710060114780
  0.1567734479929161  0.5052526456640000  0.1518114489992920
  0.1642774284807971  0.5011917351999434  0.6525001273798720
  0.1663036278361439  0.9945934599480780  0.1542738427813871
  0.1641310536294947  0.9992725563493821  0.6530983547135735
  0.3354658933360136  0.9991929156385289  0.4036118297851635
  0.3366945022991575  0.9992230200090534  0.9015102539259611
  0.3346609182801150  0.5035265259414892  0.4073664604879210
  0.3373494490853451  0.4978422815724736  0.9048861152064046
  0.8355722903219864  0.2499110808459251  0.3480519617872830
  0.8363165225094672  0.2502461581112045  0.8521024932120871
  0.8350955549721045  0.7484208406455343  0.3482421292640592
  0.8352528900098892  0.7489714649196616  0.8477237065402056
  0.3355294278028342  0.2435998623693695  0.4093781383438937
  0.3369934211869933  0.2480816924110021  0.9000230401223456
  0.3362561149611488  0.7485332686789770  0.4021591593128836
  0.3353509524486583  0.7475330936545624  0.9020250532920615
  0.8377135461142688  0.0014835550740460  0.3506341453135458
  0.8351371454791684  0.0009585872258408  0.8449677131315935
  0.8344724143892782  0.4992939311062769  0.3450631667833876
  0.8355352653912027  0.4994406500043682  0.8505996110940589
  0.6591183824068146  0.4876171723628768  0.0932854320417743
  0.6667156175484469  0.5020638002702568  0.5944718125889477
  0.6663407064161060  0.9943727778089394  0.0971089883328480
  0.6647068233943858  0.9984405686320034  0.5973217825929502
  0.1637074530666644  0.2517574968215696  0.6519138865427095
  0.1630403602343024  0.7502824234652334  0.1526008509887745
  0.1641981712786360  0.7515979288649052  0.6521851275768059
  0.9329037879442565  0.3739268208003180  0.1457969632215140
  0.9250110894352960  0.3755436376252496  0.6528192068989348
  0.9217885158119791  0.8726986446079374  0.1491902653840077
  0.9235099684126539  0.8752384470324924  0.6484113327893586
  0.4177720002511308  0.3748943010082749  0.6114132281276722
  0.4241559923914854  0.8704131110807992  0.1009180266945784
  0.4240109833753178  0.8743750048268635  0.6014407136427513
  0.0819662518572806  0.1305358692856320  0.3425868719187843
  0.0793041912347784  0.1273648370095751  0.8559996541451317
  0.0749225367563190  0.6257125192629091  0.3532071086562211
  0.0755301447913732  0.6246566252948630  0.8503470302884891
  0.5772755949832298  0.1237189851803180  0.3941914327555059
  0.5796285924572930  0.1271362569567255  0.9076034146974138
  0.5760440771080501  0.6247720037618758  0.3986324102272730
  0.5762111726396292  0.6218322622928640  0.8983906175595301
  0.9128194534969316  0.1215335594225542  0.0948900403323333
  0.9146125605944616  0.1256295470418272  0.5950019205453495
  0.9081274347658482  0.6247740093986842  0.0954561184245393
  0.9116795060383597  0.6251955814198077  0.5953128355017357
  0.4118080474492067  0.1187945444663014  0.1548629268111502
  0.4134025874482064  0.1226570190442142  0.6555496289480053
  0.4100479242877664  0.6217566425940770  0.1549612081277503
  0.4118666435455587  0.6253699001043838  0.6553437737324833
  0.0904363393052932  0.3757503440441326  0.4049889320172615
  0.0914247794424939  0.3768932383469694  0.9054497635884732
  0.0882421549699002  0.8749294828025324  0.4049840084398189
  0.0875249412730143  0.8747042169193007  0.9048061694356418
  0.5829574858535912  0.3742436139691190  0.3458552188451161
  0.5865802302328025  0.3736025708474208  0.8341987225127474
  0.5884298192416173  0.8735046307544436  0.3453809862775471
  0.5881700695049948  0.8733950069560863  0.8454998149746099
  0.8389776146389170  0.0211678667842685  0.1483972825310952
  0.8426260440435437  0.0223880466524720  0.6449485376909816
  0.8394687599795971  0.5202045582062136  0.1450895210032568
  0.8426105140594931  0.5221887719100112  0.6490263237612155
  0.3492706808111680  0.2212638764244827  0.0941667581809956
  0.3422335193355149  0.2263901329799286  0.6060995467525729
  0.3407991343085184  0.7257568066283538  0.1029600124245119
  0.3418799594607868  0.7289956049966704  0.6039222716618845
  0.1632358946226320  0.2725763441179476  0.3614290739260642
  0.1598440025690210  0.2735677079960600  0.8509888239836597
  0.1586577431278610  0.7713899845767475  0.3538746894294139
  0.1576257214149306  0.7712737223980501  0.8532774513526957
  0.6549530593715711  0.4772303093063327  0.3962318835249393
  0.6558481250628773  0.4744395069057460  0.8933841364526721
  0.6590740144592196  0.9768735835249658  0.3959021516958562
  0.6594418005048318  0.9757668002538742  0.8978671256619757
  0.1596827882639432  0.4792940682259286  0.3517940894674357
  0.1595316885376643  0.4800557737072391  0.8485642084225350
  0.1587086008295747  0.9778037014035365  0.3532487873708023
  0.1584174500194756  0.9777965155136038  0.8542654674469855
  0.6549836956626668  0.2716231378371970  0.3965213190069440
  0.6553930851047048  0.2676237480877266  0.8752344782323085
  0.6581908690538624  0.7704148666606178  0.3983226288149052
  0.6572689870476678  0.7691528867748099  0.8963919430877335
  0.8571883074569117  0.2284795469845938  0.1521534493862155
  0.8443606842262492  0.2289976716433104  0.6466145215859562
  0.8366066532411808  0.7274845120174142  0.1471585702727000
  0.8414811945615132  0.7287448195222742  0.6464871717985939
  0.3404235980294105  0.0157997232575320  0.1047372202939972
  0.3420128616156223  0.0200422399935475  0.6032511589925047
  0.3355965428333874  0.5197882365131155  0.1063020869808854
  0.3410996583514849  0.5228606253132475  0.6027496584521664
  0.5500848137809654  0.1137616636807405  0.1041902730565785
  0.5510055689050404  0.1233301789242504  0.5994762858597126
  0.5481718600365700  0.6196228822222213  0.1008944287339558
  0.5507842528054304  0.6254572197500234  0.6029463917288354
  0.0513175443195981  0.1148509456810539  0.1456572133703295
  0.0525348517754196  0.1248916186375251  0.6498207003241450
  0.0463936512125413  0.6274896605046240  0.1500471944964871
  0.0512516977488877  0.6265676838252404  0.6454100872760945
  0.4433232798129052  0.3738084132548173  0.3990114827662932
  0.4445452979615779  0.3728735142047188  0.8729754939969259
  0.4493532552026500  0.8742096465674709  0.3972589061501921
  0.4491484173774737  0.8734002373887844  0.8976769849966340
  0.9516602255025634  0.3746134082560618  0.3513699686535499
  0.9506089822829940  0.3753974750055956  0.8560189625058191
  0.9492339284518428  0.8743222283247185  0.3521994151037736
  0.9485609308470446  0.8751790224720848  0.8522171920684343
  0.5745310837446420  0.3737883935688057  0.1900469579922176
  0.5925560390718448  0.3788794636283436  0.6762969730844801
  0.5889820830223385  0.8718462493862141  0.1879656122979008
  0.5891690588555812  0.8745615004758198  0.6880554873239344
  0.0964487967717740  0.3812292185113529  0.0610635349059381
  0.0885315782662308  0.3788040532438235  0.5627582225189026
  0.0874655628772325  0.8738604199175735  0.0623686694351802
  0.0887500652927153  0.8752974528094472  0.5623177438920329
  0.4083933068907375  0.1229312686501358  0.3117021282667568
  0.4144706101531260  0.1214027911241799  0.8124691331272592
  0.4110781923161916  0.6237572531347790  0.3124746826758573
  0.4109184179253729  0.6242895034345797  0.8125557418530716
  0.9150328322784689  0.1261296537233568  0.4375265807090772
  0.9089240884049038  0.1231052198372349  0.9382559201636608
  0.9087304332240012  0.6236854185194176  0.4377995900985960
  0.9096731146868743  0.6254567697123020  0.9380372739432743
 
             NaN             NaN             NaN
             NaN             NaN             NaN
             NaN             NaN             NaN
             NaN             NaN             NaN
             NaN             NaN             NaN
             NaN             NaN             NaN
             NaN             NaN             NaN
             NaN             NaN             NaN
             NaN             NaN             NaN
             NaN             NaN             NaN
             NaN             NaN             NaN
             NaN             NaN             NaN
             NaN             NaN             NaN
             NaN             NaN             NaN
             NaN             NaN             NaN
             NaN             NaN             NaN
             NaN             NaN             NaN
             NaN             NaN             NaN
             NaN             NaN             NaN
             NaN             NaN             NaN
             NaN             NaN             NaN
             NaN             NaN             NaN
             NaN             NaN             NaN
             NaN             NaN             NaN
             NaN             NaN             NaN
             NaN             NaN             NaN
             NaN             NaN             NaN
             NaN             NaN             NaN
             NaN             NaN             NaN
             NaN             NaN             NaN
             NaN             NaN             NaN
             NaN             NaN             NaN
             NaN             NaN             NaN
             NaN             NaN             NaN
             NaN             NaN             NaN
             NaN             NaN             NaN
             NaN             NaN             NaN
             NaN             NaN             NaN
             NaN             NaN             NaN
             NaN             NaN             NaN
             NaN             NaN             NaN
             NaN             NaN             NaN
             NaN             NaN             NaN
             NaN             NaN             NaN
             NaN             NaN             NaN
             NaN             NaN             NaN
             NaN             NaN             NaN
             NaN             NaN             NaN
             NaN             NaN             NaN
             NaN             NaN             NaN
             NaN             NaN             NaN
             NaN             NaN             NaN
             NaN             NaN             NaN
             NaN             NaN             NaN
             NaN             NaN             NaN
             NaN             NaN             NaN
             NaN             NaN             NaN
             NaN             NaN             NaN
             NaN             NaN             NaN
             NaN             NaN             NaN
             NaN             NaN             NaN
             NaN             NaN             NaN
             NaN             NaN             NaN
             NaN             NaN             NaN
             NaN             NaN             NaN
             NaN             NaN             NaN
             NaN             NaN             NaN
             NaN             NaN             NaN
             NaN             NaN             NaN
             NaN             NaN             NaN
             NaN             NaN             NaN
             NaN             NaN             NaN
             NaN             NaN             NaN
             NaN             NaN             NaN
             NaN             NaN             NaN
             NaN             NaN             NaN
             NaN             NaN             NaN
             NaN             NaN             NaN
             NaN             NaN             NaN
             NaN             NaN             NaN
             NaN             NaN             NaN
             NaN             NaN             NaN
             NaN             NaN             NaN
             NaN             NaN             NaN
             NaN             NaN             NaN
             NaN             NaN             NaN
             NaN             NaN             NaN
             NaN             NaN             NaN
             NaN             NaN             NaN
             NaN             NaN             NaN
             NaN             NaN             NaN
             NaN             NaN             NaN
             NaN             NaN             NaN
             NaN             NaN             NaN
             NaN             NaN             NaN
             NaN             NaN             NaN
             NaN             NaN             NaN
             NaN             NaN             NaN
             NaN             NaN             NaN
             NaN             NaN             NaN
             NaN             NaN             NaN
             NaN             NaN             NaN
             NaN             NaN             NaN
             NaN             NaN             NaN
             NaN             NaN             NaN
             NaN             NaN             NaN
             NaN             NaN             NaN
             NaN             NaN             NaN
             NaN             NaN             NaN
             NaN             NaN             NaN
             NaN             NaN             NaN
             NaN             NaN             NaN
             NaN             NaN             NaN
             NaN             NaN             NaN
             NaN             NaN             NaN
             NaN             NaN             NaN
             NaN             NaN             NaN
             NaN             NaN             NaN
             NaN             NaN             NaN
             NaN             NaN             NaN
             NaN             NaN             NaN
             NaN             NaN             NaN
             NaN             NaN             NaN
             NaN             NaN             NaN
             NaN             NaN             NaN
             NaN             NaN             NaN
