Li7 Mn16 O32                            
   1.00000000000000     
     8.3852810000000009    0.0669060000000000    0.0010590000000000
     0.0324230000000000    8.1858319999999996    0.0178850000000000
    -0.0174750000000000   -0.0130760000000000    8.2511620000000008
   Li   Mn   O 
     7    16    32
Direct
  0.1987154347629808  0.5466293401624627  0.6986760979697197
  0.8799179612983036  0.8699838780890550  0.8807384519202975
  0.1191907168047747  0.1288570020681062  0.1237964460309284
  0.8840590172035103  0.3711197366918147  0.3817882079558693
  0.3811388323536405  0.8755492517899303  0.3807573740209133
  0.6150104609941875  0.1287391673056851  0.6284812414177662
  0.6191113009744693  0.6238129843333544  0.1146612931752204
  0.5058443348200184  0.2535747281542560  0.2467895730603161
  0.2596622489713113  0.5021697215998223  0.2458661505086560
  0.2592415892722167  0.2452199665236993  0.5034623370105598
  0.5092696272419945  0.4951501608263794  0.4967263565096571
  0.4994575340442036  0.7485926791767701  0.7536793147312939
  0.7541980068565103  0.4953414718782463  0.7390403048076521
  0.7417576521861972  0.7538730763377799  0.4959362582564297
  0.2451888274175264  0.0041104768646002  0.7602099037628693
  0.2521754899703029  0.7498152411469646  0.0044262970246261
  0.4956755132415960  0.0082923407310489  0.0029396469531240
  0.7444290702099875  0.0028605456383049  0.2542280123135986
  0.7510273499555914  0.2498030121156899 -0.0025601720998575
 -0.0021655718435566  0.2463304546088107  0.7460024172775309
  0.0019891628860098  0.4961554634268116  0.0006802234697132
 -0.0019593859226172  0.7465537589462758  0.2547579204425536
  0.9964356286265853  0.9973796665118231  0.5030164264028831
  0.7524870983052004  0.0117579330024406  0.0261668976858265
  0.0207693077022754  0.7304859187919676  0.0181272669498481
  0.0136197973606987  0.0104919224925016  0.7404505230629606
  0.7393001946577835  0.7318549222762124  0.7314960639122540
  0.2400402808236267  0.9805005935868299  0.9898542340572092
  0.9827810751162849  0.2635313830286988  0.9810662250488904
  0.9732063366624901  0.9897253663097708  0.2677426128414467
  0.2771646868988223  0.2684199722698664  0.2464275255485781
  0.7375816210592648  0.5155808003838100  0.5034431115128145
  0.0164531484898943  0.2330064053441434  0.5169664169712421
  0.0333662296621671  0.5068799831988413  0.2496702856376920
  0.7329519788800332  0.2345700171528680  0.2583443262469980
  0.2797506326971216  0.4833318310285576  0.4859623886402625
  0.9672282334522330  0.7618975065515666  0.4857150459027025
  0.9852845748133916  0.4786739873733465  0.7493942802913232
  0.2609768108091005  0.7632561390796816  0.7711402358721331
  0.2548686190000556  0.0144255655304319  0.5278759373158445
  0.5122638371900682  0.7303179550551254  0.5166209404993335
  0.5144372891992576  0.0196666391612898  0.2393173255433109
  0.2565488645556053  0.7349121211681159  0.2353098845618729
  0.7362545049114452  0.9808700265057646  0.4869664249267981
  0.4976792790793216  0.2647901963854912  0.4787102080381359
  0.4707405109163965  1.0076350081338241  0.7728053976415983
  0.7716738856152913  0.2642935668829558  0.7376439701381762
  0.2510118960577928  0.5192490271684347  0.0187763700972362
  0.5238022938131338  0.2425718662581077  0.0212523907796862
  0.5282318716398218  0.4912765974861453  0.7210612366941174
  0.2213374306446140  0.2335375756138734  0.7556790760755041
  0.7558981710961549  0.4903756081622433  0.9684124876283347
  0.4806030965453840  0.7653771214616869  0.9860351629595504
  0.4922459614096520  0.4877989364320927  0.2614796165459630
  0.7400710646506363  0.7680879393757599  0.2663823425770839
 
             NaN             NaN             NaN
             NaN             NaN             NaN
             NaN             NaN             NaN
             NaN             NaN             NaN
             NaN             NaN             NaN
             NaN             NaN             NaN
             NaN             NaN             NaN
             NaN             NaN             NaN
             NaN             NaN             NaN
             NaN             NaN             NaN
             NaN             NaN             NaN
             NaN             NaN             NaN
             NaN             NaN             NaN
             NaN             NaN             NaN
             NaN             NaN             NaN
             NaN             NaN             NaN
             NaN             NaN             NaN
             NaN             NaN             NaN
             NaN             NaN             NaN
             NaN             NaN             NaN
             NaN             NaN             NaN
             NaN             NaN             NaN
             NaN             NaN             NaN
             NaN             NaN             NaN
             NaN             NaN             NaN
             NaN             NaN             NaN
             NaN             NaN             NaN
             NaN             NaN             NaN
             NaN             NaN             NaN
             NaN             NaN             NaN
             NaN             NaN             NaN
             NaN             NaN             NaN
             NaN             NaN             NaN
             NaN             NaN             NaN
             NaN             NaN             NaN
             NaN             NaN             NaN
             NaN             NaN             NaN
             NaN             NaN             NaN
             NaN             NaN             NaN
             NaN             NaN             NaN
             NaN             NaN             NaN
             NaN             NaN             NaN
             NaN             NaN             NaN
             NaN             NaN             NaN
             NaN             NaN             NaN
             NaN             NaN             NaN
             NaN             NaN             NaN
             NaN             NaN             NaN
             NaN             NaN             NaN
             NaN             NaN             NaN
             NaN             NaN             NaN
             NaN             NaN             NaN
             NaN             NaN             NaN
             NaN             NaN             NaN
             NaN             NaN             NaN
