Li7 Mn16 O32                            
   1.00000000000000     
     8.3852810000000009    0.0669060000000000    0.0010590000000000
     0.0324230000000000    8.1858319999999996    0.0178850000000000
    -0.0174750000000000   -0.0130760000000000    8.2511620000000008
   Li   Mn   O 
     7    16    32
Direct
  0.1533065174767130  0.5963079105433448  0.6496018014506704
  0.8820770485750560  0.8697769340121335  0.8817880583283139
  0.1225512611638829  0.1280573052541791  0.1240284105073910
  0.8846902083212531  0.3700587536063247  0.3823981142025845
  0.3830794954520451  0.8748136471230605  0.3804164369098471
  0.6188071618614761  0.1266204679243845  0.6296558253235999
  0.6203379275613993  0.6229576972477073  0.1167656921212911
  0.5108780897143725  0.2494407113824434  0.2601449307044624
  0.2653331959113520  0.5030921101383863  0.2448763087481809
  0.2603594352868066  0.2453576662717837  0.5086611862300426
  0.5108644751804688  0.4921227407147903  0.4995946440517187
  0.5015487623941836  0.7481731367679193  0.7548668041753664
  0.7452158915215923  0.4970755679229757  0.7437003937653709
  0.7478173974641490  0.7509912956189300  0.5024164875672926
  0.2434454907773551  1.0017589008938623  0.7616025259732111
  0.2529374321147303  0.7487535953797522  0.0048673150844351
  0.4951106611844593  0.0073266992691713  0.0016987049208971
  0.7444968212710287  0.0095296967489382  0.2576873209365412
  0.7531430410579227  0.2498938067858057  0.0041633118344879
  1.0018927303877794  0.2364876482674074  0.7437014517065819
  0.0077375606727058  0.4956802462296105  1.0019840024467730
  1.0067476015856578  0.7433408447987108  0.2582204478573347
  0.9985310667980867 -0.0042089955236845  0.5075608665514968
  0.7554020858946683  0.0089942817264431  0.0281056529889724
  0.0225180794977864  0.7288027907649853  0.0194156204911157
  0.0140429412198198  0.0110602985185587  0.7410425706155821
  0.7483114217596086  0.7280859347713629  0.7311721524468868
  0.2431667104146058  0.9781001751185392  0.9902881121225187
  0.9841598369203968  0.2644063505240560  0.9814344950074144
  0.9757794620660347 -0.0155119617408465  0.2709596178188895
  0.2785617086825317  0.2644497933049344  0.2502539638617453
  0.7353424428199582  0.5104453158633653  0.5067998832378565
  0.0168230405742564  0.2326809954519248  0.5182467941733810
  0.0381572884764422  0.5067569927718070  0.2561012331098111
  0.7339282048104607  0.2258503783986708  0.2602653489188987
  0.2823909325525982  0.4845582104918765  0.4886970555003443
  0.9721024790989508  0.7549531267850899  0.4894138519525930
  0.9834905371924257  0.4786296722957064  0.7451851286385047
  0.2544878455127859  0.7638401751547158  0.7697336301065605
  0.2560893857650162  0.0146401897236530  0.5282720371182308
  0.5143487759990900  0.7289092158908962  0.5175491214868285
  0.5164570444659364  0.0121755001741657  0.2398806955105091
  0.2605521955514343  0.7328286099652604  0.2342145724777094
  0.7401766997049544  0.9736821224701049  0.4891607391144254
  0.4990608382100870  0.2647398200756314  0.4830250066011311
  0.4731310295536537  0.9998741527174784  0.7722341040025716
  0.7721565006891681  0.2620219902142392  0.7414866314748817
  0.2536835538601488  0.5163655374795715  0.0244686534083943
  0.5252605994692945  0.2387749325844941  0.0233562891281861
  0.5300743941391898  0.4976111833811444  0.7259646879462582
  0.2218653674360486  0.2305765653281453  0.7569744557665976
  0.7579227382394418  0.4897872199811115  0.9721609335342409
  0.4828666569098475  0.7630614700180927  0.9839211843236361
  0.4956423000987197  0.4824231037287979  0.2659726061014600
  0.7436246083960288  0.7620730430836574  0.2666103297122532
 
             NaN             NaN             NaN
             NaN             NaN             NaN
             NaN             NaN             NaN
             NaN             NaN             NaN
             NaN             NaN             NaN
             NaN             NaN             NaN
             NaN             NaN             NaN
             NaN             NaN             NaN
             NaN             NaN             NaN
             NaN             NaN             NaN
             NaN             NaN             NaN
             NaN             NaN             NaN
             NaN             NaN             NaN
             NaN             NaN             NaN
             NaN             NaN             NaN
             NaN             NaN             NaN
             NaN             NaN             NaN
             NaN             NaN             NaN
             NaN             NaN             NaN
             NaN             NaN             NaN
             NaN             NaN             NaN
             NaN             NaN             NaN
             NaN             NaN             NaN
             NaN             NaN             NaN
             NaN             NaN             NaN
             NaN             NaN             NaN
             NaN             NaN             NaN
             NaN             NaN             NaN
             NaN             NaN             NaN
             NaN             NaN             NaN
             NaN             NaN             NaN
             NaN             NaN             NaN
             NaN             NaN             NaN
             NaN             NaN             NaN
             NaN             NaN             NaN
             NaN             NaN             NaN
             NaN             NaN             NaN
             NaN             NaN             NaN
             NaN             NaN             NaN
             NaN             NaN             NaN
             NaN             NaN             NaN
             NaN             NaN             NaN
             NaN             NaN             NaN
             NaN             NaN             NaN
             NaN             NaN             NaN
             NaN             NaN             NaN
             NaN             NaN             NaN
             NaN             NaN             NaN
             NaN             NaN             NaN
             NaN             NaN             NaN
             NaN             NaN             NaN
             NaN             NaN             NaN
             NaN             NaN             NaN
             NaN             NaN             NaN
             NaN             NaN             NaN
