Li7 Mn16 O32                            
   1.00000000000000     
     8.3852810000000009    0.0669060000000000    0.0010590000000000
     0.0324230000000000    8.1858319999999996    0.0178850000000000
    -0.0174750000000000   -0.0130760000000000    8.2511620000000008
   Li   Mn   O 
     7    16    32
Direct
  0.2216776697874835  0.5252491841239534  0.7203330800120467
  0.8804818600193414  0.8731112808776651  0.8784737961843626
  0.1187431418018653  0.1293397542876436  0.1237221111926251
  0.8840673024247639  0.3712268789750941  0.3807962121641186
  0.3779496506828439  0.8733327318010143  0.3813851410846108
  0.6160661784870727  0.1288450179308221  0.6258943368548511
  0.6199910914913119  0.6250997764179901  0.1179657685724368
  0.5026453835728993  0.2534876593753558  0.2468547572461305
  0.2519185726611828  0.4953175746158547  0.2447494481098811
  0.2537574438592018  0.2459392512477767  0.4995550710532655
  0.5057459450579411  0.4981847371812419  0.4968397632540911
  0.5025269783152824  0.7505510737534459  0.7518177618579218
  0.7611750497692336  0.5037524625452907  0.7399568783618942
  0.7502349669904155  0.7529715506918503  0.4972173363478168
  0.2432905049547408  0.9995541619523572  0.7566906187115280
  0.2458758620273778  0.7508701531451035  1.0012031593133968
  0.4957415006423668  0.0039544920752093  0.0035821422198214
  0.7454523514509379  0.0038777100640705  0.2547968861985440
  0.7523090838795495  0.2499906345241237  0.0007252701813206
 -0.0011931618187354  0.2461503145787208  0.7487167574575958
  0.0024810641234390  0.4961590214498832  0.9985904782284470
  0.9974097087277355  0.7489198473435340  0.2525129045926353
  0.9963867963507232  0.0015461474370633  0.5004841452308710
  0.7526385517477424  0.0126260382685570  0.0260558334221875
  0.0141757694225299  0.7306782703334754  0.0180982174373045
  0.0131449557679113  0.0133354119247222  0.7398867298974716
  0.7579561572112151  0.7359026288278344  0.7287978437571379
  0.2387425760422421  0.9796748254121708  0.9885128047317036
  0.9838968799832005  0.2632575524526648  0.9825354387965830
  0.9719548298929339  0.0043927571847114  0.2680162987895406
  0.2750972666622331  0.2646326404587060  0.2400068534437426
  0.7579172674805026  0.5192645775706229  0.5116771071456007
  0.0171593825769111  0.2363118217583685  0.5195611950188168
  0.0241391423586955  0.4923856024486301  0.2286838278492647
  0.7288540520969913  0.2355660550023182  0.2613706204388146
  0.2540010393931340  0.4797227229990360  0.4757593895913888
  0.9756512917637723  0.7667288607833807  0.4797439760134054
  0.9934496553205496  0.4817057536210526  0.7654455953293934
  0.2459769627592106  0.7627940701769461  0.7730409130878991
  0.2536484771686053  0.0123473467220310  0.5271938034874829
  0.5206371452899572  0.7336476666971574  0.5137846439955494
  0.5136379285214766  0.0171840681957724  0.2390237486431351
  0.2437503096959587  0.7300516368697404  0.2352805728477929
  0.7386037918805483  0.9817222676047410  0.4861717506292415
  0.4883959801326156  0.2649226603705337  0.4803139282920098
  0.4729848389801962  0.9917460068840895  0.7694945109035243
  0.7712584002628524  0.2702738408897890  0.7406085559477222
  0.2316616052188827  0.5152799925849395  0.0066904787625311
  0.5255822149668542  0.2403426299852351  0.0202974278328467
  0.5328876956724943  0.5148246423842628  0.7371025300460624
  0.2220219332150976  0.2324962266263753  0.7582242889973908
  0.7731451968396919  0.4946320223480930  0.9782302436858298
  0.4742479289429848  0.7623333735757457  0.9887205638417472
  0.4832764944673026  0.4862171869158367  0.2527284385767320
  0.7520186829350297  0.7672776731112269  0.2637274349688294
 
             NaN             NaN             NaN
             NaN             NaN             NaN
             NaN             NaN             NaN
             NaN             NaN             NaN
             NaN             NaN             NaN
             NaN             NaN             NaN
             NaN             NaN             NaN
             NaN             NaN             NaN
             NaN             NaN             NaN
             NaN             NaN             NaN
             NaN             NaN             NaN
             NaN             NaN             NaN
             NaN             NaN             NaN
             NaN             NaN             NaN
             NaN             NaN             NaN
             NaN             NaN             NaN
             NaN             NaN             NaN
             NaN             NaN             NaN
             NaN             NaN             NaN
             NaN             NaN             NaN
             NaN             NaN             NaN
             NaN             NaN             NaN
             NaN             NaN             NaN
             NaN             NaN             NaN
             NaN             NaN             NaN
             NaN             NaN             NaN
             NaN             NaN             NaN
             NaN             NaN             NaN
             NaN             NaN             NaN
             NaN             NaN             NaN
             NaN             NaN             NaN
             NaN             NaN             NaN
             NaN             NaN             NaN
             NaN             NaN             NaN
             NaN             NaN             NaN
             NaN             NaN             NaN
             NaN             NaN             NaN
             NaN             NaN             NaN
             NaN             NaN             NaN
             NaN             NaN             NaN
             NaN             NaN             NaN
             NaN             NaN             NaN
             NaN             NaN             NaN
             NaN             NaN             NaN
             NaN             NaN             NaN
             NaN             NaN             NaN
             NaN             NaN             NaN
             NaN             NaN             NaN
             NaN             NaN             NaN
             NaN             NaN             NaN
             NaN             NaN             NaN
             NaN             NaN             NaN
             NaN             NaN             NaN
             NaN             NaN             NaN
             NaN             NaN             NaN
