Li7 Mn16 O32
1.0
8.385281 0.066906 0.001059
0.032423 8.185832 0.017885
-0.017475 -0.013076 8.251162
Li Mn O
7 16 32
direct
0.217796 0.528492 0.715165 Li
0.880125 0.874954 0.879609 Li
0.118708 0.128890 0.123506 Li
0.883379 0.371360 0.379567 Li
0.378008 0.874640 0.380466 Li
0.616169 0.128720 0.626242 Li
0.619781 0.625008 0.118410 Li
0.502743 0.252340 0.248828 Mn
0.254563 0.494924 0.241681 Mn
0.253877 0.250071 0.504105 Mn
0.503468 0.499191 0.498386 Mn
0.499804 0.749706 0.751504 Mn
0.757113 0.500654 0.743109 Mn
0.748548 0.751736 0.496680 Mn
0.242768 0.999619 0.756907 Mn
0.247628 0.748448 0.999164 Mn
0.494237 0.003547 0.004021 Mn
0.745850 0.003930 0.254973 Mn
0.751793 0.250067 0.000297 Mn
0.000757 0.249227 0.749503 Mn
0.004621 0.496692 0.996216 Mn
0.998619 0.748725 0.249754 Mn
0.995906 0.004026 0.500842 Mn
0.752615 0.013206 0.026445 O
0.016688 0.731162 0.014807 O
0.011910 0.013962 0.737884 O
0.748581 0.736051 0.730151 O
0.237708 0.977739 0.988465 O
0.984068 0.263651 0.981537 O
0.972345 0.004960 0.269631 O
0.276216 0.264210 0.240560 O
0.751867 0.518060 0.511089 O
0.018701 0.240911 0.520385 O
0.026416 0.492726 0.228657 O
0.728923 0.235166 0.261195 O
0.259127 0.485111 0.472470 O
0.976158 0.764222 0.481012 O
0.987078 0.483855 0.761564 O
0.252450 0.764924 0.768617 O
0.252623 0.014649 0.527238 O
0.519532 0.732906 0.509963 O
0.514281 0.016872 0.239710 O
0.242646 0.731019 0.233485 O
0.739050 0.980895 0.486295 O
0.487698 0.265793 0.481896 O
0.472027 0.996441 0.771326 O
0.772730 0.268647 0.740962 O
0.243104 0.515321 0.011003 O
0.522933 0.240016 0.020856 O
0.531364 0.506404 0.731591 O
0.223779 0.229193 0.761562 O
0.763117 0.491944 0.976157 O
0.474880 0.762835 0.990600 O
0.486363 0.486235 0.258057 O
0.754051 0.767221 0.263604 O
