Li16 Co18 O36                           
   1.00000000000000     
     8.1674650000000000   -0.0042730000000000    2.4395579999999999
     3.7218429999999998    7.2702920000000004    2.4397250000000001
     0.0237340000000000    0.0147830000000000   10.0012209999999993
   Li   Co   O 
    16    18    36
Direct
  0.2875678374973333  0.6209625294505575  0.5075801026999185
  0.3338272622610599  0.3324413985772219  0.0006687000123481
  0.3332767668850973  0.6666077247207206  0.9999772341715678
  0.3327015002250504  0.9996248867362842  0.0009514817107275
  0.3324238378143184  0.0042651772763495  0.5017678027135598
  0.6667653713382043  0.3335699401054545  0.9995205003843712
  0.6561568986940298  0.3362813596193610  0.4990771649016517
  0.6662962525724780  0.6660267069734251  0.0009523811093912
  0.6709495735339073  0.6657397804197492  0.5017667321669556
  0.6664064504056831  0.9997377911482226  1.0007064419830980
  0.6664637478436544  0.9997878232300874  0.5008303490469050
  0.9993589924426270  0.3326898305107379  0.0007545070677201
  0.0222947713081277  0.3555931273352300  0.5001670447924140
  0.9991099626470223  0.6671595295613446  0.0006667603792804
  0.0002336903807372  0.0001024389290232  0.9995155262540498
  0.0029329583059301  0.9895437515828354  0.4990723604931510
  0.1655942112808279  0.1659171260640994  0.2476642120315102
  0.1676883255295860  0.1663865519559231  0.7522987337509833
  0.1655632883084988  0.4988857043180676  0.2486916851170402
  0.1660182963846493  0.4993873128858784  0.7533211562426467
  0.1651024128455184  0.8333736531733869  0.2475320235751312
  0.1672629373075650  0.8333883493815732  0.7527905042008403
  0.4986023730678973  0.1658930735279235  0.2508280832016753
  0.4999975567302731  0.1668633970369522  0.7507832029960658
  0.5000421762360936  0.4984318809863114  0.2475326139003732
  0.5000352085935396  0.5006134100945904  0.7527905011545719
  0.4983564057487953  0.8316535094502328  0.2512387981367579
  0.4992312276164583  0.8325729400849039  0.7557534493880911
  0.8334362908539312  0.1667468664003429  0.2456423651059000
  0.8341291113298970  0.1674878200272145  0.7495523595427873
  0.8326128568882959  0.4989049416500365  0.2476646423152187
  0.8330426297565524  0.5010308362429530  0.7522961328727172
  0.8325872689645625  0.8319081672509968  0.2508282034710339
  0.8335100934889391  0.8333541693909630  0.7507731777574598
  0.2510939256168715  0.2522712849062985  0.3529915321791125
  0.2546108543597517  0.2523247772870802  0.8612882231221584
  0.2551225301337796  0.5884497545526031  0.3446130097967395
  0.2533342252009821  0.5866937667691057  0.8618572778698278
  0.2507081195983154  0.9204160006500626  0.3554658352743428
  0.2516043532124342  0.9197739092328006  0.8636740367116034
  0.5913421794589682  0.2523858132437348  0.3519913140995528
  0.5882009389194572  0.2528032263038821  0.8590493070058683
  0.5871206517406511  0.5840073224419126  0.3554619308015979
  0.5864394046753052  0.5849396929369518  0.8636714564470775
  0.5856055915196366  0.9189033432491689  0.3596607405586706
  0.5878422811247612  0.9211747833186849  0.8613974957865170
  0.9193204883879429  0.2526288218745849  0.3532787348931909
  0.9195891439520025  0.2529399813751742  0.8596626700067121
  0.9189684358632098  0.5843957324037314  0.3529949335997090
  0.9189706865600218  0.5879659434018771  0.8612883748071644
  0.9190680558421191  0.9246597379186119  0.3519955492915283
  0.9194493072345521  0.9215522553678481  0.8590497374404826
  0.0805652061098421  0.0799375066865712  0.1368091085167983
  0.0817325754737105  0.0797867864901403  0.6437879554836127
  0.0795467729131667  0.4128561757480994  0.1387072860919101
  0.0774649074374792  0.4108168101077872  0.6534169301841471
  0.0774009994042363  0.7465134123629452  0.1397511940752204
  0.0803628479105440  0.7466029941524798  0.6485522047557760
  0.4134508150698695  0.0778751396995256  0.1419025019707232
  0.4141575368673902  0.0742735936553911  0.6491634151496293
  0.4131872745740963  0.4107238142993266  0.1397553642835573
  0.4132307992077949  0.4137250545264943  0.6485561037276525
  0.4134065694888576  0.7467343785366245  0.1401797437074350
  0.4138973325406849  0.7472622331043711  0.6484261049889539
  0.7448193939305566  0.0781303739419285  0.1404348307844255
  0.7467173547587552  0.0800861867087583  0.6416899354322370
  0.7466098003709318  0.4138897908650988  0.1368129831379216
  0.7464191974719468  0.4150916668075538  0.6437922296619446
  0.7445719214189479  0.7467630859519351  0.1418982216017493
  0.7409224372034686  0.7475112914308961  0.6491629559195862
 
             NaN             NaN             NaN
             NaN             NaN             NaN
             NaN             NaN             NaN
             NaN             NaN             NaN
             NaN             NaN             NaN
             NaN             NaN             NaN
             NaN             NaN             NaN
             NaN             NaN             NaN
             NaN             NaN             NaN
             NaN             NaN             NaN
             NaN             NaN             NaN
             NaN             NaN             NaN
             NaN             NaN             NaN
             NaN             NaN             NaN
             NaN             NaN             NaN
             NaN             NaN             NaN
             NaN             NaN             NaN
             NaN             NaN             NaN
             NaN             NaN             NaN
             NaN             NaN             NaN
             NaN             NaN             NaN
             NaN             NaN             NaN
             NaN             NaN             NaN
             NaN             NaN             NaN
             NaN             NaN             NaN
             NaN             NaN             NaN
             NaN             NaN             NaN
             NaN             NaN             NaN
             NaN             NaN             NaN
             NaN             NaN             NaN
             NaN             NaN             NaN
             NaN             NaN             NaN
             NaN             NaN             NaN
             NaN             NaN             NaN
             NaN             NaN             NaN
             NaN             NaN             NaN
             NaN             NaN             NaN
             NaN             NaN             NaN
             NaN             NaN             NaN
             NaN             NaN             NaN
             NaN             NaN             NaN
             NaN             NaN             NaN
             NaN             NaN             NaN
             NaN             NaN             NaN
             NaN             NaN             NaN
             NaN             NaN             NaN
             NaN             NaN             NaN
             NaN             NaN             NaN
             NaN             NaN             NaN
             NaN             NaN             NaN
             NaN             NaN             NaN
             NaN             NaN             NaN
             NaN             NaN             NaN
             NaN             NaN             NaN
             NaN             NaN             NaN
             NaN             NaN             NaN
             NaN             NaN             NaN
             NaN             NaN             NaN
             NaN             NaN             NaN
             NaN             NaN             NaN
             NaN             NaN             NaN
             NaN             NaN             NaN
             NaN             NaN             NaN
             NaN             NaN             NaN
             NaN             NaN             NaN
             NaN             NaN             NaN
             NaN             NaN             NaN
             NaN             NaN             NaN
             NaN             NaN             NaN
             NaN             NaN             NaN
