Li48 P16 O64                            
   1.00000000000000     
    10.5842319538410070   -0.0038436071363508   -0.0104316430150299
    -0.0044891040632277   12.3458899810085878   -0.0063019252425039
    -0.0098144655435145   -0.0051002125464682    9.9813607790407541
   Li   P    O 
    46    16    64
Direct
  0.1637779914611124  0.2531091519575350  0.1500583430395496
  0.6657993127929914  0.2482668109628222  0.6064566092387222
  0.6639576541594019  0.7498291368580381  0.0989555572532765
  0.6645148422803238  0.7521887449426761  0.6000795836330804
  0.1638006301007891  0.4976442460422261  0.1508329457782916
  0.1638992996979880  0.4997326923109869  0.6520222461233817
  0.1625753218297382  0.9933482041969367  0.1545386040219750
  0.1642316206670682  0.9983277354100684  0.6518687755506102
  0.3365937387632769  0.0001238540520917  0.4014198717606744
  0.3370202909800757  0.0007558908028124  0.9007611734903187
  0.3359481367073081  0.5020618294605339  0.3996894566987295
  0.3380418229285751  0.4972030658039912  0.9077967642268476
  0.8369622463475381  0.2490497663091041  0.3474699390253634
  0.8361239389989755  0.2495481548034807  0.8541725655393155
  0.8367226632706295  0.7488697447810001  0.3496343143818662
  0.8367192718456742  0.7490162001766140  0.8493692261085573
  0.3361325294803561  0.2498926174607477  0.3981767824311060
  0.3384644352202887  0.2522375214610511  0.9055761414879867
  0.3366658180207446  0.7500020006735069  0.4004406224438721
  0.3367040056230808  0.7497815070916592  0.9017556660879917
  0.8375768884358877  0.0012376180378513  0.3502132084458409
  0.8374387991932678  0.0016576476682895  0.8493512408835563
  0.8360167296857486  0.5020807882991171  0.3477102610803761
  0.8354574920981009  0.5005965619013202  0.8496573450803108
  0.6563360989913222  0.4913126909483581  0.0939939384691538
  0.6669184138096046  0.5047808725263866  0.5967279541462586
  0.6674428842941866  0.0011773646489343  0.1004189273107162
  0.6642957757097323  0.0002544677794883  0.5990530296322508
  0.1637147274978952  0.2509488311883121  0.6521995467451218
  0.1631108995959866  0.7499017386841730  0.1510969101352244
  0.1640792227240520  0.7510115259473533  0.6520962831313912
  0.9223699931535781  0.3761107114168291  0.1463306788565106
  0.9254162663177606  0.3751005975306219  0.6496486448265724
  0.9243549090782086  0.8739317177848284  0.1496786554533519
  0.9255955339146078  0.8750294649176338  0.6493608325513738
  0.4201882379069076  0.3766024119952280  0.6116032648841622
  0.4306504420196665  0.8739486367565412  0.1011133895527165
  0.4266821307268150  0.8755711793959695  0.6013482897364822
  0.0762496563976996  0.1245459809045443  0.3517897326172553
  0.0767460701444116  0.1253432877149579  0.8529072021715026
  0.0742519166328048  0.6244736474517213  0.3511157180980595
  0.0748420391543340  0.6242245845757237  0.8528309326938021
  0.5743454809126870  0.1254852644710630  0.3951215977089771
  0.5753871807898344  0.1305575396549655  0.9060859845418632
  0.5741816763987683  0.6270514163897946  0.3991657623052325
  0.5734017302619726  0.6246183027426971  0.8984838454963952
  0.9152675384648320  0.1244663654590102  0.0981124041867776
  0.9131360647153179  0.1247818927024413  0.5971135088473094
  0.9092445242026173  0.6244052940415559  0.0969688997983939
  0.9123630854827043  0.6255598520559988  0.5971786994571993
  0.4067791678261477  0.1186603912277186  0.1528619227730372
  0.4112605742694479  0.1250146374006696  0.6530482342579973
  0.4101229055393161  0.6283828040932560  0.1526210669870331
  0.4107885786446684  0.6264808444838458  0.6537713670267189
  0.0883766781275240  0.3755954252084476  0.4038595007377544
  0.0878685995290237  0.3753267203868612  0.9033361387849215
  0.0884862483751755  0.8741444234427977  0.4047627603695581
  0.0884545284094154  0.8744265889090889  0.9041532987006401
  0.5888187543762133  0.3766234976214434  0.3517455733279057
  0.5875376828705501  0.3756445233442928  0.8343366121049125
  0.5904885463509258  0.8754493384834577  0.3471145227247037
  0.5901236242350093  0.8757903233132985  0.8468669817848358
  0.8438186522454417  0.0222421161862410  0.1499287044057918
  0.8422304394030046  0.0218493239392711  0.6480719240815092
  0.8375292669381682  0.5216160210897395  0.1469023711152219
  0.8427402711373710  0.5225153109348138  0.6490746219679330
  0.3307055454889601  0.2140153867308218  0.0941649470816750
  0.3411317936312173  0.2280264418947928  0.6005540161003727
  0.3442623924084370  0.7354580284138293  0.1059149930127193
  0.3415048503702264  0.7301258657396263  0.6024882324646623
  0.1572646266918714  0.2721110061109076  0.3514428711240997
  0.1578352165574265  0.2721520798202367  0.8520456715575401
  0.1582580258476688  0.7710725034259109  0.3527816409302609
  0.1586923135545683  0.7712136946599331  0.8532432952812972
  0.6591110718063602  0.4799773843960348  0.4016190271891325
  0.6557215572418263  0.4762820159970690  0.8948985841778260
  0.6598238749881611  0.9791589885145259  0.3984692013606946
  0.6604277953933806  0.9785750511829961  0.8990465427536889
  0.1587312447822007  0.4784744188410857  0.3525950147984211
  0.1579069179131385  0.4783999724917012  0.8519397654123598
  0.1586884686113111  0.9773813145737147  0.3540421197821694
  0.1592058525658843  0.9775359681713318  0.8537261232876575
  0.6590280823357313  0.2730937152673718  0.4007581940205083
  0.6558558085650756  0.2695728895701984  0.8744257653259846
  0.6600190783428521  0.7723928696262584  0.3996772991876559
  0.6589764470771116  0.7718281022176529  0.8976916713389469
  0.8549226442300277  0.2292887920560912  0.1533251446861732
  0.8437588462039610  0.2280166808265010  0.6486998720851925
  0.8403053815017431  0.7281153744150851  0.1485794281173088
  0.8420400413115913  0.7286982046945703  0.6482983806101316
  0.3391287739033406  0.0119584139055733  0.1070186619349614
  0.3415213711090427  0.0214939677273022  0.6014737677367660
  0.3319891057182131  0.5328737702849539  0.0971556141060946
  0.3406528012938479  0.5238589073563028  0.6005111963002714
  0.5426273271063279  0.1153728594896075  0.0972986616843268
  0.5493917438905048  0.1255475067359372  0.5993832838217337
  0.5482732371975476  0.6248840425882257  0.0995484444367089
  0.5495213133459375  0.6271789333129393  0.6020117635701255
  0.0551438747476373  0.1210096592013352  0.1476564796372256
  0.0516677891804341  0.1241091474019663  0.6493554096066912
  0.0475730401444930  0.6238257679198717  0.1500245450694457
  0.0509770000132169  0.6257551359267073  0.6489508059490764
  0.4505252528714488  0.3761393632725796  0.4034032965700801
  0.4457451451072773  0.3744704977486218  0.8700922307892940
  0.4517276740314871  0.8753062803440207  0.3982891300832981
  0.4514110347056701  0.8758339529814508  0.8981560928531269
  0.9493686615155319  0.3764337720208494  0.3529195694904599
  0.9490762514568716  0.3753166083118428  0.8511593795584866
  0.9499575174880774  0.8745804211813872  0.3523680281101139
  0.9502360889890139  0.8749744296474418  0.8508755287483117
  0.5863617303891282  0.3739610764973872  0.1965880125081512
  0.5949308791555562  0.3811432107302016  0.6775901551505298
  0.5930708620601974  0.8748574742738067  0.1907909604140244
  0.5909004194754360  0.8763277561066446  0.6903953896396794
  0.0874640835629465  0.3754561308706504  0.0595613993858603
  0.0901467141084522  0.3750417297888979  0.5603010704590674
  0.0873191161110536  0.8733628387830616  0.0605082922726434
  0.0892658989787797  0.8741992486780908  0.5611128922843376
  0.4084102531603746  0.1243818828680700  0.3089669279903345
  0.4107401136008476  0.1249796812457089  0.8090154859366291
  0.4114957839303273  0.6257320104572117  0.3092713312988253
  0.4096626813754469  0.6255411173510995  0.8099996838435204
  0.9122081774611145  0.1251270276425817  0.4406913931993482
  0.9122033142064019  0.1247334539397365  0.9418100131609293
  0.9108499200620076  0.6251452895084481  0.4407131956117576
  0.9095346729606357  0.6249504630463760  0.9404466267851602
 
  0.00000000E+00  0.00000000E+00  0.00000000E+00
  0.00000000E+00  0.00000000E+00  0.00000000E+00
  0.00000000E+00  0.00000000E+00  0.00000000E+00
  0.00000000E+00  0.00000000E+00  0.00000000E+00
  0.00000000E+00  0.00000000E+00  0.00000000E+00
  0.00000000E+00  0.00000000E+00  0.00000000E+00
  0.00000000E+00  0.00000000E+00  0.00000000E+00
  0.00000000E+00  0.00000000E+00  0.00000000E+00
  0.00000000E+00  0.00000000E+00  0.00000000E+00
  0.00000000E+00  0.00000000E+00  0.00000000E+00
  0.00000000E+00  0.00000000E+00  0.00000000E+00
  0.00000000E+00  0.00000000E+00  0.00000000E+00
  0.00000000E+00  0.00000000E+00  0.00000000E+00
  0.00000000E+00  0.00000000E+00  0.00000000E+00
  0.00000000E+00  0.00000000E+00  0.00000000E+00
  0.00000000E+00  0.00000000E+00  0.00000000E+00
  0.00000000E+00  0.00000000E+00  0.00000000E+00
  0.00000000E+00  0.00000000E+00  0.00000000E+00
  0.00000000E+00  0.00000000E+00  0.00000000E+00
  0.00000000E+00  0.00000000E+00  0.00000000E+00
  0.00000000E+00  0.00000000E+00  0.00000000E+00
  0.00000000E+00  0.00000000E+00  0.00000000E+00
  0.00000000E+00  0.00000000E+00  0.00000000E+00
  0.00000000E+00  0.00000000E+00  0.00000000E+00
  0.00000000E+00  0.00000000E+00  0.00000000E+00
  0.00000000E+00  0.00000000E+00  0.00000000E+00
  0.00000000E+00  0.00000000E+00  0.00000000E+00
  0.00000000E+00  0.00000000E+00  0.00000000E+00
  0.00000000E+00  0.00000000E+00  0.00000000E+00
  0.00000000E+00  0.00000000E+00  0.00000000E+00
  0.00000000E+00  0.00000000E+00  0.00000000E+00
  0.00000000E+00  0.00000000E+00  0.00000000E+00
  0.00000000E+00  0.00000000E+00  0.00000000E+00
  0.00000000E+00  0.00000000E+00  0.00000000E+00
  0.00000000E+00  0.00000000E+00  0.00000000E+00
  0.00000000E+00  0.00000000E+00  0.00000000E+00
  0.00000000E+00  0.00000000E+00  0.00000000E+00
  0.00000000E+00  0.00000000E+00  0.00000000E+00
  0.00000000E+00  0.00000000E+00  0.00000000E+00
  0.00000000E+00  0.00000000E+00  0.00000000E+00
  0.00000000E+00  0.00000000E+00  0.00000000E+00
  0.00000000E+00  0.00000000E+00  0.00000000E+00
  0.00000000E+00  0.00000000E+00  0.00000000E+00
  0.00000000E+00  0.00000000E+00  0.00000000E+00
  0.00000000E+00  0.00000000E+00  0.00000000E+00
  0.00000000E+00  0.00000000E+00  0.00000000E+00
  0.00000000E+00  0.00000000E+00  0.00000000E+00
  0.00000000E+00  0.00000000E+00  0.00000000E+00
  0.00000000E+00  0.00000000E+00  0.00000000E+00
  0.00000000E+00  0.00000000E+00  0.00000000E+00
  0.00000000E+00  0.00000000E+00  0.00000000E+00
  0.00000000E+00  0.00000000E+00  0.00000000E+00
  0.00000000E+00  0.00000000E+00  0.00000000E+00
  0.00000000E+00  0.00000000E+00  0.00000000E+00
  0.00000000E+00  0.00000000E+00  0.00000000E+00
  0.00000000E+00  0.00000000E+00  0.00000000E+00
  0.00000000E+00  0.00000000E+00  0.00000000E+00
  0.00000000E+00  0.00000000E+00  0.00000000E+00
  0.00000000E+00  0.00000000E+00  0.00000000E+00
  0.00000000E+00  0.00000000E+00  0.00000000E+00
  0.00000000E+00  0.00000000E+00  0.00000000E+00
  0.00000000E+00  0.00000000E+00  0.00000000E+00
  0.00000000E+00  0.00000000E+00  0.00000000E+00
  0.00000000E+00  0.00000000E+00  0.00000000E+00
  0.00000000E+00  0.00000000E+00  0.00000000E+00
  0.00000000E+00  0.00000000E+00  0.00000000E+00
  0.00000000E+00  0.00000000E+00  0.00000000E+00
  0.00000000E+00  0.00000000E+00  0.00000000E+00
  0.00000000E+00  0.00000000E+00  0.00000000E+00
  0.00000000E+00  0.00000000E+00  0.00000000E+00
  0.00000000E+00  0.00000000E+00  0.00000000E+00
  0.00000000E+00  0.00000000E+00  0.00000000E+00
  0.00000000E+00  0.00000000E+00  0.00000000E+00
  0.00000000E+00  0.00000000E+00  0.00000000E+00
  0.00000000E+00  0.00000000E+00  0.00000000E+00
  0.00000000E+00  0.00000000E+00  0.00000000E+00
  0.00000000E+00  0.00000000E+00  0.00000000E+00
  0.00000000E+00  0.00000000E+00  0.00000000E+00
  0.00000000E+00  0.00000000E+00  0.00000000E+00
  0.00000000E+00  0.00000000E+00  0.00000000E+00
  0.00000000E+00  0.00000000E+00  0.00000000E+00
  0.00000000E+00  0.00000000E+00  0.00000000E+00
  0.00000000E+00  0.00000000E+00  0.00000000E+00
  0.00000000E+00  0.00000000E+00  0.00000000E+00
  0.00000000E+00  0.00000000E+00  0.00000000E+00
  0.00000000E+00  0.00000000E+00  0.00000000E+00
  0.00000000E+00  0.00000000E+00  0.00000000E+00
  0.00000000E+00  0.00000000E+00  0.00000000E+00
  0.00000000E+00  0.00000000E+00  0.00000000E+00
  0.00000000E+00  0.00000000E+00  0.00000000E+00
  0.00000000E+00  0.00000000E+00  0.00000000E+00
  0.00000000E+00  0.00000000E+00  0.00000000E+00
  0.00000000E+00  0.00000000E+00  0.00000000E+00
  0.00000000E+00  0.00000000E+00  0.00000000E+00
  0.00000000E+00  0.00000000E+00  0.00000000E+00
  0.00000000E+00  0.00000000E+00  0.00000000E+00
  0.00000000E+00  0.00000000E+00  0.00000000E+00
  0.00000000E+00  0.00000000E+00  0.00000000E+00
  0.00000000E+00  0.00000000E+00  0.00000000E+00
  0.00000000E+00  0.00000000E+00  0.00000000E+00
  0.00000000E+00  0.00000000E+00  0.00000000E+00
  0.00000000E+00  0.00000000E+00  0.00000000E+00
  0.00000000E+00  0.00000000E+00  0.00000000E+00
  0.00000000E+00  0.00000000E+00  0.00000000E+00
  0.00000000E+00  0.00000000E+00  0.00000000E+00
  0.00000000E+00  0.00000000E+00  0.00000000E+00
  0.00000000E+00  0.00000000E+00  0.00000000E+00
  0.00000000E+00  0.00000000E+00  0.00000000E+00
  0.00000000E+00  0.00000000E+00  0.00000000E+00
  0.00000000E+00  0.00000000E+00  0.00000000E+00
  0.00000000E+00  0.00000000E+00  0.00000000E+00
  0.00000000E+00  0.00000000E+00  0.00000000E+00
  0.00000000E+00  0.00000000E+00  0.00000000E+00
  0.00000000E+00  0.00000000E+00  0.00000000E+00
  0.00000000E+00  0.00000000E+00  0.00000000E+00
  0.00000000E+00  0.00000000E+00  0.00000000E+00
  0.00000000E+00  0.00000000E+00  0.00000000E+00
  0.00000000E+00  0.00000000E+00  0.00000000E+00
  0.00000000E+00  0.00000000E+00  0.00000000E+00
  0.00000000E+00  0.00000000E+00  0.00000000E+00
  0.00000000E+00  0.00000000E+00  0.00000000E+00
  0.00000000E+00  0.00000000E+00  0.00000000E+00
  0.00000000E+00  0.00000000E+00  0.00000000E+00
  0.00000000E+00  0.00000000E+00  0.00000000E+00
  0.00000000E+00  0.00000000E+00  0.00000000E+00
  0.00000000E+00  0.00000000E+00  0.00000000E+00
