Li46 P16 O64
1.0
10.584232 -0.003844 -0.010432
-0.004489 12.345890 -0.006302
-0.009814 -0.005100 9.981361
Li P O
46 16 64
direct
0.163778 0.253109 0.150058 Li
0.665799 0.248267 0.606457 Li
0.663958 0.749829 0.098956 Li
0.664515 0.752189 0.600080 Li
0.163801 0.497644 0.150833 Li
0.163899 0.499733 0.652022 Li
0.162575 0.993348 0.154539 Li
0.164232 0.998328 0.651869 Li
0.336594 0.000124 0.401420 Li
0.337020 0.000756 0.900761 Li
0.335948 0.502062 0.399689 Li
0.338042 0.497203 0.907797 Li
0.836962 0.249050 0.347470 Li
0.836124 0.249548 0.854173 Li
0.836723 0.748870 0.349634 Li
0.836719 0.749016 0.849369 Li
0.336133 0.249893 0.398177 Li
0.338464 0.252238 0.905576 Li
0.336666 0.750002 0.400441 Li
0.336704 0.749782 0.901756 Li
0.837577 0.001238 0.350213 Li
0.837439 0.001658 0.849351 Li
0.836017 0.502081 0.347710 Li
0.835457 0.500597 0.849657 Li
0.656336 0.491313 0.093994 Li
0.666918 0.504781 0.596728 Li
0.667443 1.001177 0.100419 Li
0.664296 1.000254 0.599053 Li
0.163715 0.250949 0.652200 Li
0.163111 0.749902 0.151097 Li
0.164079 0.751012 0.652096 Li
0.922370 0.376111 0.146331 Li
0.925416 0.375101 0.649649 Li
0.924355 0.873932 0.149679 Li
0.925596 0.875029 0.649361 Li
0.420188 0.376602 0.611603 Li
0.430650 0.873949 0.101113 Li
0.426682 0.875571 0.601348 Li
0.076250 0.124546 0.351790 Li
0.076746 0.125343 0.852907 Li
0.074252 0.624474 0.351116 Li
0.074842 0.624225 0.852831 Li
0.574345 0.125485 0.395122 Li
0.575387 0.130558 0.906086 Li
0.574182 0.627051 0.399166 Li
0.573402 0.624618 0.898484 Li
0.915268 0.124466 0.098112 P
0.913136 0.124782 0.597114 P
0.909245 0.624405 0.096969 P
0.912363 0.625560 0.597179 P
0.406779 0.118660 0.152862 P
0.411261 0.125015 0.653048 P
0.410123 0.628383 0.152621 P
0.410789 0.626481 0.653771 P
0.088377 0.375595 0.403860 P
0.087869 0.375327 0.903336 P
0.088486 0.874144 0.404763 P
0.088455 0.874427 0.904153 P
0.588819 0.376623 0.351746 P
0.587538 0.375645 0.834337 P
0.590489 0.875449 0.347115 P
0.590124 0.875790 0.846867 P
0.843819 0.022242 0.149929 O
0.842230 0.021849 0.648072 O
0.837529 0.521616 0.146902 O
0.842740 0.522515 0.649075 O
0.330706 0.214015 0.094165 O
0.341132 0.228026 0.600554 O
0.344262 0.735458 0.105915 O
0.341505 0.730126 0.602488 O
0.157265 0.272111 0.351443 O
0.157835 0.272152 0.852046 O
0.158258 0.771073 0.352782 O
0.158692 0.771214 0.853243 O
0.659111 0.479977 0.401619 O
0.655722 0.476282 0.894899 O
0.659824 0.979159 0.398469 O
0.660428 0.978575 0.899047 O
0.158731 0.478474 0.352595 O
0.157907 0.478400 0.851940 O
0.158688 0.977381 0.354042 O
0.159206 0.977536 0.853726 O
0.659028 0.273094 0.400758 O
0.655856 0.269573 0.874426 O
0.660019 0.772393 0.399677 O
0.658976 0.771828 0.897692 O
0.854923 0.229289 0.153325 O
0.843759 0.228017 0.648700 O
0.840305 0.728115 0.148579 O
0.842040 0.728698 0.648298 O
0.339129 0.011958 0.107019 O
0.341521 0.021494 0.601474 O
0.331989 0.532874 0.097156 O
0.340653 0.523859 0.600511 O
0.542627 0.115373 0.097299 O
0.549392 0.125548 0.599383 O
0.548273 0.624884 0.099548 O
0.549521 0.627179 0.602012 O
0.055144 0.121010 0.147656 O
0.051668 0.124109 0.649355 O
0.047573 0.623826 0.150025 O
0.050977 0.625755 0.648951 O
0.450525 0.376139 0.403403 O
0.445745 0.374470 0.870092 O
0.451728 0.875306 0.398289 O
0.451411 0.875834 0.898156 O
0.949369 0.376434 0.352920 O
0.949076 0.375317 0.851159 O
0.949958 0.874580 0.352368 O
0.950236 0.874974 0.850876 O
0.586362 0.373961 0.196588 O
0.594931 0.381143 0.677590 O
0.593071 0.874857 0.190791 O
0.590900 0.876328 0.690395 O
0.087464 0.375456 0.059561 O
0.090147 0.375042 0.560301 O
0.087319 0.873363 0.060508 O
0.089266 0.874199 0.561113 O
0.408410 0.124382 0.308967 O
0.410740 0.124980 0.809015 O
0.411496 0.625732 0.309271 O
0.409663 0.625541 0.810000 O
0.912208 0.125127 0.440691 O
0.912203 0.124733 0.941810 O
0.910850 0.625145 0.440713 O
0.909535 0.624950 0.940447 O
