Li17 Co18 O36                           
   1.00000000000000     
     8.1837839999999993   -0.0000610000000000    2.4240680000000001
     3.7330130000000001    7.2827869999999999    2.4240599999999999
     0.0237650000000000    0.0145310000000000    9.9395170000000004
   Li   Co   O 
    17    18    36
Direct
  0.3245995159086352  0.6267704234713529  0.5026659905505158
  0.3327875161395428  0.3321754986150075  0.0009556488405127
  0.3330788731806848  0.6655092973950215  1.0004038632159362
  0.3318632608997523 -0.0007327919841038  0.0010554585326106
  0.3316224033899771  0.0055829418147316  0.5008627839906177
  0.6659384443810070  0.3327263128871101  1.0006765745956441
  0.6618493948451237  0.3290975819003469  0.5008713897307152
  0.6653681868234977  0.6655613840917408  0.0011543400037614
  0.6557812307294725  0.6650288941465208  0.5020539143577386
  0.6658919444503894 -0.0011055678406153  0.0011116124244394
  0.6467280648511144  0.0171669657140312  0.5009020869747290
 -0.0004679784761701  0.3316742724981210  1.0010015704558477
  0.0142743482556553  0.3326788721739131  0.5006767646668975
 -0.0007233605837409  0.6656354417859169  0.0006882949909133
 -0.0075004469325521  0.6643761417702101  0.5007140056917031
 -0.0002612547613621 -0.0004684727801235  1.0001387513288722
  0.0039357758713092  0.9945219427104289  0.4994107926431072
  0.1646804157822118  0.1662408750381930  0.2481998938411925
  0.1671458050230224  0.1653991794044213  0.7503685667187805
  0.1646372353896950  0.4987529684851256  0.2503301363316351
  0.1667823777666406  0.4969432536192433  0.7513234521200535
  0.1644359767633980  0.8336034387212321  0.2480691476846195
  0.1671862035769613  0.8310915123276418  0.7504693013778374
  0.4971812005411652  0.1665064202070916  0.2512286095557095
  0.4995881334004177  0.1645037957079577  0.7513434284131663
  0.4972508067791490  0.4986415970131309  0.2504689141879037
  0.4997714701480240  0.4976915620041292  0.7535320011193531
  0.4970469486930295  0.8324081139978301  0.2512345835362196
  0.4996337786973836  0.8305075973230536  0.7535350527032491
  0.8319353057640224  0.1661331302972113  0.2486808871587708
  0.8335587781346302  0.1648837395513611  0.7504846284443195
  0.8308415119507383  0.4990103191982656  0.2509203415406249
  0.8324098960063101  0.4979570562320085  0.7529921888592089
  0.8306892426255639  0.8326860189792767  0.2509230259536206
  0.8333437862080375  0.8313354498553434  0.7508137240141159
  0.2503935115621382  0.2519323110789619  0.3542191125847504
  0.2534361381353791  0.2513483280636484  0.8604218251529230
  0.2492783599857679  0.5907650900941357  0.3531538823885863
  0.2525488110442565  0.5854776817030425  0.8607948868670576
  0.2503996727007987  0.9211368410473846  0.3565012861440637
  0.2524214628720447  0.9183976933253277  0.8602768757394704
  0.5894968301493076  0.2524007170309858  0.3546713616361583
  0.5879784254234209  0.2503731767139890  0.8608483194513358
  0.5836946964853283  0.5852425286954146  0.3596198115613940
  0.5860644494844189  0.5839852180032856  0.8639937989876032
  0.5838418268223282  0.9200686233094477  0.3600366519287750
  0.5879240858608336  0.9182081154654723  0.8610860025412019
  0.9190731189234139  0.2522941767834682  0.3574233532591687
  0.9203166601055431  0.2509169271991451  0.8599548368978303
  0.9182987796793483  0.5858020718800682  0.3594092585706634
  0.9198802356745184  0.5857197314126085  0.8606244194584587
  0.9189088200748862  0.9201996188648957  0.3575629023186656
  0.9207250502625480  0.9184924037594011  0.8586837026354136
  0.0782852385575307  0.0799546366646274  0.1376958464590546
  0.0804101109794025  0.0781336601828291  0.6415788853152814
  0.0766436731497107  0.4136302517815689  0.1406219409049305
  0.0746666153098240  0.4126255567672373  0.6470124247097577
  0.0763103906739649  0.7460592670522821  0.1406645956245452
  0.0803163653126161  0.7429058740925264  0.6418505328434573
  0.4120180758177232  0.0782957745678680  0.1411965943707672
  0.4138431259921939  0.0726029686717155  0.6475730293108940
  0.4110197606931671  0.4118840110483473  0.1413049577289995
  0.4146314896759523  0.4101298374251562  0.6482262732246592
  0.4117282606606357  0.7457811855892458  0.1410064287420751
  0.4137588463031773  0.7435556429197178  0.6454094817433438
  0.7440575761455601  0.0784649587893483  0.1413654326161168
  0.7457876695960544  0.0780275702958787  0.6421156760606622
  0.7445676697694096  0.4129450801624900  0.1413004127536738
  0.7453006746357035  0.4117841074391079  0.6440542762771281
  0.7436213115116103  0.7455275682939988  0.1428371316987018
  0.7449824042695579  0.7438477795913331  0.6443685577739744
 
             NaN             NaN             NaN
             NaN             NaN             NaN
             NaN             NaN             NaN
             NaN             NaN             NaN
             NaN             NaN             NaN
             NaN             NaN             NaN
             NaN             NaN             NaN
             NaN             NaN             NaN
             NaN             NaN             NaN
             NaN             NaN             NaN
             NaN             NaN             NaN
             NaN             NaN             NaN
             NaN             NaN             NaN
             NaN             NaN             NaN
             NaN             NaN             NaN
             NaN             NaN             NaN
             NaN             NaN             NaN
             NaN             NaN             NaN
             NaN             NaN             NaN
             NaN             NaN             NaN
             NaN             NaN             NaN
             NaN             NaN             NaN
             NaN             NaN             NaN
             NaN             NaN             NaN
             NaN             NaN             NaN
             NaN             NaN             NaN
             NaN             NaN             NaN
             NaN             NaN             NaN
             NaN             NaN             NaN
             NaN             NaN             NaN
             NaN             NaN             NaN
             NaN             NaN             NaN
             NaN             NaN             NaN
             NaN             NaN             NaN
             NaN             NaN             NaN
             NaN             NaN             NaN
             NaN             NaN             NaN
             NaN             NaN             NaN
             NaN             NaN             NaN
             NaN             NaN             NaN
             NaN             NaN             NaN
             NaN             NaN             NaN
             NaN             NaN             NaN
             NaN             NaN             NaN
             NaN             NaN             NaN
             NaN             NaN             NaN
             NaN             NaN             NaN
             NaN             NaN             NaN
             NaN             NaN             NaN
             NaN             NaN             NaN
             NaN             NaN             NaN
             NaN             NaN             NaN
             NaN             NaN             NaN
             NaN             NaN             NaN
             NaN             NaN             NaN
             NaN             NaN             NaN
             NaN             NaN             NaN
             NaN             NaN             NaN
             NaN             NaN             NaN
             NaN             NaN             NaN
             NaN             NaN             NaN
             NaN             NaN             NaN
             NaN             NaN             NaN
             NaN             NaN             NaN
             NaN             NaN             NaN
             NaN             NaN             NaN
             NaN             NaN             NaN
             NaN             NaN             NaN
             NaN             NaN             NaN
             NaN             NaN             NaN
             NaN             NaN             NaN
