Li17 Co18 O36
1.0
8.183784 -0.000061 2.424068
3.733013 7.282787 2.424060
0.023765 0.014531 9.939517
Li Co O
17 18 36
direct
0.301616 0.625762 0.517688 Li
0.333113 0.333417 0.000024 Li
0.333959 0.666408 -0.000048 Li
0.332897 1.000189 1.000025 Li
0.333352 1.006138 0.499987 Li
0.666339 0.334029 -0.000048 Li
0.654435 0.336355 0.500017 Li
0.666148 0.666451 1.000131 Li
0.663424 0.666466 0.500968 Li
0.666315 1.000062 0.000035 Li
0.657448 1.009099 0.500309 Li
0.000415 0.332824 0.999997 Li
0.009237 0.333418 0.499670 Li
0.000288 0.666242 0.000007 Li
0.012198 0.657514 0.499993 Li
0.000493 1.000361 -0.000160 Li
0.003223 0.997174 0.499050 Li
0.166944 0.167093 0.247898 Co
0.167116 0.167074 0.749406 Co
0.167187 0.499675 0.249968 Co
0.167208 0.499672 0.749332 Co
0.167010 0.833833 0.248600 Co
0.166943 0.833192 0.749567 Co
0.499562 0.167119 0.250572 Co
0.499481 0.166856 0.750024 Co
0.499466 0.499745 0.250668 Co
0.499643 0.499921 0.751391 Co
0.499720 0.833181 0.250450 Co
0.499736 0.832650 0.752084 Co
0.833961 0.166857 0.248508 Co
0.833345 0.166816 0.749659 Co
0.833533 0.499912 0.249759 Co
0.832718 0.499849 0.751480 Co
0.833317 0.833274 0.250353 Co
0.833134 0.833284 0.750264 Co
0.252817 0.253146 0.354426 O
0.253533 0.253736 0.858421 O
0.252638 0.590613 0.353723 O
0.252942 0.587397 0.858911 O
0.253028 0.922345 0.355776 O
0.252692 0.920500 0.858974 O
0.590774 0.253022 0.354997 O
0.587525 0.252922 0.859105 O
0.588000 0.586444 0.357559 O
0.586427 0.586045 0.861716 O
0.586624 0.920668 0.358827 O
0.587209 0.920182 0.859963 O
0.921267 0.253501 0.356466 O
0.920398 0.252989 0.858598 O
0.920984 0.586605 0.358241 O
0.920400 0.587207 0.859048 O
0.921142 0.920923 0.357028 O
0.920481 0.920627 0.857951 O
0.080224 0.080369 0.138268 O
0.080035 0.079817 0.641196 O
0.079478 0.414011 0.140023 O
0.075920 0.413845 0.644996 O
0.079050 0.746529 0.140910 O
0.078645 0.746176 0.642450 O
0.414013 0.079257 0.140938 O
0.413864 0.075605 0.645583 O
0.413149 0.412768 0.141510 O
0.414016 0.412460 0.646229 O
0.413690 0.746317 0.141257 O
0.413616 0.745907 0.644241 O
0.746234 0.079151 0.141284 O
0.745705 0.079724 0.641760 O
0.746336 0.413562 0.141063 O
0.745525 0.413455 0.642968 O
0.746215 0.746419 0.142085 O
0.745436 0.745762 0.643551 O
