Li47 P16 O64
1.0
10.415335 0.000340 -0.006667
0.000391 12.185221 -0.001792
-0.006308 -0.001438 9.793431
Li P O
47 16 64
direct
0.571688 0.296685 0.097387 Li
0.665854 0.249177 0.600641 Li
0.664624 0.750728 0.097572 Li
0.664567 0.751650 0.598442 Li
0.164259 0.497637 0.151899 Li
0.164057 0.499134 0.652247 Li
0.163246 0.997207 0.153187 Li
0.164469 0.998531 0.652293 Li
0.336000 0.000630 0.401946 Li
0.336102 0.000709 0.902318 Li
0.336497 0.500335 0.400869 Li
0.336819 0.498443 0.905207 Li
0.835464 0.248879 0.346804 Li
0.835468 0.248988 0.849872 Li
0.836312 0.748874 0.348145 Li
0.836277 0.749037 0.847681 Li
0.336348 0.250007 0.401181 Li
0.336755 0.251034 0.904496 Li
0.336096 0.749333 0.401554 Li
0.336023 0.749314 0.902525 Li
0.836508 0.001202 0.348359 Li
0.836289 0.001127 0.847569 Li
0.836004 0.501342 0.347645 Li
0.835368 0.500899 0.848570 Li
0.660445 0.496363 0.096488 Li
0.666157 0.502335 0.598445 Li
0.665360 0.999927 0.098404 Li
0.664362 0.999451 0.598118 Li
0.164002 0.252306 0.151640 Li
0.163924 0.250938 0.652381 Li
0.163503 0.750728 0.152052 Li
0.164341 0.751185 0.652562 Li
0.920667 0.375357 0.147682 Li
0.922714 0.375005 0.648931 Li
0.922725 0.874758 0.149130 Li
0.923594 0.875106 0.648524 Li
0.421568 0.375420 0.608414 Li
0.426490 0.874716 0.100671 Li
0.423858 0.875248 0.600860 Li
0.077275 0.125055 0.351261 Li
0.077506 0.125096 0.851662 Li
0.076901 0.624590 0.350953 Li
0.077018 0.624590 0.851901 Li
0.576858 0.125605 0.398196 Li
0.576537 0.126564 0.901513 Li
0.576733 0.625559 0.399814 Li
0.575691 0.624952 0.898319 Li
0.912495 0.124757 0.095385 P
0.912956 0.124713 0.595326 P
0.911139 0.624906 0.095323 P
0.912807 0.625477 0.595435 P
0.410251 0.122141 0.154529 P
0.411668 0.124747 0.654881 P
0.411576 0.626767 0.154442 P
0.411387 0.625711 0.654904 P
0.087821 0.375105 0.404701 P
0.087105 0.375041 0.904724 P
0.088041 0.874686 0.404919 P
0.087903 0.874796 0.904937 P
0.589409 0.375731 0.349431 P
0.587739 0.375094 0.839314 P
0.588933 0.875160 0.345409 P
0.588652 0.875264 0.845220 P
0.842386 0.021537 0.147375 O
0.842248 0.021432 0.646531 O
0.839693 0.522125 0.146580 O
0.842744 0.522509 0.648026 O
0.335852 0.220732 0.098784 O
0.341424 0.227895 0.602522 O
0.343098 0.732126 0.105475 O
0.341647 0.729240 0.602909 O
0.157956 0.271764 0.352892 O
0.157453 0.271783 0.853116 O
0.158233 0.771443 0.352956 O
0.158445 0.771452 0.853758 O
0.659358 0.479310 0.401615 O
0.656053 0.477621 0.895882 O
0.658803 0.978658 0.397253 O
0.658936 0.978403 0.897272 O
0.158390 0.478242 0.353203 O
0.157626 0.478182 0.853083 O
0.158258 0.978030 0.353449 O
0.158598 0.978001 0.853728 O
0.659231 0.272131 0.401115 O
0.655960 0.270903 0.888508 O
0.658985 0.771896 0.397741 O
0.658604 0.771637 0.896602 O
0.844647 0.228318 0.147934 O
0.843210 0.227789 0.647945 O
0.841506 0.728560 0.147041 O
0.842258 0.728828 0.646665 O
0.341325 0.016712 0.106118 O
0.341768 0.021310 0.602636 O
0.336689 0.528126 0.099484 O
0.341391 0.522753 0.601900 O
0.548321 0.121553 0.101328 O
0.550862 0.124930 0.602780 O
0.550373 0.625526 0.101588 O
0.550940 0.626179 0.603767 O
0.052111 0.124100 0.146998 O
0.052232 0.124221 0.647206 O
0.050281 0.624423 0.147698 O
0.052018 0.625622 0.647365 O
0.450453 0.375218 0.401974 O
0.446149 0.374548 0.878569 O
0.449596 0.875058 0.396807 O
0.449456 0.875116 0.897079 O
0.948550 0.375325 0.352625 O
0.947877 0.375116 0.852335 O
0.948791 0.874838 0.352931 O
0.948992 0.874957 0.852021 O
0.591851 0.376920 0.193601 O
0.594758 0.377368 0.682068 O
0.590906 0.874881 0.188009 O
0.589473 0.875508 0.687799 O
0.086973 0.375111 0.062010 O
0.088780 0.374996 0.562170 O
0.087884 0.874510 0.062324 O
0.089167 0.874643 0.562315 O
0.410429 0.125067 0.311917 O
0.410413 0.124669 0.812126 O
0.411756 0.624920 0.311866 O
0.409803 0.625170 0.812216 O
0.911634 0.125200 0.437886 O
0.911335 0.124601 0.937983 O
0.911493 0.624978 0.437995 O
0.910585 0.625063 0.937832 O
