Li46 P16 O64                            
   1.00000000000000     
    10.6525330000000000   -0.0067910000000000   -0.0205770000000000
    -0.0079260000000000   12.4503609999999991   -0.0118360000000000
    -0.0193740000000000   -0.0095710000000000   10.0792660000000005
   Li   P    O 
    46    16    64
Direct
  0.2241709399065175  0.3010470208453528  0.1595141649325813
  0.6653593966670440  0.2517643178131816  0.5988375961191094
  0.6601163393046878  0.7468042533351290  0.0974715784320895
  0.6634356737912750  0.7508007320567254  0.6000723140211878
  0.1589484469907871  0.5086000290414473  0.1492576504066080
  0.1655189029195182  0.5002202563988876  0.6504899146319929
  0.1651602575946360  0.9947262865168252  0.1507013146014071
  0.1649108748607969  0.9998080903260477  0.6519751764325635
  0.3383340112648380  0.0003564223802541  0.3997479672690822
  0.3399206914498564  0.0005997406787981  0.9058243899987647
  0.3412797033284670  0.4992221515975054  0.3982571490236493
  0.3409457883380730  0.4954223964042614  0.9068164809189302
  0.8320668127524933  0.2489663310421038  0.3428206726986836
  0.8331841163731418  0.2485094320893221  0.8582594955737523
  0.8361694063737822  0.7483080616805298  0.3490291204698651
  0.8365900346054373  0.7486827142084006  0.8490495021738567
  0.3438528227117282  0.2481107528169383  0.4056485638484889
  0.3445863491285174  0.2507442710542163  0.9041920601785378
  0.3385563071423464  0.7487646702554738  0.3995727426350291
  0.3377635009109608  0.7491039199591158  0.9030660119565518
  0.8396779640458989  0.0031383393047492  0.3475954812397609
  0.8380039505661180  0.0024914557923270  0.8490573835605082
  0.8324386174782115  0.4982631886509817  0.3465775058639657
  0.8339818714545264  0.4989625700977128  0.8530408955503285
  0.6515751586875865  0.4849469323613911  0.0924922286725180
  0.6657753354058523  0.5015121136106588  0.5964182800605367
  0.6661360209076914  0.9980285312511259  0.1005234436792517
  0.6642443613297880  0.0010697229361273  0.5986475334071746
  0.1658669700008634  0.2512122320359328  0.6529628952371156
  0.1639241616766879  0.7519271666219021  0.1520942670886787
  0.1645525341098317  0.7518629391030391  0.6507035191396363
  0.9307074381084774  0.3675552987185594  0.1475468740258168
  0.9267690440395124  0.3738697873125143  0.6515412089288086
  0.9248151484561143  0.8762054565116828  0.1489663221155840
  0.9263124019236758  0.8763142565511410  0.6487696844680654
  0.4289384215547961  0.3759482561343494  0.6056925410000857
  0.4297624465143437  0.8743022006562317  0.1025821356259071
  0.4281767629466791  0.8756276097344140  0.6010826558308150
  0.0785316151496806  0.1325308869008658  0.3356112045910431
  0.0770752669011828  0.1272734619156572  0.8606365620561959
  0.0725366785847470  0.6259059063702880  0.3530399579140731
  0.0741150737402703  0.6244221702046784  0.8500216156975992
  0.5754259668338371  0.1298673629689283  0.3886263427666639
  0.5767350756784593  0.1361108979729911  0.9176634675244957
  0.5741306818334437  0.6214719434601156  0.3987404758625755
  0.5718869104506773  0.6206009670252706  0.8978554959599275
  0.9162938233724862  0.1216015850983788  0.0986647458987763
  0.9154888673027755  0.1258407743381320  0.5965662671856299
  0.9082141409707406  0.6251980570875580  0.0974979058154773
  0.9121371506381863  0.6253166355151680  0.5973716749632574
  0.4098706539420260  0.1150213046354124  0.1516824684764624
  0.4130092002113434  0.1225159231261967  0.6540333834767871
  0.4073608573821323  0.6270511100290235  0.1509132695312947
  0.4104117535998607  0.6270001628908592  0.6531785107202617
  0.0911433303375900  0.3781797890800655  0.4031171131982161
  0.0914510242654367  0.3772799973704067  0.9031983828474124
  0.0894351589223762  0.8746878125647182  0.4043933582391483
  0.0890828630833596  0.8735771847190477  0.9025356101780977
  0.5890661414407263  0.3764983803366021  0.3496109143261716
  0.5877498174845066  0.3739310444223423  0.8329667044847909
  0.5916581878972325  0.8732905537334591  0.3480516156774639
  0.5914519354324583  0.8737233126640693  0.8465850526236652
  0.8413033462964428  0.0200802108508547  0.1480886942916302
  0.8442560568919119  0.0230699392400753  0.6457737311181349
  0.8405387512598521  0.5218689764180287  0.1461064336505007
  0.8447526786753450  0.5232306557012398  0.6510702286197521
  0.3408604015484837  0.2113875218542705  0.0898451761671829
  0.3414021111198207  0.2242639561141227  0.6036814634609577
  0.3425087540589686  0.7344327432597885  0.1056083914052190
  0.3416339500133296  0.7303019053957132  0.6022405762612192
  0.1660195842407898  0.2790861887709002  0.3501003866945898
  0.1599720492058364  0.2750762219491296  0.8513482100009944
  0.1585571167191437  0.7713709187904427  0.3546181564593294
  0.1588337176562507  0.7711981980121261  0.8510669965923844
  0.6594415758242749  0.4793842860222213  0.4065423210847032
  0.6553105827138471  0.4758860689473975  0.8926473634537573
  0.6615502134935053  0.9761816109231221  0.3978367319411665
  0.6636415238831336  0.9739108663471985  0.8987044085114140
  0.1586599776755471  0.4822291956631877  0.3531486197759986
  0.1579751806052438  0.4798012190848303  0.8479496716541105
  0.1598761599872074  0.9760237145980348  0.3541925004102723
  0.1599404159167983  0.9758246157863577  0.8536832829190452
  0.6593960857871999  0.2738233555540140  0.4035899903516868
  0.6560679426374960  0.2705967415751818  0.8767947027259939
  0.6605231650236337  0.7710092798050580  0.4013210330253366
  0.6588790878436641  0.7691120663589706  0.8953742440269526
  0.8586277417800969  0.2255158752917177  0.1540702464137831
  0.8465123241273312  0.2279367147892465  0.6480579580053636
  0.8374715035966783  0.7274509633550045  0.1476914681353574
  0.8424555878789716  0.7279511137448286  0.6479784653458479
  0.3390419596328562  0.0089887304053587  0.1091774162153934
  0.3426377086191880  0.0195560044637559  0.6026559733151110
  0.3282735112350579  0.5323187462094017  0.0981161963743897
  0.3404393083217489  0.5258225533733677  0.5994438320591123
  0.5461350204164584  0.1075774942069700  0.1036085843350532
  0.5490174307593356  0.1232823729006654  0.5981601221399775
  0.5438523293869059  0.6239770289104801  0.0956434272458010
  0.5483428909116206  0.6278291272603763  0.6024259458138727
  0.0543638930445136  0.1113789705292741  0.1449617158387685
  0.0524977681984405  0.1245851938029691  0.6517121139397982
  0.0454402576920213  0.6286410686631653  0.1520490357577410
  0.0507329168968569  0.6269220267312307  0.6473878307558143
  0.4522511243259656  0.3749975918815226  0.4086237177591692
  0.4466469696364180  0.3746513363850265  0.8678881578880021
  0.4539492520885879  0.8739717876780961  0.4000088124706898
  0.4537753683717556  0.8738678647030571  0.8980498714728978
  0.9537295926948915  0.3762664721791742  0.3511040901596375
  0.9517153985700920  0.3755880993788754  0.8560389900426771
  0.9516624930990769  0.8738072137667543  0.3513639823176007
  0.9518015750641057  0.8741956105480011  0.8481477489917997
  0.5888826047440692  0.3805654953309750  0.1998657963969665
  0.5973415295766459  0.3803469791123664  0.6777221403834484
  0.5927713075300974  0.8703215536405619  0.1933178593311404
  0.5916631295429711  0.8749567729817439  0.6910326851795533
  0.0972659496634138  0.3809649722581768  0.0582875805904420
  0.0914436287890550  0.3763761135009833  0.5584926260847169
  0.0869330292632915  0.8711573960225455  0.0573089537878316
  0.0889277013023356  0.8747994808028065  0.5597512349357890
  0.4068739877299588  0.1232121509041454  0.3077536514481614
  0.4138802705170229  0.1215921754065346  0.8087544856144659
  0.4114395209926032  0.6256368091761338  0.3067246855112229
  0.4086244776360742  0.6262462766665903  0.8080915606330638
  0.9166847345999266  0.1260995608369575  0.4413447792310828
  0.9111989809185171  0.1229815422940080  0.9424308574732290
  0.9094731785596788  0.6243332526951403  0.4421775772450815
  0.9106367046338585  0.6258339889874025  0.9420168990431983
 
             NaN             NaN             NaN
             NaN             NaN             NaN
             NaN             NaN             NaN
             NaN             NaN             NaN
             NaN             NaN             NaN
             NaN             NaN             NaN
             NaN             NaN             NaN
             NaN             NaN             NaN
             NaN             NaN             NaN
             NaN             NaN             NaN
             NaN             NaN             NaN
             NaN             NaN             NaN
             NaN             NaN             NaN
             NaN             NaN             NaN
             NaN             NaN             NaN
             NaN             NaN             NaN
             NaN             NaN             NaN
             NaN             NaN             NaN
             NaN             NaN             NaN
             NaN             NaN             NaN
             NaN             NaN             NaN
             NaN             NaN             NaN
             NaN             NaN             NaN
             NaN             NaN             NaN
             NaN             NaN             NaN
             NaN             NaN             NaN
             NaN             NaN             NaN
             NaN             NaN             NaN
             NaN             NaN             NaN
             NaN             NaN             NaN
             NaN             NaN             NaN
             NaN             NaN             NaN
             NaN             NaN             NaN
             NaN             NaN             NaN
             NaN             NaN             NaN
             NaN             NaN             NaN
             NaN             NaN             NaN
             NaN             NaN             NaN
             NaN             NaN             NaN
             NaN             NaN             NaN
             NaN             NaN             NaN
             NaN             NaN             NaN
             NaN             NaN             NaN
             NaN             NaN             NaN
             NaN             NaN             NaN
             NaN             NaN             NaN
             NaN             NaN             NaN
             NaN             NaN             NaN
             NaN             NaN             NaN
             NaN             NaN             NaN
             NaN             NaN             NaN
             NaN             NaN             NaN
             NaN             NaN             NaN
             NaN             NaN             NaN
             NaN             NaN             NaN
             NaN             NaN             NaN
             NaN             NaN             NaN
             NaN             NaN             NaN
             NaN             NaN             NaN
             NaN             NaN             NaN
             NaN             NaN             NaN
             NaN             NaN             NaN
             NaN             NaN             NaN
             NaN             NaN             NaN
             NaN             NaN             NaN
             NaN             NaN             NaN
             NaN             NaN             NaN
             NaN             NaN             NaN
             NaN             NaN             NaN
             NaN             NaN             NaN
             NaN             NaN             NaN
             NaN             NaN             NaN
             NaN             NaN             NaN
             NaN             NaN             NaN
             NaN             NaN             NaN
             NaN             NaN             NaN
             NaN             NaN             NaN
             NaN             NaN             NaN
             NaN             NaN             NaN
             NaN             NaN             NaN
             NaN             NaN             NaN
             NaN             NaN             NaN
             NaN             NaN             NaN
             NaN             NaN             NaN
             NaN             NaN             NaN
             NaN             NaN             NaN
             NaN             NaN             NaN
             NaN             NaN             NaN
             NaN             NaN             NaN
             NaN             NaN             NaN
             NaN             NaN             NaN
             NaN             NaN             NaN
             NaN             NaN             NaN
             NaN             NaN             NaN
             NaN             NaN             NaN
             NaN             NaN             NaN
             NaN             NaN             NaN
             NaN             NaN             NaN
             NaN             NaN             NaN
             NaN             NaN             NaN
             NaN             NaN             NaN
             NaN             NaN             NaN
             NaN             NaN             NaN
             NaN             NaN             NaN
             NaN             NaN             NaN
             NaN             NaN             NaN
             NaN             NaN             NaN
             NaN             NaN             NaN
             NaN             NaN             NaN
             NaN             NaN             NaN
             NaN             NaN             NaN
             NaN             NaN             NaN
             NaN             NaN             NaN
             NaN             NaN             NaN
             NaN             NaN             NaN
             NaN             NaN             NaN
             NaN             NaN             NaN
             NaN             NaN             NaN
             NaN             NaN             NaN
             NaN             NaN             NaN
             NaN             NaN             NaN
             NaN             NaN             NaN
             NaN             NaN             NaN
             NaN             NaN             NaN
             NaN             NaN             NaN
             NaN             NaN             NaN
