Na15 V32 O64                            
   1.00000000000000     
     9.1046840000000007    0.0007610000000000   -0.0030140000000000
     0.0017620000000000   11.4419360000000001    0.0000630000000000
    -0.0000190000000000    0.0010940000000000   10.6051620000000000
   Na   V    O 
    15    32    64
Direct
  0.7389839723967766  0.4656650321567964  0.1694032202984571
  0.7424902581971143  0.0763582886606688  0.1523966514147793
  0.7425186485741812  0.8010919316947029  0.1526559217142465
  0.2430071165819365  0.0620578800649331  0.3472519441787609
  0.2424631696395190  0.3130764110202156  0.3462231813776595
  0.2430788793448254  0.5612437823327849  0.3473568056938792
  0.2420226979976177  0.8125135742303743  0.3467236691131299
  0.2580339333690187  0.1872875628121278  0.8492954362775875
  0.2595855096032660  0.4375231352656962  0.8484937057834765
  0.2576958841952279  0.6881393588220879  0.8502317236400448
  0.2578839672924025  0.9373743307837326  0.8487771309796804
  0.7581254256876135  0.1864020591353653  0.6498089735635539
  0.7564839459848227  0.4373303654307101  0.6506462710796085
  0.7583457859473912  0.6867825222851167  0.6499502701766736
  0.7568590255498395  0.9375027160568116  0.6490187620458776
  0.5844632598614076  0.0611468721991780  0.8958300257696815
  0.5895935566928291  0.3108698461487038  0.8975271101656509
  0.5878625806994242  0.5643086470845949  0.8964491170720292
  0.5848543104037601  0.8125876703165220  0.8969702081386958
  0.0868548560914077  0.0614114478756903  0.6018575189447706
  0.0867549372224845  0.3106493546846731  0.6030542293508024
  0.0887854668207063  0.5634903725803726  0.6038967672571145
  0.0839199471748395  0.8120468957246200  0.6015657663925060
  0.4158355525411299  0.1890029570375990  0.1041130112473112
  0.4096816977226834  0.4379260632766951  0.1036731466430387
  0.4155367068689428  0.6858050349287058  0.1052767331434387
  0.4179191339049767  0.9382468702549926  0.1047110303844882
  0.9146768596919829  0.1864304318939951  0.3944414203470606
  0.9162717318155547  0.4360003093550146  0.4004419368408295
  0.9149157993338974  0.6864298789241471  0.3944675359075067
  0.9110726643110587  0.9377412286599363  0.3939584966725720
  0.5606937835858824  0.0653694714918099  0.3880427591846956
  0.5632805311718850  0.3107008593358081  0.3847883242535010
  0.5617511244187826  0.5647885133532708  0.3883539325185666
  0.5610891945113492  0.8102610937722056  0.3870523011202802
  0.0628109942601216  0.0584858332188498  0.1122025629303472
  0.0569210827091304  0.3081886961376858  0.1129107888606916
  0.0588705103575195  0.5652255537441417  0.1134497475125689
  0.0614751277647350  0.8162152892361387  0.1128647394990356
  0.4380269261780987  0.1893880853365315  0.6165652798769885
  0.4388036284511834  0.4346658706983546  0.6161930322244229
  0.4372107792819497  0.6892457373097637  0.6167392408929540
  0.4366829004053247  0.9346203494881785  0.6144101720224321
  0.9384912811615251  0.1859031111834646  0.8824016553072218
  0.9418066274081140  0.4374686953660709  0.8817525120860314
  0.9382317963578419  0.6885842876519428  0.8833372233691874
  0.9363598218944666  0.9377457984892572  0.8826964213424418
  0.7907757582954341  0.0625951491027940  0.8484231213820027
  0.7949176148428142  0.3132421979646231  0.8486862929862576
  0.7940002000214688  0.5616717093175881  0.8491398734859611
  0.7909483866124167  0.8117988743621234  0.8493922292373772
  0.2931926980134666  0.0620597267455245  0.6483311475956676
  0.2921605330627207  0.3110618331651206  0.6514525050011986
  0.2944309431419335  0.5627259287723260  0.6493202278650198
  0.2897788006612226  0.8119038839962817  0.6502545541300880
  0.2064270165657537  0.1902234084538387  0.1480335717406500
  0.2053144626777089  0.4378514145334502  0.1479587994136987
  0.2067419035438498  0.6845698111897737  0.1491995840381182
  0.2089074561342625  0.9371713262866299  0.1503160586430966
  0.7082229197509230  0.1852780269006029  0.3568240248706662
  0.7056855886400970  0.4370534839627819  0.3678074056760532
  0.7077990292549498  0.6886332602957629  0.3563628596618484
  0.7052640403081669  0.9376288466682098  0.3543605278379806
  0.8874914132789041  0.0621051660773599  0.5195151527138824
  0.8889967368784375  0.3116347079640290  0.5216787459316838
  0.8897615192515663  0.5617070227408203  0.5213467554213592
  0.8868558837652201  0.8117564212312550  0.5186930083156717
  0.3864751757234466  0.0622688550562459  0.9808669036692336
  0.3856728196476084  0.3120807082310119  0.9801736833049298
  0.3854974711060892  0.5630921456750474  0.9799241128156572
  0.3869995209314922  0.8128889711968929  0.9818851261502123
  0.1142325611779262  0.1865148486082217  0.4779692261150262
  0.1158179405896733  0.4369421748218801  0.4805170700265113
  0.1141184446145296  0.6871100385558152  0.4777707708119269
  0.1126020169431820  0.9369997773039591  0.4773498286636894
  0.6112393415021665  0.1870995511527820  0.0172622213901429
  0.6061575982205756  0.4371112282629709  0.0129271448108925
  0.6119221223359441  0.6868697593862203  0.0189839258586926
  0.6145803686536575  0.9375983101537154  0.0209700268102969
  0.9788574580965506  0.0621023442931756  0.2802250587429413
  0.9774307248193039  0.3140323990780704  0.2845178934067052
  0.9748272147459386  0.5598444914991141  0.2832808297835803
  0.9781512642963588  0.8118634562547179  0.2808942618618563
  0.4793737180304381  0.0639773387640398  0.2185731265764516
  0.4786502789120520  0.3138979237205592  0.2178054209155040
  0.4804851216430129  0.5602107418665805  0.2191937536417516
  0.4803939747987073  0.8114990122902193  0.2178959362399838
  0.0216981858287497  0.1861242145237476  0.7156760809414804
  0.0236731457152905  0.4375612500171742  0.7149449993005896
  0.0209097433452290  0.6875043911037804  0.7161458880621859
  0.0192627463480231  0.9372702787558548  0.7148626233624926
  0.5198141203221923  0.1880524735802748  0.7839057027097525
  0.5218286681404184  0.4366242854176867  0.7819891356838038
  0.5190174159523977  0.6876397327591438  0.7839291688950609
  0.5174756175299103  0.9364478862698167  0.7831185044587785
  0.5759123017683367  0.0626343492915913  0.5737655437163038
  0.5805587063297843  0.3099700272516805  0.5716765970667710
  0.5767791895136216  0.5641468016061445  0.5735213545278248
  0.5800528781337896  0.8115848703099232  0.5727718797569756
  0.0795292984590754  0.0610802903672963  0.9265299159332437
  0.0789913554134032  0.3112414360020529  0.9249115728849492
  0.0792596704208283  0.5633387161320540  0.9253428700774551
  0.0788185438452226  0.8135640434917403  0.9269001733196154
  0.4190162126300656  0.1882439754146236  0.4301412351123922
  0.4229630760514261  0.4367390305452472  0.4308466611726284
  0.4184579899413802  0.6885249132282980  0.4305013307578452
  0.4223103114475076  0.9367856160970689  0.4291002490558671
  0.9250951562265941  0.1867158979401136  0.0678886613388984
  0.9327457994097422  0.4370144864088029  0.0666019920114309
  0.9249093980418018  0.6870852670472374  0.0686818027436864
  0.9179308620022346  0.9374423340364810  0.0686507659688674
 
             NaN             NaN             NaN
             NaN             NaN             NaN
             NaN             NaN             NaN
             NaN             NaN             NaN
             NaN             NaN             NaN
             NaN             NaN             NaN
             NaN             NaN             NaN
             NaN             NaN             NaN
             NaN             NaN             NaN
             NaN             NaN             NaN
             NaN             NaN             NaN
             NaN             NaN             NaN
             NaN             NaN             NaN
             NaN             NaN             NaN
             NaN             NaN             NaN
             NaN             NaN             NaN
             NaN             NaN             NaN
             NaN             NaN             NaN
             NaN             NaN             NaN
             NaN             NaN             NaN
             NaN             NaN             NaN
             NaN             NaN             NaN
             NaN             NaN             NaN
             NaN             NaN             NaN
             NaN             NaN             NaN
             NaN             NaN             NaN
             NaN             NaN             NaN
             NaN             NaN             NaN
             NaN             NaN             NaN
             NaN             NaN             NaN
             NaN             NaN             NaN
             NaN             NaN             NaN
             NaN             NaN             NaN
             NaN             NaN             NaN
             NaN             NaN             NaN
             NaN             NaN             NaN
             NaN             NaN             NaN
             NaN             NaN             NaN
             NaN             NaN             NaN
             NaN             NaN             NaN
             NaN             NaN             NaN
             NaN             NaN             NaN
             NaN             NaN             NaN
             NaN             NaN             NaN
             NaN             NaN             NaN
             NaN             NaN             NaN
             NaN             NaN             NaN
             NaN             NaN             NaN
             NaN             NaN             NaN
             NaN             NaN             NaN
             NaN             NaN             NaN
             NaN             NaN             NaN
             NaN             NaN             NaN
             NaN             NaN             NaN
             NaN             NaN             NaN
             NaN             NaN             NaN
             NaN             NaN             NaN
             NaN             NaN             NaN
             NaN             NaN             NaN
             NaN             NaN             NaN
             NaN             NaN             NaN
             NaN             NaN             NaN
             NaN             NaN             NaN
             NaN             NaN             NaN
             NaN             NaN             NaN
             NaN             NaN             NaN
             NaN             NaN             NaN
             NaN             NaN             NaN
             NaN             NaN             NaN
             NaN             NaN             NaN
             NaN             NaN             NaN
             NaN             NaN             NaN
             NaN             NaN             NaN
             NaN             NaN             NaN
             NaN             NaN             NaN
             NaN             NaN             NaN
             NaN             NaN             NaN
             NaN             NaN             NaN
             NaN             NaN             NaN
             NaN             NaN             NaN
             NaN             NaN             NaN
             NaN             NaN             NaN
             NaN             NaN             NaN
             NaN             NaN             NaN
             NaN             NaN             NaN
             NaN             NaN             NaN
             NaN             NaN             NaN
             NaN             NaN             NaN
             NaN             NaN             NaN
             NaN             NaN             NaN
             NaN             NaN             NaN
             NaN             NaN             NaN
             NaN             NaN             NaN
             NaN             NaN             NaN
             NaN             NaN             NaN
             NaN             NaN             NaN
             NaN             NaN             NaN
             NaN             NaN             NaN
             NaN             NaN             NaN
             NaN             NaN             NaN
             NaN             NaN             NaN
             NaN             NaN             NaN
             NaN             NaN             NaN
             NaN             NaN             NaN
             NaN             NaN             NaN
             NaN             NaN             NaN
             NaN             NaN             NaN
             NaN             NaN             NaN
             NaN             NaN             NaN
             NaN             NaN             NaN
             NaN             NaN             NaN
