Na15 V32 O64
1.0
9.104684 0.000761 -0.003014
0.001762 11.441936 0.000063
-0.000019 0.001094 10.605162
Na V O
15 32 64
direct
0.742407 0.464229 0.153792 Na
0.742337 0.075190 0.153231 Na
0.742239 0.806283 0.152587 Na
0.242827 0.062785 0.347752 Na
0.243065 0.312764 0.347212 Na
0.243149 0.562196 0.348057 Na
0.242486 0.812515 0.347687 Na
0.257707 0.187798 0.848959 Na
0.258153 0.437730 0.848836 Na
0.257709 0.687914 0.849251 Na
0.257263 0.937430 0.849296 Na
0.757539 0.187026 0.650593 Na
0.757570 0.437619 0.650560 Na
0.757625 0.686949 0.650172 Na
0.757433 0.937701 0.649918 Na
0.584597 0.062255 0.896160 V
0.587921 0.311929 0.899441 V
0.586245 0.561875 0.897225 V
0.584649 0.811810 0.896804 V
0.087110 0.061802 0.603239 V
0.085393 0.311803 0.603319 V
0.086854 0.562127 0.603311 V
0.084609 0.811825 0.603170 V
0.413122 0.188546 0.104698 V
0.413757 0.437305 0.104469 V
0.415810 0.686319 0.104952 V
0.416317 0.938418 0.104467 V
0.915219 0.188413 0.395612 V
0.914592 0.437028 0.395316 V
0.914405 0.686791 0.395055 V
0.914762 0.937603 0.395211 V
0.561587 0.062582 0.387573 V
0.564600 0.311897 0.383815 V
0.562596 0.562001 0.385751 V
0.561576 0.811930 0.386929 V
0.061573 0.060099 0.112716 V
0.058063 0.312805 0.112929 V
0.060080 0.565298 0.113969 V
0.061776 0.812739 0.113152 V
0.438399 0.189339 0.615726 V
0.439021 0.435512 0.615095 V
0.437869 0.688493 0.615485 V
0.437359 0.935959 0.616090 V
0.938275 0.187794 0.883769 V
0.938745 0.439174 0.884159 V
0.937437 0.688294 0.884309 V
0.936763 0.938272 0.883553 V
0.791129 0.063402 0.849783 O
0.793435 0.312701 0.850497 O
0.792130 0.562234 0.849465 O
0.791349 0.812923 0.850034 O
0.293296 0.062245 0.648992 O
0.292137 0.312304 0.649952 O
0.293682 0.562416 0.648568 O
0.290816 0.812150 0.650199 O
0.205984 0.188507 0.147741 O
0.205964 0.436906 0.147341 O
0.207734 0.686422 0.149163 O
0.207786 0.938981 0.149174 O
0.707841 0.186083 0.355453 O
0.707984 0.438045 0.357097 O
0.707570 0.688471 0.354671 O
0.706926 0.937116 0.353506 O
0.888131 0.062890 0.519437 O
0.887664 0.312163 0.520232 O
0.888115 0.561906 0.519881 O
0.887176 0.812424 0.519430 O
0.386071 0.062564 0.980398 O
0.385742 0.312375 0.980160 O
0.386090 0.562454 0.980196 O
0.386589 0.812577 0.981448 O
0.114343 0.187401 0.479301 O
0.113993 0.437030 0.479431 O
0.113637 0.687264 0.478975 O
0.113750 0.937220 0.478894 O
0.610909 0.187761 0.019292 O
0.610142 0.437161 0.018105 O
0.612421 0.686555 0.019616 O
0.613553 0.937765 0.020544 O
0.978548 0.062600 0.282033 O
0.980431 0.312637 0.283680 O
0.980353 0.562483 0.283108 O
0.979269 0.812513 0.281321 O
0.478957 0.063232 0.218589 O
0.476323 0.312703 0.218367 O
0.477442 0.562058 0.218933 O
0.479697 0.812425 0.217720 O
0.020995 0.186905 0.716119 O
0.021306 0.437591 0.716080 O
0.020058 0.687282 0.716438 O
0.019685 0.937590 0.716053 O
0.520267 0.187909 0.783505 O
0.521111 0.436619 0.783370 O
0.519362 0.687623 0.783663 O
0.518480 0.936682 0.783783 O
0.577299 0.062083 0.573277 O
0.580725 0.312017 0.571106 O
0.577497 0.562709 0.572442 O
0.579676 0.812300 0.572704 O
0.078814 0.062245 0.926724 O
0.078164 0.312869 0.926063 O
0.079232 0.563877 0.927062 O
0.078255 0.813321 0.927508 O
0.421808 0.187717 0.429786 O
0.422514 0.436715 0.429522 O
0.421259 0.688055 0.429567 O
0.421214 0.936732 0.429897 O
0.925462 0.187517 0.069502 O
0.926836 0.438393 0.069185 O
0.921597 0.687225 0.069576 O
0.919943 0.938537 0.069686 O
