Li47 P16 O64                            
   1.00000000000000     
    10.5949890000000000   -0.0008480000000000   -0.0116230000000000
    -0.0009790000000000   12.3919099999999993   -0.0012640000000000
    -0.0109700000000000   -0.0010110000000000   10.0220249999999993
   Li   P    O 
    47    16    64
Direct
  0.5921562190651457  0.2686661794306815  0.0810631697280186
  0.6653255695759839  0.2510839722335305  0.5977950181738763
  0.6629752393314234  0.7512183841626339  0.0989344330993021
  0.6639736001177639  0.7514980595641489  0.5995583988431363
  0.1647886199571502  0.4973988924163066  0.1501927240976499
  0.1647775337030097  0.4987556327185487  0.6513977327376139
  0.1629568051521204  0.9961110388942487  0.1516943686929153
  0.1639302656750843  0.9989782925329393  0.6513525036852457
  0.3366500538156885  0.0003955078657611  0.4009985406286134
  0.3363885267098254  0.0003632978430019  0.9027938907340598
  0.3393103834473834  0.4995950698129477  0.3955729893927753
  0.3380620503225842  0.4970120791469199  0.9102468621147892
  0.8337332557032511  0.2491809220126768  0.3448117870646854
  0.8327467242494393  0.2495743246014754  0.8559070378365803
  0.8369843302861071  0.7486778192909043  0.3492189914961159
  0.8369991839255562  0.7488060465801354  0.8491825952797285
  0.3388523264660819  0.2515543238369347  0.3964182428803582
  0.3364393777740560  0.2528844402339132  0.9064144984463383
  0.3373576682373312  0.7492890063875350  0.3996403399551340
  0.3367106990810740  0.7493620840166741  0.9039125777795789
  0.8372365752544013  0.0022027211319795  0.3489753961477291
  0.8378240435929314  0.0015236104401026  0.8499083467993529
  0.8353298920412442  0.5008968459310452  0.3495630814392925
  0.8349980196013433  0.5009673779445407  0.8503384097832125
  0.6563067962237028  0.4984319978323484  0.0987130394234228
  0.6651916295456246  0.5017941377072290  0.5999627086839538
  0.6645947559706684  0.0029682265167068  0.1007509266685958
  0.6639616625505980  0.0000282653724284  0.5988860399316422
  0.1641791561432697  0.2518034834847782  0.1493388435523784
  0.1639958905750802  0.2511204720264857  0.6511919240460244
  0.1643537560948971  0.7510391599107678  0.1510298924216258
  0.1642743500589461  0.7512483576461406  0.6516129421504004
  0.9211478897677239  0.3740119789016347  0.1477720613708868
  0.9246494843158359  0.3742898733580304  0.6496678461321466
  0.9245150786915133  0.8756192337468960  0.1493700175356523
  0.9256709592369674  0.8753720247729717  0.6491365128786271
  0.4271762909629970  0.3759097131575828  0.6034047262152455
  0.4292402733830301  0.8752109085966993  0.1021834641231152
  0.4265266563525216  0.8751151792344274  0.6011612693376307
  0.0744955108259546  0.1259965670214243  0.3491872991811391
  0.0746748354051192  0.1258444737960005  0.8530549635445084
  0.0749329521247404  0.6238388354601341  0.3504907263324881
  0.0756092075114907  0.6238180525073673  0.8524781697115174
  0.5738308292479388  0.1278474325277799  0.3977856151849082
  0.5745373672117111  0.1229374675184971  0.8958412252030428
  0.5738204460269998  0.6243487050264562  0.4003458408978702
  0.5717159255424491  0.6245296662140447  0.8989981960357980
  0.9131195087990989  0.1253165266616563  0.0979611496032717
  0.9119920800141514  0.1249363969462891  0.5976598799190924
  0.9104130970953221  0.6254075535241981  0.0973124330110693
  0.9127070308981331  0.6256654959947241  0.5974579773561857
  0.4052008222288137  0.1185854980333971  0.1520051837417142
  0.4106988665851361  0.1246019785010049  0.6533938858801775
  0.4086414006913657  0.6300351045064474  0.1521195800181374
  0.4103088557711416  0.6263016019029450  0.6538694548054664
  0.0881811974239994  0.3753242034856470  0.4033433690894839
  0.0865676912840243  0.3750709091373992  0.9029763992815703
  0.0883777617908095  0.8746203371522228  0.4042566859072352
  0.0883285765985988  0.8744524955764987  0.9035442748760403
  0.5911168980387842  0.3772895454823413  0.3510619153787076
  0.5860528075117273  0.3763308805702508  0.8387639893111043
  0.5904531790917389  0.8757304075158316  0.3476088596788003
  0.5900163646148044  0.8751864680216173  0.8461294375217250
  0.8425724712581157  0.0220588924242691  0.1490499050331806
  0.8421796826673216  0.0215304693241265  0.6480839161544836
  0.8391670975044505  0.5233189201432253  0.1478740131928120
  0.8432397871574722  0.5232956856706821  0.6498662597241918
  0.3319135280896361  0.2158510072989444  0.0964710446374895
  0.3409255251732617  0.2268901979964042  0.6006926530613512
  0.3438872377214892  0.7380115232434576  0.1071143315435563
  0.3412112872841249  0.7297698776198303  0.6020206682260962
  0.1578119210517457  0.2724222705285726  0.3518782823677995
  0.1562045305353621  0.2722564564725047  0.8513757548789158
  0.1580186779842307  0.7717340753270463  0.3530241042073143
  0.1586659649707869  0.7716923665858033  0.8527593873470991
  0.6604760932529885  0.4801279260089970  0.4060218250507290
  0.6555021915624977  0.4784309409636762  0.8946970092824174
  0.6597020891018204  0.9789429620625540  0.3992942414794101
  0.6602188276560881  0.9778674711985076  0.8977895544636709
  0.1585680678916503  0.4780648505955654  0.3525326352752600
  0.1565807149778848  0.4776650983043353  0.8514153536999132
  0.1580982215350772  0.9775130079978922  0.3535486725926233
  0.1585741251662469  0.9772914417387000  0.8528732509071233
  0.6598866081918544  0.2731842039099703  0.4028179743797438
  0.6522611074715030  0.2726086389466218  0.8946535485019069
  0.6601776063095741  0.7727455581163909  0.3992682737126501
  0.6595853286750710  0.7720716899085005  0.8971743897266364
  0.8476927931900420  0.2281832204869474  0.1501741014526061
  0.8422212000984146  0.2269613148382135  0.6506974181373479
  0.8409624438782046  0.7289476544536342  0.1478856365537382
  0.8424183636994584  0.7287131429944580  0.6480157568165694
  0.3401296604891115  0.0114503603591629  0.1067993346216127
  0.3415211021330506  0.0210382790177803  0.6018076284167506
  0.3308932468798460  0.5353087988829301  0.0973502306350866
  0.3411435431502099  0.5240441086345200  0.6001760498186854
  0.5431920051271319  0.1210905941191243  0.0975414064295990
  0.5495385633786896  0.1245577530253499  0.6023140898657928
  0.5470050342218187  0.6280464456312558  0.0985848979924882
  0.5493933562440461  0.6272443532942660  0.6035385919626748
  0.0529109166766446  0.1216617446998711  0.1475073928985182
  0.0506762906701042  0.1242274868812530  0.6493892380625681
  0.0486064771126919  0.6252671588453111  0.1500704872126946
  0.0512431307665508  0.6261168085850883  0.6492782693551149
  0.4529941001518765  0.3759899464267846  0.4043418181959026
  0.4459081852910458  0.3754382867279489  0.8786055705368696
  0.4520173353831822  0.8752146300816008  0.3992166067183973
  0.4515954487346718  0.8753338472037129  0.8971873699051258
  0.9495339632942148  0.3760461138355069  0.3519640058951126
  0.9477261625858162  0.3751374213343155  0.8510168806003406
  0.9498021325916639  0.8748066949052742  0.3521724474640564
  0.9502330528872704  0.8746846798625825  0.8500939016081261
  0.5961849505571877  0.3807651593465380  0.1980971700388423
  0.5967543009816438  0.3763844470447637  0.6834441485787650
  0.5927455867998646  0.8761696109679917  0.1918327507664657
  0.5910501911137942  0.8756133921068070  0.6901527160831762
  0.0864060047453776  0.3751454106876864  0.0586634881055232
  0.0891310362613282  0.3750374385935942  0.5594961753113310
  0.0872007728048345  0.8737606975664036  0.0592343912124775
  0.0891092378962242  0.8746381234858376  0.5602395924861838
  0.4090338193520466  0.1229028771987899  0.3082857599894666
  0.4091447309244742  0.1242230285884673  0.8092000937910910
  0.4117096705862480  0.6267194389980020  0.3086089341166627
  0.4080948353070255  0.6259434016709093  0.8095883843919864
  0.9109225966987964  0.1256956222486707  0.4417256033695622
  0.9110274421437765  0.1244226022153967  0.9414959407200172
  0.9116007981154510  0.6252333011607192  0.4415260951984408
  0.9106311846745712  0.6254927758565927  0.9411919732844112
 
             NaN             NaN             NaN
             NaN             NaN             NaN
             NaN             NaN             NaN
             NaN             NaN             NaN
             NaN             NaN             NaN
             NaN             NaN             NaN
             NaN             NaN             NaN
             NaN             NaN             NaN
             NaN             NaN             NaN
             NaN             NaN             NaN
             NaN             NaN             NaN
             NaN             NaN             NaN
             NaN             NaN             NaN
             NaN             NaN             NaN
             NaN             NaN             NaN
             NaN             NaN             NaN
             NaN             NaN             NaN
             NaN             NaN             NaN
             NaN             NaN             NaN
             NaN             NaN             NaN
             NaN             NaN             NaN
             NaN             NaN             NaN
             NaN             NaN             NaN
             NaN             NaN             NaN
             NaN             NaN             NaN
             NaN             NaN             NaN
             NaN             NaN             NaN
             NaN             NaN             NaN
             NaN             NaN             NaN
             NaN             NaN             NaN
             NaN             NaN             NaN
             NaN             NaN             NaN
             NaN             NaN             NaN
             NaN             NaN             NaN
             NaN             NaN             NaN
             NaN             NaN             NaN
             NaN             NaN             NaN
             NaN             NaN             NaN
             NaN             NaN             NaN
             NaN             NaN             NaN
             NaN             NaN             NaN
             NaN             NaN             NaN
             NaN             NaN             NaN
             NaN             NaN             NaN
             NaN             NaN             NaN
             NaN             NaN             NaN
             NaN             NaN             NaN
             NaN             NaN             NaN
             NaN             NaN             NaN
             NaN             NaN             NaN
             NaN             NaN             NaN
             NaN             NaN             NaN
             NaN             NaN             NaN
             NaN             NaN             NaN
             NaN             NaN             NaN
             NaN             NaN             NaN
             NaN             NaN             NaN
             NaN             NaN             NaN
             NaN             NaN             NaN
             NaN             NaN             NaN
             NaN             NaN             NaN
             NaN             NaN             NaN
             NaN             NaN             NaN
             NaN             NaN             NaN
             NaN             NaN             NaN
             NaN             NaN             NaN
             NaN             NaN             NaN
             NaN             NaN             NaN
             NaN             NaN             NaN
             NaN             NaN             NaN
             NaN             NaN             NaN
             NaN             NaN             NaN
             NaN             NaN             NaN
             NaN             NaN             NaN
             NaN             NaN             NaN
             NaN             NaN             NaN
             NaN             NaN             NaN
             NaN             NaN             NaN
             NaN             NaN             NaN
             NaN             NaN             NaN
             NaN             NaN             NaN
             NaN             NaN             NaN
             NaN             NaN             NaN
             NaN             NaN             NaN
             NaN             NaN             NaN
             NaN             NaN             NaN
             NaN             NaN             NaN
             NaN             NaN             NaN
             NaN             NaN             NaN
             NaN             NaN             NaN
             NaN             NaN             NaN
             NaN             NaN             NaN
             NaN             NaN             NaN
             NaN             NaN             NaN
             NaN             NaN             NaN
             NaN             NaN             NaN
             NaN             NaN             NaN
             NaN             NaN             NaN
             NaN             NaN             NaN
             NaN             NaN             NaN
             NaN             NaN             NaN
             NaN             NaN             NaN
             NaN             NaN             NaN
             NaN             NaN             NaN
             NaN             NaN             NaN
             NaN             NaN             NaN
             NaN             NaN             NaN
             NaN             NaN             NaN
             NaN             NaN             NaN
             NaN             NaN             NaN
             NaN             NaN             NaN
             NaN             NaN             NaN
             NaN             NaN             NaN
             NaN             NaN             NaN
             NaN             NaN             NaN
             NaN             NaN             NaN
             NaN             NaN             NaN
             NaN             NaN             NaN
             NaN             NaN             NaN
             NaN             NaN             NaN
             NaN             NaN             NaN
             NaN             NaN             NaN
             NaN             NaN             NaN
             NaN             NaN             NaN
             NaN             NaN             NaN
             NaN             NaN             NaN
             NaN             NaN             NaN
