Mg7 Sc16 Se32                           
   1.00000000000000     
    11.2462879999999998    0.0000120000000000   -0.0000200000000000
     0.0000120000000000   11.2463979999999992    0.0000580000000000
    -0.0000200000000000    0.0000510000000000   11.2460939999999994
   Mg   Sc   Se
     7    16    32
Direct
  0.5301206432617475  0.5301399011808602  0.5301362142819731
  0.6233620938752623  0.1274222550450732  0.1274257710910594
  0.1274209050888996  0.6233522070319488  0.1274239922684440
  0.1274208668802647  0.1274275196733654  0.6233530923412696
  0.3748751797190327  0.8726546366335313  0.8726562696078670
  0.8726531321907880  0.3748741961146332  0.8726582558422794
  0.8726542961982716  0.8726648291568641  0.3748811301896764
  0.9944163841933383  0.7518194549458339  0.7518224902475361
  0.7518273790628979  0.9943764975582686  0.7518220446395165
  0.7518268106892252  0.7518191233302615  0.9943912074401554
  0.0006635025227116  0.0006628657537414  0.0006636009506176
  0.0059964732970052  0.2490012911360884  0.2489996459284191
  0.2489876855318187  0.0060024852365911  0.2489916869863696
  0.2489879373386678  0.2489870668473670  0.0059816161982769
  0.7471160115864591  0.4996527136266340  0.2501359004986693
  0.7471118686030258  0.2501505884320047  0.4996302926235651
  0.0070286717234056  0.5008500675450087  0.5008488610421459
  0.2501513881069047  0.4996232666005618  0.7471132853246908
  0.2501570092239532  0.7471123305948535  0.4996221710857650
  0.4996429229973928  0.7471175900510471  0.2501257232749378
  0.5008471782428845  0.0070359906395797  0.5008422642774638
  0.4996526131601530  0.2501216153703856  0.7471192663112751
  0.5008432167786946  0.5008376864318048  0.0070245095605754
  0.7577736824798985  0.9942671885591648  0.9942816929964239
  0.9942711856921982  0.7577817517034690  0.9942886773430307
  0.9942771074279175  0.9942717849039405  0.7577689803143317
  0.7592003629053733  0.7591846318494986  0.7591931881349536
  0.2425603310108887  0.0061625099618018  0.0061544411897059
  0.0061542231542858  0.2425642273359254  0.0061628018742566
  0.0061583004509419  0.0061723867675271  0.2425764581387902
  0.2409295350291468  0.2409344671870900  0.2409241543216759
  0.7562869318294662  0.4914969190075660  0.4914989796333403
  0.9921581859268309  0.2584914734018042  0.4925757745703823
  0.9921604299964542  0.4925666084499293  0.2584785784273884
  0.7599255816878272  0.2566279195416242  0.2566138316960384
  0.2480832273586769  0.5088070120616823  0.5088045499529938
  0.0068115584795117  0.7424847154978780  0.5078567427628217
  0.0068128866489283  0.5078593873052999  0.7424953726710625
  0.2399280559644626  0.7429885461427558  0.7430011908334416
  0.2584752343815940  0.9921650251920847  0.4925646243552481
  0.4914912995092844  0.7563029738511038  0.4914891465424268
  0.4925549859474379  0.9921635575213544  0.2584628189739868
  0.2566177418056154  0.7599294744467546  0.2566068078118986
  0.7424744279052510  0.0068190795337015  0.5078524264994169
  0.5088031927710750  0.2480960909029518  0.5088086609840005
  0.5078582118415886  0.0067994919896833  0.7424770137186012
  0.7429991143946466  0.2399116558751476  0.7430075081996116
  0.2584713969130458  0.4925543852814747  0.9921642435606879
  0.4925559616431558  0.2584674076261219  0.9921672499570635
  0.4914905807708361  0.4914766384347166  0.7563053824747911
  0.2566218259400559  0.2566102566202834  0.7599258403275150
  0.7424653349611856  0.5078536504275393  0.0068003906809817
  0.5078525769289131  0.7424595053312578  0.0067923902589933
  0.5088077824581534  0.5088145368239982  0.2481074284679364
  0.7430002378929489  0.7430063032540805  0.2399188291054277
 
             NaN             NaN             NaN
             NaN             NaN             NaN
             NaN             NaN             NaN
             NaN             NaN             NaN
             NaN             NaN             NaN
             NaN             NaN             NaN
             NaN             NaN             NaN
             NaN             NaN             NaN
             NaN             NaN             NaN
             NaN             NaN             NaN
             NaN             NaN             NaN
             NaN             NaN             NaN
             NaN             NaN             NaN
             NaN             NaN             NaN
             NaN             NaN             NaN
             NaN             NaN             NaN
             NaN             NaN             NaN
             NaN             NaN             NaN
             NaN             NaN             NaN
             NaN             NaN             NaN
             NaN             NaN             NaN
             NaN             NaN             NaN
             NaN             NaN             NaN
             NaN             NaN             NaN
             NaN             NaN             NaN
             NaN             NaN             NaN
             NaN             NaN             NaN
             NaN             NaN             NaN
             NaN             NaN             NaN
             NaN             NaN             NaN
             NaN             NaN             NaN
             NaN             NaN             NaN
             NaN             NaN             NaN
             NaN             NaN             NaN
             NaN             NaN             NaN
             NaN             NaN             NaN
             NaN             NaN             NaN
             NaN             NaN             NaN
             NaN             NaN             NaN
             NaN             NaN             NaN
             NaN             NaN             NaN
             NaN             NaN             NaN
             NaN             NaN             NaN
             NaN             NaN             NaN
             NaN             NaN             NaN
             NaN             NaN             NaN
             NaN             NaN             NaN
             NaN             NaN             NaN
             NaN             NaN             NaN
             NaN             NaN             NaN
             NaN             NaN             NaN
             NaN             NaN             NaN
             NaN             NaN             NaN
             NaN             NaN             NaN
             NaN             NaN             NaN
