Na15 V32 O64                            
   1.00000000000000     
     9.2509160000000001   -0.0129720000000000    0.0033240000000000
    -0.0166560000000000   11.8405980000000000    0.0464370000000000
     0.0032650000000000    0.0428470000000000   10.7997910000000008
   Na   V    O 
    15    32    64
Direct
  0.7262702086876341  0.3130988023562782  0.1488319688094817
  0.7237423466795614  0.0438072332434136  0.1534887659638406
  0.7300189329343471  0.7729124817494765  0.1537400037798993
  0.2226373752495760  0.0497119755110837  0.3472711534266191
  0.2275531265360316  0.2991560620885746  0.3441594763644429
  0.2270881022375884  0.5510930891555478  0.3476550798998411
  0.2326332026037065  0.8001020785266896  0.3510201981759836
  0.2365281923551431  0.1737469182033471  0.8406911487780129
  0.2364231494790218  0.4232497805084815  0.8474553247849113
  0.2430981981713634  0.6731821598076329  0.8444341406376793
  0.2372510586398065  0.9238617220592343  0.8558734616615690
  0.7384019129384665  0.1758255737038613  0.6524569171674695
  0.7404327743869652  0.4237718534876188  0.6404687622631106
  0.7418172924330134  0.6752775253906076  0.6557293876386068
  0.7359886708752218  0.9242035828700440  0.6500895379744271
  0.5669272937447115  0.0496623590436175  0.8931508725262509
  0.5625591765600552  0.2995986012098305  0.8918861284736983
  0.5693011311976930  0.5492933019012195  0.8941098194823437
  0.5649885628379009  0.8002398706658560  0.8977745858806099
  0.0642043785063578  0.0477805414051061  0.6035222372708650
  0.0645404834841763  0.2981777055812433  0.6022526786576686
  0.0673689818239711  0.5482458850316692  0.6005050007663658
  0.0656911112537895  0.7980872120071375  0.6067994924772782
  0.4010134593327803  0.1718150831806614  0.0970173229930081
  0.3991263464428262  0.4244892346511527  0.1025777795107275
  0.4019901204840220  0.6761078184690227  0.1014957068112542
  0.4013856901302756  0.9239976780726401  0.1082655676898276
  0.9005414113871090  0.1732272333194468  0.3975360045511576
  0.9021855373837265  0.4240831860588377  0.3896082287333866
  0.9032695091447615  0.6732342782854238  0.3983363654585577
  0.9003129827436015  0.9239460484954067  0.3961843295158136
  0.5426970064241636  0.0511997868661548  0.3885845819838095
  0.5492228103293642  0.2986280139725051  0.3844450949098036
  0.5503748886519142  0.5483673535985337  0.3810350307945034
  0.5525098700711399  0.7998111767938265  0.3882333975455728
  0.0425733873507070  0.0479176085630735  0.1132399493933185
  0.0474275961550227  0.2919675661878403  0.1089297608828718
  0.0400480800449459  0.5479509607870168  0.1133480469756217
  0.0528435536010850  0.7948738554323129  0.1124694737845274
  0.4188961832409736  0.1751381847686392  0.6116981558561324
  0.4174758799067713  0.4233975096410134  0.6072894180470265
  0.4242802936377899  0.6718565512280378  0.6102310501318168
  0.4129741734278594  0.9227034968765345  0.6131799721832479
  0.9185878836924128  0.1702695398582815  0.8844040251567550
  0.9170175800698114  0.4230835316025618  0.8861377456727189
  0.9240933401435064  0.6693270823541300  0.8872154590156945
  0.9158347908450414  0.9217845942761864  0.8893644932754364
  0.7759465894512945  0.0523890010508992  0.8458116406562461
  0.7730491885768582  0.2930575135598156  0.8459732325254248
  0.7797289178874218  0.5528922773352948  0.8475295943995563
  0.7755963653873276  0.7921489601934687  0.8511352221662098
  0.2727392301717635  0.0545702616955875  0.6530185301226360
  0.2768435287733789  0.2932260605089237  0.6469418663987681
  0.2778679900059627  0.5540561365290499  0.6480537514727324
  0.2776310366878495  0.7921127790633620  0.6489711211393734
  0.1888683487262927  0.1648231718848819  0.1486058808529735
  0.1980255472741473  0.4212921234489648  0.1433653304165876
  0.1935088407430478  0.6644648188239428  0.1482082034169779
  0.1894557369252628  0.9250113143669280  0.1531251072231444
  0.6897081156342579  0.1657772898571818  0.3515809639313315
  0.6899652981625376  0.4246856019298344  0.3503533715535894
  0.6938558733398577  0.6618672260096021  0.3527743260131448
  0.6879011343619394  0.9280518292109652  0.3497626879291840
  0.8685341710348593  0.0539725402816690  0.5209877162410832
  0.8690815130787974  0.2956510728671290  0.5167809954838990
  0.8731244157066186  0.5546716150258834  0.5180238848416250
  0.8683072447732876  0.7963058691502097  0.5209157992880022
  0.3687833013721580  0.0557720980632276  0.9805052142735128
  0.3661648445049880  0.2960528431651578  0.9763980045838173
  0.3717770288744915  0.5522143490578947  0.9820553296505539
  0.3661974761620482  0.7963879879953770  0.9803287741044139
  0.0955883628081521  0.1680120120153539  0.4793798937841386
  0.0986022036290567  0.4265968875022255  0.4782965507818288
  0.0992783512449024  0.6699725359962008  0.4810596252540175
  0.0974448558398848  0.9270049243803579  0.4812220282001394
  0.5960767632978632  0.1801859962829287  0.0157791785806383
  0.5872655437454990  0.4180338094032093  0.0180101674054620
  0.5928853276406223  0.6806604501739989  0.0142094766562092
  0.5955507777652537  0.9212902145706298  0.0199469253556487
  0.9598868548301129  0.0505121617245891  0.2812040890265664
  0.9588913318920033  0.2882893085024997  0.2813154788217784
  0.9721659318209366  0.5496329301536060  0.2818936223937212
  0.9607886762622089  0.7870825704823938  0.2857538789336304
  0.4606619683186042  0.0532483255359992  0.2189447236247531
  0.4551297934312193  0.2927035825968506  0.2099278145699785
  0.4545883150628745  0.5460579170854362  0.2139342154470860
  0.4626169206379266  0.7877297696673186  0.2163422648422589
  0.0044509813040391  0.1706756183566983  0.7181231412888082
  0.0078509448832647  0.4312827375893380  0.7131593547080279
  0.0086740403297169  0.6696574168112420  0.7202774790327896
  0.0061403541345914  0.9310093173622582  0.7172930658796661
  0.5046630482592523  0.1767555237897150  0.7776928069137105
  0.5063415417007332  0.4166784528904761  0.7806310972821316
  0.5078281217597888  0.6753447904731515  0.7785211200342209
  0.5026230069823684  0.9167191299827777  0.7857501362272251
  0.5575163475411656  0.0526517418921346  0.5733012378638923
  0.5581829993396255  0.2947683045957458  0.5679921344640226
  0.5635510963247455  0.5507259640271447  0.5677330399027476
  0.5583043367773924  0.7950905520827659  0.5716108914539094
  0.0592232304942389  0.0511296117579118  0.9296774410201948
  0.0562293869096036  0.2912170826443440  0.9235756214814239
  0.0630780737839407  0.5505005465102758  0.9288871173252560
  0.0592804425987931  0.7931848304425937  0.9273062300078554
  0.4032165704817051  0.1712097056193018  0.4282879659820936
  0.4088849281020774  0.4295435801009537  0.4220312817004692
  0.4098935950344125  0.6690847891575007  0.4265030738893743
  0.4063929168236224  0.9305347362343779  0.4271473212892127
  0.9005963422475325  0.1665398482631835  0.0681712794047820
  0.9134297030116515  0.4232621271488648  0.0711981489599301
  0.9095453836204949  0.6665859981164033  0.0701911224025578
  0.9091774817217541  0.9240469508313431  0.0751890772689935
 
             NaN             NaN             NaN
             NaN             NaN             NaN
             NaN             NaN             NaN
             NaN             NaN             NaN
             NaN             NaN             NaN
             NaN             NaN             NaN
             NaN             NaN             NaN
             NaN             NaN             NaN
             NaN             NaN             NaN
             NaN             NaN             NaN
             NaN             NaN             NaN
             NaN             NaN             NaN
             NaN             NaN             NaN
             NaN             NaN             NaN
             NaN             NaN             NaN
             NaN             NaN             NaN
             NaN             NaN             NaN
             NaN             NaN             NaN
             NaN             NaN             NaN
             NaN             NaN             NaN
             NaN             NaN             NaN
             NaN             NaN             NaN
             NaN             NaN             NaN
             NaN             NaN             NaN
             NaN             NaN             NaN
             NaN             NaN             NaN
             NaN             NaN             NaN
             NaN             NaN             NaN
             NaN             NaN             NaN
             NaN             NaN             NaN
             NaN             NaN             NaN
             NaN             NaN             NaN
             NaN             NaN             NaN
             NaN             NaN             NaN
             NaN             NaN             NaN
             NaN             NaN             NaN
             NaN             NaN             NaN
             NaN             NaN             NaN
             NaN             NaN             NaN
             NaN             NaN             NaN
             NaN             NaN             NaN
             NaN             NaN             NaN
             NaN             NaN             NaN
             NaN             NaN             NaN
             NaN             NaN             NaN
             NaN             NaN             NaN
             NaN             NaN             NaN
             NaN             NaN             NaN
             NaN             NaN             NaN
             NaN             NaN             NaN
             NaN             NaN             NaN
             NaN             NaN             NaN
             NaN             NaN             NaN
             NaN             NaN             NaN
             NaN             NaN             NaN
             NaN             NaN             NaN
             NaN             NaN             NaN
             NaN             NaN             NaN
             NaN             NaN             NaN
             NaN             NaN             NaN
             NaN             NaN             NaN
             NaN             NaN             NaN
             NaN             NaN             NaN
             NaN             NaN             NaN
             NaN             NaN             NaN
             NaN             NaN             NaN
             NaN             NaN             NaN
             NaN             NaN             NaN
             NaN             NaN             NaN
             NaN             NaN             NaN
             NaN             NaN             NaN
             NaN             NaN             NaN
             NaN             NaN             NaN
             NaN             NaN             NaN
             NaN             NaN             NaN
             NaN             NaN             NaN
             NaN             NaN             NaN
             NaN             NaN             NaN
             NaN             NaN             NaN
             NaN             NaN             NaN
             NaN             NaN             NaN
             NaN             NaN             NaN
             NaN             NaN             NaN
             NaN             NaN             NaN
             NaN             NaN             NaN
             NaN             NaN             NaN
             NaN             NaN             NaN
             NaN             NaN             NaN
             NaN             NaN             NaN
             NaN             NaN             NaN
             NaN             NaN             NaN
             NaN             NaN             NaN
             NaN             NaN             NaN
             NaN             NaN             NaN
             NaN             NaN             NaN
             NaN             NaN             NaN
             NaN             NaN             NaN
             NaN             NaN             NaN
             NaN             NaN             NaN
             NaN             NaN             NaN
             NaN             NaN             NaN
             NaN             NaN             NaN
             NaN             NaN             NaN
             NaN             NaN             NaN
             NaN             NaN             NaN
             NaN             NaN             NaN
             NaN             NaN             NaN
             NaN             NaN             NaN
             NaN             NaN             NaN
             NaN             NaN             NaN
             NaN             NaN             NaN
