Na15 V32 O64                            
   1.00000000000000     
     9.2509160000000001   -0.0129720000000000    0.0033240000000000
    -0.0166560000000000   11.8405980000000000    0.0464370000000000
     0.0032650000000000    0.0428470000000000   10.7997910000000008
   Na   V    O 
    15    32    64
Direct
  0.7494764382595331  0.3346635192729058  0.1528002852543539
  0.7407722151029327  0.0653123777606512  0.1522203724856036
  0.7458257165757998  0.7955494194075595  0.1538221852212166
  0.2425387200669026  0.0638396454300961  0.3455111824308226
  0.2460052441793472  0.3143506586150853  0.3546699957651591
  0.2445370367717654  0.5633897720301293  0.3454867383846979
  0.2439484857017015  0.8133028265879553  0.3535186017916309
  0.2563160813003053  0.1909357178122336  0.8443175406240379
  0.2549953665134909  0.4417585863437836  0.8533592282401180
  0.2574475632449489  0.6907944149837421  0.8441279280586366
  0.2531601073124584  0.9413290193804404  0.8520507284836494
  0.7573675064945565  0.1892289870299414  0.6540356951871218
  0.7547813185329457  0.4379698036250435  0.6466215973434536
  0.7565284108500673  0.6888481752381393  0.6540824731149416
  0.7548794107188909  0.9373538839129330  0.6451149379848021
  0.5825855549719722  0.0669888110977364  0.8945037357898303
  0.5791618015914244  0.3181658080780723  0.8971549241161559
  0.5854585439289141  0.5661916753858025  0.8971923647734757
  0.5804444509941618  0.8158062020902686  0.8966850823266528
  0.0810464169335006  0.0637401607874669  0.6018864755764378
  0.0816381440878469  0.3133473579857463  0.6069413151296262
  0.0819251821456179  0.5611734407144734  0.6037807411873423
  0.0818594856545173  0.8126128611331592  0.6059779001408305
  0.4167316075080955  0.1888982898968257  0.1016388155687714
  0.4169095822457023  0.4409872496405724  0.1068549556886746
  0.4189205432561871  0.6929233645913462  0.0987662930326850
  0.4183913090976237  0.9400094607682621  0.1063749342905932
  0.9201094734544818  0.1899820894612615  0.3971459266939221
  0.9189168852730921  0.4394362171210406  0.3939444775783423
  0.9184695908915199  0.6870601925279876  0.3982469728654857
  0.9176669078866112  0.9386643401107675  0.3922179045973651
  0.5633407769685453  0.0649143269742511  0.3883858690964780
  0.5674345707834991  0.3121994018910227  0.3873885103941954
  0.5675593084138006  0.5644202989444376  0.3843112538596996
  0.5664255788801308  0.8125520137024480  0.3883671287672114
  0.0606538015988400  0.0634790028504248  0.1128160956036036
  0.0718600756599809  0.3103873676538189  0.1105767544085114
  0.0533651101630976  0.5682956611280168  0.1113202679760893
  0.0658589600168652  0.8133655822684719  0.1110747044085217
  0.4362045118770642  0.1895749921051531  0.6137074263320510
  0.4322707822858051  0.4376582325575769  0.6126645946282163
  0.4380685693166347  0.6867117817613474  0.6145871927023407
  0.4309303169254368  0.9374181064100241  0.6114866203265727
  0.9388413149401512  0.1899314037649713  0.8870939311303894
  0.9346697401726133  0.4413870759357248  0.8888673819327539
  0.9377141752487262  0.6871291688002774  0.8846890349885266
  0.9312702050053432  0.9402581992814578  0.8873146053980215
  0.7918694396379219  0.0710369614866223  0.8485275381155098
  0.7908663899174198  0.3102498092755306  0.8519967896368126
  0.7951850737211481  0.5706441691431235  0.8489687417252190
  0.7900624054157086  0.8109981690312176  0.8471577120017719
  0.2912817590180081  0.0689808933544653  0.6518539609597146
  0.2940448921573472  0.3077395694164136  0.6497412847324034
  0.2926708622497928  0.5689611037906295  0.6517487093087194
  0.2934487382961829  0.8083050031486040  0.6492703716947582
  0.2108386948944964  0.1805619620772740  0.1499422519606901
  0.2181326017906411  0.4390708494004201  0.1497589388619471
  0.2057946949538158  0.6815426876826077  0.1475464815858167
  0.2056543876001829  0.9433277359588138  0.1509129133654581
  0.7096108198135462  0.1816778911666245  0.3508601168191741
  0.7062570448073263  0.4404559243619796  0.3523025475593207
  0.7093448840080728  0.6852062637398961  0.3547244005375921
  0.7041104216779727  0.9420782858724419  0.3503866700450314
  0.8863487301988667  0.0683679317095542  0.5182732878495301
  0.8863665316373914  0.3102482017497082  0.5184814353023359
  0.8865971116482170  0.5680642988001431  0.5204885367869512
  0.8866198729360709  0.8095215891936400  0.5185368705132435
  0.3871024730028787  0.0710844556515569  0.9810977667255952
  0.3838730475769233  0.3128087923914792  0.9827773871681287
  0.3876259832682970  0.5691169397672379  0.9858797367510406
  0.3817686975851223  0.8133942484092089  0.9797912990390067
  0.1140008296887637  0.1828863188236355  0.4810679097018668
  0.1150211289783970  0.4418087974837691  0.4807558751658101
  0.1146158259643623  0.6834082784871853  0.4810679993257548
  0.1143453648123503  0.9415248024140317  0.4791890291267841
  0.6135279786812259  0.1964726208183327  0.0197600852458368
  0.6051003647933055  0.4356247268557419  0.0225369010782881
  0.6082141686778547  0.6994850755670633  0.0152032488000043
  0.6131328077462472  0.9377262648235373  0.0201693676943441
  0.9777659380521293  0.0667850300151720  0.2798049455890531
  0.9812325982628691  0.3050695999997037  0.2847629967397514
  0.9840947638856706  0.5688489980285654  0.2842410210829447
  0.9791051668976818  0.8057512240663381  0.2827311514608010
  0.4813913390523895  0.0689995450796857  0.2192156012842011
  0.4749494575817639  0.3099419079571903  0.2147428462209958
  0.4720527727781300  0.5657836742713667  0.2178691019909021
  0.4736923807075768  0.8051418848295443  0.2173487651608416
  0.0211421259062774  0.1851700242730475  0.7194256180557822
  0.0226667351401946  0.4467991420085619  0.7154171533627635
  0.0223823500495142  0.6865872346014570  0.7185716567838178
  0.0202249875913167  0.9468974377009780  0.7147027295545857
  0.5214703317526234  0.1928898070349253  0.7808146084274670
  0.5224695023395183  0.4324225686025971  0.7857527189804488
  0.5219454213706363  0.6918795392153223  0.7798736199492795
  0.5193934880266264  0.9340949801365054  0.7840553648745433
  0.5769271283256476  0.0665634921432827  0.5729376351243505
  0.5755468884922881  0.3082594316202528  0.5712692162026919
  0.5777757953023275  0.5668764332809365  0.5707494896005371
  0.5750718999387285  0.8097486720849820  0.5715854242071873
  0.0769863614511222  0.0674809115519849  0.9292280513260702
  0.0751908141781979  0.3095521325126023  0.9257131722473687
  0.0782949792621979  0.5711342726837353  0.9291181987401701
  0.0733360013665433  0.8123322389036541  0.9252596471201763
  0.4225019503040777  0.1840685883071970  0.4291648816090911
  0.4263346752535295  0.4422913601700343  0.4255934492765164
  0.4230305690900893  0.6849898107819719  0.4283032848055834
  0.4250492949842232  0.9426316928475191  0.4260329875652900
  0.9238046972202767  0.1847464842684744  0.0703451993438708
  0.9358915094091106  0.4426324241093020  0.0749710151203541
  0.9219539560627741  0.6868834971175343  0.0686085814722372
  0.9227068794519525  0.9417175753583847  0.0730073190203111
 
             NaN             NaN             NaN
             NaN             NaN             NaN
             NaN             NaN             NaN
             NaN             NaN             NaN
             NaN             NaN             NaN
             NaN             NaN             NaN
             NaN             NaN             NaN
             NaN             NaN             NaN
             NaN             NaN             NaN
             NaN             NaN             NaN
             NaN             NaN             NaN
             NaN             NaN             NaN
             NaN             NaN             NaN
             NaN             NaN             NaN
             NaN             NaN             NaN
             NaN             NaN             NaN
             NaN             NaN             NaN
             NaN             NaN             NaN
             NaN             NaN             NaN
             NaN             NaN             NaN
             NaN             NaN             NaN
             NaN             NaN             NaN
             NaN             NaN             NaN
             NaN             NaN             NaN
             NaN             NaN             NaN
             NaN             NaN             NaN
             NaN             NaN             NaN
             NaN             NaN             NaN
             NaN             NaN             NaN
             NaN             NaN             NaN
             NaN             NaN             NaN
             NaN             NaN             NaN
             NaN             NaN             NaN
             NaN             NaN             NaN
             NaN             NaN             NaN
             NaN             NaN             NaN
             NaN             NaN             NaN
             NaN             NaN             NaN
             NaN             NaN             NaN
             NaN             NaN             NaN
             NaN             NaN             NaN
             NaN             NaN             NaN
             NaN             NaN             NaN
             NaN             NaN             NaN
             NaN             NaN             NaN
             NaN             NaN             NaN
             NaN             NaN             NaN
             NaN             NaN             NaN
             NaN             NaN             NaN
             NaN             NaN             NaN
             NaN             NaN             NaN
             NaN             NaN             NaN
             NaN             NaN             NaN
             NaN             NaN             NaN
             NaN             NaN             NaN
             NaN             NaN             NaN
             NaN             NaN             NaN
             NaN             NaN             NaN
             NaN             NaN             NaN
             NaN             NaN             NaN
             NaN             NaN             NaN
             NaN             NaN             NaN
             NaN             NaN             NaN
             NaN             NaN             NaN
             NaN             NaN             NaN
             NaN             NaN             NaN
             NaN             NaN             NaN
             NaN             NaN             NaN
             NaN             NaN             NaN
             NaN             NaN             NaN
             NaN             NaN             NaN
             NaN             NaN             NaN
             NaN             NaN             NaN
             NaN             NaN             NaN
             NaN             NaN             NaN
             NaN             NaN             NaN
             NaN             NaN             NaN
             NaN             NaN             NaN
             NaN             NaN             NaN
             NaN             NaN             NaN
             NaN             NaN             NaN
             NaN             NaN             NaN
             NaN             NaN             NaN
             NaN             NaN             NaN
             NaN             NaN             NaN
             NaN             NaN             NaN
             NaN             NaN             NaN
             NaN             NaN             NaN
             NaN             NaN             NaN
             NaN             NaN             NaN
             NaN             NaN             NaN
             NaN             NaN             NaN
             NaN             NaN             NaN
             NaN             NaN             NaN
             NaN             NaN             NaN
             NaN             NaN             NaN
             NaN             NaN             NaN
             NaN             NaN             NaN
             NaN             NaN             NaN
             NaN             NaN             NaN
             NaN             NaN             NaN
             NaN             NaN             NaN
             NaN             NaN             NaN
             NaN             NaN             NaN
             NaN             NaN             NaN
             NaN             NaN             NaN
             NaN             NaN             NaN
             NaN             NaN             NaN
             NaN             NaN             NaN
             NaN             NaN             NaN
             NaN             NaN             NaN
