Li7 Mn16 O32                            
   1.00000000000000     
     8.6029180000000007   -0.0094750000000000    0.0090600000000000
    -0.0088590000000000    8.0915409999999994   -0.0927820000000000
     0.0080990000000000    0.0023520000000000    8.0683260000000008
   Li   Mn   O 
     7    16    32
Direct
  0.2702907148241682  0.4830832287461090  0.7663625807480934
  0.8670520310708174  0.8764170026553374  0.8757148741999105
  0.1374319610596235  0.1262884807888727  0.1230865143772517
  0.8670338693685323  0.3748681754451250  0.3738944414046665
  0.3621284562439574  0.8721201974332007  0.3772928887447308
  0.6332091204316102  0.1289000599804749  0.6299665899318855
  0.6329091152049516  0.6207835241882202  0.1210739595777287
  0.5000123828906519  0.2495876814404081  0.2490222389420362
  0.2491303637604371  0.5002154998860601  0.2544312979499023
  0.2506293975519202  0.2464299632656934  0.4997111130357792
  0.5070177438558140  0.4983799606027189  0.4986515141384237
  0.5069123962874029  0.7517498838725710  0.7513847632246918
  0.7569221395739975  0.5021474207567923  0.7499298566815632
  0.7502254497879246  0.7507957895499712  0.4993574503801850
  0.2486700008277127  0.9949000854537537  0.7488152993021618
  0.2505449064622857  0.7501317982028044  0.0033667026665388
  0.5000065630068761  0.0009901024096473  0.0002870132164184
  0.7447599258905286  0.0001781148261069  0.2496476155231522
  0.7481878131192956  0.2514024902417393  0.9999078107909507
  0.0001829145155337  0.2495785081452511  0.7502851479324562
  0.0003173680658085  0.4997920877237272  0.0001864040759352
  0.9929480887532895  0.7485753609714220  0.2497755458218221
  0.9928262707102022  0.0003057951724337  0.5008725794780488
  0.7236508361526572  0.0103522460119595  0.0126228965720300
  0.9968220407853925  0.7366545534345849  0.0169834677263118
  0.9953678789983476  0.0142176424063975  0.7352395441330931
  0.7328382131921420  0.7420022273870170  0.7341293079241393
  0.2756371083743168  0.9860251703420995  0.9873912703511417
  0.0012657652275922  0.2643054145258349  0.9864053148355019
  0.9966252588095632  0.9834751530533994  0.2654792768158747
  0.2757959614277660  0.2623736287314350  0.2633410050430207
  0.7334973904079862  0.5162337804489314  0.5104307925431314
  0.9962822215905716  0.2325581564438364  0.5127619836668311
  0.9956196033215909  0.5148151788378504  0.2360957403728275
  0.7239048965731908  0.2386986664096872  0.2383818487554533
  0.2873500863634217  0.4870827260769210  0.4938489358415252
  0.9709443906900450  0.7626545601286204  0.4880043636293775
  0.0086931897668704  0.4816315603572657  0.7674811076993698
  0.2871167212780605  0.7562544548544000  0.7619852152589734
  0.2168842863447359  0.0044199879645983  0.5114772974621088
  0.5242110160052733  0.7406942072938305  0.5084517572877578
  0.4952348820075880  0.0137857400280562  0.2368749174670858
  0.2172928526692832  0.7371308485661054  0.2458284137889269
  0.7672628280373623  0.9865361178364843  0.4891384513036002
  0.5058137200397964  0.2661724252319541  0.4865295935688934
  0.5035309611091174  0.9857415069944541  0.7647656494027012
  0.7766014143348384  0.2630508861131983  0.7621274828071873
  0.2218198196344174  0.5158474193722837  0.0120424628492823
  0.5002423756043681  0.2314715696253989  0.0178479743485005
  0.5041712956038903  0.5191941381993985  0.7316734791823123
  0.2216605391793371  0.2371508169417761  0.7342288272254813
  0.7771073112844658  0.4909038695261330  0.9866559341746204
  0.5053643230621802  0.7639548446839984  0.9840972067376855
  0.5038940538374775  0.4845141388171822  0.2639283137705472
  0.7677198241738633  0.7597896106461324  0.2634086236401392
 
             NaN             NaN             NaN
             NaN             NaN             NaN
             NaN             NaN             NaN
             NaN             NaN             NaN
             NaN             NaN             NaN
             NaN             NaN             NaN
             NaN             NaN             NaN
             NaN             NaN             NaN
             NaN             NaN             NaN
             NaN             NaN             NaN
             NaN             NaN             NaN
             NaN             NaN             NaN
             NaN             NaN             NaN
             NaN             NaN             NaN
             NaN             NaN             NaN
             NaN             NaN             NaN
             NaN             NaN             NaN
             NaN             NaN             NaN
             NaN             NaN             NaN
             NaN             NaN             NaN
             NaN             NaN             NaN
             NaN             NaN             NaN
             NaN             NaN             NaN
             NaN             NaN             NaN
             NaN             NaN             NaN
             NaN             NaN             NaN
             NaN             NaN             NaN
             NaN             NaN             NaN
             NaN             NaN             NaN
             NaN             NaN             NaN
             NaN             NaN             NaN
             NaN             NaN             NaN
             NaN             NaN             NaN
             NaN             NaN             NaN
             NaN             NaN             NaN
             NaN             NaN             NaN
             NaN             NaN             NaN
             NaN             NaN             NaN
             NaN             NaN             NaN
             NaN             NaN             NaN
             NaN             NaN             NaN
             NaN             NaN             NaN
             NaN             NaN             NaN
             NaN             NaN             NaN
             NaN             NaN             NaN
             NaN             NaN             NaN
             NaN             NaN             NaN
             NaN             NaN             NaN
             NaN             NaN             NaN
             NaN             NaN             NaN
             NaN             NaN             NaN
             NaN             NaN             NaN
             NaN             NaN             NaN
             NaN             NaN             NaN
             NaN             NaN             NaN
