Li7 Mn16 O32                            
   1.00000000000000     
     8.6029180000000007   -0.0094750000000000    0.0090600000000000
    -0.0088590000000000    8.0915409999999994   -0.0927820000000000
     0.0080990000000000    0.0023520000000000    8.0683260000000008
   Li   Mn   O 
     7    16    32
Direct
  0.2706591032916751  0.4826559582710555  0.7668110257272118
  0.8670013042079081  0.8764339628019931  0.8754990702211631
  0.1374230776872076  0.1263682846342421  0.1230684371055423
  0.8669910221569922  0.3748870025371018  0.3737830014020885
  0.3620128491988269  0.8722624572814284  0.3772026138373796
  0.6332247609276966  0.1288969418321842  0.6297697316702521
  0.6328805392974189  0.6208306155059475  0.1210286829858901
  0.4999388075501423  0.2496193064502805  0.2489558149482071
  0.2490546058229254  0.5002725876959307  0.2543225393177124
  0.2506245077461293  0.2466301848131916  0.4997178815319526
  0.5069686851557749  0.4984181875653106  0.4985319035859838
  0.5068365659853638  0.7518796807380891  0.7513294996510663
  0.7567683937659009  0.5020842563912484  0.7499708309143982
  0.7501827460702168  0.7508164444643114  0.4993549803296871
  0.2486777487842476  0.9950901533214562  0.7490219284644954
  0.2506396440017520  0.7501476713448731  1.0032434502655063
  0.4999529711590915  0.0010194940716155  0.0002608676589738
  0.7448069379214380  1.0001680992925022  0.2495453932816557
  0.7480317600282191  0.2513732312697310  0.9997910191126718
  1.0001504596096173  0.2496200935284444  0.7502499056212780
  1.0002713613991996  0.4998463000426766  0.0001835980562181
  0.9929458162493566  0.7486545349591356  0.2496540041100301
  0.9928605988490330  0.0003638288647461  0.5008762666596354
  0.7234428576956670  0.0103625033541342  0.0125593104080418
  0.9966611221935956  0.7366615536307038  0.0168234998302526
  0.9955566492408960  0.0142324507821227  0.7352184718631020
  0.7327105108601908  0.7420546479777779  0.7340676391720583
  0.2755889930417237  0.9860877846919713  0.9874057253048534
  1.0009725848715456  0.2642818166190533  0.9863989320492604
  0.9967677973859076  0.9835579060158450  0.2654144192065859
  0.2756764050613854  0.2625014306860425  0.2633059555813949
  0.7334731406758027  0.5163018949567404  0.5104472941374615
  0.9962558363239734  0.2325811526049108  0.5127196398519872
  0.9956623211985391  0.5149149469096244  0.2360464758907551
  0.7236473466488584  0.2385819744311760  0.2383985026543226
  0.2873618862911764  0.4873130324734111  0.4936922912677293
  0.9711407755449943  0.7627645660657215  0.4878303002216352
  1.0084166408087332  0.4816673217661232  0.7674976371248622
  0.2871159994834437  0.7563411285118009  0.7619650891962670
  0.2171973569170253  0.0046448495654558  0.5117183245388955
  0.5242520938033531  0.7407743691744983  0.5082556541667652
  0.4948637590515785  0.0138353014215812  0.2367684681115940
  0.2174556974357544  0.7372410228466675  0.2455127905550119
  0.7674103646354998  0.9865592161724968  0.4891033747565480
  0.5056865579680668  0.2662824601777292  0.4864970769311605
  0.5034635880821556  0.9858854026373852  0.7646843790350910
  0.7764176817024038  0.2630377413298252  0.7620088167680407
  0.2217089799928880  0.5158337287409183  0.0119152214060128
  0.4999947862001141  0.2314832905055051  0.0177774537447204
  0.5039963955290655  0.5193070857149101  0.7315816341604662
  0.2215699228710552  0.2374687383131324  0.7342740842548341
  0.7768479585482814  0.4907737679815625  0.9867660365249344
  0.5053190114113497  0.7639534376665934  0.9839568366992164
  0.5038187850960889  0.4845575820741393  0.2637993469610483
  0.7677525702425886  0.7598528206492279  0.2633777096678613
 
             NaN             NaN             NaN
             NaN             NaN             NaN
             NaN             NaN             NaN
             NaN             NaN             NaN
             NaN             NaN             NaN
             NaN             NaN             NaN
             NaN             NaN             NaN
             NaN             NaN             NaN
             NaN             NaN             NaN
             NaN             NaN             NaN
             NaN             NaN             NaN
             NaN             NaN             NaN
             NaN             NaN             NaN
             NaN             NaN             NaN
             NaN             NaN             NaN
             NaN             NaN             NaN
             NaN             NaN             NaN
             NaN             NaN             NaN
             NaN             NaN             NaN
             NaN             NaN             NaN
             NaN             NaN             NaN
             NaN             NaN             NaN
             NaN             NaN             NaN
             NaN             NaN             NaN
             NaN             NaN             NaN
             NaN             NaN             NaN
             NaN             NaN             NaN
             NaN             NaN             NaN
             NaN             NaN             NaN
             NaN             NaN             NaN
             NaN             NaN             NaN
             NaN             NaN             NaN
             NaN             NaN             NaN
             NaN             NaN             NaN
             NaN             NaN             NaN
             NaN             NaN             NaN
             NaN             NaN             NaN
             NaN             NaN             NaN
             NaN             NaN             NaN
             NaN             NaN             NaN
             NaN             NaN             NaN
             NaN             NaN             NaN
             NaN             NaN             NaN
             NaN             NaN             NaN
             NaN             NaN             NaN
             NaN             NaN             NaN
             NaN             NaN             NaN
             NaN             NaN             NaN
             NaN             NaN             NaN
             NaN             NaN             NaN
             NaN             NaN             NaN
             NaN             NaN             NaN
             NaN             NaN             NaN
             NaN             NaN             NaN
             NaN             NaN             NaN
