Li7 Mn16 O32
1.0
8.730622 0.035199 -0.036434
0.032789 8.213804 -0.033756
-0.031669 -0.030308 8.213811
Li Mn O
7 16 32
direct
0.358821 0.375006 0.874994 Li
0.359559 0.869590 0.380411 Li
0.866721 0.874700 0.874214 Li
0.137166 0.126946 0.123054 Li
0.866721 0.375787 0.375299 Li
0.636327 0.122370 0.622578 Li
0.636329 0.627422 0.127631 Li
0.498918 0.249215 0.250110 Mn
0.248990 0.500911 0.251618 Mn
0.249340 0.253491 0.501643 Mn
0.504471 0.497629 0.498754 Mn
0.504471 0.751245 0.752370 Mn
0.749838 0.498826 0.751175 Mn
0.756611 0.748748 0.501252 Mn
0.248990 -0.001618 0.749090 Mn
0.249341 0.748357 0.996510 Mn
0.498918 0.999890 1.000785 Mn
0.749137 0.999429 0.250574 Mn
0.746639 0.249136 0.000866 Mn
0.994869 0.249625 0.748032 Mn
0.994869 0.501971 0.000377 Mn
0.000602 0.752378 0.249520 Mn
0.000601 1.000480 0.497623 Mn
0.723209 0.012262 0.012331 O
0.995916 0.735513 0.013069 O
0.996965 0.016851 0.734440 O
0.731826 0.733778 0.739749 O
0.275448 0.987682 0.985895 O
0.997848 0.266252 0.983750 O
0.001756 0.987614 0.262387 O
0.275449 0.264106 0.262318 O
0.731826 0.510250 0.516222 O
0.995916 0.236932 0.514488 O
0.996964 0.515561 0.233150 O
0.723208 0.237674 0.237738 O
0.285787 0.486518 0.488910 O
0.002957 0.770256 0.479745 O
0.971520 0.486990 0.763011 O
0.285787 0.761089 0.763481 O
0.224355 0.014832 0.512396 O
0.503530 0.732859 0.517140 O
0.496326 0.014659 0.235340 O
0.224356 0.737604 0.235168 O
0.776051 0.987519 0.487929 O
0.505192 0.262878 0.484514 O
0.504533 0.983968 0.764867 O
0.768385 0.263201 0.761724 O
0.218659 0.510466 0.009446 O
0.494882 0.235087 0.014913 O
0.522503 0.509562 0.740437 O
0.218659 0.240555 0.739535 O
0.768385 0.488278 0.986800 O
0.505193 0.765484 0.987119 O
0.504534 0.485132 0.266031 O
0.776051 0.762071 0.262482 O
