Li7 Mn16 O32                            
   1.00000000000000     
     8.3767770000000006    0.0666860000000000    0.0125950000000000
     0.0205160000000000    8.1941989999999993    0.0273940000000000
    -0.0171270000000000    0.0049620000000000    8.2525429999999993
   Li   Mn   O 
     7    16    32
Direct
  0.3479110886364483  0.4053859165121725  0.8415742150194654
  0.8807917820942673  0.8731358640962161  0.8792080301575395
  0.1166170016252432  0.1292445334877675  0.1232897143914983
  0.8841488098348611  0.3729890887834212  0.3792713796086593
  0.3764428565078142  0.8738032847696063  0.3805689497843150
  0.6164340467476587  0.1275870616867190  0.6252749795739261
  0.6196067140214404  0.6259734735713378  0.1165582770677557
  0.5042118782367575  0.2504541739106213  0.2475811132881327
  0.2598456493804868  0.4971000278316398  0.2442573982555634
  0.2559013409837259  0.2472262559331010  0.5016931381935724
  0.5038780907198041  0.4956883523717809  0.4954136988084387
  0.4964870091911336  0.7520770877675208  0.7503843769854551
  0.7502207279309848  0.4956733265139180  0.7422673953266642
  0.7425056010456449  0.7516530247002454  0.4955097860516008
  0.2457308201630654  0.0045381745957094  0.7604284935987902
  0.2528730985927600  0.7528973244776601  0.0041904296090307
  0.4960421793077752  0.0076798058173376  0.0031221691277747
  0.7465914096962328  0.0033386476865151  0.2544515414187246
  0.7495735491172778  0.2506852915189962  0.9979758015311596
  0.9975896390332715  0.2531097060407870  0.7459395642648332
  0.0033042232591476  0.4975925599207769  0.9976032102612918
  0.9980802805219847  0.7462775965058206  0.2532248394928731
  0.9966495216059258 -0.0001512181104399  0.5033261429040570
  0.7534836075803093  0.0149765844925258  0.0259536178925982
  0.0208794354663707  0.7337520985804397  0.0181991063965123
  0.0133279479992025  0.0145956841780244  0.7387220344072402
  0.7317643418289369  0.7331643560238793  0.7320870743942340
  0.2393848163307694  0.9824091383090251  0.9906220164125742
  0.9821937790277051  0.2638960944191548  0.9789376631918267
  0.9739445734024907  0.9980060681698925  0.2704459878807967
  0.2769746779109166  0.2654223066041245  0.2412014743320899
  0.7354908627570721  0.5148460548164244  0.5056224622017790
  0.0187707394782261  0.2388892815714069  0.5168542587902267
  0.0326351143705970  0.4973279534335504  0.2360715470344547
  0.7307478444527459  0.2343410966684731  0.2595140470226582
  0.2771352672459688  0.4830706797890629  0.4769589431478337
  0.9682047192265519  0.7614209985154909  0.4821583643831132
  0.9778178639852106  0.4840999222532141  0.7573655389982791
  0.2664322433300415  0.7703836370849926  0.7711752935040675
  0.2539861380145978  0.0155154377820087  0.5288286223056213
  0.5125983156265758  0.7291533243778804  0.5094161823554426
  0.5149895054329521  0.0174698087969266  0.2393713260581304
  0.2505513261606438  0.7318569589120473  0.2359160734315885
  0.7371217719710395  0.9795217616426047  0.4864309151013586
  0.4922095730788321  0.2635480904232431  0.4794947398958622
  0.4716441242358319  0.0123939790210461  0.7733067885216888
  0.7710754546031995  0.2655804223039404  0.7366458160889272
  0.2590036106938562  0.5220320918953129  0.0149356803796398
  0.5188922351601346  0.2430041964875941  0.0197467335564702
  0.5209309748225235  0.4908696257548011  0.7211356675285544
  0.2224755259571499  0.2363379295748727  0.7583499785228754
  0.7458678564478530  0.4872837283906103  0.9697342847419221
  0.4806336044537626  0.7683298967815747  0.9889006860333837
  0.4924315947262678  0.4856082020178605  0.2609548159450477
  0.7472952676037615  0.7677401034099844  0.2643665204568348
 
             NaN             NaN             NaN
             NaN             NaN             NaN
             NaN             NaN             NaN
             NaN             NaN             NaN
             NaN             NaN             NaN
             NaN             NaN             NaN
             NaN             NaN             NaN
             NaN             NaN             NaN
             NaN             NaN             NaN
             NaN             NaN             NaN
             NaN             NaN             NaN
             NaN             NaN             NaN
             NaN             NaN             NaN
             NaN             NaN             NaN
             NaN             NaN             NaN
             NaN             NaN             NaN
             NaN             NaN             NaN
             NaN             NaN             NaN
             NaN             NaN             NaN
             NaN             NaN             NaN
             NaN             NaN             NaN
             NaN             NaN             NaN
             NaN             NaN             NaN
             NaN             NaN             NaN
             NaN             NaN             NaN
             NaN             NaN             NaN
             NaN             NaN             NaN
             NaN             NaN             NaN
             NaN             NaN             NaN
             NaN             NaN             NaN
             NaN             NaN             NaN
             NaN             NaN             NaN
             NaN             NaN             NaN
             NaN             NaN             NaN
             NaN             NaN             NaN
             NaN             NaN             NaN
             NaN             NaN             NaN
             NaN             NaN             NaN
             NaN             NaN             NaN
             NaN             NaN             NaN
             NaN             NaN             NaN
             NaN             NaN             NaN
             NaN             NaN             NaN
             NaN             NaN             NaN
             NaN             NaN             NaN
             NaN             NaN             NaN
             NaN             NaN             NaN
             NaN             NaN             NaN
             NaN             NaN             NaN
             NaN             NaN             NaN
             NaN             NaN             NaN
             NaN             NaN             NaN
             NaN             NaN             NaN
             NaN             NaN             NaN
             NaN             NaN             NaN
