Li7 Mn16 O32
1.0
8.376777 0.066686 0.012595
0.020516 8.194199 0.027394
-0.017127 0.004962 8.252543
Li Mn O
7 16 32
direct
0.347283 0.402872 0.843825 Li
0.881197 0.873051 0.879278 Li
0.117149 0.128818 0.123876 Li
0.884384 0.373166 0.379512 Li
0.376824 0.874227 0.380863 Li
0.617347 0.127050 0.625024 Li
0.620348 0.626150 0.117254 Li
0.504316 0.251095 0.249226 Mn
0.259012 0.496758 0.244065 Mn
0.255669 0.248398 0.503889 Mn
0.503061 0.496212 0.496499 Mn
0.496115 0.750042 0.750827 Mn
0.750047 0.495919 0.741962 Mn
0.742371 0.751262 0.495468 Mn
0.245474 1.003640 0.760075 Mn
0.252514 0.751226 1.003233 Mn
0.496316 0.005863 0.003598 Mn
0.746671 0.003403 0.254592 Mn
0.751582 0.250805 -0.001472 Mn
-0.001295 0.252573 0.746793 Mn
0.005513 0.497819 0.994850 Mn
0.999343 0.746834 0.252830 Mn
0.996482 0.000346 0.503264 Mn
0.754073 0.015193 0.025964 O
0.021442 0.733397 0.017163 O
0.013347 0.014828 0.738882 O
0.733738 0.732994 0.731486 O
0.239887 0.981102 0.990801 O
0.983874 0.264366 0.979355 O
0.974115 -0.002065 0.270458 O
0.277463 0.265170 0.241757 O
0.738086 0.515293 0.506622 O
0.019004 0.239254 0.518006 O
0.031509 0.497570 0.233391 O
0.731085 0.234519 0.259640 O
0.272986 0.483520 0.476019 O
0.968630 0.761563 0.482538 O
0.978333 0.484334 0.757731 O
0.263323 0.769878 0.771025 O
0.253952 0.015994 0.528995 O
0.512647 0.729086 0.509840 O
0.515340 0.017502 0.239721 O
0.250577 0.731458 0.235433 O
0.737169 0.979449 0.486245 O
0.491788 0.263916 0.480388 O
0.472387 1.009291 0.773531 O
0.771658 0.265495 0.737516 O
0.258380 0.519139 0.014693 O
0.519910 0.242032 0.020486 O
0.522190 0.491807 0.724457 O
0.224309 0.235013 0.760925 O
0.748781 0.487223 0.970773 O
0.480325 0.766935 0.989400 O
0.491762 0.485544 0.261031 O
0.747798 0.767824 0.264165 O
