Mg15 Mn32 O64                           
   1.00000000000000     
    11.4340589999999995   -0.0007340000000000    0.0021460000000000
    -0.0004900000000000   11.4181980000000003    0.0001170000000000
    -0.0000840000000000    0.0001890000000000    9.2391640000000006
   Mg   Mn   O 
    15    32    64
Direct
  0.5003158300374094  0.6028032315117046  0.5786394572687367
  0.9996448667261262  0.2371250844090141  0.7345717450486153
  0.0003807213368471  0.7378081409555027  0.7357205679963958
  0.4997493458060003  0.2418738449696575  0.7421500221416527
  1.0000915361726159  0.4867722278393809  0.4887512796573228
 -0.0000312575987844  0.9851219485988586  0.4901789214940836
  0.4999588720807521  0.9826405703542466  0.4848829943819746
  0.2489105329449245  0.9885683650701130  0.2370104575654719
  0.2501264522404399  0.4848142038770774  0.2405631811628887
  0.7510870552808168  0.9885733871874208  0.2368853955219034
  0.7500518947382443  0.4857542235389722  0.2408796681254765
  0.2479003948432244  0.2348421280937455  0.9857310755397836
  0.2516614857257307  0.7375772534582424  0.9837546840530647
  0.7520536478466163  0.2351154197026499  0.9863432347001504
  0.7484017888781729  0.7385683968275975  0.9835356241192725
  0.1243880354031656  0.2365465515985154  0.3666018091794796
  0.1234233499764012  0.7363610800642295  0.3609866970028519
  0.6245357198831639  0.2379120356641341  0.3606527017620031
  0.6281840047823886  0.7400096236425812  0.3508174518712015
  0.3756265680303893  0.2360655153234190  0.3592002246645333
  0.3730100615078779  0.7394856772656029  0.3527108580798383
  0.8739812664723556  0.2377070245616620  0.3665793179437148
  0.8754986393604481  0.7371856565793674  0.3608848408051759
  0.1254990074169872  0.9854835354802296  0.8601658404910402
  0.1241425613883938  0.4866595653658187  0.8609938434487210
  0.6247872269524920  0.9878468541921458  0.8614012284758165
  0.6275902975763101  0.4864598238471211  0.8757065064959173
  0.3768329705318909  0.9868715477679703  0.8605386840286245
  0.3730701639171630  0.4851291203457587  0.8761232668426818
  0.8751618169780767  0.9871627621287193  0.8600989558814840
  0.8755836388358080  0.4865793279856253  0.8611445716787818
  0.9991422118885097  0.1158010912332929  0.1105125214820437
 -0.0012093009446786  0.6134689957047396  0.1097705505276738
  0.5012279643049741  0.1090318746322863  0.1099497767683051
  0.5022384121609440  0.6112557060528720  0.1160037160253136
  0.9981717683583813  0.3628452177796136  0.1174832256951158
  0.0008053742336380  0.8638601445644097  0.1105822210261632
  0.4908133114085763  0.3585681903386020  0.1157678702024252
  0.5067703189492385  0.8602175674767165  0.1065293818713437
  0.2560745300364271  0.3632158088032089  0.6113209327720398
  0.2562658525832017  0.8581332218193901  0.6116149037673825
  0.7443840202374225  0.3652866811606612  0.6114290227354332
  0.7448520164027945  0.8594778769094210  0.6112766740841798
  0.2524986694958176  0.1105826355449488  0.6128372536661948
  0.2498410018020341  0.6112402123726106  0.6113183036002301
  0.7473157291722217  0.1128031796434118  0.6129592531686239
  0.7507660851353686  0.6119305531354551  0.6130848071466347
  0.1396074470526119  0.2376530834672687  0.6097794144230343
  0.1388997122841685  0.7378200568477679  0.6089082884589828
  0.6339411182719353  0.2393334747342599  0.6079106796334219
  0.6340909826648400  0.7279462137229692  0.5895892743416213
  0.3651890507661842  0.2383382863275309  0.6081164211417265
  0.3663797025448287  0.7274161666918622  0.5892587270329613
  0.8594275636659150  0.2387782936283555  0.6096012217144102
  0.8611619701211704  0.7390570965062705  0.6085448924437235
  0.1390691422438388  0.9852722571219801  0.6148801167568310
  0.1388869436550590  0.4844754375585487  0.6155080144470974
  0.6352713106911742  0.9868912984145148  0.6145681390807289
  0.6329555182259161  0.4934673857413674  0.6313619854210506
  0.3636666944316120  0.9859411607289851  0.6149300298738030
  0.3676242821929836  0.4923605352014275  0.6308911900525769
  0.8596754738770503  0.9864901289152986  0.6146532809490067
  0.8616092425353877  0.4854437594254606  0.6160160763517565
 -0.0000110637317483  0.0999835453544628  0.8636356316579298
  1.0003855042641050  0.5992673204421808  0.8630411207562332
  0.4991848455446681  0.1027313644220815  0.8672593382881875
  0.4999138771885629  0.5947863056359082  0.9067370720978374
  1.0003024363607727  0.3729628840704191  0.8651347953211009
 -0.0001347010994664  0.8739744925982585  0.8645215013908469
  0.5004303028654623  0.3697742071046795  0.8940011821327823
  0.4992213889675597  0.8790653851865186  0.8804774774130275
  1.0004284692714396  0.3490268931090132  0.3613741875399847
  0.0007107716977995  0.8500245062828599  0.3579889741144592
  0.5002258630806328  0.3448257139545882  0.3189158868565024
  0.4995918124801472  0.8506146134507875  0.3471831619342969
  1.0002573483451107  0.1231774474516719  0.3624827946347590
  0.0005945543129794  0.6239227172874253  0.3594081383132109
  0.4998393455508936  0.1231136111653196  0.3577942813194711
  0.4997672174965213  0.6258538404742445  0.3372599400921363
  0.3849495682873521  0.9868766180708212  0.1106212474191269
  0.3891554029408714  0.4835234569064745  0.1156245051820586
  0.8874244940603070  0.9907009500336615  0.1075710782956017
  0.8873775322144349  0.4900442869717993  0.1097601970385699
  0.1127678403773846  0.9903387141775541  0.1074502727339138
  0.1134412588526091  0.4900802547046552  0.1099625981781712
  0.6117984568840881  0.9875882479250946  0.1098024674130812
  0.6127986981886703  0.4834197155833901  0.1163840147767011
  0.3881421622059271  0.2369605245878623  0.1096717106591045
  0.3874240120464746  0.7310608959683258  0.1115039968958508
  0.8872679152283365  0.2397533379000034  0.1174356323407995
  0.8871741866671432  0.7405028924252727  0.1128149525854723
  0.1131337939020188  0.2397601151576792  0.1174537270886892
  0.1136584241264695  0.7406329279568410  0.1126365596524776
  0.6151815529247200  0.2362829783243905  0.1088621555965322
  0.6090291154358863  0.7312013014494992  0.1122885222723914
  0.2500415534236315  0.3487342617159412  0.3682522662556143
  0.2499788526220101  0.8499617728935430  0.3615811146709171
  0.7493712032135287  0.3484332258968939  0.3679890796191612
  0.7510359361508684  0.8501064582941223  0.3622058414739803
  0.2507067069280300  0.1237779185210179  0.3669580600571992
  0.2483877620144952  0.6242648335902692  0.3603622954519815
  0.7489118983560359  0.1244156768549280  0.3670098879272125
  0.7525484341532528  0.6249743753622344  0.3607261309628629
  0.2496403688513600  0.0993127982129406  0.8566103649758222
  0.2484224857220491  0.5987602178645649  0.8625185337939938
  0.7498350008977720  0.0991783322185963  0.8559997848524735
  0.7516841830997288  0.5986039133707202  0.8626456488710390
  0.2509397006535322  0.3738255031986213  0.8607484737583728
  0.2495485083269938  0.8732086890929380  0.8549071544389184
  0.7488340954513216  0.3739722181799954  0.8615586947860592
  0.7497690221322947  0.8737304182216666  0.8544544473587059
 
             NaN             NaN             NaN
             NaN             NaN             NaN
             NaN             NaN             NaN
             NaN             NaN             NaN
             NaN             NaN             NaN
             NaN             NaN             NaN
             NaN             NaN             NaN
             NaN             NaN             NaN
             NaN             NaN             NaN
             NaN             NaN             NaN
             NaN             NaN             NaN
             NaN             NaN             NaN
             NaN             NaN             NaN
             NaN             NaN             NaN
             NaN             NaN             NaN
             NaN             NaN             NaN
             NaN             NaN             NaN
             NaN             NaN             NaN
             NaN             NaN             NaN
             NaN             NaN             NaN
             NaN             NaN             NaN
             NaN             NaN             NaN
             NaN             NaN             NaN
             NaN             NaN             NaN
             NaN             NaN             NaN
             NaN             NaN             NaN
             NaN             NaN             NaN
             NaN             NaN             NaN
             NaN             NaN             NaN
             NaN             NaN             NaN
             NaN             NaN             NaN
             NaN             NaN             NaN
             NaN             NaN             NaN
             NaN             NaN             NaN
             NaN             NaN             NaN
             NaN             NaN             NaN
             NaN             NaN             NaN
             NaN             NaN             NaN
             NaN             NaN             NaN
             NaN             NaN             NaN
             NaN             NaN             NaN
             NaN             NaN             NaN
             NaN             NaN             NaN
             NaN             NaN             NaN
             NaN             NaN             NaN
             NaN             NaN             NaN
             NaN             NaN             NaN
             NaN             NaN             NaN
             NaN             NaN             NaN
             NaN             NaN             NaN
             NaN             NaN             NaN
             NaN             NaN             NaN
             NaN             NaN             NaN
             NaN             NaN             NaN
             NaN             NaN             NaN
             NaN             NaN             NaN
             NaN             NaN             NaN
             NaN             NaN             NaN
             NaN             NaN             NaN
             NaN             NaN             NaN
             NaN             NaN             NaN
             NaN             NaN             NaN
             NaN             NaN             NaN
             NaN             NaN             NaN
             NaN             NaN             NaN
             NaN             NaN             NaN
             NaN             NaN             NaN
             NaN             NaN             NaN
             NaN             NaN             NaN
             NaN             NaN             NaN
             NaN             NaN             NaN
             NaN             NaN             NaN
             NaN             NaN             NaN
             NaN             NaN             NaN
             NaN             NaN             NaN
             NaN             NaN             NaN
             NaN             NaN             NaN
             NaN             NaN             NaN
             NaN             NaN             NaN
             NaN             NaN             NaN
             NaN             NaN             NaN
             NaN             NaN             NaN
             NaN             NaN             NaN
             NaN             NaN             NaN
             NaN             NaN             NaN
             NaN             NaN             NaN
             NaN             NaN             NaN
             NaN             NaN             NaN
             NaN             NaN             NaN
             NaN             NaN             NaN
             NaN             NaN             NaN
             NaN             NaN             NaN
             NaN             NaN             NaN
             NaN             NaN             NaN
             NaN             NaN             NaN
             NaN             NaN             NaN
             NaN             NaN             NaN
             NaN             NaN             NaN
             NaN             NaN             NaN
             NaN             NaN             NaN
             NaN             NaN             NaN
             NaN             NaN             NaN
             NaN             NaN             NaN
             NaN             NaN             NaN
             NaN             NaN             NaN
             NaN             NaN             NaN
             NaN             NaN             NaN
             NaN             NaN             NaN
             NaN             NaN             NaN
             NaN             NaN             NaN
             NaN             NaN             NaN
