Mg15 Mn32 O64                           
   1.00000000000000     
    11.4340589999999995   -0.0007340000000000    0.0021460000000000
    -0.0004900000000000   11.4181980000000003    0.0001170000000000
    -0.0000840000000000    0.0001890000000000    9.2391640000000006
   Mg   Mn   O 
    15    32    64
Direct
  0.5003152311649371  0.6269293431885606  0.6419857733813806
  0.9997919937948486  0.2484766493348332  0.7447188377117991
  0.0003536607597586  0.7486853846243554  0.7466792094849964
  0.4998726357513664  0.2525060085356136  0.7525262820117629
  0.9999671291861908  0.4986080007170630  0.4986447526123334
  0.0001835114084290  0.9980156677519341  0.5004775062202297
  0.5002686764528560  0.9943317361927777  0.4968566863003095
  0.2491780507751746 -0.0004033967756978  0.2487445446322117
  0.2499207280877394  0.4978588391992214  0.2514861566512924
  0.7514439996981404 -0.0007877021687290  0.2482107535161189
  0.7491283801600237  0.4975035205926981  0.2520920166315950
  0.2470354295310711  0.2451384976818159  0.9972833159352826
  0.2506077182485407  0.7495344593034960  0.9927522889624049
  0.7517323590858583  0.2446878605730967  0.9966211866572787
  0.7505907388435230  0.7490929836409649  0.9932343346402104
  0.1239555973345050  0.2483769818115816  0.3756181378725282
  0.1252424171463990  0.7501766888928901  0.3732924265234895
  0.6233716042376256  0.2487200752774263  0.3720727367878455
  0.6266764021529837  0.7484946413336705  0.3651273906235347
  0.3746379471852769  0.2489621267824246  0.3706312582430711
  0.3742643703453564  0.7479447094903560  0.3662640951853974
  0.8738922708151156  0.2479962938167089  0.3750251583953917
  0.8760753875242939  0.7497804124522223  0.3727460216086952
  0.1259553136192917 -0.0017084089665237  0.8691305398231137
  0.1241469381207531  0.4970037252619068  0.8745508697714965
  0.6239305093523292  0.9972426340723699  0.8721139679483827
  0.6279827598868749  0.4953874478591256  0.8844296240959691
  0.3775564708758393  0.9977555131360659  0.8706367057015378
  0.3717145384894326  0.4954618243241810  0.8848584783696378
  0.8754357555705682 -0.0025102819963640  0.8682581842327358
  0.8755400483057151  0.4969438239625670  0.8745359139895753
 -0.0001727526325286  0.1229003769099173  0.1226844205788197
  1.0002839941831809  0.6240219857762407  0.1239060585305492
  0.4997785380070544  0.1207880394732803  0.1214524733174016
  0.5001477302665501  0.6221715438681055  0.1242953841352968
  0.9985969159817107  0.3733913120106649  0.1247702474563902
  0.0009793264254229  0.8737284198086929  0.1206587195039140
  0.4998519987572202  0.3686940530627691  0.1263378595865949
  0.5001065198495808  0.8719595728748348  0.1157474478142007
  0.2549884343307671  0.3756059069969360  0.6234110059329252
  0.2554658774984195  0.8710314337857523  0.6237775254226315
  0.7448524924640624  0.3759199986133787  0.6237202058009433
  0.7452530197354612  0.8712368113454680  0.6233844899456288
  0.2520394781631161  0.1237847439174055  0.6237637075796387
  0.2493156694308623  0.6223505773398548  0.6235208575106594
  0.7475226825065744  0.1240729411037172  0.6241553832256856
  0.7511887077574408  0.6228568281518305  0.6235249405773751
  0.1401459198685754  0.2496895763479044  0.6197145697714289
  0.1390168259160673  0.7496551512879782  0.6194337431600669
  0.6340384900207976  0.2508256330685835  0.6189002516402055
  0.6340567993533983  0.7397248692040699  0.6044928701743072
  0.3655138649641893  0.2508930539453189  0.6187469331195206
  0.3664714207276163  0.7394760109339749  0.6046710815120074
  0.8593800574344748  0.2497781815103058  0.6197967154533413
  0.8616999145075931  0.7498798527629934  0.6193507472900527
  0.1402570190749185 -0.0023485081819175  0.6250464742738167
  0.1386272735739777  0.4962719391173560  0.6259852272992372
  0.6361972764269758  0.9978500558386706  0.6255238070167722
  0.6327587832189516  0.5052974858500443  0.6463239828635547
  0.3640986902828588  0.9980216919126269  0.6253607754838422
  0.3673680190506872  0.5050091918895103  0.6465793770203940
  0.8600976709361021 -0.0021529821468231  0.6251918679689200
  0.8612955171308195  0.4963351890187513  0.6260256166882245
  0.0005324568984984  0.1110559917469438  0.8739143287249015
  0.9998572714393150  0.6102175871328531  0.8746410304637513
  0.5010608290062791  0.1136193894871566  0.8774033349326126
  0.4998641094003865  0.6041695147637488  0.9047607369311712
  0.9997574134256001  0.3842574193822876  0.8765104891379131
  0.0011103764532852  0.8855382574968272  0.8748208488520335
  0.4998129532515077  0.3795128374548087  0.9076125860403882
  0.5003775671675916  0.8908533915169244  0.8866616905305456
  0.9987681454605871  0.3611819761935850  0.3705272650326148
  0.0005928223476565  0.8626585200480001  0.3688041788897350
  0.4994244889355154  0.3582141655949209  0.3288548317103261
  0.5002799636768305  0.8591549075656116  0.3641755257194187
  0.9990335629227326  0.1357716795484692  0.3718516497771477
  0.0002837933332408  0.6368228146948677  0.3704117346689265
  0.4988477534432030  0.1360043993532816  0.3707835486119851
  0.5000663867189613  0.6365981867442130  0.3304183139781240
  0.3867993219869221  0.9976574876388644  0.1218049760225613
  0.3895215088924777  0.4954688291535845  0.1250111063340664
  0.8876050628259659  0.9983302324008277  0.1181801197135399
  0.8864094250398380  0.4986485293367098  0.1211262213504428
  0.1135618379712897 -0.0005718708250545  0.1183039817727916
  0.1122424228702722  0.4980501139777995  0.1212053947147926
  0.6133313730145475  0.9976969908185086  0.1218669137388368
  0.6099882138108338  0.4951903432307549  0.1248923432062679
  0.3875953306669939  0.2481705307851139  0.1218399143604581
  0.3888732534234284  0.7438063881770431  0.1195437683628530
  0.8863240668699609  0.2477780959734606  0.1280040118350611
  0.8879182371505085  0.7493237152334675  0.1242639567100763
  0.1117701198543843  0.2484866113797292  0.1277864004622892
  0.1137067727838459  0.7487912096266786  0.1243236581069870
  0.6116386018482122  0.2481438976559893  0.1220396213932667
  0.6116522795621380  0.7435856245058056  0.1193295025417854
  0.2498239634114916  0.3611093639805135  0.3784793144073526
  0.2506617669734501  0.8620196700427564  0.3750199550051628
  0.7481202236509469  0.3605366476434272  0.3787254040641338
  0.7498047207752319  0.8618398534507673  0.3746369253572438
  0.2497175995315587  0.1366469559707491  0.3771430836715148
  0.2486752756297325  0.6369371657397361  0.3727832321305006
  0.7483993163049960  0.1358404613518947  0.3774399359283710
  0.7519630315797944  0.6370339709109710  0.3724906788756454
  0.2508032257550644  0.1109423809869051  0.8666887724980039
  0.2479828070374579  0.6089465671710743  0.8741493328872395
  0.7506364241727550  0.1100879527764058  0.8667078283508853
  0.7518142907463712  0.6087967889181803  0.8741333098635063
  0.2495347897352736  0.3838861157582010  0.8728729537295452
  0.2501537523513740  0.8852050041920475  0.8647919536883480
  0.7500250800659245  0.3836503179353684  0.8725550786485868
  0.7512945686759237  0.8845081730330175  0.8649376810974214
 
             NaN             NaN             NaN
             NaN             NaN             NaN
             NaN             NaN             NaN
             NaN             NaN             NaN
             NaN             NaN             NaN
             NaN             NaN             NaN
             NaN             NaN             NaN
             NaN             NaN             NaN
             NaN             NaN             NaN
             NaN             NaN             NaN
             NaN             NaN             NaN
             NaN             NaN             NaN
             NaN             NaN             NaN
             NaN             NaN             NaN
             NaN             NaN             NaN
             NaN             NaN             NaN
             NaN             NaN             NaN
             NaN             NaN             NaN
             NaN             NaN             NaN
             NaN             NaN             NaN
             NaN             NaN             NaN
             NaN             NaN             NaN
             NaN             NaN             NaN
             NaN             NaN             NaN
             NaN             NaN             NaN
             NaN             NaN             NaN
             NaN             NaN             NaN
             NaN             NaN             NaN
             NaN             NaN             NaN
             NaN             NaN             NaN
             NaN             NaN             NaN
             NaN             NaN             NaN
             NaN             NaN             NaN
             NaN             NaN             NaN
             NaN             NaN             NaN
             NaN             NaN             NaN
             NaN             NaN             NaN
             NaN             NaN             NaN
             NaN             NaN             NaN
             NaN             NaN             NaN
             NaN             NaN             NaN
             NaN             NaN             NaN
             NaN             NaN             NaN
             NaN             NaN             NaN
             NaN             NaN             NaN
             NaN             NaN             NaN
             NaN             NaN             NaN
             NaN             NaN             NaN
             NaN             NaN             NaN
             NaN             NaN             NaN
             NaN             NaN             NaN
             NaN             NaN             NaN
             NaN             NaN             NaN
             NaN             NaN             NaN
             NaN             NaN             NaN
             NaN             NaN             NaN
             NaN             NaN             NaN
             NaN             NaN             NaN
             NaN             NaN             NaN
             NaN             NaN             NaN
             NaN             NaN             NaN
             NaN             NaN             NaN
             NaN             NaN             NaN
             NaN             NaN             NaN
             NaN             NaN             NaN
             NaN             NaN             NaN
             NaN             NaN             NaN
             NaN             NaN             NaN
             NaN             NaN             NaN
             NaN             NaN             NaN
             NaN             NaN             NaN
             NaN             NaN             NaN
             NaN             NaN             NaN
             NaN             NaN             NaN
             NaN             NaN             NaN
             NaN             NaN             NaN
             NaN             NaN             NaN
             NaN             NaN             NaN
             NaN             NaN             NaN
             NaN             NaN             NaN
             NaN             NaN             NaN
             NaN             NaN             NaN
             NaN             NaN             NaN
             NaN             NaN             NaN
             NaN             NaN             NaN
             NaN             NaN             NaN
             NaN             NaN             NaN
             NaN             NaN             NaN
             NaN             NaN             NaN
             NaN             NaN             NaN
             NaN             NaN             NaN
             NaN             NaN             NaN
             NaN             NaN             NaN
             NaN             NaN             NaN
             NaN             NaN             NaN
             NaN             NaN             NaN
             NaN             NaN             NaN
             NaN             NaN             NaN
             NaN             NaN             NaN
             NaN             NaN             NaN
             NaN             NaN             NaN
             NaN             NaN             NaN
             NaN             NaN             NaN
             NaN             NaN             NaN
             NaN             NaN             NaN
             NaN             NaN             NaN
             NaN             NaN             NaN
             NaN             NaN             NaN
             NaN             NaN             NaN
             NaN             NaN             NaN
             NaN             NaN             NaN
