Mg15 Mn32 O64                           
   1.00000000000000     
    11.4340589999999995   -0.0007340000000000    0.0021460000000000
    -0.0004900000000000   11.4181980000000003    0.0001170000000000
    -0.0000840000000000    0.0001890000000000    9.2391640000000006
   Mg   Mn   O 
    15    32    64
Direct
  0.5000465145928947  0.6247653262961111  0.6550726940897953
  0.9999802882102597  0.2389923697209752  0.7349342690453894
  0.0000059099354387  0.7390921980485731  0.7365565472646360
  0.4998743648069244  0.2417499541438824  0.7429649422168776
  0.0000316613019673  0.4898129657832063  0.4900852655776805
  1.0000681143205088  0.9886200100841901  0.4904120489142022
  0.5000429071448871  0.9840691028097852  0.4851587193414427
  0.2490864693107571  0.9897360514586524  0.2387985704894074
  0.2512732588632385  0.4875756379317725  0.2413333095931955
  0.7508794843531482  0.9893791573969893  0.2391436170030959
  0.7490426529682073  0.4875868886435449  0.2415542448250787
  0.2468469407783372  0.2342894486840374  0.9874991470704466
  0.2499282159067378  0.7393503530561683  0.9833287688642474
  0.7522321746196824  0.2339339127136768  0.9881340937202389
  0.7511453168023208  0.7392573536188747  0.9830187674695657
  0.1252259470308796  0.2413843386406395  0.3670141784428008
  0.1247235045686823  0.7408263624655744  0.3620764965832043
  0.6245233249426767  0.2396301217737176  0.3610084906455053
  0.6261211954380176  0.7365365028795728  0.3540026061130504
  0.3759860025512226  0.2394569980410365  0.3606657701042560
  0.3743398969584754  0.7360551993238995  0.3547121050577626
  0.8752096678881572  0.2409847718794398  0.3676206214952721
  0.8751820980396604  0.7402901402523551  0.3617317386494985
  0.1247411870327704  0.9886218855869906  0.8599451922473114
  0.1233646452634782  0.4875850236443027  0.8637870920263190
  0.6232622929179972  0.9870662976898068  0.8599888910846017
  0.6286366417472142  0.4842895129712994  0.8778955706812942
  0.3770471722896976  0.9872260885519892  0.8601453441710132
  0.3712795670096227  0.4842701386486148  0.8783762205972406
  0.8751922183234774  0.9886939667890592  0.8605412066083696
  0.8753721220183844  0.4865492476647421  0.8652396319896756
  1.0000075306340765  0.1156326380312899  0.1126661974031171
  0.9998805951960045  0.6157355397257145  0.1121697453758523
  0.5002703212030607  0.1108075034421560  0.1101545056649385
  0.4993064267543743  0.6125967135868906  0.1117476591695718
  0.9998297977896047  0.3659736914693725  0.1168356298052149
 -0.0000875603638807  0.8660066789352402  0.1102889327920658
  0.5016090318140135  0.3605270736570430  0.1144486443163223
  0.5002639977077388  0.8607394794621803  0.1052191748223027
  0.2558559044547019  0.3660940317241951  0.6166975463701616
  0.2544092424103603  0.8609123346253872  0.6126973311746534
  0.7439992511047729  0.3658583791521298  0.6158170977577776
  0.7456100391107601  0.8606354492096202  0.6128880345296973
  0.2525549142453167  0.1137585469600273  0.6125541309119075
  0.2497870634082952  0.6120895504466479  0.6123884931420447
  0.7476702505315888  0.1133954461919734  0.6120978075772969
  0.7506000079587936  0.6121052188543082  0.6139674364136101
  0.1408819650446857  0.2397118683787178  0.6104699732263817
  0.1384308394738070  0.7392647532654026  0.6088284636783472
  0.6341990791311410  0.2401070238809393  0.6091724920161585
  0.6343539663209501  0.7302870885312047  0.5970475622411398
  0.3659518673507282  0.2402754214933788  0.6092644257948787
  0.3659813635386598  0.7302941524304321  0.5968672360479343
  0.8591445503155923  0.2397923194954615  0.6106318650335304
  0.8616447607515687  0.7395118277095044  0.6088950440225580
  0.1397925395997235  0.9874011052125798  0.6147273812001247
  0.1386280521142581  0.4862558416367373  0.6171132749236673
  0.6356510541032966  0.9873848114476864  0.6147756566576378
  0.6329957170828481  0.4956297821264318  0.6398021589463123
  0.3641825654740042  0.9873278296456929  0.6148301812413286
  0.3672620337381510  0.4954936169827820  0.6395838885090626
  0.8600296228006108  0.9875411061748118  0.6148534939542398
  0.8614552882992267  0.4861549784030373  0.6174373267711696
  0.9997635394092085  0.1018339736491073  0.8647006446462046
 -0.0000086499917767  0.6009811884451530  0.8655190605328693
  0.5000752987354841  0.1028487686778240  0.8682899879562970
  0.5001171137776084  0.5941151030673684  0.8893790209397713
 -0.0003671718383352  0.3745887923611221  0.8674115569625764
  1.0001851470783540  0.8759358663500275  0.8650797643191108
  0.4993807452900190  0.3675015341691536  0.8962271858091742
  0.4999001705762524  0.8792819471092946  0.8784011348555477
 -0.0001928064208311  0.3527364311986037  0.3619307528195287
  0.0000597681463262  0.8530433146940236  0.3585306961828493
  0.4996444957814716  0.3479029011380874  0.3174783339469807
  0.4999604423022527  0.8485247105059661  0.3501323476090447
 -0.0002812806373659  0.1276228169238445  0.3633871111940812
 -0.0000858806081230  0.6274639335778185  0.3606416858557919
  0.4999340411556418  0.1258934860170118  0.3583323203227616
  0.5001325701571885  0.6264325150923620  0.3168006976652908
  0.3869693516735919  0.9868533430287730  0.1110994167030587
  0.3904262651437237  0.4852342877876212  0.1124391268107076
  0.8870569218505745  0.9907610095062485  0.1088218418277443
  0.8872409396301087  0.4896848213220721  0.1119142522545698
  0.1127755333647544  0.9906351655190319  0.1087039712429446
  0.1129846781161755  0.4899877567807507  0.1119189591618214
  0.6126106475349022  0.9870771264592131  0.1111781739978575
  0.6086185144576540  0.4853381820858049  0.1120246306821939
  0.3880540642958550  0.2381743001629708  0.1115469136518816
  0.3900124330637305  0.7331261281593758  0.1066734816575893
  0.8871158400469834  0.2399497315577266  0.1189735716416577
  0.8872578793106446  0.7405847235340780  0.1147535757239370
  0.1125043370051740  0.2398167605429897  0.1190467433249302
  0.1129247738034867  0.7405840416891880  0.1146171714539518
  0.6117820114721391  0.2377180110201547  0.1110963638699463
  0.6107178997161238  0.7332482587037336  0.1072822197630834
  0.2508908288556299  0.3523039182528605  0.3688677832931471
  0.2513528435566995  0.8508181223379487  0.3642668377552368
  0.7489991961505935  0.3519565220603172  0.3691333712055543
  0.7485010907212921  0.8509133448321212  0.3642674372341921
  0.2506981776701226  0.1274372172228774  0.3675460690933281
  0.2485076365957861  0.6264932284140526  0.3626416022900571
  0.7490023148765326  0.1275704427363731  0.3671296745076422
  0.7519147351389329  0.6263414492249104  0.3630725049599418
  0.2504490875400370  0.1002810917318021  0.8568853422378403
  0.2474028151762168  0.5987908053379561  0.8659879501868801
  0.7499895418908514  0.1004165619265830  0.8570745703069642
  0.7523069539431883  0.5985365390347990  0.8662371507800481
  0.2488792313323134  0.3735688588805963  0.8645782519713899
  0.2491780176847007  0.8749260207863643  0.8550602750768506
  0.7510392862896978  0.3732076914521736  0.8645554051614730
  0.7508288779232221  0.8751266701832739  0.8547838847510792
 
             NaN             NaN             NaN
             NaN             NaN             NaN
             NaN             NaN             NaN
             NaN             NaN             NaN
             NaN             NaN             NaN
             NaN             NaN             NaN
             NaN             NaN             NaN
             NaN             NaN             NaN
             NaN             NaN             NaN
             NaN             NaN             NaN
             NaN             NaN             NaN
             NaN             NaN             NaN
             NaN             NaN             NaN
             NaN             NaN             NaN
             NaN             NaN             NaN
             NaN             NaN             NaN
             NaN             NaN             NaN
             NaN             NaN             NaN
             NaN             NaN             NaN
             NaN             NaN             NaN
             NaN             NaN             NaN
             NaN             NaN             NaN
             NaN             NaN             NaN
             NaN             NaN             NaN
             NaN             NaN             NaN
             NaN             NaN             NaN
             NaN             NaN             NaN
             NaN             NaN             NaN
             NaN             NaN             NaN
             NaN             NaN             NaN
             NaN             NaN             NaN
             NaN             NaN             NaN
             NaN             NaN             NaN
             NaN             NaN             NaN
             NaN             NaN             NaN
             NaN             NaN             NaN
             NaN             NaN             NaN
             NaN             NaN             NaN
             NaN             NaN             NaN
             NaN             NaN             NaN
             NaN             NaN             NaN
             NaN             NaN             NaN
             NaN             NaN             NaN
             NaN             NaN             NaN
             NaN             NaN             NaN
             NaN             NaN             NaN
             NaN             NaN             NaN
             NaN             NaN             NaN
             NaN             NaN             NaN
             NaN             NaN             NaN
             NaN             NaN             NaN
             NaN             NaN             NaN
             NaN             NaN             NaN
             NaN             NaN             NaN
             NaN             NaN             NaN
             NaN             NaN             NaN
             NaN             NaN             NaN
             NaN             NaN             NaN
             NaN             NaN             NaN
             NaN             NaN             NaN
             NaN             NaN             NaN
             NaN             NaN             NaN
             NaN             NaN             NaN
             NaN             NaN             NaN
             NaN             NaN             NaN
             NaN             NaN             NaN
             NaN             NaN             NaN
             NaN             NaN             NaN
             NaN             NaN             NaN
             NaN             NaN             NaN
             NaN             NaN             NaN
             NaN             NaN             NaN
             NaN             NaN             NaN
             NaN             NaN             NaN
             NaN             NaN             NaN
             NaN             NaN             NaN
             NaN             NaN             NaN
             NaN             NaN             NaN
             NaN             NaN             NaN
             NaN             NaN             NaN
             NaN             NaN             NaN
             NaN             NaN             NaN
             NaN             NaN             NaN
             NaN             NaN             NaN
             NaN             NaN             NaN
             NaN             NaN             NaN
             NaN             NaN             NaN
             NaN             NaN             NaN
             NaN             NaN             NaN
             NaN             NaN             NaN
             NaN             NaN             NaN
             NaN             NaN             NaN
             NaN             NaN             NaN
             NaN             NaN             NaN
             NaN             NaN             NaN
             NaN             NaN             NaN
             NaN             NaN             NaN
             NaN             NaN             NaN
             NaN             NaN             NaN
             NaN             NaN             NaN
             NaN             NaN             NaN
             NaN             NaN             NaN
             NaN             NaN             NaN
             NaN             NaN             NaN
             NaN             NaN             NaN
             NaN             NaN             NaN
             NaN             NaN             NaN
             NaN             NaN             NaN
             NaN             NaN             NaN
             NaN             NaN             NaN
             NaN             NaN             NaN
