Li16 Co18 O36                           
   1.00000000000000     
     8.1196009999999994   -0.0054600000000000    2.4126949999999998
     3.6990379999999998    7.2282710000000003    2.4127000000000001
    -0.0267200000000000   -0.0162770000000000   10.0614260000000009
   Li   Co   O 
    16    18    36
Direct
  0.2649205191235718  0.5982319046067913  0.5155268920417184
  0.3337209273540932  0.3353052070789888  0.9995881810305856
  0.3319409537702753  0.6652889595114309  0.9989676984126069
  0.3307601454774485  1.0013665399568235 -0.0015896887898026
  0.3309077072561761  0.0062297453328369  0.5052303015314800
  0.6671503607250823  0.3325431414842759  1.0001304080369222
  0.6543263028445151  0.3345198293605768  0.5008245279987648
  0.6680166059099761  0.6641084246126149 -0.0015762442434943
  0.6728451004568782  0.6642560066444922  0.5052062185379413
  0.6689228833560038  1.0022713786782580  0.9970900442090648
  0.6678391855917717  0.0012572317065038  0.5030821531882983
  0.9984061996972625  0.3317083909256532  0.0021926113882333
  0.0187152503485520  0.3520182692361947  0.4983191597579144
  1.0019754258473983  0.6670592169087111 -0.0004008611034059
  0.9992266516646910  0.0004849566996110  1.0001255284146000
  1.0012076306570810  0.9876605214399181  0.5008389516972672
  0.1656389295933171  0.1667911058047266  0.2470396933989471
  0.1684065009653739  0.1652325230814843  0.7523102713004483
  0.1656797519134384  0.4990348635379799  0.2475940925272852
  0.1653296949682786  0.4986501682032521  0.7565445819617869
  0.1651792557706037  0.8338806995117188  0.2464037290227067
  0.1674007658230347  0.8329288900971501  0.7533530709662660
  0.4990180504182855  0.1666307034499911  0.2505417253538965
  0.4997798786317349  0.1662171818639994  0.7515891712356331
  0.5005248581269400  0.4985330157077355  0.2464093684021779
  0.4996092184542298  0.5007097848346475  0.7533437896472612
  0.4984370716049792  0.8317687869046546  0.2512203389287090
  0.4988030124374888  0.8321332350519896  0.7565778184742232
  0.8338223291748247  0.1671618238986719  0.2455940508058539
  0.8340082450270783  0.1673199082370475  0.7495891078793407
  0.8334532782334754  0.4989770018800604  0.2470421033406455
  0.8319434703790853  0.5017204815182970  0.7522794841606096
  0.8332905930793044  0.8323586189236593  0.2505411030567000
  0.8329140307823645  0.8330993293659463  0.7515863593156521
  0.2513828644325168  0.2523635758600133  0.3537680983747667
  0.2543239466739788  0.2513287418262330  0.8629504666925828
  0.2552356190930167  0.5886055151599506  0.3436683871365581
  0.2529151559808457  0.5862204076031347  0.8641704052644932
  0.2550609142525165  0.9200802515177391  0.3534805855347918
  0.2506707964279674  0.9207634893644665  0.8647507576567717
  0.5908482131611811  0.2531881917729017  0.3532421120526960
  0.5881390690261465  0.2523275177217272  0.8604235765172016
  0.5867388307093462  0.5884027453367476  0.3534914237909542
  0.5875049800197998  0.5839437895295440  0.8647253043289399
  0.5843270507287661  0.9176705278478979  0.3589174877799112
  0.5876260229511613  0.9209173924005614  0.8630269384369126
  0.9202763535508129  0.2536203546266543  0.3544576885250046
  0.9200826186679832  0.2534637103628919  0.8593244511571944
  0.9190147377251946  0.5847284438861745  0.3537718428746406
  0.9179872812880656  0.5876464369615337  0.8629317701641964
  0.9198384068383102  0.9241954271912297  0.3532400982516719
  0.9189923504545093  0.9214610715882904  0.8604277792181697
  0.0808658323754211  0.0801653733655766  0.1360018924237052
  0.0817525845599894  0.0795479356900861  0.6428915171272691
  0.0792588150844211  0.4125944121812846  0.1373657406622195
  0.0770802667265571  0.4104916575965266  0.6547702801120993
  0.0770310363007878  0.7475646492587923  0.1383202889871240
  0.0798565653755918  0.7452626949922094  0.6492401967345554
  0.4156546933492236  0.0742251465596714  0.1419595950638296
  0.4138075623447328  0.0742305982490742  0.6482927775455810
  0.4142213393530555  0.4103766761228791  0.1383253311041375
  0.4119388378323702  0.4131793851798848  0.6492311494340475
  0.4153587423630170  0.7486901871229525  0.1394827204674688
  0.4139867873974107  0.7472860469102106  0.6481690929676120
  0.7450455326245806  0.0783809347565039  0.1396462337341358
  0.7465594474065913  0.0798639026854878  0.6411432710885747
  0.7468188753292767  0.4142066420314054  0.1360098648696450
  0.7462453444402379  0.4150773213799114  0.6428995522433201
  0.7408927351067198  0.7489829538069092  0.1419584017817276
  0.7409692987781437  0.7470545457645903  0.6483312419429728
 
             NaN             NaN             NaN
             NaN             NaN             NaN
             NaN             NaN             NaN
             NaN             NaN             NaN
             NaN             NaN             NaN
             NaN             NaN             NaN
             NaN             NaN             NaN
             NaN             NaN             NaN
             NaN             NaN             NaN
             NaN             NaN             NaN
             NaN             NaN             NaN
             NaN             NaN             NaN
             NaN             NaN             NaN
             NaN             NaN             NaN
             NaN             NaN             NaN
             NaN             NaN             NaN
             NaN             NaN             NaN
             NaN             NaN             NaN
             NaN             NaN             NaN
             NaN             NaN             NaN
             NaN             NaN             NaN
             NaN             NaN             NaN
             NaN             NaN             NaN
             NaN             NaN             NaN
             NaN             NaN             NaN
             NaN             NaN             NaN
             NaN             NaN             NaN
             NaN             NaN             NaN
             NaN             NaN             NaN
             NaN             NaN             NaN
             NaN             NaN             NaN
             NaN             NaN             NaN
             NaN             NaN             NaN
             NaN             NaN             NaN
             NaN             NaN             NaN
             NaN             NaN             NaN
             NaN             NaN             NaN
             NaN             NaN             NaN
             NaN             NaN             NaN
             NaN             NaN             NaN
             NaN             NaN             NaN
             NaN             NaN             NaN
             NaN             NaN             NaN
             NaN             NaN             NaN
             NaN             NaN             NaN
             NaN             NaN             NaN
             NaN             NaN             NaN
             NaN             NaN             NaN
             NaN             NaN             NaN
             NaN             NaN             NaN
             NaN             NaN             NaN
             NaN             NaN             NaN
             NaN             NaN             NaN
             NaN             NaN             NaN
             NaN             NaN             NaN
             NaN             NaN             NaN
             NaN             NaN             NaN
             NaN             NaN             NaN
             NaN             NaN             NaN
             NaN             NaN             NaN
             NaN             NaN             NaN
             NaN             NaN             NaN
             NaN             NaN             NaN
             NaN             NaN             NaN
             NaN             NaN             NaN
             NaN             NaN             NaN
             NaN             NaN             NaN
             NaN             NaN             NaN
             NaN             NaN             NaN
             NaN             NaN             NaN
