Li48 P16 O64                            
   1.00000000000000     
    10.4938445696594052   -0.0074236064847110   -0.0291735055269480
    -0.0086212402643365   12.2894743201362235   -0.0148593325432035
    -0.0273456428657787   -0.0119620453860940    9.8828193042058938
   Li   P    O 
    46    16    64
Direct
  0.1644772221319997  0.2501074957023732  0.1492367377136645
  0.6646211639926278  0.2520634133682762  0.6009098955633334
  0.6626956404512896  0.7491019311306175  0.0967633803603789
  0.6640615506398007  0.7515923062737926  0.5991570516707085
  0.1643067083129779  0.4971639802889456  0.1516122252604433
  0.1652682616705334  0.4987431840447840  0.6524931510671195
  0.1637437396089041  0.9941313091203909  0.1540626543473849
  0.1653613853094882  0.9985647386099146  0.6528457128958181
  0.3371769398478719  0.0005660930874924  0.4012612737900838
  0.3382628684784024  0.0021646704708687  0.9077837836657707
  0.3401802728670731  0.4983844712108052  0.3963087498811149
  0.3395907475399227  0.4954443579836152  0.9095018579604357
  0.8306748176511078  0.2495910971885920  0.3427996304946959
  0.8323554000572742  0.2487340553434834  0.8546977990961508
  0.8359861128813648  0.7480132562866402  0.3476390928910007
  0.8362969720853712  0.7486570108513604  0.8475977287051180
  0.3395620191399189  0.2519949446496881  0.3964245148987260
  0.3416214133330513  0.2537643180273790  0.9114011267272701
  0.3375876186074862  0.7497733353203344  0.4004294684407199
  0.3375827075011983  0.7504546600887778  0.9053720081031358
  0.8370997569927994  0.0025970964650881  0.3469963926051918
  0.8374220903565970  0.0025361860243933  0.8482546233893018
  0.8315596635151437  0.5001012892482564  0.3468085394563047
  0.8327133203213748  0.4994775373416260  0.8496764896493900
  0.6523875587610348  0.4890172542335804  0.0929134683375636
  0.6653371272989261  0.5034610229462899  0.5967955945277197
  0.6655398442887375  0.0027011830933859  0.0998425104714897
  0.6636672697188502  0.0021970728882437  0.5985975920005657
  0.1654724337018365  0.2512203356568463  0.6529284635380748
  0.1650237764082689  0.7505716450800080  0.1518590459293421
  0.1647317663988090  0.7512527555000830  0.6531302738427058
  0.9174011018141357  0.3733283067081530  0.1469234784916935
  0.9223889708367992  0.3742070147130931  0.6490843378034938
  0.9224757669039505  0.8752272965226879  0.1491360086552547
  0.9237464875317372  0.8756691645496133  0.6488890025582918
  0.4261630667096128  0.3759260010500682  0.6046912742181050
  0.4304614971999143  0.8762102711671673  0.1020806714870091
  0.4261969969841672  0.8763503903239567  0.6011512091679378
  0.0771463696738905  0.1259608737919606  0.3476862723294900
  0.0786970392894446  0.1258411955567809  0.8544766526190415
  0.0759841634138709  0.6232900824062213  0.3502240581631284
  0.0769598847591766  0.6234027969304918  0.8524190921876880
  0.5751002023759426  0.1311907816209796  0.3929939226842549
  0.5753728166093310  0.1363151753577725  0.9146831199593564
  0.5751551121680620  0.6227567215077556  0.3995363492633572
  0.5731615720458123  0.6223428583331128  0.8987409291032193
  0.9165494385273831  0.1241618051246718  0.0967921294447152
  0.9141751149259321  0.1248705493723392  0.5953879364490220
  0.9101004902408150  0.6247899255011191  0.0953197615478985
  0.9132816626529205  0.6255644663139250  0.5955096203797865
  0.4056685884431559  0.1159834943580549  0.1541548960770882
  0.4114611903574357  0.1244518283866327  0.6550793436095859
  0.4087443206508752  0.6300339860627275  0.1526291385309477
  0.4101662726483823  0.6273718764665404  0.6548148896990824
  0.0870825648052360  0.3756092301508929  0.4045605686480158
  0.0866034009501533  0.3752476171614063  0.9043701011896630
  0.0874593980425473  0.8740260141031584  0.4056284368215088
  0.0879386605061327  0.8740083426438474  0.9048695223597107
  0.5899027911158257  0.3770355361998980  0.3489013445509315
  0.5867289770326849  0.3749938318043675  0.8329982283455379
  0.5912393837781238  0.8749681776509775  0.3468697618120871
  0.5908253274256339  0.8757841257950858  0.8452905398747106
  0.8450715905008295  0.0213608113054349  0.1473488636451847
  0.8438687720782099  0.0219291758191886  0.6458115526593602
  0.8391586002372549  0.5230992586314187  0.1449877431906827
  0.8442473287026004  0.5239075591735585  0.6485658635365965
  0.3288148475475481  0.2099045995767455  0.0959729504284610
  0.3404153867973960  0.2255713401708164  0.6016632598512999
  0.3450396240388400  0.7384137172105056  0.1082361464567896
  0.3414440492203710  0.7309768677611430  0.6033162103935013
  0.1560961378845320  0.2731636069993826  0.3523472381188668
  0.1566471937970775  0.2731522534460993  0.8528855373209865
  0.1570559711939339  0.7714891605269116  0.3540793597561986
  0.1580822570692462  0.7714145975205611  0.8540040865830534
  0.6592822266541418  0.4807841659520946  0.4061891342240571
  0.6543920769051255  0.4773451478420654  0.8927267816515183
  0.6604370051846331  0.9780223912131660  0.3983975994499502
  0.6623314680065349  0.9768142637062383  0.8977627363340375
  0.1577093953132902  0.4780963413567534  0.3540201083699372
  0.1561979681746095  0.4778388941958625  0.8528110780004781
  0.1571006904554295  0.9764897975279681  0.3558629944200362
  0.1588082725747100  0.9761633051902834  0.8548371136039918
  0.6596692244103153  0.2746657199915106  0.4055031762328341
  0.6555998346552983  0.2714477107832423  0.8762269824536872
  0.6602419460669324  0.7723159082492685  0.3999408725163462
  0.6589054582907607  0.7715065701848545  0.8951262817246430
  0.8560227074928477  0.2269420402557287  0.1513915047164929
  0.8455678261102975  0.2267268260772823  0.6481253983517732
  0.8410380876098671  0.7281122281161316  0.1462725276268770
  0.8434222467433443  0.7284621333591517  0.6462607989168418
  0.3374149724488902  0.0078734767119713  0.1125739996507775
  0.3420738214436554  0.0204375786276785  0.6036394964273200
  0.3291329227700288  0.5367200350324453  0.0970738425514810
  0.3402286026377723  0.5261494083770799  0.6000117070386040
  0.5413829406965291  0.1115379215448158  0.1020786640360072
  0.5488548955881569  0.1244892604894474  0.6015187996734070
  0.5463590229713162  0.6269281285673713  0.0987999619363151
  0.5488528772222239  0.6288473522825342  0.6048119171266180
  0.0566473702088217  0.1181706284018631  0.1450917101373506
  0.0526715242991997  0.1234489841263695  0.6480794123243712
  0.0482658279295904  0.6251014292948369  0.1486902461729542
  0.0518875742356997  0.6262529164540567  0.6473663955706783
  0.4523287182775491  0.3759696426478101  0.4061990395028943
  0.4452692779826322  0.3752614435032271  0.8679480340605465
  0.4528908328843713  0.8748552263120573  0.3979826106669861
  0.4526138329066072  0.8758292749852217  0.8963169029701419
  0.9484917219261177  0.3771457142235164  0.3537467367667944
  0.9480958573022491  0.3753126780065017  0.8515993240330673
  0.9490519186338204  0.8739796021982187  0.3531180999729671
  0.9502195781185421  0.8744337350601796  0.8501868542984710
  0.5934105494011419  0.3798717824454272  0.1978758806147098
  0.5962146256311840  0.3816759868769140  0.6766384820612998
  0.5946270459597329  0.8735004662604240  0.1909345690038222
  0.5916321516703249  0.8762089934738384  0.6887178191491827
  0.0860065088252711  0.3754869294616512  0.0604024278854567
  0.0890881487896635  0.3751742808920753  0.5612117681922442
  0.0859176360250160  0.8723961016776016  0.0608077163018237
  0.0882092819465186  0.8737488378367786  0.5619867672867684
  0.4066722292699723  0.1230862185436692  0.3114331123441545
  0.4104786909398115  0.1244113378854834  0.8110265898828288
  0.4113327121066206  0.6269022811390670  0.3095464697108454
  0.4076225180230608  0.6266642973037690  0.8108741860706559
  0.9131546925665432  0.1251227798737489  0.4391087855898661
  0.9136056068103855  0.1236512116249244  0.9398128116446003
  0.9116476329132297  0.6250271317347966  0.4392165002386008
  0.9106708846326370  0.6254967888178626  0.9387550232585511
 
  0.00000000E+00  0.00000000E+00  0.00000000E+00
  0.00000000E+00  0.00000000E+00  0.00000000E+00
  0.00000000E+00  0.00000000E+00  0.00000000E+00
  0.00000000E+00  0.00000000E+00  0.00000000E+00
  0.00000000E+00  0.00000000E+00  0.00000000E+00
  0.00000000E+00  0.00000000E+00  0.00000000E+00
  0.00000000E+00  0.00000000E+00  0.00000000E+00
  0.00000000E+00  0.00000000E+00  0.00000000E+00
  0.00000000E+00  0.00000000E+00  0.00000000E+00
  0.00000000E+00  0.00000000E+00  0.00000000E+00
  0.00000000E+00  0.00000000E+00  0.00000000E+00
  0.00000000E+00  0.00000000E+00  0.00000000E+00
  0.00000000E+00  0.00000000E+00  0.00000000E+00
  0.00000000E+00  0.00000000E+00  0.00000000E+00
  0.00000000E+00  0.00000000E+00  0.00000000E+00
  0.00000000E+00  0.00000000E+00  0.00000000E+00
  0.00000000E+00  0.00000000E+00  0.00000000E+00
  0.00000000E+00  0.00000000E+00  0.00000000E+00
  0.00000000E+00  0.00000000E+00  0.00000000E+00
  0.00000000E+00  0.00000000E+00  0.00000000E+00
  0.00000000E+00  0.00000000E+00  0.00000000E+00
  0.00000000E+00  0.00000000E+00  0.00000000E+00
  0.00000000E+00  0.00000000E+00  0.00000000E+00
  0.00000000E+00  0.00000000E+00  0.00000000E+00
  0.00000000E+00  0.00000000E+00  0.00000000E+00
  0.00000000E+00  0.00000000E+00  0.00000000E+00
  0.00000000E+00  0.00000000E+00  0.00000000E+00
  0.00000000E+00  0.00000000E+00  0.00000000E+00
  0.00000000E+00  0.00000000E+00  0.00000000E+00
  0.00000000E+00  0.00000000E+00  0.00000000E+00
  0.00000000E+00  0.00000000E+00  0.00000000E+00
  0.00000000E+00  0.00000000E+00  0.00000000E+00
  0.00000000E+00  0.00000000E+00  0.00000000E+00
  0.00000000E+00  0.00000000E+00  0.00000000E+00
  0.00000000E+00  0.00000000E+00  0.00000000E+00
  0.00000000E+00  0.00000000E+00  0.00000000E+00
  0.00000000E+00  0.00000000E+00  0.00000000E+00
  0.00000000E+00  0.00000000E+00  0.00000000E+00
  0.00000000E+00  0.00000000E+00  0.00000000E+00
  0.00000000E+00  0.00000000E+00  0.00000000E+00
  0.00000000E+00  0.00000000E+00  0.00000000E+00
  0.00000000E+00  0.00000000E+00  0.00000000E+00
  0.00000000E+00  0.00000000E+00  0.00000000E+00
  0.00000000E+00  0.00000000E+00  0.00000000E+00
  0.00000000E+00  0.00000000E+00  0.00000000E+00
  0.00000000E+00  0.00000000E+00  0.00000000E+00
  0.00000000E+00  0.00000000E+00  0.00000000E+00
  0.00000000E+00  0.00000000E+00  0.00000000E+00
  0.00000000E+00  0.00000000E+00  0.00000000E+00
  0.00000000E+00  0.00000000E+00  0.00000000E+00
  0.00000000E+00  0.00000000E+00  0.00000000E+00
  0.00000000E+00  0.00000000E+00  0.00000000E+00
  0.00000000E+00  0.00000000E+00  0.00000000E+00
  0.00000000E+00  0.00000000E+00  0.00000000E+00
  0.00000000E+00  0.00000000E+00  0.00000000E+00
  0.00000000E+00  0.00000000E+00  0.00000000E+00
  0.00000000E+00  0.00000000E+00  0.00000000E+00
  0.00000000E+00  0.00000000E+00  0.00000000E+00
  0.00000000E+00  0.00000000E+00  0.00000000E+00
  0.00000000E+00  0.00000000E+00  0.00000000E+00
  0.00000000E+00  0.00000000E+00  0.00000000E+00
  0.00000000E+00  0.00000000E+00  0.00000000E+00
  0.00000000E+00  0.00000000E+00  0.00000000E+00
  0.00000000E+00  0.00000000E+00  0.00000000E+00
  0.00000000E+00  0.00000000E+00  0.00000000E+00
  0.00000000E+00  0.00000000E+00  0.00000000E+00
  0.00000000E+00  0.00000000E+00  0.00000000E+00
  0.00000000E+00  0.00000000E+00  0.00000000E+00
  0.00000000E+00  0.00000000E+00  0.00000000E+00
  0.00000000E+00  0.00000000E+00  0.00000000E+00
  0.00000000E+00  0.00000000E+00  0.00000000E+00
  0.00000000E+00  0.00000000E+00  0.00000000E+00
  0.00000000E+00  0.00000000E+00  0.00000000E+00
  0.00000000E+00  0.00000000E+00  0.00000000E+00
  0.00000000E+00  0.00000000E+00  0.00000000E+00
  0.00000000E+00  0.00000000E+00  0.00000000E+00
  0.00000000E+00  0.00000000E+00  0.00000000E+00
  0.00000000E+00  0.00000000E+00  0.00000000E+00
  0.00000000E+00  0.00000000E+00  0.00000000E+00
  0.00000000E+00  0.00000000E+00  0.00000000E+00
  0.00000000E+00  0.00000000E+00  0.00000000E+00
  0.00000000E+00  0.00000000E+00  0.00000000E+00
  0.00000000E+00  0.00000000E+00  0.00000000E+00
  0.00000000E+00  0.00000000E+00  0.00000000E+00
  0.00000000E+00  0.00000000E+00  0.00000000E+00
  0.00000000E+00  0.00000000E+00  0.00000000E+00
  0.00000000E+00  0.00000000E+00  0.00000000E+00
  0.00000000E+00  0.00000000E+00  0.00000000E+00
  0.00000000E+00  0.00000000E+00  0.00000000E+00
  0.00000000E+00  0.00000000E+00  0.00000000E+00
  0.00000000E+00  0.00000000E+00  0.00000000E+00
  0.00000000E+00  0.00000000E+00  0.00000000E+00
  0.00000000E+00  0.00000000E+00  0.00000000E+00
  0.00000000E+00  0.00000000E+00  0.00000000E+00
  0.00000000E+00  0.00000000E+00  0.00000000E+00
  0.00000000E+00  0.00000000E+00  0.00000000E+00
  0.00000000E+00  0.00000000E+00  0.00000000E+00
  0.00000000E+00  0.00000000E+00  0.00000000E+00
  0.00000000E+00  0.00000000E+00  0.00000000E+00
  0.00000000E+00  0.00000000E+00  0.00000000E+00
  0.00000000E+00  0.00000000E+00  0.00000000E+00
  0.00000000E+00  0.00000000E+00  0.00000000E+00
  0.00000000E+00  0.00000000E+00  0.00000000E+00
  0.00000000E+00  0.00000000E+00  0.00000000E+00
  0.00000000E+00  0.00000000E+00  0.00000000E+00
  0.00000000E+00  0.00000000E+00  0.00000000E+00
  0.00000000E+00  0.00000000E+00  0.00000000E+00
  0.00000000E+00  0.00000000E+00  0.00000000E+00
  0.00000000E+00  0.00000000E+00  0.00000000E+00
  0.00000000E+00  0.00000000E+00  0.00000000E+00
  0.00000000E+00  0.00000000E+00  0.00000000E+00
  0.00000000E+00  0.00000000E+00  0.00000000E+00
  0.00000000E+00  0.00000000E+00  0.00000000E+00
  0.00000000E+00  0.00000000E+00  0.00000000E+00
  0.00000000E+00  0.00000000E+00  0.00000000E+00
  0.00000000E+00  0.00000000E+00  0.00000000E+00
  0.00000000E+00  0.00000000E+00  0.00000000E+00
  0.00000000E+00  0.00000000E+00  0.00000000E+00
  0.00000000E+00  0.00000000E+00  0.00000000E+00
  0.00000000E+00  0.00000000E+00  0.00000000E+00
  0.00000000E+00  0.00000000E+00  0.00000000E+00
  0.00000000E+00  0.00000000E+00  0.00000000E+00
  0.00000000E+00  0.00000000E+00  0.00000000E+00
  0.00000000E+00  0.00000000E+00  0.00000000E+00
  0.00000000E+00  0.00000000E+00  0.00000000E+00
  0.00000000E+00  0.00000000E+00  0.00000000E+00
