Li47 P16 O64                            
   1.00000000000000     
    10.6142679999999991   -0.0020730000000000    0.0003730000000000
    -0.0023990000000000   12.3618900000000007    0.0031530000000000
     0.0003190000000000    0.0025270000000000   10.0280570000000004
   Li   P    O 
    47    16    64
Direct
  0.3266190051195326  0.3279621288083749  0.1197949784562207
  0.6598999260890490  0.2508416253553951  0.0996909010775916
  0.6642886275084103  0.2501372293429192  0.5989327761844615
  0.6635558061028921  0.7500237145912048  0.0990639324687972
  0.6635441688996632  0.7507398257956176  0.5988201764127651
  0.1637815320556326  0.4943317878095004  0.1519237630946297
  0.1633643637603436  0.5003155414202998  0.6514828839304445
  0.1651108398292696  0.0017730680109424  0.1493835189647060
  0.1635560181565315  0.0005645591834783  0.6509301098857428
  0.3372174128342147  0.0018291491297558  0.3996265505376806
  0.3368347662060586  0.0015931483595919  0.9025034404591287
  0.3373341226094624  0.4991135906788511  0.3984281491089972
  0.3355264667664381  0.4987211940781581  0.9033188931119189
  0.8367768488965772  0.2483851706225642  0.3492523320077431
  0.8354713611616819  0.2494457046191061  0.8500095162612217
  0.8372979915798117  0.7491507908981736  0.3487451141190344
  0.8370049772662834  0.7490119019104927  0.8493899704860248
  0.3368349582375907  0.2498716976706988  0.3947970264349723
  0.3341648114368577  0.2509435518918063  0.9074786048034875
  0.3367611213052902  0.7490848295369382  0.4001688310709982
  0.3365220781484599  0.7490548920322255  0.9019453006169581
  0.8374812412217998  0.0014942411357120  0.3478469903842104
  0.8367972300443826  0.0012022904906127  0.8490372497375683
  0.8371123159680969  0.4999699867777392  0.3485858756307512
  0.8357720606719705  0.5007470167823851  0.8503932036414900
  0.6604607484208603  0.4972784635251787  0.0986380298794772
  0.6643464407657873  0.4997509466894203  0.5988127940605332
  0.6629640576726679  0.9973262307086337  0.0982191638294811
  0.6638433160112399  0.9991740522898264  0.5993560861904761
  0.1630872833775784  0.2527047725825351  0.6487572496292062
  0.1637320010855652  0.7509031447934695  0.1512909292597845
  0.1637772258015930  0.7517678840541632  0.6507991355953776
  0.9299721470805487  0.3697444160302534  0.1510117867789022
  0.9237240642436712  0.3756678597991283  0.6501377291970796
  0.9262375086293466  0.8758411432067400  0.1489351144997444
  0.9265288917077305  0.8757188670202042  0.6487760623584682
  0.4272108934378591  0.3743712890710336  0.6030430081530902
  0.4272136042999433  0.8755920409018197  0.1015731211719368
  0.4257631815096605  0.8755436847387773  0.6006450906831212
  0.0766025975652348  0.1302138466578263  0.3431774192582122
  0.0745735199201508  0.1283093793240180  0.8553881396858606
  0.0747580169807822  0.6235242890721040  0.3508039558710520
  0.0745190702621713  0.6243120365949268  0.8516531986699707
  0.5742611027774145  0.1255455789587632  0.3983068682812147
  0.5727277741706439  0.1257223981656447  0.9008057541180758
  0.5739201540368316  0.6238455496997006  0.3988799546797283
  0.5725148233273355  0.6238464528916338  0.8992342364904606
  0.9091630913219423  0.1226304820618081  0.0972947105965879
  0.9118139673180252  0.1245731879254722  0.5969604255613886
  0.9110358849010857  0.6247776402074986  0.0977561049398112
  0.9112660468736481  0.6263585907515469  0.5969090865432132
  0.4130124340081118  0.1232798251232832  0.1518279418672719
  0.4112172524452994  0.1250910223113250  0.6534698794677911
  0.4099061662170331  0.6266298940637236  0.1525670688257197
  0.4108424269026302  0.6253019606568708  0.6529103422297859
  0.0885203641952225  0.3745691126719826  0.4069131010354404
  0.0865509242474646  0.3768151330531248  0.9016034132798484
  0.0895894058094465  0.8754400537650957  0.4028840230645194
  0.0892241968950308  0.8751769184744427  0.9033735181212660
  0.5908673402688978  0.3750437477414300  0.3480272508831916
  0.5877382005513467  0.3753374019613652  0.8441381711229631
  0.5896330322952567  0.8744265496046095  0.3473243982116680
  0.5888898625504696  0.8744796732122461  0.8457189513540089
  0.8371971543938728  0.0192031641385489  0.1462604640971279
  0.8417771512306995  0.0210489143143364  0.6478260577056472
  0.8402753270041877  0.5222655459690115  0.1487135520559512
  0.8407669471557351  0.5241500587461823  0.6492291530558527
  0.3459455662154733  0.2234365972327166  0.0971424390324508
  0.3423649555028196  0.2280254665626267  0.6013697060863341
  0.3425178333800056  0.7319960997666889  0.1038653033978809
  0.3413019534777292  0.7286981854167193  0.6014758046691467
  0.1587865614857566  0.2705667241329241  0.3652313185021264
  0.1568800520608098  0.2739117241809935  0.8501751321332697
  0.1586810738619761  0.7715171003227993  0.3526579841171231
  0.1591920259941318  0.7721380611130402  0.8518552157738184
  0.6601470931678350  0.4785256040065701  0.4006240088182707
  0.6570792273054424  0.4783680888846414  0.8974629866285352
  0.6596106289862200  0.9774232565206483  0.3985881318623932
  0.6588305867930742  0.9775122397850565  0.8964193548187165
  0.1587067175098887  0.4771956842316021  0.3533661436820414
  0.1571773923977124  0.4795552975019389  0.8483097586245332
  0.1600863170362126  0.9777898213454639  0.3514504662612938
  0.1589215153898356  0.9784409739669464  0.8524521537644989
  0.6600128768259395  0.2716987363447758  0.4007941028185259
  0.6562880181689358  0.2722851128619677  0.8980643682705518
  0.6593039750629658  0.7711805439949787  0.3987270811041363
  0.6586919651566934  0.7713235549631440  0.8972578132093153
  0.8392933304375347  0.2256313957193810  0.1493513862283101
  0.8409327142741202  0.2270517932723488  0.6482294473596237
  0.8412649292533824  0.7285420896992565  0.1481339741609418
  0.8414183521355657  0.7299027805856122  0.6472511162999087
  0.3443681582336474  0.0181332890145499  0.1031500174874454
  0.3415022103442230  0.0217151137032047  0.6018309263910244
  0.3370096116527940  0.5269460570539560  0.0998104202146031
  0.3415328421089189  0.5224831137505760  0.6006675897737919
  0.5525281526274344  0.1207356333456174  0.1020555559846455
  0.5497714370399899  0.1241887353787728  0.6018153994940147
  0.5482438335408982  0.6256373541159727  0.1002178334698256
  0.5493100389119995  0.6256202787427021  0.6014323633998937
  0.0455129584409564  0.1194542202314289  0.1496032193248790
  0.0492811437706765  0.1249608450034515  0.6505349949141396
  0.0489096140155361  0.6251649421423956  0.1504509496976628
  0.0492848329047258  0.6271837314144121  0.6489901085331157
  0.4527540760660513  0.3752119232928213  0.4003486597178976
  0.4481059178108975  0.3761767038911813  0.8872588745082894
  0.4515186680556647  0.8746735097566427  0.3995217012531183
  0.4507735895622826  0.8745384711949558  0.8975360496963294
  0.9508502686464385  0.3741459242559119  0.3521912563209347
  0.9484748548635363  0.3756768050579182  0.8471322852316685
  0.9512878504410049  0.8752368193211992  0.3508674896306967
  0.9510939040988936  0.8748849620729805  0.8508638588468695
  0.5947494896538538  0.3750896255015838  0.1934564308499285
  0.5947969140915524  0.3751678406762757  0.6883580098590285
  0.5903562143339363  0.8736147190622565  0.1916469167187068
  0.5895382198743885  0.8743052981903700  0.6898659487219205
  0.0841175525424801  0.3802575267401411  0.0554696349501311
  0.0853747618562477  0.3795575369039559  0.5627635604788113
  0.0895429016089049  0.8746368636141651  0.0590209685327535
  0.0897851141230801  0.8757028651086575  0.5589023388220701
  0.4123728661660314  0.1240851427690487  0.3082210266560694
  0.4100051445880480  0.1248010450357862  0.8091997850812633
  0.4107016680018080  0.6253503066580978  0.3086833587946975
  0.4095974013432990  0.6254162264662154  0.8086529534499476
  0.9116971184991548  0.1244499534409237  0.4412396981424510
  0.9081725664240727  0.1245558582046956  0.9410031615701424
  0.9108224558887229  0.6253570385187027  0.4410710931399671
  0.9108041412417734  0.6252541536162490  0.9417126815226372
 
             NaN             NaN             NaN
             NaN             NaN             NaN
             NaN             NaN             NaN
             NaN             NaN             NaN
             NaN             NaN             NaN
             NaN             NaN             NaN
             NaN             NaN             NaN
             NaN             NaN             NaN
             NaN             NaN             NaN
             NaN             NaN             NaN
             NaN             NaN             NaN
             NaN             NaN             NaN
             NaN             NaN             NaN
             NaN             NaN             NaN
             NaN             NaN             NaN
             NaN             NaN             NaN
             NaN             NaN             NaN
             NaN             NaN             NaN
             NaN             NaN             NaN
             NaN             NaN             NaN
             NaN             NaN             NaN
             NaN             NaN             NaN
             NaN             NaN             NaN
             NaN             NaN             NaN
             NaN             NaN             NaN
             NaN             NaN             NaN
             NaN             NaN             NaN
             NaN             NaN             NaN
             NaN             NaN             NaN
             NaN             NaN             NaN
             NaN             NaN             NaN
             NaN             NaN             NaN
             NaN             NaN             NaN
             NaN             NaN             NaN
             NaN             NaN             NaN
             NaN             NaN             NaN
             NaN             NaN             NaN
             NaN             NaN             NaN
             NaN             NaN             NaN
             NaN             NaN             NaN
             NaN             NaN             NaN
             NaN             NaN             NaN
             NaN             NaN             NaN
             NaN             NaN             NaN
             NaN             NaN             NaN
             NaN             NaN             NaN
             NaN             NaN             NaN
             NaN             NaN             NaN
             NaN             NaN             NaN
             NaN             NaN             NaN
             NaN             NaN             NaN
             NaN             NaN             NaN
             NaN             NaN             NaN
             NaN             NaN             NaN
             NaN             NaN             NaN
             NaN             NaN             NaN
             NaN             NaN             NaN
             NaN             NaN             NaN
             NaN             NaN             NaN
             NaN             NaN             NaN
             NaN             NaN             NaN
             NaN             NaN             NaN
             NaN             NaN             NaN
             NaN             NaN             NaN
             NaN             NaN             NaN
             NaN             NaN             NaN
             NaN             NaN             NaN
             NaN             NaN             NaN
             NaN             NaN             NaN
             NaN             NaN             NaN
             NaN             NaN             NaN
             NaN             NaN             NaN
             NaN             NaN             NaN
             NaN             NaN             NaN
             NaN             NaN             NaN
             NaN             NaN             NaN
             NaN             NaN             NaN
             NaN             NaN             NaN
             NaN             NaN             NaN
             NaN             NaN             NaN
             NaN             NaN             NaN
             NaN             NaN             NaN
             NaN             NaN             NaN
             NaN             NaN             NaN
             NaN             NaN             NaN
             NaN             NaN             NaN
             NaN             NaN             NaN
             NaN             NaN             NaN
             NaN             NaN             NaN
             NaN             NaN             NaN
             NaN             NaN             NaN
             NaN             NaN             NaN
             NaN             NaN             NaN
             NaN             NaN             NaN
             NaN             NaN             NaN
             NaN             NaN             NaN
             NaN             NaN             NaN
             NaN             NaN             NaN
             NaN             NaN             NaN
             NaN             NaN             NaN
             NaN             NaN             NaN
             NaN             NaN             NaN
             NaN             NaN             NaN
             NaN             NaN             NaN
             NaN             NaN             NaN
             NaN             NaN             NaN
             NaN             NaN             NaN
             NaN             NaN             NaN
             NaN             NaN             NaN
             NaN             NaN             NaN
             NaN             NaN             NaN
             NaN             NaN             NaN
             NaN             NaN             NaN
             NaN             NaN             NaN
             NaN             NaN             NaN
             NaN             NaN             NaN
             NaN             NaN             NaN
             NaN             NaN             NaN
             NaN             NaN             NaN
             NaN             NaN             NaN
             NaN             NaN             NaN
             NaN             NaN             NaN
             NaN             NaN             NaN
             NaN             NaN             NaN
             NaN             NaN             NaN
             NaN             NaN             NaN
             NaN             NaN             NaN
