Li46 P16 O64
1.0
10.491529 -0.002965 -0.012254
-0.003429 12.281557 -0.003331
-0.011456 -0.002679 9.888758
Li P O
46 16 64
direct
0.471538 0.251058 0.117791 Li
0.665345 0.249901 0.599205 Li
0.663287 0.749261 0.097609 Li
0.663956 0.750943 0.598497 Li
0.165944 0.491611 0.152395 Li
0.164384 0.500158 0.652256 Li
0.165611 -0.001035 0.151399 Li
0.164925 0.000163 0.652814 Li
0.337512 0.001642 0.400854 Li
0.337335 0.002536 0.906925 Li
0.339512 0.497561 0.396550 Li
0.336642 0.495427 0.909153 Li
0.834530 0.248449 0.345973 Li
0.833172 0.249241 0.850937 Li
0.836970 0.748639 0.347366 Li
0.836706 0.748837 0.847829 Li
0.338365 0.252546 0.388284 Li
0.335946 0.255656 0.914365 Li
0.337246 0.749383 0.400623 Li
0.336720 0.749543 0.905514 Li
0.837493 0.002110 0.346150 Li
0.836844 0.001744 0.847714 Li
0.834831 0.499923 0.346739 Li
0.833320 0.500283 0.849643 Li
0.654869 0.493243 0.095496 Li
0.665677 0.501955 0.597621 Li
0.663385 0.998861 0.097752 Li
0.664158 1.000295 0.598847 Li
0.164411 0.252761 0.649231 Li
0.164643 0.750541 0.152447 Li
0.164795 0.751954 0.652528 Li
0.923509 0.370352 0.149655 Li
0.920206 0.375400 0.649117 Li
0.923606 0.875586 0.149066 Li
0.924999 0.875972 0.648801 Li
0.427034 0.374415 0.605928 Li
0.429069 0.876153 0.102222 Li
0.424990 0.876111 0.600972 Li
0.079091 0.130002 0.341365 Li
0.077805 0.128576 0.856959 Li
0.076900 0.622502 0.349775 Li
0.076792 0.623627 0.851978 Li
0.575705 0.128189 0.397035 Li
0.573189 0.130425 0.907235 Li
0.575343 0.622642 0.399662 Li
0.572377 0.622724 0.899538 Li
0.911259 0.122095 0.095993 P
0.913806 0.124208 0.595266 P
0.910839 0.624707 0.095914 P
0.912747 0.626847 0.595325 P
0.410310 0.119564 0.153534 P
0.411496 0.124899 0.655130 P
0.408716 0.629641 0.153303 P
0.410528 0.626290 0.654729 P
0.087290 0.374798 0.407857 P
0.084508 0.376829 0.901917 P
0.088783 0.874942 0.404878 P
0.088463 0.874645 0.905027 P
0.592463 0.375769 0.349318 P
0.586442 0.375179 0.836820 P
0.590620 0.874379 0.347169 P
0.589416 0.874790 0.844734 P
0.838770 0.019025 0.144888 O
0.843468 0.021070 0.645879 O
0.839147 0.523300 0.146250 O
0.842499 0.525775 0.648799 O
0.338456 0.215299 0.097249 O
0.342598 0.226659 0.601522 O
0.344949 0.737964 0.108674 O
0.341783 0.729805 0.602897 O
0.157032 0.271122 0.366297 O
0.155062 0.274704 0.850468 O
0.157605 0.771467 0.354424 O
0.158581 0.772106 0.853529 O
0.661074 0.479460 0.404951 O
0.653946 0.477786 0.894772 O
0.660430 0.976932 0.398844 O
0.659954 0.976737 0.895965 O
0.158177 0.476656 0.354585 O
0.155326 0.479030 0.848898 O
0.159075 0.976722 0.353782 O
0.158606 0.977219 0.854681 O
0.661154 0.272808 0.404913 O
0.654144 0.272411 0.889163 O
0.659820 0.771404 0.399215 O
0.658541 0.771395 0.895689 O
0.844938 0.224544 0.149624 O
0.843368 0.225807 0.647270 O
0.841524 0.728400 0.146404 O
0.842916 0.730138 0.645448 O
0.343266 0.011735 0.109105 O
0.342205 0.021231 0.603246 O
0.330394 0.536008 0.097474 O
0.341427 0.524714 0.600211 O
0.549070 0.115826 0.103043 O
0.550090 0.123647 0.603458 O
0.546949 0.626999 0.100076 O
0.549507 0.627283 0.604602 O
0.048544 0.116069 0.146628 O
0.051375 0.123937 0.649242 O
0.048695 0.625001 0.149221 O
0.050999 0.627947 0.647309 O
0.454489 0.375672 0.403430 O
0.444642 0.375852 0.868293 O
0.452405 0.874555 0.398954 O
0.451272 0.874890 0.896121 O
0.949451 0.375201 0.353330 O
0.946297 0.375865 0.846845 O
0.950279 0.874770 0.352695 O
0.950509 0.874615 0.851182 O
0.599960 0.376818 0.197005 O
0.600389 0.377547 0.680897 O
0.592918 0.873202 0.191265 O
0.590419 0.874770 0.688413 O
0.080801 0.380353 0.056058 O
0.084450 0.379832 0.564179 O
0.087594 0.873286 0.060863 O
0.089386 0.875190 0.561290 O
0.411679 0.122477 0.310937 O
0.409613 0.124505 0.811039 O
0.411292 0.626221 0.310126 O
0.407846 0.626079 0.810703 O
0.913501 0.124182 0.439153 O
0.909234 0.123887 0.939090 O
0.911780 0.625459 0.439126 O
0.910858 0.625531 0.939369 O
