Li17 Co18 O36                           
   1.00000000000000     
     8.1837199999999992   -0.0000560000000000    2.4236460000000002
     3.7329870000000001    7.2827260000000003    2.4236399999999998
     0.0234610000000000    0.0143460000000000    9.9388439999999996
   Li   Co   O 
    17    18    36
Direct
  0.3019131572986365  0.5549255445462421  0.5127881826690510
  0.3332453498328346  0.3321724921367234  0.0017249466655197
  0.3326519715685487  0.6664016634898909  1.0003679136598624
  0.3323095937906076  0.9997233519029530  1.0013265617338807
  0.3311310430865177  1.0015608411596275  0.5007903882677329
  0.6665422939137058  0.3327009668012424  1.0006958716290129
  0.6684273409699349  0.3303214519014094  0.5010549985088830
  0.6655442004779650  0.6667121856753626  0.0012165751005741
  0.6466645747055880  0.6659928990277110  0.5015926244028731
  0.6662027212274855  0.9989062235864724  0.0017538685159324
  0.6440392299672617  0.0210124255927940  0.5012154492655576
 -0.0004339063609834  0.3319557260398323  1.0012605732506552
  0.0144113699679778  0.3337978931142959  0.5002321512904263
 -0.0011464840786692  0.6668357593956269  0.0009719548725562
 -0.0282993139803429  0.6784354519954376  0.4990981159984568
 -0.0003498340414862  1.0002200735587192  0.9995358883058313
  0.0110152110000955  0.9879240706873406  0.4996476132709520
  0.1638228066983351  0.1681576714466825  0.2472334159862035
  0.1689278623111111  0.1653929380278714  0.7504441082637576
  0.1632423019521453  0.5006725031798217  0.2467026662256850
  0.1674192065776850  0.4954995981913447  0.7569330536863322
  0.1632494298316500  0.8363743619452804  0.2463970590736174
  0.1692911178866424  0.8303738398248390  0.7503266126864980
  0.4960714343889864  0.1682991811011333  0.2510901974775947
  0.5019865775113860  0.1617185216989063  0.7549450733652369
  0.4968826438999097  0.5008865385888027  0.2482732377717008
  0.5018111885451257  0.4975040093090986  0.7553228977083014
  0.4957662998438307  0.8337141423922807  0.2512102581462789
  0.5007572136427626  0.8304916775539065  0.7547118426432348
  0.8305357034598219  0.1680165122950188  0.2490835045366578
  0.8355398389080110  0.1645525827093492  0.7505232853729003
  0.8299853895725912  0.5006249796108249  0.2497425712131648
  0.8342976008197964  0.4983868649952849  0.7527003630515067
  0.8293567012345965  0.8345693027988033  0.2504026954010808
  0.8348477876348409  0.8305067463520593  0.7518031524757742
  0.2490979748084302  0.2547300191002098  0.3528468149662428
  0.2543908937993186  0.2490693682696536  0.8633592846710714
  0.2465640361911988  0.5929599035622822  0.3456454386008184
  0.2542138283026558  0.5858968244864835  0.8630794175871740
  0.2489665510888188  0.9252223052301241  0.3536467387201954
  0.2529295806117924  0.9190589184996721  0.8602694929749561
  0.5869256559832479  0.2557181797250021  0.3552628262306291
  0.5911312731343340  0.2492633749618401  0.8625920691298160
  0.5843731027493114  0.5858601816785377  0.3571777284909581
  0.5885920237315329  0.5837226220412639  0.8639534866977501
  0.5825980212637132  0.9214363905126728  0.3602837205080749
  0.5899685449540819  0.9166305274040834  0.8630800725517684
  0.9185285041251480  0.2542542634501102  0.3569044863525243
  0.9222483214316064  0.2513406998295746  0.8591737135353713
  0.9177893750744768  0.5872721216971496  0.3578557769523014
  0.9198013529343008  0.5856215428770790  0.8619986051175338
  0.9180744877825922  0.9215672759913154  0.3575896424341529
  0.9226245934041810  0.9184155067884883  0.8585050648091767
  0.0763999838344563  0.0819908032333488  0.1377197824488263
  0.0823703896872274  0.0778920671883012  0.6409223217554391
  0.0756654881622154  0.4151016078824768  0.1382807068140446
  0.0788662778130726  0.4140347537133428  0.6464677134632807
  0.0740453041949791  0.7493428529701448  0.1386929646820537
  0.0822843980208523  0.7392797846985556  0.6436036111537458
  0.4116548196329520  0.0797417825454638  0.1411100016886387
  0.4156221778005843  0.0726968411651955  0.6488001950429038
  0.4111399056570104  0.4127322604651938  0.1394451786490774
  0.4184396014160473  0.4039836023874218  0.6551540392792586
  0.4109524427117705  0.7482014894501957  0.1395509901435364
  0.4157825492916603  0.7437327841203941  0.6481519168857375
  0.7429705016758509  0.0802509394362282  0.1418471860241731
  0.7469561105597681  0.0773130025250790  0.6432861626410931
  0.7442002887830507  0.4137532314699653  0.1407949928761620
  0.7467009617125626  0.4120312643543441  0.6438455250796571
  0.7425603728302486  0.7474963552384933  0.1424589400317750
  0.7452196585323407  0.7446835313341164  0.6450716122612838
 
             NaN             NaN             NaN
             NaN             NaN             NaN
             NaN             NaN             NaN
             NaN             NaN             NaN
             NaN             NaN             NaN
             NaN             NaN             NaN
             NaN             NaN             NaN
             NaN             NaN             NaN
             NaN             NaN             NaN
             NaN             NaN             NaN
             NaN             NaN             NaN
             NaN             NaN             NaN
             NaN             NaN             NaN
             NaN             NaN             NaN
             NaN             NaN             NaN
             NaN             NaN             NaN
             NaN             NaN             NaN
             NaN             NaN             NaN
             NaN             NaN             NaN
             NaN             NaN             NaN
             NaN             NaN             NaN
             NaN             NaN             NaN
             NaN             NaN             NaN
             NaN             NaN             NaN
             NaN             NaN             NaN
             NaN             NaN             NaN
             NaN             NaN             NaN
             NaN             NaN             NaN
             NaN             NaN             NaN
             NaN             NaN             NaN
             NaN             NaN             NaN
             NaN             NaN             NaN
             NaN             NaN             NaN
             NaN             NaN             NaN
             NaN             NaN             NaN
             NaN             NaN             NaN
             NaN             NaN             NaN
             NaN             NaN             NaN
             NaN             NaN             NaN
             NaN             NaN             NaN
             NaN             NaN             NaN
             NaN             NaN             NaN
             NaN             NaN             NaN
             NaN             NaN             NaN
             NaN             NaN             NaN
             NaN             NaN             NaN
             NaN             NaN             NaN
             NaN             NaN             NaN
             NaN             NaN             NaN
             NaN             NaN             NaN
             NaN             NaN             NaN
             NaN             NaN             NaN
             NaN             NaN             NaN
             NaN             NaN             NaN
             NaN             NaN             NaN
             NaN             NaN             NaN
             NaN             NaN             NaN
             NaN             NaN             NaN
             NaN             NaN             NaN
             NaN             NaN             NaN
             NaN             NaN             NaN
             NaN             NaN             NaN
             NaN             NaN             NaN
             NaN             NaN             NaN
             NaN             NaN             NaN
             NaN             NaN             NaN
             NaN             NaN             NaN
             NaN             NaN             NaN
             NaN             NaN             NaN
             NaN             NaN             NaN
             NaN             NaN             NaN
