Li17 Co18 O36
1.0
8.183720 -0.000056 2.423646
3.732987 7.282726 2.423640
0.023461 0.014346 9.938844
Li Co O
17 18 36
direct
0.238212 0.568481 0.553016 Li
0.332682 0.333594 0.000055 Li
0.333543 0.666578 -0.000014 Li
0.333765 0.999825 0.999968 Li
0.333333 0.993944 0.500008 Li
0.666371 0.333751 -0.000016 Li
0.654502 0.342429 0.500004 Li
0.666260 0.667171 1.000001 Li
0.657475 0.666601 0.500326 Li
0.666166 0.999657 0.000131 Li
0.663425 1.002870 0.500931 Li
0.000502 0.333548 0.999883 Li
0.003243 0.333531 0.499058 Li
0.000334 0.665946 0.000046 Li
0.012169 0.663624 0.499982 Li
0.000340 0.999945 -0.000053 Li
0.009139 0.990995 0.499682 Li
0.166921 0.167368 0.247911 Co
0.166938 0.166810 0.749569 Co
0.167014 0.500069 0.248607 Co
0.167218 0.500246 0.749326 Co
0.167176 0.833148 0.249982 Co
0.167111 0.832893 0.749405 Co
0.499730 0.166810 0.250419 Co
0.499673 0.166160 0.751400 Co
0.499470 0.500306 0.250670 Co
0.499492 0.500326 0.750015 Co
0.499552 0.832911 0.250599 Co
0.499735 0.832932 0.752077 Co
0.833529 0.166717 0.249708 Co
0.833351 0.166730 0.749681 Co
0.833967 0.500127 0.248527 Co
0.833137 0.500073 0.750265 Co
0.833321 0.833190 0.250351 Co
0.832707 0.833155 0.751476 Co
0.253110 0.254096 0.355776 O
0.253021 0.253631 0.858766 O
0.252658 0.587535 0.353725 O
0.253506 0.587223 0.858514 O
0.252778 0.924460 0.354412 O
0.252680 0.920801 0.859063 O
0.588020 0.253808 0.357547 O
0.587607 0.253447 0.859096 O
0.590795 0.586127 0.354993 O
0.587186 0.586038 0.859972 O
0.586631 0.920209 0.358807 O
0.586457 0.919673 0.861720 O
0.921225 0.254196 0.356481 O
0.920496 0.253570 0.857937 O
0.921159 0.586573 0.357049 O
0.920329 0.586453 0.858974 O
0.920966 0.920307 0.358230 O
0.920434 0.920872 0.858706 O
0.079413 0.079847 0.140038 O
0.080012 0.079359 0.641172 O
0.080213 0.413948 0.138283 O
0.078653 0.413525 0.642461 O
0.079051 0.747058 0.140906 O
0.075871 0.746957 0.644993 O
0.413952 0.079550 0.141029 O
0.413582 0.077708 0.644221 O
0.413690 0.412548 0.141110 O
0.414028 0.409358 0.646264 O
0.413138 0.746244 0.141550 O
0.413875 0.746857 0.645590 O
0.746171 0.079353 0.142028 O
0.745543 0.079107 0.642922 O
0.746302 0.412757 0.140965 O
0.745712 0.413391 0.641769 O
0.746349 0.746961 0.141407 O
0.745435 0.746415 0.643545 O
