Li16 Co18 O36                           
   1.00000000000000     
     8.1196009999999994   -0.0054600000000000    2.4126949999999998
     3.6990379999999998    7.2282710000000003    2.4127000000000001
    -0.0267200000000000   -0.0162770000000000   10.0614260000000009
   Li   Co   O 
    16    18    36
Direct
  0.2366259212652487  0.5699085552990449  0.5205524605882488
  0.3363490707242238  0.3321223587409749  1.0036025497946690
  0.3329497289605584  0.6662614752844735  1.0002320961181677
  0.3311913984387730  0.9993850174833622 -0.0002447668220920
  0.3315014071482484  0.0049700674319682  0.5048309476832458
  0.6682947032917737  0.3324285998269599  1.0001347423126090
  0.6560240765724517  0.3371863278744472  0.4976012545158852
  0.6660566374054038  0.6645021195561501 -0.0002466395108993
  0.6716026922363875  0.6648175233061704  0.5048297042849473
  0.6688442181437632  1.0021951783322431  0.9979781044402947
  0.6675272063458009  0.0008726560800657  0.5037640704795082
  0.9959302491178250  0.3292539934065176  0.0058106607060440
  0.0166646958709940  0.3500088126605142  0.4956529077729430
  0.9988020990736859  0.6696702702108661  0.0035902137994205
  0.9990969888006512  0.0016300124596506  1.0001261371666736
  1.0038835159486210  0.9892794885166881  0.4976121134431910
  0.1663772794049764  0.1671639018603185  0.2465699765027182
  0.1683197215921665  0.1658723132445187  0.7525501622091980
  0.1661491322200390  0.4995199677158975  0.2463013661682928
  0.1645268727669534  0.4978355634553892  0.7607720920115781
  0.1661509166949140  0.8345595825357188  0.2456626402902493
  0.1677303575210613  0.8331500207821999  0.7530417171841012
  0.4994164487104673  0.1669662150487979  0.2501916723351353
  0.4999592190433011  0.1656501695963483  0.7523605984781297
  0.5012285753610440  0.4994972371899050  0.2456756928266282
  0.4998529635075881  0.5010255270605637  0.7530381045246584
  0.4991214632558824  0.8324616212503009  0.2503773418754135
  0.4990265341616821  0.8323168676154602  0.7567124000288310
  0.8340864464617096  0.1674116711548861  0.2456517555559369
  0.8341815733777049  0.1674756672014869  0.7498951349709138
  0.8338047571627235  0.4997021637634785  0.2465703909888273
  0.8325813473820658  0.5016115712208323  0.7525474567304070
  0.8336058196156942  0.8327799458793849  0.2501909587927879
  0.8323520041829356  0.8332627298114704  0.7523542025321356
  0.2516938844647441  0.2528140753856614  0.3537186911458199
  0.2534032309941106  0.2536253989891863  0.8638725597333169
  0.2564753719457183  0.5898367882548288  0.3411992657153025
  0.2518912164590966  0.5851896455877597  0.8642895884255438
  0.2547110216414689  0.9222624322289246  0.3536118791774239
  0.2498548681934857  0.9208830363702920  0.8642627779542325
  0.5908899324741804  0.2540158183663723  0.3530328416605778
  0.5879622526188027  0.2529225787741751  0.8604092914369010
  0.5889145789420694  0.5880187013797612  0.3536709576785497
  0.5875886161413586  0.5831492415510965  0.8642586635430423
  0.5836906708238253  0.9171103238519066  0.3594808330440065
  0.5880725175111459  0.9213668475924254  0.8634851147353440
  0.9206204196365608  0.2539468478761265  0.3546608259470930
  0.9203103143185604  0.2536107205474643  0.8598655599171611
  0.9194390343787761  0.5850498905831625  0.3537223822997528
  0.9203090966392415  0.5867149671188947  0.8638756276790088
  0.9206789240370433  0.9242274702374478  0.3530286989598546
  0.9196164556155636  0.9212613233370710  0.8604137849903825
  0.0811612280387820  0.0808153978066076  0.1354747553258540
  0.0824026284306118  0.0789945061701856  0.6427513688011820
  0.0796640958220433  0.4130061182818580  0.1362498739584453
  0.0817708101175794  0.4150660033141010  0.6522467419028871
  0.0772791725587135  0.7486011684541681  0.1375367203697780
  0.0808331507672913  0.7399354230015665  0.6517847435099239
  0.4156888672361205  0.0753820540155763  0.1402575205925550
  0.4147940455653092  0.0738291500659390  0.6484846415501252
  0.4152457679708032  0.4106453570747965  0.1375409741080056
  0.4066344919393347  0.4141249353941382  0.6517911733888538
  0.4171446268929316  0.7504213321679741  0.1375479152988542
  0.4140352339588552  0.7473320995282691  0.6490128523829392
  0.7453867988835352  0.0787334496108854  0.1393773941451944
  0.7462063171745352  0.0795060010449809  0.6417964053436187
  0.7474763427434509  0.4144781253631101  0.1354857846859219
  0.7457051272005804  0.4156938385380786  0.6427505470777274
  0.7420040877170332  0.7490085009709234  0.1402891355177142
  0.7405342655416417  0.7480862665339091  0.6484822978041558
 
             NaN             NaN             NaN
             NaN             NaN             NaN
             NaN             NaN             NaN
             NaN             NaN             NaN
             NaN             NaN             NaN
             NaN             NaN             NaN
             NaN             NaN             NaN
             NaN             NaN             NaN
             NaN             NaN             NaN
             NaN             NaN             NaN
             NaN             NaN             NaN
             NaN             NaN             NaN
             NaN             NaN             NaN
             NaN             NaN             NaN
             NaN             NaN             NaN
             NaN             NaN             NaN
             NaN             NaN             NaN
             NaN             NaN             NaN
             NaN             NaN             NaN
             NaN             NaN             NaN
             NaN             NaN             NaN
             NaN             NaN             NaN
             NaN             NaN             NaN
             NaN             NaN             NaN
             NaN             NaN             NaN
             NaN             NaN             NaN
             NaN             NaN             NaN
             NaN             NaN             NaN
             NaN             NaN             NaN
             NaN             NaN             NaN
             NaN             NaN             NaN
             NaN             NaN             NaN
             NaN             NaN             NaN
             NaN             NaN             NaN
             NaN             NaN             NaN
             NaN             NaN             NaN
             NaN             NaN             NaN
             NaN             NaN             NaN
             NaN             NaN             NaN
             NaN             NaN             NaN
             NaN             NaN             NaN
             NaN             NaN             NaN
             NaN             NaN             NaN
             NaN             NaN             NaN
             NaN             NaN             NaN
             NaN             NaN             NaN
             NaN             NaN             NaN
             NaN             NaN             NaN
             NaN             NaN             NaN
             NaN             NaN             NaN
             NaN             NaN             NaN
             NaN             NaN             NaN
             NaN             NaN             NaN
             NaN             NaN             NaN
             NaN             NaN             NaN
             NaN             NaN             NaN
             NaN             NaN             NaN
             NaN             NaN             NaN
             NaN             NaN             NaN
             NaN             NaN             NaN
             NaN             NaN             NaN
             NaN             NaN             NaN
             NaN             NaN             NaN
             NaN             NaN             NaN
             NaN             NaN             NaN
             NaN             NaN             NaN
             NaN             NaN             NaN
             NaN             NaN             NaN
             NaN             NaN             NaN
             NaN             NaN             NaN
