Li47 P16 O64
1.0
10.398346 -0.000003 -0.006750
-0.000005 12.211349 0.000018
-0.006400 0.000009 9.789454
Li P O
47 16 64
direct
0.163819 0.253006 0.151993 Li
0.657561 0.252234 0.096947 Li
0.667353 0.248005 0.598551 Li
0.664775 0.750964 0.097497 Li
0.664879 0.751254 0.598379 Li
0.163827 0.496982 0.151983 Li
0.164378 0.498835 0.652366 Li
0.162790 -0.001440 0.152371 Li
0.164703 -0.001426 0.652599 Li
0.336038 0.000531 0.401418 Li
0.335913 0.000594 0.902641 Li
0.337304 0.499555 0.399968 Li
0.337034 0.497204 0.906910 Li
0.837051 0.248546 0.347520 Li
0.834836 0.248755 0.848914 Li
0.836677 0.748743 0.348340 Li
0.836548 0.748965 0.847520 Li
0.337312 0.250443 0.399958 Li
0.337041 0.252808 0.906920 Li
0.336028 0.749449 0.401411 Li
0.335907 0.749412 0.902650 Li
0.836669 0.001249 0.348342 Li
0.836547 0.001037 0.847527 Li
0.837054 0.501455 0.347520 Li
0.834844 0.501255 0.848907 Li
0.657568 0.497775 0.096930 Li
0.667351 0.502002 0.598565 Li
0.664768 0.999031 0.097497 Li
0.664881 0.998740 0.598383 Li
0.164388 0.251168 0.652353 Li
0.162789 0.751446 0.152362 Li
0.164701 0.751433 0.652606 Li
0.919745 0.375000 0.148133 Li
0.922163 0.375000 0.648953 Li
0.922065 0.875002 0.149330 Li
0.923722 0.875003 0.648357 Li
0.423234 0.375001 0.612251 Li
0.427552 0.874992 0.100072 Li
0.423706 0.874994 0.600758 Li
0.077759 0.125442 0.351149 Li
0.077598 0.125431 0.852227 Li
0.077769 0.624554 0.351133 Li
0.077603 0.624581 0.852235 Li
0.577147 0.124834 0.399933 Li
0.575089 0.124823 0.897827 Li
0.577134 0.625157 0.399933 Li
0.575082 0.625185 0.897824 Li
0.910848 0.125131 0.095413 P
0.913527 0.124407 0.595490 P
0.910856 0.624870 0.095398 P
0.913533 0.625597 0.595495 P
0.410746 0.121241 0.154417 P
0.411545 0.124702 0.654865 P
0.410755 0.628762 0.154444 P
0.411540 0.625297 0.654868 P
0.088045 0.375001 0.404785 P
0.086057 0.374999 0.904784 P
0.088033 0.875001 0.404880 P
0.087626 0.875012 0.905144 P
0.591347 0.374996 0.349625 P
0.587967 0.375007 0.838943 P
0.589063 0.874993 0.345576 P
0.588680 0.874999 0.844845 P
0.841376 0.021549 0.147172 O
0.842859 0.021206 0.646554 O
0.838929 0.522332 0.146403 O
0.843514 0.522945 0.648486 O
0.333023 0.216830 0.097360 O
0.342231 0.227682 0.601404 O
0.343486 0.735068 0.107078 O
0.342063 0.728619 0.602223 O
0.158520 0.271949 0.353328 O
0.156646 0.272056 0.853204 O
0.158036 0.771841 0.352967 O
0.158408 0.771895 0.854116 O
0.660478 0.478752 0.401820 O
0.654488 0.478031 0.896246 O
0.658951 0.978218 0.397786 O
0.658672 0.978218 0.896746 O
0.158516 0.478046 0.353323 O
0.156639 0.477951 0.853214 O
0.158049 0.978156 0.352963 O
0.158408 0.978121 0.854112 O
0.660477 0.271248 0.401810 O
0.654485 0.271983 0.896261 O
0.658949 0.771760 0.397778 O
0.658674 0.771779 0.896744 O
0.838917 0.227669 0.146399 O
0.843511 0.227056 0.648490 O
0.841395 0.728456 0.147181 O
0.842858 0.728798 0.646546 O
0.343493 0.014912 0.107079 O
0.342083 0.021379 0.602225 O
0.333035 0.533162 0.097343 O
0.342217 0.522315 0.601418 O
0.549618 0.123328 0.101187 O
0.551699 0.124444 0.604432 O
0.549598 0.626669 0.101182 O
0.551695 0.625552 0.604440 O
0.050139 0.125670 0.148016 O
0.053017 0.124118 0.647242 O
0.050142 0.624329 0.148007 O
0.053019 0.625887 0.647248 O
0.452041 0.375005 0.401349 O
0.443954 0.375006 0.868604 O
0.449467 0.874985 0.396776 O
0.449156 0.874995 0.896322 O
0.948623 0.375003 0.352163 O
0.946534 0.375006 0.852337 O
0.948385 0.874995 0.353274 O
0.948641 0.874998 0.851869 O
0.596485 0.375012 0.193714 O
0.601281 0.375001 0.681792 O
0.591464 0.874992 0.188079 O
0.589833 0.874992 0.687405 O
0.085477 0.374997 0.062126 O
0.088490 0.375008 0.562342 O
0.087353 0.875010 0.062571 O
0.089655 0.874995 0.562375 O
0.411710 0.124802 0.311859 O
0.408995 0.124863 0.812167 O
0.411699 0.625180 0.311844 O
0.408981 0.625147 0.812166 O
0.911946 0.125050 0.437972 O
0.910485 0.124849 0.937830 O
0.911965 0.624948 0.437975 O
0.910494 0.625160 0.937817 O
