Mg15 Mn32 O64
1.0
11.433628 -0.000617 0.003115
-0.000377 11.417669 0.000202
-0.000810 0.000043 9.239526
Mg Mn O
15 32 64
direct
0.499490 0.713923 0.719871 Mg
0.999820 0.250411 0.747046 Mg
0.999802 0.749773 0.747450 Mg
0.499664 0.255361 0.751858 Mg
0.999059 0.500099 0.500081 Mg
0.000255 0.000026 0.502849 Mg
0.500125 -0.000750 0.498096 Mg
0.250834 0.000256 0.250414 Mg
0.250125 0.499838 0.253076 Mg
0.752063 0.000231 0.250468 Mg
0.747360 0.499855 0.254405 Mg
0.247546 0.248843 0.999408 Mg
0.248269 0.751215 0.998779 Mg
0.752275 0.248474 0.998992 Mg
0.752446 0.751434 0.998810 Mg
0.124663 0.248444 0.376125 Mn
0.124924 0.751642 0.375779 Mn
0.624118 0.252142 0.374856 Mn
0.624808 0.747891 0.373831 Mn
0.375049 0.252062 0.373734 Mn
0.374879 0.747879 0.372835 Mn
0.874496 0.248284 0.375924 Mn
0.875081 0.751851 0.375629 Mn
0.126870 0.000312 0.873468 Mn
0.122855 0.499771 0.875351 Mn
0.626083 0.999257 0.872617 Mn
0.627120 0.500318 0.879624 Mn
0.377066 0.999680 0.872829 Mn
0.372093 0.500287 0.879456 Mn
0.876799 1.000213 0.872711 Mn
0.874942 0.499857 0.874906 Mn
0.001393 0.124788 0.124837 Mn
0.998445 0.624842 0.126573 Mn
0.501482 0.124789 0.123325 Mn
0.499836 0.626000 0.126028 Mn
0.998087 0.375202 0.126853 Mn
0.001988 0.875251 0.124612 Mn
0.499547 0.373704 0.126532 Mn
0.501733 0.875358 0.122978 Mn
0.251546 0.376727 0.625361 Mn
0.252303 0.874223 0.624515 Mn
0.747484 0.376545 0.625848 Mn
0.747734 0.874430 0.624603 Mn
0.252353 0.125379 0.624739 Mn
0.250873 0.622943 0.625371 Mn
0.747684 0.125376 0.624783 Mn
0.747513 0.624125 0.625511 Mn
0.138595 0.249200 0.620806 O
0.138110 0.750666 0.620653 O
0.634481 0.250535 0.619535 O
0.635085 0.749638 0.616664 O
0.364855 0.250857 0.619564 O
0.363820 0.748716 0.616859 O
0.860859 0.249401 0.621123 O
0.861291 0.750863 0.620857 O
0.139219 0.000085 0.628480 O
0.135602 0.499540 0.629123 O
0.635735 0.999915 0.628493 O
0.639729 0.500257 0.647473 O
0.364503 0.999847 0.628353 O
0.359083 0.499992 0.647437 O
0.861213 0.000170 0.628300 O
0.862631 0.500109 0.629224 O
0.001466 0.113164 0.877129 O
0.998938 0.613100 0.878779 O
0.501442 0.113018 0.877028 O
0.499566 0.613876 0.907429 O
0.998840 0.386614 0.878904 O
0.001565 0.887364 0.877067 O
0.499519 0.386187 0.902252 O
0.501251 0.886506 0.882158 O
0.999356 0.361358 0.372542 O
0.000157 0.864445 0.371512 O
0.499576 0.361683 0.334230 O
0.499961 0.861062 0.367101 O
0.999731 0.135770 0.371811 O
0.999706 0.638715 0.372297 O
0.499739 0.139017 0.370631 O
0.499862 0.638225 0.330625 O
0.389305 -0.000294 0.122681 O
0.389437 0.500224 0.124965 O
0.888715 0.999933 0.120726 O
0.885147 0.500073 0.124373 O
0.114828 0.000299 0.120444 O
0.111182 0.499883 0.124343 O
0.613987 -0.000156 0.122495 O
0.609449 0.500100 0.124858 O
0.388537 0.250772 0.122001 O
0.389222 0.749157 0.121644 O
0.887057 0.248729 0.129589 O
0.887637 0.751371 0.129125 O
0.112223 0.250325 0.129415 O
0.112795 0.749739 0.128909 O
0.611793 0.251905 0.122157 O
0.611800 0.748112 0.121904 O
0.249352 0.361916 0.378068 O
0.251417 0.862740 0.377475 O
0.749639 0.361839 0.378812 O
0.748610 0.862861 0.377791 O
0.251292 0.137384 0.378273 O
0.249356 0.638065 0.377240 O
0.748114 0.137231 0.378651 O
0.750169 0.638278 0.377901 O
0.252012 0.112672 0.870662 O
0.248112 0.612409 0.876261 O
0.750659 0.112270 0.870422 O
0.750407 0.612801 0.876062 O
0.248327 0.387475 0.876355 O
0.251719 0.887580 0.870655 O
0.750107 0.387157 0.875991 O
0.751116 0.887442 0.870326 O
