Li17 Co18 O36                           
   1.00000000000000     
     8.0553070000000009   -0.0035970000000000    2.3742649999999998
     3.6795390000000001    7.1668409999999998    2.3718100000000000
    -0.0124880000000000   -0.0046280000000000    9.8894099999999998
   Li   Co   O 
    17    18    36
Direct
  0.2953295815628687  0.4738550365809691  0.5154002224218645
  0.3342612857193014  0.3348501213414838  0.9991070971886926
  0.3324624909638699  0.6673501524825126  0.9980686025002564
  0.3319185342782789  0.0033408789688319  0.5057322465909696
  0.3336263689884015  0.0013247447865565  0.9963032735944055
  0.6631112940966004  0.3351125640177557  0.5055892521066729
  0.6670780622145486  0.3342531129053744  0.9985661033749147
  0.6514322691074785  0.6638188525481371  0.5070685457699682
  0.6664176272693606  0.6667128540864812  0.9967320261611682
  0.6494123682725548  0.0168778342472562  0.5053565894704356
  0.6665870786247143  0.0029882349757459  0.9965485426028320
  0.0122203045223793  0.3332899911695464  0.5021106975625095
 -0.0002781047786288  0.3333555128102699  0.9987753540250270
  0.9761754777930214  0.6802213526861783  0.5012565037643464
  0.0042620582087108  0.6658810137739026  0.9968939574162079
  0.0083817265349474  0.9873832697596849  0.5052421467225079
  0.0000380761032266  0.0015805745539278  0.9966395860808893
  0.1624417681555057  0.1720445604291683  0.2459393202870134
  0.1692496793032663  0.1650410003078625  0.7510959914831693
  0.1630827828148607  0.5034433567654300  0.2474416889770258
  0.1676158839399267  0.4971967164074651  0.7565383051552896
  0.1616358409367287  0.8387608271462149  0.2459457932754876
  0.1691222396620820  0.8296424552484594  0.7507098243102936
  0.4954276674367839  0.1719987899670961  0.2507251751315996
  0.5017850172820609  0.1631849216127371  0.7551447777918898
  0.4969280237942622  0.5048286461600976  0.2481586529342962
  0.5021895398599129  0.4988631362580905  0.7547381807685064
  0.4950115584035591  0.8350668400525663  0.2530618825315574
  0.4999207435793830  0.8311389354238143  0.7543494305272592
  0.8292551353539857  0.1713079591196440  0.2494986516506142
  0.8354742126173360  0.1642971542493430  0.7504894624770861
  0.8314159218011774  0.5007671670995526  0.2497355438165843
  0.8348742774652859  0.4982347438803612  0.7521385557870156
  0.8296541512340293  0.8373688776269467  0.2505329610488352
  0.8337117388947444  0.8299686589655897  0.7515744392013387
  0.2483992535431110  0.2565565841485495  0.3551007892988283
  0.2541492873820123  0.2500368202137211  0.8647859333038191
  0.2462770408609571  0.5977165497422161  0.3476527982581379
  0.2543798813240652  0.5854036637094300  0.8647480283053025
  0.2528600608868696  0.9264519294994109  0.3527737696837270
  0.2522656450388763  0.9191631785525874  0.8624978624250399
  0.5839594210827190  0.2599619929369806  0.3580033732317217
  0.5908462034507139  0.2502297648936271  0.8639669164165424
  0.5876107351936709  0.5850498831539471  0.3599415130916488
  0.5896353638496693  0.5838562090419451  0.8645983786478310
  0.5823278926212835  0.9251146183763884  0.3637059418726803
  0.5886864663833353  0.9168478872018960  0.8647475908292556
  0.9183820063933835  0.2556759830254968  0.3582791851443546
  0.9220688490865001  0.2515304431282381  0.8604437772485611
  0.9173538265880933  0.5890494346132737  0.3594748971140924
  0.9199693347983703  0.5849450615466565  0.8635631637868499
  0.9173358581692960  0.9243134285676847  0.3594095072849595
  0.9210608749297288  0.9175782759495411  0.8607752443663935
  0.0746475960851460  0.0846049491702097  0.1372126455639609
  0.0826327916274929  0.0773528463156106  0.6400650202883708
  0.0755398667592550  0.4174847264740654  0.1372349624613183
  0.0824320029297516  0.4145395647055802  0.6423759404838392
  0.0736381648849849  0.7514556677766104  0.1372935919390197
  0.0794498708918356  0.7408676552150412  0.6436495910330444
  0.4118207536277441  0.0848611299403826  0.1371110774988780
  0.4154763416581194  0.0746486978372511  0.6464702513792220
  0.4114188738169296  0.4161009625545531  0.1391075192126283
  0.4188441076533133  0.4067389870526227  0.6531699043365954
  0.4102700390091920  0.7507416740390561  0.1357384654679255
  0.4155214335964506  0.7452328643242484  0.6462684302415396
  0.7427113761255597  0.0836911653641412  0.1408398632317250
  0.7473341533773724  0.0774488022509566  0.6418893777924968
  0.7438922104063725  0.4164462069734528  0.1393293701271779
  0.7480617804388259  0.4117859895961319  0.6421669222505498
  0.7368532636735994  0.7515597684717993  0.1427587955843249
  0.7452855133060070  0.7446946850554380  0.6425074783269713
 
             NaN             NaN             NaN
             NaN             NaN             NaN
             NaN             NaN             NaN
             NaN             NaN             NaN
             NaN             NaN             NaN
             NaN             NaN             NaN
             NaN             NaN             NaN
             NaN             NaN             NaN
             NaN             NaN             NaN
             NaN             NaN             NaN
             NaN             NaN             NaN
             NaN             NaN             NaN
             NaN             NaN             NaN
             NaN             NaN             NaN
             NaN             NaN             NaN
             NaN             NaN             NaN
             NaN             NaN             NaN
             NaN             NaN             NaN
             NaN             NaN             NaN
             NaN             NaN             NaN
             NaN             NaN             NaN
             NaN             NaN             NaN
             NaN             NaN             NaN
             NaN             NaN             NaN
             NaN             NaN             NaN
             NaN             NaN             NaN
             NaN             NaN             NaN
             NaN             NaN             NaN
             NaN             NaN             NaN
             NaN             NaN             NaN
             NaN             NaN             NaN
             NaN             NaN             NaN
             NaN             NaN             NaN
             NaN             NaN             NaN
             NaN             NaN             NaN
             NaN             NaN             NaN
             NaN             NaN             NaN
             NaN             NaN             NaN
             NaN             NaN             NaN
             NaN             NaN             NaN
             NaN             NaN             NaN
             NaN             NaN             NaN
             NaN             NaN             NaN
             NaN             NaN             NaN
             NaN             NaN             NaN
             NaN             NaN             NaN
             NaN             NaN             NaN
             NaN             NaN             NaN
             NaN             NaN             NaN
             NaN             NaN             NaN
             NaN             NaN             NaN
             NaN             NaN             NaN
             NaN             NaN             NaN
             NaN             NaN             NaN
             NaN             NaN             NaN
             NaN             NaN             NaN
             NaN             NaN             NaN
             NaN             NaN             NaN
             NaN             NaN             NaN
             NaN             NaN             NaN
             NaN             NaN             NaN
             NaN             NaN             NaN
             NaN             NaN             NaN
             NaN             NaN             NaN
             NaN             NaN             NaN
             NaN             NaN             NaN
             NaN             NaN             NaN
             NaN             NaN             NaN
             NaN             NaN             NaN
             NaN             NaN             NaN
             NaN             NaN             NaN
