Na15 V32 O64                            
   1.00000000000000     
     9.1056399999999993    0.0000780000000000   -0.0040670000000000
     0.0007700000000000   11.4430019999999999    0.0002220000000000
    -0.0001780000000000    0.0016150000000000   10.6029780000000002
   Na   V    O 
    15    32    64
Direct
  0.7411655522421867  0.5207592483721371  0.1611103508970828
  0.7419931438024960  0.0786809449090029  0.1531692829907954
  0.7428748706416428  0.8065937132286507  0.1521686516746854
  0.2429026568907062  0.0619522203743799  0.3474328254325698
  0.2430838030837990  0.3122377922236765  0.3466187270803758
  0.2426189620679509  0.5612416169211869  0.3474534658379511
  0.2423240253772505  0.8119821442285371  0.3473014893743098
  0.2580374530756160  0.1872606241623700  0.8486599913916706
  0.2587125380667814  0.4371561371093762  0.8488784108784628
  0.2579710833798998  0.6875964053419494  0.8501850540456672
  0.2576456410781489  0.9370613930472516  0.8492225137451754
  0.7578554920924958  0.1862601200353353  0.6498900731247801
  0.7571824260732996  0.4369942525669828  0.6508183235133771
  0.7579874649721177  0.6861550749412686  0.6499937012779284
  0.7573440976067687  0.9372671318350569  0.6492491942537271
  0.5843332236301890  0.0617233928902436  0.8959113128093819
  0.5895620811742290  0.3109233054520359  0.9004258363951365
  0.5861638829399496  0.5616873377301204  0.8965716406362603
  0.5853919676012254  0.8114055858773455  0.8973761328268353
  0.0878583958035009  0.0612275443521497  0.6021724980827514
  0.0860541592959336  0.3109604104167829  0.6028022749400392
  0.0888072027913367  0.5623681389332162  0.6036308883934964
  0.0842457932839764  0.8117370033660762  0.6024799798269456
  0.4120944468729633  0.1886521148782947  0.1046992947726011
  0.4106079545503079  0.4356744843493559  0.1046079125846049
  0.4160109583678064  0.6856882523353818  0.1053956259729105
  0.4175801347966299  0.9381552740843873  0.1045429687115913
  0.9145670372015147  0.1861905534571520  0.3948109592896074
  0.9158768427641064  0.4360693148949295  0.3976696609433645
  0.9148607311118511  0.6861014355448489  0.3946483906408247
  0.9127644637776697  0.9372512376586286  0.3943473282760692
  0.5604266204374611  0.0625880022713545  0.3880251525735190
  0.5659717331961076  0.3113867142384024  0.3821038654528124
  0.5606995569660569  0.5617346345500209  0.3883909137945025
  0.5614027343542531  0.8106584072225544  0.3869253030202913
  0.0622304068486059  0.0579576246903812  0.1121277186871694
  0.0538336561631994  0.3094608143798681  0.1139337390486759
  0.0613598730852232  0.5649333967358743  0.1121644576880882
  0.0623552251662574  0.8143541743693845  0.1126979132527381
  0.4390705407732511  0.1894802117641134  0.6153489101300877
  0.4391372624416263  0.4334769396991334  0.6159987600913652
  0.4374417874052341  0.6888363858666509  0.6167604587219486
  0.4374285052594828  0.9339329046332097  0.6163595988086072
  0.9386027320191488  0.1860648308580792  0.8825359126987706
  0.9400982441372605  0.4375518510289140  0.8824119364947478
  0.9378305863234502  0.6883815289513393  0.8834329595215493
  0.9363854005301917  0.9373804377007531  0.8828149803107834
  0.7909147196274731  0.0630815762484787  0.8487856390995603
  0.7942000136582124  0.3125105015190286  0.8493952218791705
  0.7928580654272750  0.5612386352288112  0.8497042420884071
  0.7911289963911727  0.8115745432284811  0.8492739861690595
  0.2939788544209847  0.0614178443079538  0.6482972308628447
  0.2923659562553809  0.3111579181980559  0.6507158946698297
  0.2945263485595291  0.5619801639203246  0.6489460853043454
  0.2900016857382823  0.8117364357183092  0.6509664556363717
  0.2047807189491948  0.1894982879972318  0.1475364644150119
  0.2046504645380693  0.4366343637052239  0.1476716210424627
  0.2075993437315375  0.6844045893151787  0.1493216996592537
  0.2087688654218809  0.9378874681152922  0.1500840984891596
  0.7079864429417384  0.1837040468564908  0.3570970080870239
  0.7073436841031295  0.4381094004512107  0.3597888380582575
  0.7070790553955604  0.6870394440588683  0.3548398961741199
  0.7064052325635686  0.9368022476102809  0.3538746795291274
  0.8881609152582968  0.0618646986779012  0.5197214759688364
  0.8883816839194765  0.3116601587713888  0.5205128563565324
  0.8892583618840959  0.5610107710873251  0.5203915777645634
  0.8869100769051173  0.8114157586054347  0.5188604375695363
  0.3857655619717661  0.0619673407221839  0.9807150650224301
  0.3850021783285555  0.3116254402956216  0.9798771536598707
  0.3859561207624083  0.5619443074963826  0.9806425572913753
  0.3873167680627532  0.8121866290991591  0.9820495066423618
  0.1144791655285644  0.1863937627130667  0.4783730244323010
  0.1154155151059655  0.4366426105111643  0.4798900217424844
  0.1139266585407341  0.6867026283873940  0.4783344051173515
  0.1132092146484638  0.9367077914962607  0.4779114723101188
  0.6095883600739853  0.1867891978072009  0.0182187791542745
  0.6083522462409334  0.4358708894115466  0.0172090690425222
  0.6132687391231073  0.6852051731474944  0.0205673120649337
  0.6143553602522971  0.9377242913811514  0.0206910867299186
  0.9790743901822125  0.0617843661122279  0.2807080888187130
  0.9796179617069285  0.3126712822501290  0.2857141346455023
  0.9765489085371755  0.5608249821863538  0.2821850827150314
  0.9791634350396095  0.8117766282183965  0.2808750520136272
  0.4784949257858031  0.0628822824886512  0.2184184700088139
  0.4747240707937976  0.3121036906214982  0.2186902920715923
  0.4793436263610005  0.5603409995999513  0.2190927498829112
  0.4800160942833003  0.8115152648589543  0.2180347003392100
  0.0217844595632357  0.1863436603953446  0.7153269117624816
  0.0227982883053812  0.4373452273171594  0.7153153678282109
  0.0206340867224668  0.6868760539435002  0.7160999195624669
  0.0195912150125679  0.9371037288815813  0.7154577826864070
  0.5206219824355003  0.1877238588450680  0.7834837122016580
  0.5215446980545053  0.4358064299808291  0.7833049417692024
  0.5189370716619308  0.6873578963766960  0.7842057716148787
  0.5180952881953402  0.9357801177837857  0.7841474441782594
  0.5762989954784530  0.0613099908285122  0.5739339127768659
  0.5816517293764605  0.3109163099787438  0.5703261340310704
  0.5767319446295787  0.5624683874080390  0.5737862159019613
  0.5803591236029746  0.8114601690028209  0.5728684031017366
  0.0792849641452733  0.0611634523087119  0.9262685982602150
  0.0776435664014627  0.3116095671847745  0.9254815271065837
  0.0792124888330576  0.5630630981462161  0.9256863846093353
  0.0788804373478129  0.8128033469886091  0.9274944400287666
  0.4216275155004254  0.1871954057598657  0.4296019397470943
  0.4224800002876847  0.4359603645050782  0.4303053379299726
  0.4199383685421765  0.6875406187549871  0.4304453761547222
  0.4215085190876948  0.9359129374643018  0.4299535760966577
  0.9257124077888363  0.1860167632259575  0.0684101549012297
  0.9292567312451254  0.4373432397481309  0.0684288437279648
  0.9224694119098586  0.6856790535699986  0.0693305758481415
  0.9185189336899171  0.9378159455441519  0.0687922809275463
 
  0.00000000E+00  0.00000000E+00  0.00000000E+00
  0.00000000E+00  0.00000000E+00  0.00000000E+00
  0.00000000E+00  0.00000000E+00  0.00000000E+00
  0.00000000E+00  0.00000000E+00  0.00000000E+00
  0.00000000E+00  0.00000000E+00  0.00000000E+00
  0.00000000E+00  0.00000000E+00  0.00000000E+00
  0.00000000E+00  0.00000000E+00  0.00000000E+00
  0.00000000E+00  0.00000000E+00  0.00000000E+00
  0.00000000E+00  0.00000000E+00  0.00000000E+00
  0.00000000E+00  0.00000000E+00  0.00000000E+00
  0.00000000E+00  0.00000000E+00  0.00000000E+00
  0.00000000E+00  0.00000000E+00  0.00000000E+00
  0.00000000E+00  0.00000000E+00  0.00000000E+00
  0.00000000E+00  0.00000000E+00  0.00000000E+00
  0.00000000E+00  0.00000000E+00  0.00000000E+00
  0.00000000E+00  0.00000000E+00  0.00000000E+00
  0.00000000E+00  0.00000000E+00  0.00000000E+00
  0.00000000E+00  0.00000000E+00  0.00000000E+00
  0.00000000E+00  0.00000000E+00  0.00000000E+00
  0.00000000E+00  0.00000000E+00  0.00000000E+00
  0.00000000E+00  0.00000000E+00  0.00000000E+00
  0.00000000E+00  0.00000000E+00  0.00000000E+00
  0.00000000E+00  0.00000000E+00  0.00000000E+00
  0.00000000E+00  0.00000000E+00  0.00000000E+00
  0.00000000E+00  0.00000000E+00  0.00000000E+00
  0.00000000E+00  0.00000000E+00  0.00000000E+00
  0.00000000E+00  0.00000000E+00  0.00000000E+00
  0.00000000E+00  0.00000000E+00  0.00000000E+00
  0.00000000E+00  0.00000000E+00  0.00000000E+00
  0.00000000E+00  0.00000000E+00  0.00000000E+00
  0.00000000E+00  0.00000000E+00  0.00000000E+00
  0.00000000E+00  0.00000000E+00  0.00000000E+00
  0.00000000E+00  0.00000000E+00  0.00000000E+00
  0.00000000E+00  0.00000000E+00  0.00000000E+00
  0.00000000E+00  0.00000000E+00  0.00000000E+00
  0.00000000E+00  0.00000000E+00  0.00000000E+00
  0.00000000E+00  0.00000000E+00  0.00000000E+00
  0.00000000E+00  0.00000000E+00  0.00000000E+00
  0.00000000E+00  0.00000000E+00  0.00000000E+00
  0.00000000E+00  0.00000000E+00  0.00000000E+00
  0.00000000E+00  0.00000000E+00  0.00000000E+00
  0.00000000E+00  0.00000000E+00  0.00000000E+00
  0.00000000E+00  0.00000000E+00  0.00000000E+00
  0.00000000E+00  0.00000000E+00  0.00000000E+00
  0.00000000E+00  0.00000000E+00  0.00000000E+00
  0.00000000E+00  0.00000000E+00  0.00000000E+00
  0.00000000E+00  0.00000000E+00  0.00000000E+00
  0.00000000E+00  0.00000000E+00  0.00000000E+00
  0.00000000E+00  0.00000000E+00  0.00000000E+00
  0.00000000E+00  0.00000000E+00  0.00000000E+00
  0.00000000E+00  0.00000000E+00  0.00000000E+00
  0.00000000E+00  0.00000000E+00  0.00000000E+00
  0.00000000E+00  0.00000000E+00  0.00000000E+00
  0.00000000E+00  0.00000000E+00  0.00000000E+00
  0.00000000E+00  0.00000000E+00  0.00000000E+00
  0.00000000E+00  0.00000000E+00  0.00000000E+00
  0.00000000E+00  0.00000000E+00  0.00000000E+00
  0.00000000E+00  0.00000000E+00  0.00000000E+00
  0.00000000E+00  0.00000000E+00  0.00000000E+00
  0.00000000E+00  0.00000000E+00  0.00000000E+00
  0.00000000E+00  0.00000000E+00  0.00000000E+00
  0.00000000E+00  0.00000000E+00  0.00000000E+00
  0.00000000E+00  0.00000000E+00  0.00000000E+00
  0.00000000E+00  0.00000000E+00  0.00000000E+00
  0.00000000E+00  0.00000000E+00  0.00000000E+00
  0.00000000E+00  0.00000000E+00  0.00000000E+00
  0.00000000E+00  0.00000000E+00  0.00000000E+00
  0.00000000E+00  0.00000000E+00  0.00000000E+00
  0.00000000E+00  0.00000000E+00  0.00000000E+00
  0.00000000E+00  0.00000000E+00  0.00000000E+00
  0.00000000E+00  0.00000000E+00  0.00000000E+00
  0.00000000E+00  0.00000000E+00  0.00000000E+00
  0.00000000E+00  0.00000000E+00  0.00000000E+00
  0.00000000E+00  0.00000000E+00  0.00000000E+00
  0.00000000E+00  0.00000000E+00  0.00000000E+00
  0.00000000E+00  0.00000000E+00  0.00000000E+00
  0.00000000E+00  0.00000000E+00  0.00000000E+00
  0.00000000E+00  0.00000000E+00  0.00000000E+00
  0.00000000E+00  0.00000000E+00  0.00000000E+00
  0.00000000E+00  0.00000000E+00  0.00000000E+00
  0.00000000E+00  0.00000000E+00  0.00000000E+00
  0.00000000E+00  0.00000000E+00  0.00000000E+00
  0.00000000E+00  0.00000000E+00  0.00000000E+00
  0.00000000E+00  0.00000000E+00  0.00000000E+00
  0.00000000E+00  0.00000000E+00  0.00000000E+00
  0.00000000E+00  0.00000000E+00  0.00000000E+00
  0.00000000E+00  0.00000000E+00  0.00000000E+00
  0.00000000E+00  0.00000000E+00  0.00000000E+00
  0.00000000E+00  0.00000000E+00  0.00000000E+00
  0.00000000E+00  0.00000000E+00  0.00000000E+00
  0.00000000E+00  0.00000000E+00  0.00000000E+00
  0.00000000E+00  0.00000000E+00  0.00000000E+00
  0.00000000E+00  0.00000000E+00  0.00000000E+00
  0.00000000E+00  0.00000000E+00  0.00000000E+00
  0.00000000E+00  0.00000000E+00  0.00000000E+00
  0.00000000E+00  0.00000000E+00  0.00000000E+00
  0.00000000E+00  0.00000000E+00  0.00000000E+00
  0.00000000E+00  0.00000000E+00  0.00000000E+00
  0.00000000E+00  0.00000000E+00  0.00000000E+00
  0.00000000E+00  0.00000000E+00  0.00000000E+00
  0.00000000E+00  0.00000000E+00  0.00000000E+00
  0.00000000E+00  0.00000000E+00  0.00000000E+00
  0.00000000E+00  0.00000000E+00  0.00000000E+00
  0.00000000E+00  0.00000000E+00  0.00000000E+00
  0.00000000E+00  0.00000000E+00  0.00000000E+00
  0.00000000E+00  0.00000000E+00  0.00000000E+00
  0.00000000E+00  0.00000000E+00  0.00000000E+00
  0.00000000E+00  0.00000000E+00  0.00000000E+00
  0.00000000E+00  0.00000000E+00  0.00000000E+00
  0.00000000E+00  0.00000000E+00  0.00000000E+00
  0.00000000E+00  0.00000000E+00  0.00000000E+00
