Li17 Co18 O36                           
   1.00000000000000     
     8.0557280000000002   -0.0035030000000000    2.3736009999999998
     3.6800970000000000    7.1672200000000004    2.3705020000000001
    -0.0129210000000000   -0.0041040000000000    9.8886179999999992
   Li   Co   O 
    17    18    36
Direct
  0.2974283212725231  0.5662399928000289  0.5129579726928409
  0.3367897063266159  0.3304969805148114  0.9965086788406167
  0.3343574894501931  0.6708122339445360  0.9942828440272412
  0.3315916279789191  0.9954092040520534  0.5065275434532401
  0.3366635307924262  0.9997201661607156  0.9957792404070268
  0.6600913002742406  0.3336936305430445  0.5073712756371754
  0.6698215882169853  0.3333608307090202  0.9945328609907547
  0.6503383261099931  0.6600883498951650  0.5079499562543225
  0.6687582460704189  0.6669947780325769  0.9972969616557438
  0.6460276778809343  0.0180108878569337  0.5072031461437229
  0.6667580146650792  1.0002998163672616  0.9962051450307022
  0.0049554294857685  0.3306375159721343  0.5058948153203726
  0.9995819164631545  0.3325700687585773  0.9975245942555925
  0.9726057849023277  0.6731225574620042  0.5062747636276315
  0.9981979098210720  0.6680269919955861  0.9953483441678246
  0.0098741784112588  0.9895983699997211  0.5050553752074725
  1.0031806500380487  1.0012450036429659  0.9913745826639457
  0.1638012440709138  0.1687249004378236  0.2466530578199745
  0.1692893310656637  0.1652161890760944  0.7507204672097265
  0.1604213203946458  0.5011578172878910  0.2465616324449040
  0.1674967428807269  0.4937421535148986  0.7565478220106713
  0.1638751255033456  0.8379456343599797  0.2449399692529396
  0.1690538647997517  0.8295701775819403  0.7504379884619941
  0.4963733893802375  0.1680523667780306  0.2511507691488806
  0.5027118309963414  0.1622191958800174  0.7545103172898828
  0.4998327739487080  0.5009819343577310  0.2469851212092853
  0.5019541262691259  0.4979423920557270  0.7554041643415935
  0.4970160358278465  0.8330003542063094  0.2533271433262623
  0.4995430944721192  0.8308525581891183  0.7548161567007344
  0.8297794241871452  0.1704342048568255  0.2507388595848860
  0.8350856108244263  0.1640731306134980  0.7506636127632467
  0.8332446960591197  0.4981288426269744  0.2522307246365756
  0.8324692470490923  0.4980389039190690  0.7539992030880380
  0.8285133486971521  0.8375743097092706  0.2504963773048283
  0.8333487661985511  0.8302242692957539  0.7512205507212381
  0.2396154352684123  0.2617576906713421  0.3554846055752099
  0.2566296322951905  0.2432600536238195  0.8682486702439159
  0.2379155543556949  0.5952309702326299  0.3477112990438735
  0.2552333318018445  0.5857397119107394  0.8669028122926304
  0.2490273930233124  0.9291062202164571  0.3611011061859893
  0.2516332548554500  0.9189897585887552  0.8618549454086555
  0.5848296550694555  0.2580146909512551  0.3622054824527084
  0.5906554857577949  0.2494932819296953  0.8637513821181928
  0.5901909013751914  0.5831137787491638  0.3643205041354065
  0.5881558542661229  0.5832360143900289  0.8654881140318781
  0.5808610377237949  0.9246638767553158  0.3702126101061501
  0.5899659883380449  0.9163598621042021  0.8635500408793534
  0.9206564356734775  0.2532889681598969  0.3608438365221647
  0.9218950175726520  0.2505748405410120  0.8609744132305984
  0.9218677012850264  0.5800352626646167  0.3630982606944828
  0.9128290590928617  0.5873636050055142  0.8669600414808318
  0.9101107599461244  0.9249239680840006  0.3636408364189184
  0.9215379847510549  0.9174369651682993  0.8596728608549906
  0.0776304132539394  0.0820875780240955  0.1370130955361737
  0.0823253263701230  0.0772230840370991  0.6410624279643701
  0.0762295185131069  0.4152038506478739  0.1397392131912163
  0.0760772481333198  0.4142084533312951  0.6419681638453126
  0.0790065294030298  0.7412020894859135  0.1319327616014548
  0.0797274564737941  0.7442068079305254  0.6382094536885269
  0.4082114353147721  0.0861691148635005  0.1330461817613372
  0.4151573833742886  0.0731759691715285  0.6474548018192061
  0.4030063737764545  0.4178773337773682  0.1325566252780435
  0.4246325356326166  0.4031766235299546  0.6493820146516666
  0.4161962507809947  0.7472043451898538  0.1293473905873423
  0.4150873791329263  0.7439274058978681  0.6463804262654544
  0.7459933560184643  0.0879753384186752  0.1333794917142284
  0.7471409568425600  0.0770285727114528  0.6424836912548355
  0.7544512143409595  0.4133548815073510  0.1359601194499443
  0.7470558244557550  0.4114821044174781  0.6434345810329191
  0.7486798875196767  0.7454289824072571  0.1398000837883511
  0.7440426974539530  0.7438400034968596  0.6439472619242603
 
             NaN             NaN             NaN
             NaN             NaN             NaN
             NaN             NaN             NaN
             NaN             NaN             NaN
             NaN             NaN             NaN
             NaN             NaN             NaN
             NaN             NaN             NaN
             NaN             NaN             NaN
             NaN             NaN             NaN
             NaN             NaN             NaN
             NaN             NaN             NaN
             NaN             NaN             NaN
             NaN             NaN             NaN
             NaN             NaN             NaN
             NaN             NaN             NaN
             NaN             NaN             NaN
             NaN             NaN             NaN
             NaN             NaN             NaN
             NaN             NaN             NaN
             NaN             NaN             NaN
             NaN             NaN             NaN
             NaN             NaN             NaN
             NaN             NaN             NaN
             NaN             NaN             NaN
             NaN             NaN             NaN
             NaN             NaN             NaN
             NaN             NaN             NaN
             NaN             NaN             NaN
             NaN             NaN             NaN
             NaN             NaN             NaN
             NaN             NaN             NaN
             NaN             NaN             NaN
             NaN             NaN             NaN
             NaN             NaN             NaN
             NaN             NaN             NaN
             NaN             NaN             NaN
             NaN             NaN             NaN
             NaN             NaN             NaN
             NaN             NaN             NaN
             NaN             NaN             NaN
             NaN             NaN             NaN
             NaN             NaN             NaN
             NaN             NaN             NaN
             NaN             NaN             NaN
             NaN             NaN             NaN
             NaN             NaN             NaN
             NaN             NaN             NaN
             NaN             NaN             NaN
             NaN             NaN             NaN
             NaN             NaN             NaN
             NaN             NaN             NaN
             NaN             NaN             NaN
             NaN             NaN             NaN
             NaN             NaN             NaN
             NaN             NaN             NaN
             NaN             NaN             NaN
             NaN             NaN             NaN
             NaN             NaN             NaN
             NaN             NaN             NaN
             NaN             NaN             NaN
             NaN             NaN             NaN
             NaN             NaN             NaN
             NaN             NaN             NaN
             NaN             NaN             NaN
             NaN             NaN             NaN
             NaN             NaN             NaN
             NaN             NaN             NaN
             NaN             NaN             NaN
             NaN             NaN             NaN
             NaN             NaN             NaN
             NaN             NaN             NaN
