Li17 Co18 O36                           
   1.00000000000000     
     8.0557280000000002   -0.0035030000000000    2.3736009999999998
     3.6800970000000000    7.1672200000000004    2.3705020000000001
    -0.0129210000000000   -0.0041040000000000    9.8886179999999992
   Li   Co   O 
    17    18    36
Direct
  0.2880556059032672  0.5600230570026193  0.5189178181920842
  0.3324491903291504  0.3318163120485833  0.9985819866864168
  0.3313648328403260  0.6689606823730744  0.9958274569794586
  0.3308051925850393  0.0025247791262266  0.5036235262630020
  0.3331866593795093  0.0034857918263332  0.9971463117107588
  0.6649017229376889  0.3312559671961894  0.5063719939187764
  0.6706740443967639  0.3305001180349235  0.9969204981294417
  0.6486559596588491  0.6677436624104016  0.5058531789802743
  0.6692053958527860  0.6682815761065989  0.9968726299669680
  0.6492198369859723  0.0130429105128833  0.5064108439775505
  0.6674425547566234 -0.0001485745729509  0.9999672176585022
  0.0127086580376348  0.3321227472516238  0.5012268605908264
  1.0011967917769982  0.3326630803318236  0.9979938607958824
  0.9695519728799009  0.6765647287575863  0.5019773645760279
  0.9985247932658669  0.6683598972302581 -0.0007239393873426
  0.0088126463268756  0.9918617789814660  0.5018341801397928
  0.9990074553717880  0.0004676786560128  0.9976543533707533
  0.1654543544275735  0.1675773226382957  0.2467905761079490
  0.1684993183335979  0.1664716484758902  0.7503916292821319
  0.1635184573135970  0.5004036514373696  0.2467684551290738
  0.1657389719994259  0.4966578376640222  0.7575536078806776
  0.1645029457337603  0.8359373483430319  0.2472302786885198
  0.1682449755611658  0.8312979941278555  0.7502858123618511
  0.4971154353017978  0.1678243216429953  0.2511101424117239
  0.5007096108535194  0.1636123290854605  0.7554170236182823
  0.4992039298237327  0.4996682303751485  0.2480388615211619
  0.5005262404039916  0.4992695458389408  0.7556576629600182
  0.4975058266715152  0.8344034817302435  0.2507089045354420
  0.4991542561535963  0.8314376662561935  0.7545978578093522
  0.8342078878907901  0.1667957309346282  0.2487958580136369
  0.8345647885189630  0.1650612946952492  0.7506495752317367
  0.8321458268072903  0.4994799951943662  0.2486411356402663
  0.8331366315377835  0.4994415209692251  0.7523819613108466
  0.8309590735915788  0.8345654466608575  0.2493295613631007
  0.8328284962758140  0.8315549944465116  0.7508773550913765
  0.2492826323718350  0.2545544424225861  0.3546268895413414
  0.2530209399433497  0.2501690949353019  0.8653266207122580
  0.2515137107406513  0.5905926064384182  0.3469589415952247
  0.2527223849719381  0.5863637829118505  0.8652332213178269
  0.2510153652981191  0.9241179446462848  0.3557363421910625
  0.2516232981386669  0.9197904454823491  0.8624310658517430
  0.5881572332918394  0.2607265081128992  0.3553872770165150
  0.5894974847344551  0.2506737082871710  0.8648087492406258
  0.5853512850151137  0.5819048148683035  0.3558063323527904
  0.5878619822589319  0.5845533257067819  0.8655885707482921
  0.5841252766906890  0.9206800687284389  0.3609673804867797
  0.5884476153791254  0.9171562793392033  0.8645222941032278
  0.9198749374188242  0.2538211481653901  0.3579460253925870
  0.9211182022299341  0.2523209685171956  0.8607597825615245
  0.9181437553157472  0.5870435092374559  0.3582038484195998
  0.9181312293674021  0.5864461083049668  0.8634146376803044
  0.9184887514647654  0.9209287228192263  0.3593849722874916
  0.9207672645315798  0.9185587212288783  0.8597424662397535
  0.0785327771189406  0.0798779505733432  0.1371051141175897
  0.0813370097323594  0.0788463413045265  0.6401439464258435
  0.0770032899747295  0.4151212408119130  0.1368391358703705
  0.0781364582758369  0.4163454154585641  0.6439773940676470
  0.0762284653803607  0.7487614715077543  0.1377146967243598
  0.0806353347944249  0.7403888263143253  0.6421041050799634
  0.4140101532052964  0.0795364361626460  0.1392345149724873
  0.4152932833706847  0.0742422614028590  0.6468016973298957
  0.4140274843147850  0.4168070334932672  0.1395446933353887
  0.4172617143164950  0.4062306287547377  0.6533764148990880
  0.4152846307079737  0.7413787617401236  0.1397077059524399
  0.4144820423706961  0.7451222475413065  0.6459560755835707
  0.7451390841449287  0.0807373548479706  0.1403346857017316
  0.7460383886873124  0.0786438826357501  0.6415991572681947
  0.7443769956985322  0.4134772837786432  0.1393591180990117
  0.7459773420516356  0.4129806003525131  0.6421811947457452
  0.7443480374369644  0.7469992022571094  0.1404554726671164
  0.7435638994688690  0.7461905432100810  0.6424018828413446
 
             NaN             NaN             NaN
             NaN             NaN             NaN
             NaN             NaN             NaN
             NaN             NaN             NaN
             NaN             NaN             NaN
             NaN             NaN             NaN
             NaN             NaN             NaN
             NaN             NaN             NaN
             NaN             NaN             NaN
             NaN             NaN             NaN
             NaN             NaN             NaN
             NaN             NaN             NaN
             NaN             NaN             NaN
             NaN             NaN             NaN
             NaN             NaN             NaN
             NaN             NaN             NaN
             NaN             NaN             NaN
             NaN             NaN             NaN
             NaN             NaN             NaN
             NaN             NaN             NaN
             NaN             NaN             NaN
             NaN             NaN             NaN
             NaN             NaN             NaN
             NaN             NaN             NaN
             NaN             NaN             NaN
             NaN             NaN             NaN
             NaN             NaN             NaN
             NaN             NaN             NaN
             NaN             NaN             NaN
             NaN             NaN             NaN
             NaN             NaN             NaN
             NaN             NaN             NaN
             NaN             NaN             NaN
             NaN             NaN             NaN
             NaN             NaN             NaN
             NaN             NaN             NaN
             NaN             NaN             NaN
             NaN             NaN             NaN
             NaN             NaN             NaN
             NaN             NaN             NaN
             NaN             NaN             NaN
             NaN             NaN             NaN
             NaN             NaN             NaN
             NaN             NaN             NaN
             NaN             NaN             NaN
             NaN             NaN             NaN
             NaN             NaN             NaN
             NaN             NaN             NaN
             NaN             NaN             NaN
             NaN             NaN             NaN
             NaN             NaN             NaN
             NaN             NaN             NaN
             NaN             NaN             NaN
             NaN             NaN             NaN
             NaN             NaN             NaN
             NaN             NaN             NaN
             NaN             NaN             NaN
             NaN             NaN             NaN
             NaN             NaN             NaN
             NaN             NaN             NaN
             NaN             NaN             NaN
             NaN             NaN             NaN
             NaN             NaN             NaN
             NaN             NaN             NaN
             NaN             NaN             NaN
             NaN             NaN             NaN
             NaN             NaN             NaN
             NaN             NaN             NaN
             NaN             NaN             NaN
             NaN             NaN             NaN
             NaN             NaN             NaN
