Li17 Co18 O36                           
   1.00000000000000     
     8.0557280000000002   -0.0035030000000000    2.3736009999999998
     3.6800970000000000    7.1672200000000004    2.3705020000000001
    -0.0129210000000000   -0.0041040000000000    9.8886179999999992
   Li   Co   O 
    17    18    36
Direct
  0.2917164500191286  0.5549388629072266  0.5162393532416591
  0.3397207003459621  0.3305211102352447  0.9980165258651110
  0.3334111754629348  0.6687342157347189  0.9979828134673040
  0.3328756350834669 -0.0008931515358406  0.5069042790329296
  0.3346430174615553 -0.0017188179943495  0.9963255661826176
  0.6582896012380284  0.3349500179311385  0.5067633274771748
  0.6678323178965319  0.3339740257100122  0.9977696961847663
  0.6488659652603387  0.6652327217216649  0.5053637330226186
  0.6664104760631627  0.6684299237092440  0.9982876797387626
  0.6500293165318685  0.0163331200739556  0.5067171063522605
  0.6700917052124663  0.9981264104802425  0.9960574000473716
  0.0097479506826617  0.3330380316590356  0.5041316485805478
 -0.0007439711679664  0.3309373919259303  0.9972956886703952
  0.9715047276621113  0.6789471752747959  0.5022969277299482
  0.9963205084547854  0.6744210204049390  0.9970895988271316
  0.0060757460802795  0.9891225734833676  0.5040504219447329
  1.0002782296304418  0.0016572196264814  0.9951175170838641
  0.1650670752872234  0.1653949384767101  0.2478308079652389
  0.1695439358630521  0.1653216672973720  0.7501582157812943
  0.1652798471329775  0.5012819931191625  0.2461022527711528
  0.1662978343907272  0.4947662312077342  0.7580520702552178
  0.1631794258365605  0.8379184746586490  0.2441819649331835
  0.1684529297027215  0.8317222518099041  0.7495848005258146
  0.4972425985161528  0.1702619234587530  0.2572992861550459
  0.5027593125768035  0.1623328506655665  0.7546069591539041
  0.4993222496809507  0.5032815403020766  0.2476545104988461
  0.5027462392194384  0.4985570782884480  0.7548919486135399
  0.4967998307389567  0.8322285196812265  0.2498343101787872
  0.4995813655978094  0.8313189535770923  0.7544729251296354
  0.8309106189741069  0.1695836306642645  0.2497921077040271
  0.8352029575731287  0.1647008555439269  0.7504425140943318
  0.8306431784977910  0.4999846079438267  0.2489424864610660
  0.8325373726470765  0.4994578706081342  0.7525045119649887
  0.8302533644771205  0.8344002475695781  0.2514800797783413
  0.8327821894258564  0.8318752199760931  0.7505082409758175
  0.2483622530043419  0.2428438709202950  0.3619308534991078
  0.2576072995272780  0.2409047192674812  0.8688020089185395
  0.2470164005753788  0.5946643002094829  0.3455850934916689
  0.2547471743974921  0.5871799000222833  0.8664638326327055
  0.2454086694643821  0.9286032342276062  0.3534818730475222
  0.2516851667863462  0.9197466199479295  0.8614132229029824
  0.5904539804990058  0.2615396724781778  0.3633276562626714
  0.5907302998496617  0.2495890552657826  0.8644345686595540
  0.5871273480622629  0.5866779667449886  0.3573938981198632
  0.5884999975271159  0.5842547928074171  0.8645606094342456
  0.5824604709717781  0.9124085400241194  0.3675557243873427
  0.5894044080792239  0.9170634926941065  0.8636375874121404
  0.9252518739886474  0.2508640988443805  0.3565283234337800
  0.9218348855932419  0.2518899408315414  0.8605058882116806
  0.9188989181463886  0.5802816381999643  0.3631423135126933
  0.9122600723373749  0.5885131373443252  0.8666830442506913
  0.9211694589505701  0.9252479988806931  0.3621394642044055
  0.9210324788458494  0.9184729184731101  0.8594657173689302
  0.0759136503044397  0.0846988233354415  0.1375440553223700
  0.0816814103729774  0.0788612969561248  0.6400041842003852
  0.0819781137994603  0.4077377854095456  0.1396074025119317
  0.0773981179333759  0.4151375066465429  0.6411555581427644
  0.0760958241470918  0.7580970919645331  0.1296054398903427
  0.0785442030909993  0.7482259184832961  0.6368967646976393
  0.4038891086725023  0.0793352729273806  0.1373193305030548
  0.4161763186572695  0.0737736339050997  0.6464075690326010
  0.4128049964200274  0.4196447329128678  0.1346772922582558
  0.4246911756645838  0.4035864849383916  0.6502098727544535
  0.4112929751560289  0.7486633478729402  0.1372047537635812
  0.4149005473513069  0.7448729316223878  0.6458879296066499
  0.7432818457903182  0.0876837272572489  0.1355197334817446
  0.7473578846625833  0.0781604573332993  0.6417213627020530
  0.7462102232168781  0.4137740527454594  0.1395075344840822
  0.7474208715374195  0.4120839166316132  0.6423919529104249
  0.7419338389462654  0.7433972933861877  0.1368728267627934
  0.7440397102911593  0.7457117628038736  0.6426804368802260
 
             NaN             NaN             NaN
             NaN             NaN             NaN
             NaN             NaN             NaN
             NaN             NaN             NaN
             NaN             NaN             NaN
             NaN             NaN             NaN
             NaN             NaN             NaN
             NaN             NaN             NaN
             NaN             NaN             NaN
             NaN             NaN             NaN
             NaN             NaN             NaN
             NaN             NaN             NaN
             NaN             NaN             NaN
             NaN             NaN             NaN
             NaN             NaN             NaN
             NaN             NaN             NaN
             NaN             NaN             NaN
             NaN             NaN             NaN
             NaN             NaN             NaN
             NaN             NaN             NaN
             NaN             NaN             NaN
             NaN             NaN             NaN
             NaN             NaN             NaN
             NaN             NaN             NaN
             NaN             NaN             NaN
             NaN             NaN             NaN
             NaN             NaN             NaN
             NaN             NaN             NaN
             NaN             NaN             NaN
             NaN             NaN             NaN
             NaN             NaN             NaN
             NaN             NaN             NaN
             NaN             NaN             NaN
             NaN             NaN             NaN
             NaN             NaN             NaN
             NaN             NaN             NaN
             NaN             NaN             NaN
             NaN             NaN             NaN
             NaN             NaN             NaN
             NaN             NaN             NaN
             NaN             NaN             NaN
             NaN             NaN             NaN
             NaN             NaN             NaN
             NaN             NaN             NaN
             NaN             NaN             NaN
             NaN             NaN             NaN
             NaN             NaN             NaN
             NaN             NaN             NaN
             NaN             NaN             NaN
             NaN             NaN             NaN
             NaN             NaN             NaN
             NaN             NaN             NaN
             NaN             NaN             NaN
             NaN             NaN             NaN
             NaN             NaN             NaN
             NaN             NaN             NaN
             NaN             NaN             NaN
             NaN             NaN             NaN
             NaN             NaN             NaN
             NaN             NaN             NaN
             NaN             NaN             NaN
             NaN             NaN             NaN
             NaN             NaN             NaN
             NaN             NaN             NaN
             NaN             NaN             NaN
             NaN             NaN             NaN
             NaN             NaN             NaN
             NaN             NaN             NaN
             NaN             NaN             NaN
             NaN             NaN             NaN
             NaN             NaN             NaN
