Li17 Co18 O36                           
   1.00000000000000     
     8.0557280000000002   -0.0035030000000000    2.3736009999999998
     3.6800970000000000    7.1672200000000004    2.3705020000000001
    -0.0129210000000000   -0.0041040000000000    9.8886179999999992
   Li   Co   O 
    17    18    36
Direct
  0.2790734914406656  0.5536735590921129  0.5242110937633613
  0.3367123061858885  0.3284975245783262 -0.0021394094904624
  0.3357579389283218  0.6686186840814741 -0.0049140675200149
  0.3308720877007451  0.0008470751056950  0.5065952402903716
  0.3354330622490813  1.0015418108917267  0.9954008912884974
  0.6574983637363208  0.3340319626284702  0.5073914123205981
  0.6694998817363056  0.3337756217185177 -0.0054443817209757
  0.6554749867921442  0.6662998040106021  0.5072323679461153
  0.6671414829860077  0.6680422888087482 -0.0039561797408073
  0.6554053605478309  0.0078337600288395  0.5065337763848635
  0.6680877593516046  0.0001196671184065  0.9953474729113675
  0.0061018861255909  0.3303943821277945  0.5046794281233190
  0.9997374014540902  0.3297072629539560  0.9996974861171540
 -0.0364476029089617  0.6813111063717827  0.5027659209731637
 -0.0055026841801020  0.6725848754353990  1.0003688986854546
  1.0040484877303155  0.9955817626210000  0.5036947758727383
  0.9987348446435497  1.0012922777514019  0.9948036831233529
  0.1657149318431131  0.1681599470322252  0.2460182709209229
  0.1685327269114593  0.1667770310024982  0.7495098602439743
  0.1632148838226464  0.5005283568863083  0.2478717044974381
  0.1650952095459527  0.4963455071184058  0.7607343112409483
  0.1640013901754066  0.8390715554669973  0.2486082129858081
  0.1678355647426784  0.8330822918094954  0.7490721101517729
  0.4975256844363194  0.1672320706108148  0.2526787230364224
  0.5010947547086783  0.1625618401748598  0.7537377800444166
  0.5048073735051188  0.4992656562793718  0.2472213541576868
  0.5026902448895834  0.4990015969533124  0.7543546300446972
  0.4979114082422924  0.8340773214368311  0.2538748083325763
  0.4986732236455114  0.8321822996455560  0.7537870398389952
  0.8337335051134064  0.1664286717771925  0.2493643495012139
  0.8345435887077585  0.1663898726696235  0.7492445141071391
  0.8345106215826106  0.4970393321068048  0.2485744879121575
  0.8324304559468828  0.5007487195328829  0.7519994674673258
  0.8291135964032338  0.8336626635965879  0.2511812167649542
  0.8318633461206876  0.8327169989067369  0.7506780557501493
  0.2460387272136197  0.2526333206940850  0.3601354086911695
  0.2563513488707582  0.2422935321879083  0.8675428807963378
  0.2606570588861095  0.5900488984657302  0.3491478865067645
  0.2554740485699893  0.5888374365972153  0.8661745474455276
  0.2508542761413565  0.9288126471553526  0.3623048355053402
  0.2510350492388585  0.9205941293565750  0.8611097699871396
  0.5902288435456200  0.2627720190854237  0.3585496707525230
  0.5899214697857460  0.2505189151908465  0.8631771338217838
  0.5913875438263069  0.5737045944277898  0.3588072945922138
  0.5883813676149338  0.5853465326122722  0.8637152309159679
  0.5881951879829174  0.9151552814986195  0.3692007809137943
  0.5880703681900842  0.9173932011537870  0.8630917389985280
  0.9226776373480047  0.2506024466090853  0.3575788467066869
  0.9207288460391118  0.2533466851472644  0.8597800546796152
  0.9111100517917571  0.5876747702845502  0.3635936952936932
  0.9107262792820346  0.5902899699254580  0.8664012164117304
  0.9098999265073218  0.9228683181090656  0.3637078536544500
  0.9201533550697755  0.9202444817705523  0.8587166518700398
  0.0768339314194053  0.0839851508812566  0.1340944888759553
  0.0805483190965797  0.0808380829848009  0.6395319841726249
  0.0758255543455304  0.4125312437732910  0.1328353037703957
  0.0767674533563691  0.4166750927787187  0.6415587941783283
  0.0721133531232475  0.7523799809306919  0.1328022678648733
  0.0767867073332977  0.7490450695879017  0.6382265317371509
  0.4123469765505243  0.0828432375826130  0.1328873785681411
  0.4150285023867676  0.0744144211970144  0.6450333326541347
  0.4212330240369822  0.4215017343450452  0.1330121505929040
  0.4226065423456919  0.4048293968834721  0.6507565897385389
  0.4249546003570303  0.7373958110788132  0.1334342358678798
  0.4145916588303022  0.7455857939882329  0.6447430949256878
  0.7487909915062512  0.0777425676989831  0.1381762955874210
  0.7459821949316279  0.0791798992335907  0.6409189064086070
  0.7479853119170141  0.4108469461307420  0.1386573021724912
  0.7470093891993124  0.4137455213157943  0.6414147838904832
  0.7474416967640301  0.7462038862909676  0.1386329364001911
  0.7425693129324508  0.7470595668161911  0.6429229638595780
 
             NaN             NaN             NaN
             NaN             NaN             NaN
             NaN             NaN             NaN
             NaN             NaN             NaN
             NaN             NaN             NaN
             NaN             NaN             NaN
             NaN             NaN             NaN
             NaN             NaN             NaN
             NaN             NaN             NaN
             NaN             NaN             NaN
             NaN             NaN             NaN
             NaN             NaN             NaN
             NaN             NaN             NaN
             NaN             NaN             NaN
             NaN             NaN             NaN
             NaN             NaN             NaN
             NaN             NaN             NaN
             NaN             NaN             NaN
             NaN             NaN             NaN
             NaN             NaN             NaN
             NaN             NaN             NaN
             NaN             NaN             NaN
             NaN             NaN             NaN
             NaN             NaN             NaN
             NaN             NaN             NaN
             NaN             NaN             NaN
             NaN             NaN             NaN
             NaN             NaN             NaN
             NaN             NaN             NaN
             NaN             NaN             NaN
             NaN             NaN             NaN
             NaN             NaN             NaN
             NaN             NaN             NaN
             NaN             NaN             NaN
             NaN             NaN             NaN
             NaN             NaN             NaN
             NaN             NaN             NaN
             NaN             NaN             NaN
             NaN             NaN             NaN
             NaN             NaN             NaN
             NaN             NaN             NaN
             NaN             NaN             NaN
             NaN             NaN             NaN
             NaN             NaN             NaN
             NaN             NaN             NaN
             NaN             NaN             NaN
             NaN             NaN             NaN
             NaN             NaN             NaN
             NaN             NaN             NaN
             NaN             NaN             NaN
             NaN             NaN             NaN
             NaN             NaN             NaN
             NaN             NaN             NaN
             NaN             NaN             NaN
             NaN             NaN             NaN
             NaN             NaN             NaN
             NaN             NaN             NaN
             NaN             NaN             NaN
             NaN             NaN             NaN
             NaN             NaN             NaN
             NaN             NaN             NaN
             NaN             NaN             NaN
             NaN             NaN             NaN
             NaN             NaN             NaN
             NaN             NaN             NaN
             NaN             NaN             NaN
             NaN             NaN             NaN
             NaN             NaN             NaN
             NaN             NaN             NaN
             NaN             NaN             NaN
             NaN             NaN             NaN
