Li17 Co18 O36                           
   1.00000000000000     
     8.0557280000000002   -0.0035030000000000    2.3736009999999998
     3.6800970000000000    7.1672200000000004    2.3705020000000001
    -0.0129210000000000   -0.0041040000000000    9.8886179999999992
   Li   Co   O 
    17    18    36
Direct
  0.2929947774558622  0.5573859883950687  0.5154621083008323
  0.3393500513789763  0.3318016867681984  0.9990239967422164
  0.3341676442644231  0.6666580478822778  0.9987818122662445
  0.3343614242407773  0.9991800153383096  0.5054867647310164
  0.3363199610631503  0.9974713913527420  0.9977194511076273
  0.6599511131202027  0.3341269947498359  0.5046469771786561
  0.6666868644927847  0.3327548971135538  0.9989439869539340
  0.6487418318981576  0.6663269571192380  0.5037592133657494
  0.6653937672694575  0.6677103194780815  0.9995138405333270
  0.6464202311419637  0.0176742110993092  0.5030310866810117
  0.6686012235630097  0.9990458014559591  0.9986142239229895
  0.0083546841884477  0.3340346960063799  0.5032082162398955
  0.9953253352980892  0.3319442469485491  0.9990432961144367
  0.9701127696621792  0.6773680408158067  0.5003402995622807
  0.9971787500456654  0.6725562004742943  0.9985963149418815
  0.0064934574749379  0.9898237820372512  0.5033019543397391
 -0.0016586861845446 -0.0008185265971413  0.9960293349843393
  0.1648851358799259  0.1688099584364202  0.2474806014086337
  0.1679247968049099  0.1644469567975887  0.7502758258633706
  0.1643605596951310  0.5023062272367715  0.2466690164328632
  0.1650811834486606  0.4936499592796574  0.7601395069586121
  0.1643039137910176  0.8370441207186060  0.2464873251935017
  0.1693654419812554  0.8299349460732247  0.7503238517701537
  0.4983593998839201  0.1687747974244482  0.2501484015948813
  0.5017037458573733  0.1626893481609212  0.7547677020542620
  0.4985467163836594  0.5021200311427405  0.2484177639354483
  0.5020650298923472  0.4983188490734654  0.7553560925943318
  0.4984475343944444  0.8345686170920562  0.2510399110174509
  0.4993592205136838  0.8310540394996702  0.7547242975579870
  0.8308389418805724  0.1687405795920460  0.2497276814487101
  0.8350775240284650  0.1641492027664385  0.7505008208013793
  0.8300534819023323  0.5009429508467431  0.2492354666679312
  0.8321864728175671  0.4984341510843503  0.7528806802138028
  0.8307222321265890  0.8351488400947666  0.2492687241418247
  0.8335628012251975  0.8297644382523587  0.7512693308642685
  0.2482884220330462  0.2515742186814824  0.3534319164831533
  0.2544503500126230  0.2429783671542076  0.8690012912644479
  0.2473420860453379  0.5941096864470257  0.3468902699056117
  0.2561599452369899  0.5879173221944355  0.8684594992834279
  0.2486803865014890  0.9318968719121228  0.3544353934642056
  0.2511520805795064  0.9191284864825148  0.8624568784266036
  0.5879732355454067  0.2559220933455224  0.3567180166052590
  0.5905375725669009  0.2490068854341612  0.8642944318009916
  0.5863002080620271  0.5870715290458006  0.3580862505786530
  0.5878034583738362  0.5840710903025754  0.8654153970566507
  0.5847048007568519  0.9219956078236373  0.3605510177334886
  0.5895558551462763  0.9169218145956060  0.8638263335243135
  0.9213667432171280  0.2537417486018002  0.3578697871814699
  0.9208379912397952  0.2502898531232161  0.8614766887935507
  0.9183059915800881  0.5879366992569678  0.3576521574627538
  0.9124955931768964  0.5856725514236459  0.8686402491227500
  0.9188469354672738  0.9217200168458288  0.3582498619651512
  0.9212885637019501  0.9172258101792032  0.8599070638422605
  0.0787162205118019  0.0856621895532521  0.1390176796611860
  0.0819158190317126  0.0770266633304061  0.6395332050429270
  0.0785489629221714  0.4094421040950416  0.1387441796589656
  0.0749942552488968  0.4123477818890084  0.6405051198525129
  0.0766834055398072  0.7496157757518292  0.1374952906290814
  0.0815982399669609  0.7430161249667832  0.6381884319857639
  0.4106203759254735  0.0814374247993342  0.1399653895130222
  0.4152445670313229  0.0735545648178561  0.6466186968124447
  0.4123675896056496  0.4136178587567543  0.1387030839626939
  0.4237698790825098  0.4044899994285850  0.6497666563786937
  0.4124341980823344  0.7495098372580473  0.1389313355300815
  0.4153891613220864  0.7447577457251106  0.6457018749808425
  0.7447744634482993  0.0814524170830399  0.1400111656098827
  0.7470579486096927  0.0764651624799667  0.6420484914654370
  0.7447094439762562  0.4140540117757057  0.1396806607368664
  0.7469311163588054  0.4115019845926118  0.6422881626818504
  0.7439134169662223  0.7478070654206094  0.1405636633253480
  0.7439581967114947  0.7450327812485448  0.6431250788928158
 
             NaN             NaN             NaN
             NaN             NaN             NaN
             NaN             NaN             NaN
             NaN             NaN             NaN
             NaN             NaN             NaN
             NaN             NaN             NaN
             NaN             NaN             NaN
             NaN             NaN             NaN
             NaN             NaN             NaN
             NaN             NaN             NaN
             NaN             NaN             NaN
             NaN             NaN             NaN
             NaN             NaN             NaN
             NaN             NaN             NaN
             NaN             NaN             NaN
             NaN             NaN             NaN
             NaN             NaN             NaN
             NaN             NaN             NaN
             NaN             NaN             NaN
             NaN             NaN             NaN
             NaN             NaN             NaN
             NaN             NaN             NaN
             NaN             NaN             NaN
             NaN             NaN             NaN
             NaN             NaN             NaN
             NaN             NaN             NaN
             NaN             NaN             NaN
             NaN             NaN             NaN
             NaN             NaN             NaN
             NaN             NaN             NaN
             NaN             NaN             NaN
             NaN             NaN             NaN
             NaN             NaN             NaN
             NaN             NaN             NaN
             NaN             NaN             NaN
             NaN             NaN             NaN
             NaN             NaN             NaN
             NaN             NaN             NaN
             NaN             NaN             NaN
             NaN             NaN             NaN
             NaN             NaN             NaN
             NaN             NaN             NaN
             NaN             NaN             NaN
             NaN             NaN             NaN
             NaN             NaN             NaN
             NaN             NaN             NaN
             NaN             NaN             NaN
             NaN             NaN             NaN
             NaN             NaN             NaN
             NaN             NaN             NaN
             NaN             NaN             NaN
             NaN             NaN             NaN
             NaN             NaN             NaN
             NaN             NaN             NaN
             NaN             NaN             NaN
             NaN             NaN             NaN
             NaN             NaN             NaN
             NaN             NaN             NaN
             NaN             NaN             NaN
             NaN             NaN             NaN
             NaN             NaN             NaN
             NaN             NaN             NaN
             NaN             NaN             NaN
             NaN             NaN             NaN
             NaN             NaN             NaN
             NaN             NaN             NaN
             NaN             NaN             NaN
             NaN             NaN             NaN
             NaN             NaN             NaN
             NaN             NaN             NaN
             NaN             NaN             NaN
