Li47 P16 O64                            
   1.00000000000000     
    10.4092020000000005    0.0005080000000000   -0.0033350000000000
     0.0005850000000000   12.1945490000000003    0.0011820000000000
    -0.0031730000000000    0.0009470000000000    9.7917769999999997
   Li   P    O 
    47    16    64
Direct
  0.2155965878747138  0.3014097758786655  0.1657271742136684
  0.6600129996174091  0.2513946026947873  0.0966975669372712
  0.6678587289304156  0.2476516525743836  0.5974538515960146
  0.6609849317798409  0.7489661563946866  0.0967758031254024
  0.6644351113358281  0.7504757846862415  0.5984532102610089
  0.1590609143897949  0.5088305904859807  0.1496038755098504
  0.1655215461979558  0.5009317324078462  0.6517810302402850
  0.1648293923513092  0.0003580705999900  0.1505926693880419
  0.1647057714117771  0.0001772529343092  0.6528196215591178
  0.3363791190585614  0.0003311382167143  0.4005619798934650
  0.3366253605702391  0.9994149965983745  0.9028177625675489
  0.3374798644865186  0.5001028320167649  0.3996803510316234
  0.3377174108076347  0.4971250471378910  0.9083007707066668
  0.8377814862072072  0.2490303095157007  0.3472549167065244
  0.8359968338889889  0.2494243361064612  0.8493534079663899
  0.8353594376991057  0.7489647580254243  0.3479115039169575
  0.8358238304700968  0.7497510329547095  0.8474346618801228
  0.3407842925252265  0.2472368453863691  0.4073983798262708
  0.3387002278814711  0.2502356571574279  0.9027595693480831
  0.3366025498335477  0.7489844749044164  0.4015066394685324
  0.3352776230465409  0.7481359933807447  0.9026209666190197
  0.8379461636182400  0.0021523980632718  0.3489201117308284
  0.8364253897734808  0.0011965079512884  0.8460603215615948
  0.8370118385209735  0.4999963789399260  0.3460849896533359
  0.8353974889202301  0.5012630470998488  0.8507133192815842
  0.6587764223455839  0.4966310159856935  0.0965045420702885
  0.6677398167093542  0.5010575266117325  0.5977116390302786
  0.6651993410294500  0.9955674598379248  0.0968992646944618
  0.6655391946546309  0.9979181102245290  0.5973984734008920
  0.1653277573514885  0.2522769214988358  0.6527168985335942
  0.1638309182460227  0.7537856551761367  0.1532327370040951
  0.1647770107645081  0.7525324411041965  0.6514915054357467
  0.9271053246941575  0.3728409272827440  0.1467364094322564
  0.9245427890091338  0.3755640983052576  0.6513674664172716
  0.9220242798566236  0.8746912306529936  0.1484658990953687
  0.9239434359243199  0.8755031197332027  0.6481473249359690
  0.4237409871790393  0.3751190060816296  0.6114043984882325
  0.4256976576576076  0.8730001738926204  0.1009353840328508
  0.4238349778478490  0.8745561608565816  0.6003018110601036
  0.0808661031443265  0.1312352673068304  0.3428779043601506
  0.0787818193389229  0.1270285934621471  0.8557367566253314
  0.0759665393262733  0.6278368997727002  0.3525381763632767
  0.0762692810248902  0.6262393764539931  0.8501075841314873
  0.5782614326409180  0.1237588099614592  0.3980274486668778
  0.5770589408412016  0.1232264262587779  0.8987702992511453
  0.5765695122675033  0.6243795662577467  0.3992663614407581
  0.5744104276337801  0.6236035516968335  0.8977428267705618
  0.9111372335253972  0.1245062968832765  0.0950522480517687
  0.9150458729050682  0.1257511497521860  0.5952867675476843
  0.9091380563621575  0.6265204345696067  0.0953274319216135
  0.9127661367007239  0.6256031770435293  0.5953595882126597
  0.4145555103243952  0.1207229024251618  0.1539990661143502
  0.4130316712393818  0.1233930010789554  0.6550418437692024
  0.4093044630456724  0.6257363634109687  0.1544139491597386
  0.4117628360496319  0.6247357231110404  0.6546702538610614
  0.0899817877190260  0.3775742839271685  0.4047865945743847
  0.0897611650689204  0.3770997499382331  0.9048921232479870
  0.0884899687085676  0.8766838394401959  0.4045570725905176
  0.0879398023495487  0.8756520333870244  0.9047017575810320
  0.5908201928455419  0.3740194165559195  0.3474293714838543
  0.5883635153808039  0.3742165554370689  0.8389628640258526
  0.5889055414569101  0.8741194901784860  0.3453777225691833
  0.5882659626506250  0.8736044318959851  0.8446799526652358
  0.8401732455572581  0.0212056676923679  0.1468753624274873
  0.8434374376569398  0.0223416680810312  0.6450895461878113
  0.8408264279778707  0.5219019326703664  0.1456947204467222
  0.8440585545188677  0.5224936342767873  0.6495006317757511
  0.3443978877471019  0.2192177213663614  0.0937515608854652
  0.3434502440046606  0.2273510718441148  0.6042372177774583
  0.3421466849309214  0.7319510344953961  0.1055270497882849
  0.3422531881110501  0.7282537923746908  0.6023891682120168
  0.1658732483951320  0.2768491714946474  0.3536171008526785
  0.1593093482758265  0.2741624605031888  0.8523215863300950
  0.1592659268696542  0.7734016531204183  0.3536983075531501
  0.1583096298791920  0.7724214027546374  0.8529791933368643
  0.6597094709697946  0.4778961479681820  0.4002739511937334
  0.6553381161990481  0.4771288820936895  0.8958124872973098
  0.6595945495366720  0.9773484741582117  0.3966343057024194
  0.6591953986872627  0.9764457633779623  0.8965920790501586
  0.1577682517735558  0.4815881126043504  0.3515198462325340
  0.1576718027049818  0.4804721892612718  0.8503453023333103
  0.1580678331069925  0.9799116156009028  0.3521836678579990
  0.1589311839137347  0.9787959837597655  0.8538582627054860
  0.6601489446964049  0.2704325806790615  0.4004558571759134
  0.6548354616962950  0.2709362635445808  0.8958851798616079
  0.6583747901253505  0.7708651529962725  0.3981870370305998
  0.6578359167268369  0.7699085274231607  0.8959556088528963
  0.8406756920500057  0.2277900384958688  0.1464517841449397
  0.8444119109160579  0.2285396125576833  0.6480225047493088
  0.8370391489355428  0.7288745808106352  0.1466983360234702
  0.8422417248896072  0.7288353558428379  0.6466974552025203
  0.3455021036755488  0.0156777435054146  0.1058805556377411
  0.3423244453585961  0.0209816757433240  0.6016248129515999
  0.3323104059860726  0.5282724735239908  0.1012156033334090
  0.3426511647068331  0.5218340762043507  0.6003932841349886
  0.5543687735271864  0.1206686836644057  0.1037420813191620
  0.5523033818915617  0.1235017954985459  0.6026969923048120
  0.5479222726190246  0.6236906295332912  0.1003253882212254
  0.5517531387365910  0.6248627250863162  0.6042549513787834
  0.0495212357947317  0.1224454566090951  0.1469004978669198
  0.0534983642364848  0.1257083885594904  0.6493003233532815
  0.0476817212441567  0.6299282386699158  0.1492489389153120
  0.0526397383443666  0.6268713700968725  0.6453834998790122
  0.4513340933718831  0.3739352367517267  0.3989302517111830
  0.4445537191271826  0.3743492999234223  0.8694324201385204
  0.4495503816206085  0.8748572410476091  0.3969770706763520
  0.4491237302362672  0.8736930987922884  0.8966621801849425
  0.9513574167987271  0.3741374107629882  0.3512435674672003
  0.9488374408151192  0.3755959556284256  0.8569845410128981
  0.9491073906110116  0.8752017896929305  0.3523905989254583
  0.9489707761281866  0.8756279334768101  0.8515994894840164
  0.5966585172591802  0.3738476229803593  0.1917328701681132
  0.6005661854989297  0.3742802088269105  0.6816941800940329
  0.5901714778761752  0.8732317061883254  0.1880075089685641
  0.5893924716549001  0.8743537753148491  0.6872511581500668
  0.0938481183493866  0.3801791794029086  0.0622648021540097
  0.0898784291998415  0.3772307496821888  0.5620527851488454
  0.0878451048911308  0.8756338098276185  0.0620552328375263
  0.0894235668915679  0.8768303018801041  0.5620217110936988
  0.4121173775211732  0.1248408704287459  0.3113645997701134
  0.4118680863700028  0.1223780633637100  0.8121882455044034
  0.4115551190879316  0.6249380264021142  0.3120210975869029
  0.4089330198976245  0.6240726823723155  0.8118850288959851
  0.9153611650589595  0.1266598045947119  0.4377685634579050
  0.9093684221465108  0.1246057069651730  0.9374520642832203
  0.9098818293009913  0.6244404693980770  0.4378815935359029
  0.9102148109906210  0.6264503492754425  0.9378396257954970
 
             NaN             NaN             NaN
             NaN             NaN             NaN
             NaN             NaN             NaN
             NaN             NaN             NaN
             NaN             NaN             NaN
             NaN             NaN             NaN
             NaN             NaN             NaN
             NaN             NaN             NaN
             NaN             NaN             NaN
             NaN             NaN             NaN
             NaN             NaN             NaN
             NaN             NaN             NaN
             NaN             NaN             NaN
             NaN             NaN             NaN
             NaN             NaN             NaN
             NaN             NaN             NaN
             NaN             NaN             NaN
             NaN             NaN             NaN
             NaN             NaN             NaN
             NaN             NaN             NaN
             NaN             NaN             NaN
             NaN             NaN             NaN
             NaN             NaN             NaN
             NaN             NaN             NaN
             NaN             NaN             NaN
             NaN             NaN             NaN
             NaN             NaN             NaN
             NaN             NaN             NaN
             NaN             NaN             NaN
             NaN             NaN             NaN
             NaN             NaN             NaN
             NaN             NaN             NaN
             NaN             NaN             NaN
             NaN             NaN             NaN
             NaN             NaN             NaN
             NaN             NaN             NaN
             NaN             NaN             NaN
             NaN             NaN             NaN
             NaN             NaN             NaN
             NaN             NaN             NaN
             NaN             NaN             NaN
             NaN             NaN             NaN
             NaN             NaN             NaN
             NaN             NaN             NaN
             NaN             NaN             NaN
             NaN             NaN             NaN
             NaN             NaN             NaN
             NaN             NaN             NaN
             NaN             NaN             NaN
             NaN             NaN             NaN
             NaN             NaN             NaN
             NaN             NaN             NaN
             NaN             NaN             NaN
             NaN             NaN             NaN
             NaN             NaN             NaN
             NaN             NaN             NaN
             NaN             NaN             NaN
             NaN             NaN             NaN
             NaN             NaN             NaN
             NaN             NaN             NaN
             NaN             NaN             NaN
             NaN             NaN             NaN
             NaN             NaN             NaN
             NaN             NaN             NaN
             NaN             NaN             NaN
             NaN             NaN             NaN
             NaN             NaN             NaN
             NaN             NaN             NaN
             NaN             NaN             NaN
             NaN             NaN             NaN
             NaN             NaN             NaN
             NaN             NaN             NaN
             NaN             NaN             NaN
             NaN             NaN             NaN
             NaN             NaN             NaN
             NaN             NaN             NaN
             NaN             NaN             NaN
             NaN             NaN             NaN
             NaN             NaN             NaN
             NaN             NaN             NaN
             NaN             NaN             NaN
             NaN             NaN             NaN
             NaN             NaN             NaN
             NaN             NaN             NaN
             NaN             NaN             NaN
             NaN             NaN             NaN
             NaN             NaN             NaN
             NaN             NaN             NaN
             NaN             NaN             NaN
             NaN             NaN             NaN
             NaN             NaN             NaN
             NaN             NaN             NaN
             NaN             NaN             NaN
             NaN             NaN             NaN
             NaN             NaN             NaN
             NaN             NaN             NaN
             NaN             NaN             NaN
             NaN             NaN             NaN
             NaN             NaN             NaN
             NaN             NaN             NaN
             NaN             NaN             NaN
             NaN             NaN             NaN
             NaN             NaN             NaN
             NaN             NaN             NaN
             NaN             NaN             NaN
             NaN             NaN             NaN
             NaN             NaN             NaN
             NaN             NaN             NaN
             NaN             NaN             NaN
             NaN             NaN             NaN
             NaN             NaN             NaN
             NaN             NaN             NaN
             NaN             NaN             NaN
             NaN             NaN             NaN
             NaN             NaN             NaN
             NaN             NaN             NaN
             NaN             NaN             NaN
             NaN             NaN             NaN
             NaN             NaN             NaN
             NaN             NaN             NaN
             NaN             NaN             NaN
             NaN             NaN             NaN
             NaN             NaN             NaN
             NaN             NaN             NaN
             NaN             NaN             NaN
             NaN             NaN             NaN
             NaN             NaN             NaN
