Mg7 Mn16 O32                            
   1.00000000000000     
     8.1743609999999993    0.0000530000000000   -0.0002830000000000
     0.0000680000000000    9.3580729999999992    0.0000690000000000
    -0.0002720000000000    0.0000140000000000    8.1744909999999997
   Mg   Mn   O 
     7    16    32
Direct
  0.4498314943474953  0.8116547114716764  0.3000810147206775
  0.3779808783472091  0.3764341068533625  0.8800494211123391
  0.8700050634924128  0.3764037016268883  0.3720775859224854
  0.8707582112813332  0.8765572651970703  0.8792507465298141
  0.6221568236787534  0.1231318035924979  0.6210161706405279
  0.1250799119194656  0.6250482669915822  0.6248482644408090
  0.1290368795781608  0.1230897018697159  0.1277706474923342
  0.0031304623653946  0.2483946038963719  0.7469361250715293
  0.9948263277706146  0.7500780901612296  0.2491745938512397
  0.5000633955218213  0.2531245586638813  0.2498688713752313
  0.5007691325173073  0.7500044951429489  0.7551701699243719
  0.2493320667037703  0.9993399217732649  0.7453483357913171
  0.2494765893936424  0.4985747602636482  0.2517054055335611
  0.7547036950188952  1.0043815040150368  0.2521882503734675
  0.7488719003877945  0.4954727356611450  0.7527059501538221
  0.2504575922703525  0.2474189055869217  0.4995336143500437
  0.2456136743157916  0.7502227202680651 -0.0025553328655067
  0.7554530560083633  0.2454770248304348  0.9946055981877594
  0.7524375097914798  0.7502133962762871  0.5043512613293052
  0.0046939291002506  0.9993811427925214  0.5006673307191127
  0.9973955896089399  0.4953958088251582  0.0011734780931532
  0.4978686409688192  1.0041961268913864  0.9952950873626825
  0.4982930554621879  0.4984983088163488  0.5005755330079615
  0.2354564791654840  0.0087720602347365  0.5145262017184795
  0.2352168614725223  0.5033263332002180  0.0119704137621033
  0.7413479510651996  0.0229122005351654  0.0088105949969784
  0.7380909846803850  0.5033693154879241  0.5148098658724480
  0.0124122235769042  0.2511150283679992  0.5112288892040232
  0.0062577298267861  0.7457278723283729  0.0131796527764147
  0.5144238276325799  0.2330362332626860  0.0093682549418557
  0.5176160003141002  0.7410017891631778  0.5151199493303528
  0.0119018535117656  0.9987810003602375  0.7380691964005458
  0.0085455323374909  0.5030511237753283  0.2366523575845759
  0.5186202728066885  0.0051749272548814  0.2313565728575772
  0.5134194675778522  0.5029862083858738  0.7414343906182260
  0.2388151894521202  0.2511469708566910  0.7375930822064678
  0.2348236780939401  0.7409603563944152  0.2323700081660311
  0.7407500664123159  0.2325313228330426  0.2357706343804485
  0.7368739492314522  0.7457184189073505  0.7436539900319616
  0.7657566760462960  0.0029562953582962  0.4875590557270868
  0.7644532867119709  0.4524336128045291  0.9856406630748786
  0.2622047456760078  0.0028333869585089  0.9841966563732968
  0.2604099792767913  0.4969430376413937  0.4895863222759971
  0.9870316580120734  0.7501804034230085  0.4855578851725406
  0.9895570355237595  0.2443099628019253  0.9850155886083578
  0.4805695792407556  0.7891275444938335  0.9938647958008084
  0.4886255555355975  0.2525171079950874  0.4863889721999471
  0.9873986547986936  0.0002507299928090  0.2615693181381348
  0.9855200702365027  0.4987605827975077  0.7644984373019417
  0.4884396475561439  0.0002075134884512  0.7625803364559038
  0.4815716288279493  0.4872474148036435  0.2685038168644773
  0.7560210058507154  0.7898460709719098  0.2692850950608213
  0.7650052001054296  0.2442979618129119  0.7605543731546625
  0.2643559457541967  0.7501801242255824  0.7628282991955165
  0.2635184772589999  0.2525517245501998  0.2613617695686861
 
             NaN             NaN             NaN
             NaN             NaN             NaN
             NaN             NaN             NaN
             NaN             NaN             NaN
             NaN             NaN             NaN
             NaN             NaN             NaN
             NaN             NaN             NaN
             NaN             NaN             NaN
             NaN             NaN             NaN
             NaN             NaN             NaN
             NaN             NaN             NaN
             NaN             NaN             NaN
             NaN             NaN             NaN
             NaN             NaN             NaN
             NaN             NaN             NaN
             NaN             NaN             NaN
             NaN             NaN             NaN
             NaN             NaN             NaN
             NaN             NaN             NaN
             NaN             NaN             NaN
             NaN             NaN             NaN
             NaN             NaN             NaN
             NaN             NaN             NaN
             NaN             NaN             NaN
             NaN             NaN             NaN
             NaN             NaN             NaN
             NaN             NaN             NaN
             NaN             NaN             NaN
             NaN             NaN             NaN
             NaN             NaN             NaN
             NaN             NaN             NaN
             NaN             NaN             NaN
             NaN             NaN             NaN
             NaN             NaN             NaN
             NaN             NaN             NaN
             NaN             NaN             NaN
             NaN             NaN             NaN
             NaN             NaN             NaN
             NaN             NaN             NaN
             NaN             NaN             NaN
             NaN             NaN             NaN
             NaN             NaN             NaN
             NaN             NaN             NaN
             NaN             NaN             NaN
             NaN             NaN             NaN
             NaN             NaN             NaN
             NaN             NaN             NaN
             NaN             NaN             NaN
             NaN             NaN             NaN
             NaN             NaN             NaN
             NaN             NaN             NaN
             NaN             NaN             NaN
             NaN             NaN             NaN
             NaN             NaN             NaN
             NaN             NaN             NaN
