Mg7 Mn16 O32
1.0
8.174361 0.000053 -0.000283
0.000068 9.358073 0.000069
-0.000272 0.000014 8.174491
Mg Mn O
7 16 32
direct
0.439736 0.811397 0.310262 Mg
0.378491 0.376551 0.878485 Mg
0.871517 0.376543 0.371505 Mg
0.871631 0.873324 0.878368 Mg
0.623840 0.124526 0.623845 Mg
0.126130 0.625551 0.623866 Mg
0.126157 0.124521 0.126155 Mg
0.000623 0.250496 0.749382 Mn
0.998978 0.750337 0.249748 Mn
0.498780 0.250119 0.251217 Mn
0.500242 0.750324 0.751021 Mn
0.249212 0.999527 0.748615 Mn
0.250931 0.499551 0.249111 Mn
0.751266 0.999896 0.251881 Mn
0.750003 0.499656 0.751794 Mn
0.248468 0.250656 0.501530 Mn
0.251637 0.750327 0.000862 Mn
0.752112 0.249968 0.997889 Mn
0.749133 0.750327 0.498362 Mn
0.001389 0.999530 0.500788 Mn
0.998204 0.499658 0.000001 Mn
0.498122 0.999879 0.998733 Mn
0.500896 0.499539 0.499073 Mn
0.237037 1.008288 0.512963 O
0.237552 0.502261 0.012579 O
0.737280 0.011761 0.012717 O
0.737414 0.502261 0.512439 O
0.011924 0.251398 0.512475 O
0.012375 0.746864 0.012870 O
0.512965 0.238629 0.012443 O
0.513556 0.737943 0.513068 O
0.012233 0.999417 0.737765 O
0.011979 0.502254 0.236934 O
0.513418 0.020664 0.236586 O
0.513078 0.502248 0.738016 O
0.237534 0.251401 0.738068 O
0.236924 0.738003 0.236435 O
0.737573 0.238607 0.237050 O
0.737128 0.746869 0.737614 O
0.763427 0.000941 0.487835 O
0.764921 0.472934 0.985076 O
0.262171 0.000939 0.986569 O
0.262922 0.495225 0.487082 O
0.987094 0.751833 0.486917 O
0.988132 0.247962 0.986469 O
0.484922 0.778726 0.985094 O
0.486303 0.252180 0.487965 O
0.988035 0.000947 0.263647 O
0.987246 0.499340 0.762751 O
0.486371 0.000956 0.761966 O
0.484942 0.468756 0.265061 O
0.764890 0.778762 0.265083 O
0.763526 0.247957 0.761867 O
0.263075 0.751827 0.762895 O
0.262044 0.252150 0.263709 O
