Li16 Co18 O36                           
   1.00000000000000     
     8.0633520000000001    0.0216390000000000    2.3671690000000001
     3.6626080000000001    7.1811160000000003    2.3717779999999999
     0.0313660000000000    0.0121200000000000    9.8894839999999995
   Li   Co   O 
    16    18    36
Direct
  0.7584087512742596  0.4244459640278698  0.4778067835219093
  0.3338506717282957  0.3329796716814819 -0.0008919069602958
  0.3330853185943958  0.3337509579483263  0.4987274321826546
  0.3333017476316227  0.6668546739847693  0.0010314897048138
  0.3484837517963413  0.6592469295496376  0.5005268820724615
  0.3338367783191497 -0.0003497544592026 -0.0004574262621126
  0.3334836395742018 -0.0000042179518572  0.4990645697936418
  0.6671885254115419  0.3333142519274602  0.0002772005684236
  0.6649836633500043  0.6679788012189416 -0.0004545879965759
  0.6669509553395725 -0.0002736459727309  0.9995199848607226
  0.6679376179333910  0.9990443415594302  0.4986222638042542
  0.0020805642278769  0.3311683864425576 -0.0008833030782229
  1.0010055674638803  0.6670116190334316 -0.0008692413584048
  0.9852206418397791  0.6509297083492188  0.5000353397782423
  0.0005532577775613 -0.0006184957666303  0.0009734540481689
  0.9932514843601965  0.0147977358459288  0.5003785875240373
  0.1686961520066715  0.1687768394564414  0.2482486571116371
  0.1651090323080473  0.1654136838889014  0.7486302602290488
  0.1674555272575900  0.5002125318520685  0.2477210847082650
  0.1646729322640241  0.4983059766125099  0.7517858134693679
  0.1661458688726463  0.8341817518662087  0.2502153354791529
  0.1644887650932900  0.8308983809690841  0.7535404473465256
  0.5017272851778949  0.1693941671734027  0.2446581953974724
  0.4999627511378876  0.1656201739575817  0.7489648125161777
  0.5010159385634811  0.5008874685341020  0.2484609277610457
  0.4967277399464979  0.4992574226099571  0.7531122963993161
  0.5011074387200843  0.8356898903376568  0.2490498443726910
  0.4990853157929650  0.8315251260656762  0.7484585652401522
  0.8334812037551274  0.1686384999686677  0.2479447838011510
  0.8324832930673409  0.1634586352377157  0.7532020147024857
  0.8361797625887303  0.5030252788504772  0.2412363702380437
  0.8323981465597412  0.4992194548040884  0.7528881928656554
  0.8326564774898692  0.8344245518638691  0.2480073360608932
  0.8317397683881458  0.8309702572084877  0.7521784470026051
  0.2603592768668364  0.2539112790574735  0.3520057889177079
  0.2532507911034371  0.2505423594260400  0.8586738860153155
  0.2539288347736031  0.5866276188226941  0.3576318963104612
  0.2511968019652926  0.5843329262871340  0.8629294595592332
  0.2541941775425827  0.9219021411950470  0.3582645507550656
  0.2531365505619016  0.9192104241932832  0.8597881676738380
  0.5868075221091833  0.2538908667222859  0.3523555341537257
  0.5843661196160754  0.2508349436244168  0.8615373910339383
  0.5895741148787178  0.5889976597604695  0.3510726239898692
  0.5840586233364963  0.5875567103802989  0.8616043041131195
  0.5864722786730757  0.9276950658456118  0.3522407164868407
  0.5842468865054795  0.9191488296679611  0.8590037342317296
  0.9222777914652933  0.2565356502489204  0.3505916290405686
  0.9209989281196563  0.2506619721427833  0.8615747726479240
  0.9213039161280473  0.5881113059974540  0.3499412104690998
  0.9186146271404680  0.5847833109367867  0.8627836498173410
  0.9191293780173967  0.9214924150318218  0.3575003022721353
  0.9178542847761288  0.9177057557008060  0.8630606930523357
  0.0814125626776067  0.0802281263875628  0.1398629308370765
  0.0781371809636385  0.0737127499646274  0.6463279759032470
  0.0838444669154157  0.4136160456560242  0.1358451706423947
  0.0780636116556027  0.4131377844625973  0.6457514468173572
  0.0804841580961915  0.7479333857175015  0.1396142697453343
  0.0779904562347883  0.7445570736411166  0.6449451858651675
  0.4140832589878172  0.0807674492068217  0.1373165806202589
  0.4125887071747812  0.0788206678678458  0.6395623774891090
  0.4139986077624919  0.4167906464941196  0.1368342152119391
  0.4089855379251740  0.4134975890214766  0.6453368502775344
  0.4127436877648292  0.7486488611922241  0.1403628427894561
  0.4072650430180236  0.7446659571401671  0.6460827289766091
  0.7494453323625661  0.0808872129503548  0.1369289807088002
  0.7473572491894382  0.0751379277700141  0.6454343156666212
  0.7468968480515796  0.4143587786635824  0.1361572537262377
  0.7419976141946981  0.4087036580362128  0.6595555113608877
  0.7462301133875991  0.7506319185640247  0.1363137200182885
  0.7467122731384220  0.7446413003635109  0.6457416428721151
 
             NaN             NaN             NaN
             NaN             NaN             NaN
             NaN             NaN             NaN
             NaN             NaN             NaN
             NaN             NaN             NaN
             NaN             NaN             NaN
             NaN             NaN             NaN
             NaN             NaN             NaN
             NaN             NaN             NaN
             NaN             NaN             NaN
             NaN             NaN             NaN
             NaN             NaN             NaN
             NaN             NaN             NaN
             NaN             NaN             NaN
             NaN             NaN             NaN
             NaN             NaN             NaN
             NaN             NaN             NaN
             NaN             NaN             NaN
             NaN             NaN             NaN
             NaN             NaN             NaN
             NaN             NaN             NaN
             NaN             NaN             NaN
             NaN             NaN             NaN
             NaN             NaN             NaN
             NaN             NaN             NaN
             NaN             NaN             NaN
             NaN             NaN             NaN
             NaN             NaN             NaN
             NaN             NaN             NaN
             NaN             NaN             NaN
             NaN             NaN             NaN
             NaN             NaN             NaN
             NaN             NaN             NaN
             NaN             NaN             NaN
             NaN             NaN             NaN
             NaN             NaN             NaN
             NaN             NaN             NaN
             NaN             NaN             NaN
             NaN             NaN             NaN
             NaN             NaN             NaN
             NaN             NaN             NaN
             NaN             NaN             NaN
             NaN             NaN             NaN
             NaN             NaN             NaN
             NaN             NaN             NaN
             NaN             NaN             NaN
             NaN             NaN             NaN
             NaN             NaN             NaN
             NaN             NaN             NaN
             NaN             NaN             NaN
             NaN             NaN             NaN
             NaN             NaN             NaN
             NaN             NaN             NaN
             NaN             NaN             NaN
             NaN             NaN             NaN
             NaN             NaN             NaN
             NaN             NaN             NaN
             NaN             NaN             NaN
             NaN             NaN             NaN
             NaN             NaN             NaN
             NaN             NaN             NaN
             NaN             NaN             NaN
             NaN             NaN             NaN
             NaN             NaN             NaN
             NaN             NaN             NaN
             NaN             NaN             NaN
             NaN             NaN             NaN
             NaN             NaN             NaN
             NaN             NaN             NaN
             NaN             NaN             NaN
