Na47 P16 S64
1.0
13.674689 -0.000002 -0.000005
-0.000031 13.674695 -0.000350
-0.000167 0.000129 14.100789
Na P S
47 16 64
direct
0.527219 0.746494 0.719209 Na
0.999779 0.250728 0.206269 Na
0.998733 0.250560 0.706016 Na
0.999137 0.750763 0.211061 Na
0.972803 0.753506 0.719200 Na
0.500226 0.249275 0.206265 Na
0.501262 0.249445 0.706021 Na
0.500872 0.749248 0.211062 Na
0.249269 0.999787 0.293730 Na
0.249439 0.998732 0.793985 Na
0.250719 0.500226 0.293732 Na
0.250551 0.501262 0.793987 Na
0.749245 0.999126 0.288941 Na
0.746495 0.972796 0.780795 Na
0.750736 0.500876 0.288934 Na
0.753511 0.527219 0.780792 Na
0.252419 0.999745 0.043959 Na
0.245341 0.997939 0.545174 Na
0.247579 0.500249 0.043958 Na
0.254662 0.502059 0.545171 Na
0.752647 0.999733 0.036531 Na
0.744810 0.999882 0.537372 Na
0.747348 0.500255 0.036528 Na
0.755190 0.500113 0.537373 Na
0.500259 0.252434 0.456043 Na
0.502054 0.245341 0.954830 Na
0.500268 0.752648 0.463469 Na
0.500112 0.744805 0.962626 Na
0.999733 0.247588 0.456041 Na
0.997939 0.254663 0.954835 Na
0.999746 0.747357 0.463466 Na
0.999883 0.755193 0.962634 Na
0.995293 0.996159 0.502127 Na
0.006074 0.010135 0.001538 Na
0.010129 0.493936 0.498465 Na
0.996145 0.504713 0.997867 Na
0.489873 0.006074 0.498470 Na
0.503861 0.995282 0.997874 Na
0.504709 0.503871 0.502128 Na
0.493926 0.489883 0.001534 Na
0.250011 0.250026 0.249998 Na
0.249988 0.249994 0.749999 Na
0.250018 0.750004 0.250969 Na
0.250027 0.749987 0.749635 Na
0.750003 0.249983 0.249026 Na
0.750004 0.250004 0.750361 Na
0.749992 0.749987 0.250006 Na
0.499896 0.499307 0.250143 P
0.500262 0.497257 0.753183 P
0.499318 0.000084 0.249851 P
0.497264 0.999730 0.746811 P
0.000681 0.499900 0.249861 P
0.002733 0.500263 0.746817 P
0.000085 0.000674 0.250145 P
0.999730 0.002733 0.753191 P
0.249997 0.250003 0.000055 P
0.249987 0.250003 0.499942 P
0.250000 0.750004 0.001418 P
0.249997 0.750003 0.500579 P
0.749993 0.250005 0.999418 P
0.749990 0.250005 0.498579 P
0.749991 0.749994 0.002732 P
0.750006 0.749993 0.497272 P
0.153208 0.174146 0.082879 S
0.152988 0.174272 0.582223 S
0.152554 0.675181 0.084314 S
0.153797 0.674291 0.583197 S
0.654256 0.172984 0.082828 S
0.652676 0.175185 0.581213 S
0.654608 0.672722 0.086398 S
0.654467 0.670889 0.577466 S
0.346796 0.325862 0.082878 S
0.346994 0.325721 0.582239 S
0.347448 0.824829 0.084320 S
0.346213 0.825710 0.583205 S
0.845746 0.327014 0.082840 S
0.847319 0.324818 0.581219 S
0.845376 0.827269 0.086405 S
0.845559 0.829112 0.577462 S
0.174140 0.346798 0.417119 S
0.174273 0.346998 0.917771 S
0.172990 0.845739 0.417153 S
0.175184 0.847313 0.918778 S
0.675167 0.347436 0.415676 S
0.674284 0.346201 0.916802 S
0.672735 0.845378 0.413611 S
0.670888 0.845536 0.922532 S
0.325856 0.153208 0.417121 S
0.325730 0.152997 0.917769 S
0.327021 0.654256 0.417166 S
0.324824 0.652671 0.918789 S
0.824822 0.152549 0.415678 S
0.825716 0.153792 0.916796 S
0.827278 0.654610 0.413601 S
0.829114 0.654442 0.922542 S
0.097048 0.424118 0.166736 S
0.102518 0.421388 0.669941 S
0.096939 0.924711 0.167570 S
0.092543 0.921174 0.671218 S
0.596064 0.423326 0.166896 S
0.598402 0.424941 0.669034 S
0.595434 0.924160 0.167028 S
0.588308 0.926350 0.656978 S
0.402956 0.075886 0.166738 S
0.397482 0.078622 0.669946 S
0.403054 0.575283 0.167566 S
0.407453 0.578823 0.671220 S
0.903922 0.076664 0.166903 S
0.901592 0.075061 0.669042 S
0.904562 0.575831 0.167045 S
0.911696 0.573650 0.656981 S
0.075888 0.097050 0.333258 S
0.078620 0.102522 0.830061 S
0.076671 0.596075 0.333102 S
0.075059 0.598407 0.830971 S
0.575286 0.096948 0.332426 S
0.578833 0.092546 0.828784 S
0.575833 0.595436 0.332962 S
0.573647 0.588309 0.843022 S
0.424111 0.402963 0.333263 S
0.421386 0.397489 0.830064 S
0.423341 0.903924 0.333095 S
0.424940 0.901594 0.830950 S
0.924719 0.403055 0.332433 S
0.921174 0.407456 0.828780 S
0.924168 0.904569 0.332969 S
0.926354 0.911697 0.843020 S
