Mg7 Sc16 Se32                           
   1.00000000000000     
    11.1287079999999996   -0.0000100000000000   -0.0000190000000000
    -0.0000100000000000   11.1287109999999991   -0.0000300000000000
    -0.0000190000000000   -0.0000060000000000   11.1288760000000000
   Mg   Sc   Se
     7    16    32
Direct
  0.4333567970614889  0.4333558066346166  0.4333491990341747
  0.6254549632578627  0.1267375537948434  0.1267386765846282
  0.1267379436135541  0.6254558374281503  0.1267397053686450
  0.1267398472832895  0.1267382936577523  0.6254553639673490
  0.3762004232960131  0.8732247066173339  0.8732268697235362
  0.8732250945610065  0.3762015152111837  0.8732267310110212
  0.8732253975114658  0.8732241922112972  0.3762000750786352
  0.9938462403976410  0.7499606781075550  0.7499600276075251
  0.7499620558956720  0.9938443665242880  0.7499615178835539
  0.7499631174332106  0.7499585616484299  0.9938446624818246
  1.0001096032777197  1.0001067368457377  1.0001066599065469
  0.0062367337153631  0.2503321518580220  0.2503290247544185
  0.2503343718369153  0.0062355674993103  0.2503284501656642
  0.2503367645095658  0.2503340990546248  0.0062368054594327
  0.7500701202342056  0.5002645907355877  0.2536682792066581
  0.7500688046190281  0.2536606144558811  0.5002615350566436
  0.9883742093661135  0.5003533265861738  0.5003587385581041
  0.2536675635258728  0.5002654305288085  0.7500670508306746
  0.2536660111084825  0.7500645022580075  0.5002621056796106
  0.5002667160762473  0.7500642360907371  0.2536639623518041
  0.5003572506599322  0.9883796258376432  0.5003570184080489
  0.5002657647393651  0.2536627895293257  0.7500668629377797
  0.5003632430030203  0.5003594639173009  0.9883742096665753
  0.7575873212082435  0.9937739225666228  0.9937757271180588
  0.9937719943717240  0.7575906535862467  0.9937793077406351
  0.9937727607998890  0.9937738034242675  0.7575867163332574
  0.7559651325773092  0.7559624267617389  0.7559735155549329
  0.2436164403995832  0.0070227353262089  0.0070168844852964
  0.0070185981192726  0.2436184702888954  0.0070188916689579
  0.0070196725765278  0.0070217965999605  0.2436214801855027
  0.2460080115483031  0.2460100027977409  0.2459987622379226
  0.7498206183452993  0.4931943666043916  0.4931890010566437
  0.9927125112661778  0.2574152879994136  0.4936792471127035
  0.9927106632483850  0.4936763353865182  0.2574129528661660
  0.7604998093089145  0.2567766673037306  0.2567786149556911
  0.2353774691472168  0.5071551541003037  0.5071539984283100
  0.0079750482094623  0.7430577942032933  0.5069327383534193
  0.0079751065630849  0.5069312025135223  0.7430559217481116
  0.2398952209926533  0.7436082729423145  0.7436112791163774
  0.2574136118978416  0.9927139518065760  0.4936783884677103
  0.4931960611057193  0.7498165534217887  0.4931865078565290
  0.4936750393064078  0.9927131407942310  0.2574129060089235
  0.2567749244752866  0.7605031659662648  0.2567783099431662
  0.7430540889529471  0.0079749860362932  0.5069315435547050
  0.5071522013266517  0.2353762162493398  0.5071539272075202
  0.5069280814069597  0.0079752410802530  0.7430563424216978
  0.7436055431800053  0.2398949356104035  0.7436123544897008
  0.2574159392629999  0.4936782610254488  0.9927173971431135
  0.4936741872313177  0.2574183417586137  0.9927195581352738
  0.4931976709566321  0.4931983210288611  0.7498299561445798
  0.2567778445572980  0.2567795325668462  0.7604999513791496
  0.7430543526356737  0.5069334195368435  0.0079746109853153
  0.5069312683293397  0.7430553477030503  0.0079740786475853
  0.5071528325331057  0.5071547035379532  0.2353706695473982
  0.7436054911256604  0.7436054938828367  0.2398983801946356
 
             NaN             NaN             NaN
             NaN             NaN             NaN
             NaN             NaN             NaN
             NaN             NaN             NaN
             NaN             NaN             NaN
             NaN             NaN             NaN
             NaN             NaN             NaN
             NaN             NaN             NaN
             NaN             NaN             NaN
             NaN             NaN             NaN
             NaN             NaN             NaN
             NaN             NaN             NaN
             NaN             NaN             NaN
             NaN             NaN             NaN
             NaN             NaN             NaN
             NaN             NaN             NaN
             NaN             NaN             NaN
             NaN             NaN             NaN
             NaN             NaN             NaN
             NaN             NaN             NaN
             NaN             NaN             NaN
             NaN             NaN             NaN
             NaN             NaN             NaN
             NaN             NaN             NaN
             NaN             NaN             NaN
             NaN             NaN             NaN
             NaN             NaN             NaN
             NaN             NaN             NaN
             NaN             NaN             NaN
             NaN             NaN             NaN
             NaN             NaN             NaN
             NaN             NaN             NaN
             NaN             NaN             NaN
             NaN             NaN             NaN
             NaN             NaN             NaN
             NaN             NaN             NaN
             NaN             NaN             NaN
             NaN             NaN             NaN
             NaN             NaN             NaN
             NaN             NaN             NaN
             NaN             NaN             NaN
             NaN             NaN             NaN
             NaN             NaN             NaN
             NaN             NaN             NaN
             NaN             NaN             NaN
             NaN             NaN             NaN
             NaN             NaN             NaN
             NaN             NaN             NaN
             NaN             NaN             NaN
             NaN             NaN             NaN
             NaN             NaN             NaN
             NaN             NaN             NaN
             NaN             NaN             NaN
             NaN             NaN             NaN
             NaN             NaN             NaN
