Li47 P16 O64
1.0
10.425485 0.001275 0.001788
0.001470 12.169350 0.002929
0.001667 0.002353 9.795261
Li P O
47 16 64
direct
0.325251 0.329925 0.121440 Li
0.661703 0.251555 0.098133 Li
0.664780 0.249610 0.597924 Li
0.664714 0.750150 0.098065 Li
0.664193 0.750957 0.597812 Li
0.164726 0.495141 0.153419 Li
0.164243 0.501244 0.651958 Li
0.164997 0.000339 0.150995 Li
0.164025 -0.000165 0.652471 Li
0.335922 0.001035 0.402044 Li
0.336093 0.000977 0.902019 Li
0.336631 0.500073 0.401253 Li
0.335317 0.499672 0.903934 Li
0.836530 0.248276 0.348649 Li
0.834813 0.249050 0.847695 Li
0.836402 0.749041 0.347962 Li
0.836367 0.749112 0.847961 Li
0.336822 0.249790 0.399067 Li
0.334391 0.250685 0.905389 Li
0.335928 0.749257 0.401816 Li
0.335812 0.749199 0.902365 Li
0.836471 0.001078 0.348259 Li
0.836156 0.000867 0.847267 Li
0.836615 0.500911 0.347450 Li
0.835064 0.501496 0.848197 Li
0.662170 0.498384 0.097681 Li
0.664987 0.500468 0.598132 Li
0.664263 0.996471 0.096116 Li
0.664388 0.998571 0.598239 Li
0.163708 0.251097 0.648258 Li
0.163786 0.750760 0.152374 Li
0.164302 0.751914 0.651896 Li
0.925229 0.372321 0.150444 Li
0.920015 0.375682 0.648732 Li
0.923778 0.874568 0.148800 Li
0.923976 0.875439 0.648718 Li
0.423452 0.374998 0.605256 Li
0.425141 0.874654 0.100782 Li
0.423441 0.875174 0.601015 Li
0.078486 0.127931 0.345697 Li
0.076864 0.126306 0.853775 Li
0.077119 0.624556 0.351025 Li
0.076714 0.625555 0.851060 Li
0.577327 0.124669 0.399508 Li
0.575986 0.124554 0.898187 Li
0.576528 0.624823 0.399094 Li
0.575409 0.624829 0.898706 Li
0.909913 0.124132 0.095326 P
0.912506 0.124681 0.595248 P
0.912184 0.624078 0.095463 P
0.912064 0.626052 0.595218 P
0.413538 0.123091 0.154597 P
0.411853 0.125077 0.654930 P
0.411315 0.626425 0.154677 P
0.411609 0.625240 0.654755 P
0.087528 0.375109 0.408054 P
0.086202 0.376160 0.902461 P
0.088427 0.875444 0.404513 P
0.088321 0.875261 0.904982 P
0.589713 0.375084 0.346927 P
0.587616 0.375136 0.842967 P
0.588562 0.874679 0.345439 P
0.588238 0.874495 0.844871 P
0.839058 0.020351 0.146066 O
0.841855 0.021234 0.646614 O
0.841224 0.520888 0.146738 O
0.841341 0.523276 0.647796 O
0.346266 0.224770 0.098809 O
0.342542 0.228529 0.602353 O
0.342414 0.731165 0.104693 O
0.341611 0.728749 0.602811 O
0.158492 0.270130 0.366533 O
0.156959 0.272993 0.851220 O
0.158298 0.771569 0.353423 O
0.158807 0.772013 0.853009 O
0.659671 0.478618 0.398913 O
0.656764 0.478296 0.896724 O
0.658887 0.977949 0.397253 O
0.658588 0.977951 0.896084 O
0.158692 0.477284 0.354280 O
0.157201 0.479296 0.850445 O
0.158879 0.978477 0.352310 O
0.158536 0.978856 0.853804 O
0.659373 0.271324 0.398822 O
0.656026 0.271596 0.897195 O
0.658640 0.771144 0.397134 O
0.658543 0.771183 0.896883 O
0.839785 0.227269 0.147881 O
0.841421 0.227806 0.646776 O
0.842108 0.727782 0.147115 O
0.841743 0.729698 0.646176 O
0.343818 0.019135 0.104062 O
0.341622 0.021696 0.602995 O
0.338023 0.526118 0.100927 O
0.341768 0.521974 0.602245 O
0.553234 0.122213 0.103367 O
0.551273 0.124448 0.603483 O
0.550212 0.625388 0.102167 O
0.550910 0.625302 0.603190 O
0.047622 0.121214 0.148326 O
0.050856 0.125077 0.648883 O
0.051110 0.623904 0.147879 O
0.051022 0.626632 0.647223 O
0.450760 0.375218 0.398994 O
0.446716 0.375511 0.886090 O
0.449457 0.874930 0.397343 O
0.449276 0.874763 0.897099 O
0.949329 0.374236 0.353552 O
0.947330 0.375344 0.849228 O
0.949331 0.875232 0.352403 O
0.949357 0.875120 0.852660 O
0.592095 0.375228 0.190192 O
0.593738 0.374977 0.685688 O
0.589732 0.874239 0.188024 O
0.588879 0.874431 0.687548 O
0.084869 0.378107 0.058752 O
0.085453 0.378883 0.565526 O
0.089024 0.874821 0.062318 O
0.089243 0.875829 0.561953 O
0.412380 0.124427 0.311849 O
0.410308 0.125232 0.812252 O
0.411152 0.624999 0.312069 O
0.410108 0.625051 0.812080 O
0.912416 0.124676 0.437942 O
0.909111 0.125178 0.937893 O
0.911419 0.625062 0.437796 O
0.911376 0.624783 0.937967 O
