Mg15 Mn32 O64
1.0
11.498085 -0.000015 -0.001292
-0.000014 11.514598 0.000000
-0.000255 0.000003 9.172341
Mg Mn O
15 32 64
direct
0.499886 0.748116 0.745408 Mg
0.499886 0.251884 0.745406 Mg
0.999903 0.249788 0.749798 Mg
0.999903 0.750213 0.749797 Mg
0.500133 0.000000 0.499910 Mg
0.000185 -0.000000 0.497585 Mg
0.999639 0.500000 0.502227 Mg
0.251180 1.000000 0.252574 Mg
0.254959 0.500000 0.248870 Mg
0.750244 0.000000 0.252020 Mg
0.743742 0.500000 0.249810 Mg
0.248505 0.247432 0.000573 Mg
0.248506 0.752567 0.000571 Mg
0.751526 0.247297 0.001051 Mg
0.751527 0.752705 0.001051 Mg
0.125115 0.251945 0.375722 Mn
0.125115 0.748055 0.375723 Mn
0.622128 0.250533 0.374551 Mn
0.622128 0.749467 0.374551 Mn
0.375989 0.251624 0.373129 Mn
0.375989 0.748376 0.373128 Mn
0.873814 0.251762 0.375276 Mn
0.873815 0.748238 0.375275 Mn
0.127088 0.000000 0.875218 Mn
0.123772 0.500000 0.878141 Mn
0.627174 -0.000000 0.873791 Mn
0.625623 0.500000 0.874377 Mn
0.377034 -0.000000 0.872110 Mn
0.373398 0.499997 0.874263 Mn
0.877610 0.000000 0.874850 Mn
0.874079 0.500000 0.878675 Mn
0.001080 0.124941 0.126846 Mn
0.999537 0.624364 0.128610 Mn
0.500201 0.123706 0.123823 Mn
0.499886 0.628011 0.119876 Mn
0.999537 0.375638 0.128610 Mn
0.001080 0.875059 0.126845 Mn
0.499886 0.371989 0.119877 Mn
0.500201 0.876293 0.123823 Mn
0.251832 0.375514 0.626473 Mn
0.248650 0.874860 0.623781 Mn
0.747806 0.375470 0.626425 Mn
0.751656 0.874950 0.624148 Mn
0.248649 0.125141 0.623781 Mn
0.251833 0.624485 0.626475 Mn
0.751656 0.125051 0.624148 Mn
0.747806 0.624531 0.626425 Mn
0.136857 0.251473 0.621292 O
0.136859 0.748526 0.621292 O
0.637911 0.249658 0.621291 O
0.637910 0.750345 0.621293 O
0.361850 0.249986 0.621030 O
0.361850 0.750015 0.621031 O
0.862940 0.251555 0.621198 O
0.862940 0.748446 0.621197 O
0.138334 0.500000 0.631497 O
0.136011 1.000000 0.628794 O
0.638066 0.500000 0.669749 O
0.638623 0.000000 0.628178 O
0.361355 0.499999 0.669692 O
0.361929 0.000000 0.627812 O
0.860953 0.500000 0.631464 O
0.864720 0.000000 0.628973 O
0.501656 0.113303 0.875585 O
0.499527 0.609751 0.876062 O
0.001972 0.113367 0.880000 O
0.999011 0.612720 0.879918 O
0.499528 0.390247 0.876062 O
0.501654 0.886698 0.875586 O
0.999010 0.387280 0.879919 O
0.001971 0.886634 0.880000 O
0.499397 0.358204 0.351098 O
0.499062 0.864920 0.369038 O
0.999287 0.364071 0.371928 O
0.999790 0.861589 0.370976 O
0.499061 0.135080 0.369038 O
0.499397 0.641796 0.351098 O
0.999789 0.138411 0.370977 O
0.999286 0.635929 0.371927 O
0.385135 0.499999 0.095522 O
0.386868 0.999999 0.119254 O
0.885459 0.500000 0.123342 O
0.887948 1.000000 0.121952 O
0.114356 0.000001 0.121935 O
0.113074 0.500001 0.123073 O
0.614133 1.000000 0.119539 O
0.614163 0.500000 0.095616 O
0.386909 0.248570 0.123367 O
0.386909 0.751428 0.123366 O
0.887491 0.250146 0.130114 O
0.887492 0.749853 0.130113 O
0.112900 0.250838 0.130213 O
0.112902 0.749164 0.130213 O
0.612920 0.248557 0.123585 O
0.612920 0.751443 0.123583 O
0.249969 0.365523 0.381163 O
0.248949 0.861557 0.379403 O
0.748252 0.364886 0.381299 O
0.750306 0.861949 0.379561 O
0.248948 0.138442 0.379404 O
0.249968 0.634476 0.381164 O
0.750306 0.138051 0.379562 O
0.748251 0.635114 0.381299 O
0.251121 0.112906 0.869532 O
0.251335 0.611416 0.878126 O
0.752499 0.112810 0.869942 O
0.747097 0.611562 0.878388 O
0.251333 0.388580 0.878125 O
0.251121 0.887095 0.869532 O
0.747096 0.388439 0.878388 O
0.752498 0.887191 0.869942 O
