Li46 P16 O64                            
   1.00000000000000     
    10.4258369999999996    0.0125890000000000   -0.0009330000000000
     0.0139040000000000   12.1761700000000008    0.0042690000000000
    -0.0012180000000000    0.0031680000000000    9.8073549999999994
   Li   P    O 
    46    16    64
Direct
  0.5083752308019392  0.3001924396063472  0.0691211260739557
  0.6632036441384443  0.2497602357208285  0.6012003527224119
  0.6650391751407292  0.7499625920934835  0.0982213367129369
  0.6640634116592722  0.7513143345610814  0.5981624130036234
  0.1687748892604674  0.4900148354875176  0.1545212411001330
  0.1647426473175760  0.5016278006856147  0.6522483978853130
  0.1672658878719955  0.9935123541963287  0.1552672461714091
  0.1632863678799993  0.9985861723077823  0.6526301630450061
  0.3349687391723964  0.9993836790833043  0.4053757920978879
  0.3357608597994544  0.0001637937459224  0.9010367105405138
  0.3373503208602542  0.4998829369947820  0.3986403818431646
  0.3369715170523072  0.4964465552565209  0.9101194140740135
  0.8344019800375475  0.2486373164933253  0.3499789371939707
  0.8335462801596107  0.2497449602912220  0.8516575020565691
  0.8365450554478062  0.7484147769977856  0.3482711708180459
  0.8363767007903536  0.7484554196206461  0.8478244733669003
  0.3358087531663573  0.2505809086808248  0.3947170538892160
  0.3277088089863164  0.2505950917415752  0.9030088949865135
  0.3359594298187462  0.7489682565426997  0.4024661610804046
  0.3360193350270528  0.7483160803156221  0.9032028967374620
  0.8356475888695994  0.0007419512295552  0.3505813798222240
  0.8350253136697567  0.0002844418399751  0.8459671256010373
  0.8346643737006857  0.5017128209168280  0.3477525839297320
  0.8346674884546371  0.5023806780174622  0.8477694398704435
  0.6629700471365181  0.4974397591609563  0.0956931792678825
  0.6641866566736316  0.5026515808825949  0.6000176097834098
  0.6634239203228884  0.9984782059963755  0.0963124215455553
  0.6633342982063926  0.9991871760300135  0.5977486287236172
  0.1616144387004781  0.2501594075210138  0.6463597130032396
  0.1643536693882374  0.7489400554360406  0.1521708138083492
  0.1637492568383877  0.7511865416258334  0.6530661456790297
  0.9242914784834527  0.3752749054143532  0.1501802334365730
  0.9175780496500695  0.3757683653378337  0.6495457335326977
  0.9229965298028168  0.8731513456084942  0.1498566413364364
  0.9231154421887378  0.8750714312190203  0.6488170653587686
  0.4210189804611870  0.3754456904197647  0.6010266176545398
  0.4268083290458629  0.8737141008653057  0.0997314449364749
  0.4237720471923046  0.8747309234679909  0.6024287719490733
  0.0790510900026156  0.1264216489554535  0.3465966256176721
  0.0764958078645032  0.1254653340786948  0.8531441220144953
  0.0774258681505928  0.6227109080732461  0.3502873830961065
  0.0775677345964888  0.6244506504806401  0.8520857765833297
  0.5764577567434280  0.1262375249132388  0.3975284029479180
  0.5795076512379296  0.1253967863471511  0.9000906812432095
  0.5763840542814933  0.6252879971531841  0.4007569060747683
  0.5743669842016740  0.6245932056021745  0.8986051148505247
  0.9117922382097554  0.1211902849437735  0.0954858333606742
  0.9116928380526177  0.1243680800470991  0.5955358587426046
  0.9128634624051244  0.6238160325358365  0.0957049859481736
  0.9121590815549523  0.6260003347643192  0.5954593869261675
  0.4089513572581372  0.1178029287451344  0.1548165125207539
  0.4109949168082400  0.1251604922730816  0.6552515528579852
  0.4117277995268662  0.6274945322826477  0.1546838426900111
  0.4106045753553711  0.6253459462912098  0.6551779457253339
  0.0862672204121309  0.3745254277132933  0.4097555275304097
  0.0843137140801216  0.3763112919754004  0.9018162808130239
  0.0877365900496025  0.8738502963401168  0.4051621708347755
  0.0875632212535697  0.8745516084440538  0.9051490896115180
  0.5903771624395360  0.3767990487862464  0.3506222601254548
  0.5879721663834930  0.3755485778883261  0.8386009029211432
  0.5886135871532655  0.8749136032303696  0.3457796955426444
  0.5887121859087754  0.8742924148869344  0.8449081633222806
  0.8373453693122258  0.0209026973052537  0.1478015739168524
  0.8409406408729176  0.0210096052704454  0.6465566298268844
  0.8407764939360063  0.5216835640593138  0.1472843682338376
  0.8409776967254048  0.5238634451248434  0.6481937260780266
  0.3483199879218755  0.2223768083322163  0.0965117026900151
  0.3408444479625078  0.2283822777658895  0.6026659424586379
  0.3440003362328357  0.7339041348235412  0.1065326762049739
  0.3406047155334356  0.7294334877963563  0.6043661944194899
  0.1553956698039971  0.2674500813101315  0.3735642417258735
  0.1531754584679972  0.2721715865715646  0.8505383365902547
  0.1574127259208569  0.7701101548734671  0.3536475295179219
  0.1582306536827424  0.7711589905564894  0.8542052391105703
  0.6598644992583566  0.4796392126576305  0.4047399867200533
  0.6569657248418104  0.4785420386009094  0.8927536961770326
  0.6581836652765565  0.9784049114320953  0.3975752855786990
  0.6589332352477150  0.9773472193017875  0.8970605912554011
  0.1588280017442597  0.4750269683084634  0.3548239205247180
  0.1578323314455639  0.4778325468945147  0.8494482594692960
  0.1587951080379921  0.9766857144161866  0.3539842871556111
  0.1577180374976272  0.9778255474732217  0.8538442524629946
  0.6592015668848636  0.2724538701808211  0.4023204592580844
  0.6556329966707730  0.2709958149480131  0.8887062588276640
  0.6592483777673929  0.7715056301757482  0.3972276756392860
  0.6587990298295044  0.7707287281577755  0.8966089481532126
  0.8563786787804578  0.2279164185691025  0.1538274861072759
  0.8410653965437850  0.2274710332923726  0.6476496018329263
  0.8432560366133669  0.7279373295319700  0.1472137888634536
  0.8418094476501049  0.7298886359794636  0.6458340758364017
  0.3400778452441572  0.0142712546155896  0.1045109588272744
  0.3408784120530250  0.0214201149911744  0.6043970208710826
  0.3357555080414799  0.5302241190340345  0.1003908975666685
  0.3411427684345810  0.5228742452966474  0.6004846385600685
  0.5478355049168078  0.1208126772585123  0.1019899089065756
  0.5498689753386492  0.1246592338869706  0.6025466064736730
  0.5504952333069457  0.6258315281294228  0.1015245624720152
  0.5500569740919570  0.6268847514424452  0.6043892537620450
  0.0496412837377003  0.1138546346469788  0.1483681295778918
  0.0500571399321516  0.1239328196445143  0.6493681609630522
  0.0517788167952062  0.6223799093660628  0.1480450631209760
  0.0508490897994096  0.6263410464941784  0.6482233238294752
  0.4510204442182804  0.3751342269907471  0.4014164516917833
  0.4496546271747619  0.3720211611596514  0.8924139105812239
  0.4497203064360215  0.8745348984371409  0.3981596120756917
  0.4495638812948554  0.8743870822629988  0.8963614298514746
  0.9481921583716224  0.3743666624309397  0.3546184244162769
  0.9457412438521601  0.3762906622744447  0.8478272067470598
  0.9488156035893048  0.8749022678176963  0.3524475575715985
  0.9486543214117383  0.8747949401576098  0.8526570595368335
  0.5949068867706838  0.3796601917463717  0.1953953740001846
  0.5885055472393386  0.3778558626841067  0.6818561076744639
  0.5902749870186542  0.8750305424457224  0.1884656890318355
  0.5897928661448979  0.8750400444903143  0.6877955709487318
  0.0819064011235249  0.3797532900265664  0.0571474495576183
  0.0830581946788622  0.3802171094970892  0.5670303911760503
  0.0874802614721139  0.8739450585314678  0.0624561365253929
  0.0881570236611409  0.8743175992983648  0.5623250763127038
  0.4081600197325839  0.1210481453599447  0.3116250095206552
  0.4102584041060252  0.1254714221284114  0.8124511515890779
  0.4124532711965519  0.6256291225508265  0.3121413596702879
  0.4085160470758689  0.6232528375525518  0.8123362720643269
  0.9118535581598344  0.1244357013090854  0.4384654878988600
  0.9087913750083526  0.1235408872123175  0.9391552316287599
  0.9120926665290572  0.6246423351587503  0.4381919377868493
  0.9119398474377790  0.6245282937959149  0.9383833785716362
 
             NaN             NaN             NaN
             NaN             NaN             NaN
             NaN             NaN             NaN
             NaN             NaN             NaN
             NaN             NaN             NaN
             NaN             NaN             NaN
             NaN             NaN             NaN
             NaN             NaN             NaN
             NaN             NaN             NaN
             NaN             NaN             NaN
             NaN             NaN             NaN
             NaN             NaN             NaN
             NaN             NaN             NaN
             NaN             NaN             NaN
             NaN             NaN             NaN
             NaN             NaN             NaN
             NaN             NaN             NaN
             NaN             NaN             NaN
             NaN             NaN             NaN
             NaN             NaN             NaN
             NaN             NaN             NaN
             NaN             NaN             NaN
             NaN             NaN             NaN
             NaN             NaN             NaN
             NaN             NaN             NaN
             NaN             NaN             NaN
             NaN             NaN             NaN
             NaN             NaN             NaN
             NaN             NaN             NaN
             NaN             NaN             NaN
             NaN             NaN             NaN
             NaN             NaN             NaN
             NaN             NaN             NaN
             NaN             NaN             NaN
             NaN             NaN             NaN
             NaN             NaN             NaN
             NaN             NaN             NaN
             NaN             NaN             NaN
             NaN             NaN             NaN
             NaN             NaN             NaN
             NaN             NaN             NaN
             NaN             NaN             NaN
             NaN             NaN             NaN
             NaN             NaN             NaN
             NaN             NaN             NaN
             NaN             NaN             NaN
             NaN             NaN             NaN
             NaN             NaN             NaN
             NaN             NaN             NaN
             NaN             NaN             NaN
             NaN             NaN             NaN
             NaN             NaN             NaN
             NaN             NaN             NaN
             NaN             NaN             NaN
             NaN             NaN             NaN
             NaN             NaN             NaN
             NaN             NaN             NaN
             NaN             NaN             NaN
             NaN             NaN             NaN
             NaN             NaN             NaN
             NaN             NaN             NaN
             NaN             NaN             NaN
             NaN             NaN             NaN
             NaN             NaN             NaN
             NaN             NaN             NaN
             NaN             NaN             NaN
             NaN             NaN             NaN
             NaN             NaN             NaN
             NaN             NaN             NaN
             NaN             NaN             NaN
             NaN             NaN             NaN
             NaN             NaN             NaN
             NaN             NaN             NaN
             NaN             NaN             NaN
             NaN             NaN             NaN
             NaN             NaN             NaN
             NaN             NaN             NaN
             NaN             NaN             NaN
             NaN             NaN             NaN
             NaN             NaN             NaN
             NaN             NaN             NaN
             NaN             NaN             NaN
             NaN             NaN             NaN
             NaN             NaN             NaN
             NaN             NaN             NaN
             NaN             NaN             NaN
             NaN             NaN             NaN
             NaN             NaN             NaN
             NaN             NaN             NaN
             NaN             NaN             NaN
             NaN             NaN             NaN
             NaN             NaN             NaN
             NaN             NaN             NaN
             NaN             NaN             NaN
             NaN             NaN             NaN
             NaN             NaN             NaN
             NaN             NaN             NaN
             NaN             NaN             NaN
             NaN             NaN             NaN
             NaN             NaN             NaN
             NaN             NaN             NaN
             NaN             NaN             NaN
             NaN             NaN             NaN
             NaN             NaN             NaN
             NaN             NaN             NaN
             NaN             NaN             NaN
             NaN             NaN             NaN
             NaN             NaN             NaN
             NaN             NaN             NaN
             NaN             NaN             NaN
             NaN             NaN             NaN
             NaN             NaN             NaN
             NaN             NaN             NaN
             NaN             NaN             NaN
             NaN             NaN             NaN
             NaN             NaN             NaN
             NaN             NaN             NaN
             NaN             NaN             NaN
             NaN             NaN             NaN
             NaN             NaN             NaN
             NaN             NaN             NaN
             NaN             NaN             NaN
             NaN             NaN             NaN
             NaN             NaN             NaN
             NaN             NaN             NaN
             NaN             NaN             NaN
