Na15 V32 O64                            
   1.00000000000000     
     9.2152910000000006    0.0000950000000000   -0.0023040000000000
     0.0001190000000000   11.5239639999999994    0.0000090000000000
    -0.0026720000000000    0.0000090000000000   10.7091729999999998
   Na   V    O 
    15    32    64
Direct
  0.7364708728299411  0.4374315391240201  0.1683698557113285
  0.7415609240922110  0.0752525634898108  0.1521637737516551
  0.7415654809817748  0.7997996709142273  0.1521450210987485
  0.2416485661432972  0.0624037291313925  0.3482547286554412
  0.2419052573235557  0.3131674939219665  0.3478041734241314
  0.2419021672029147  0.5618791937651813  0.3477932284124700
  0.2416617259815735  0.8126362249967216  0.3482676331372159
  0.2582993591619742  0.1867609126534051  0.8483924809220653
  0.2592168561689774  0.4374962362378964  0.8476375615491671
  0.2583037771020579  0.6881924322176306  0.8483922278860021
  0.2582353616874423  0.9374963561494339  0.8489648979952470
  0.7584689562604945  0.1873016701551837  0.6507788982927042
  0.7574674145844413  0.4374870993048262  0.6507117408418641
  0.7584717358865762  0.6876552918588513  0.6507864223050079
  0.7584549050463675  0.9374864336880797  0.6509999446844882
  0.5866979066969245  0.0618587277350260  0.8961395216553812
  0.5881287300457211  0.3107108409672723  0.8957432594306229
  0.5881808643595975  0.5642820269010071  0.8957419144788278
  0.5866662214304865  0.8131379506312619  0.8961532065271054
  0.0867156306979092  0.0619505352600042  0.6033142831543775
  0.0883483391124406  0.3114164621807426  0.6041277899788738
  0.0883791743742557  0.5636022209060941  0.6041457012689849
  0.0866998192242090  0.8130612133112826  0.6032909204971062
  0.4146839156376009  0.1883552633622164  0.1037946292422857
  0.4086702252375772  0.4375121359584119  0.1021761439968643
  0.4146879432115705  0.6866267351338986  0.1037985568191394
  0.4140701601105619  0.9375116056161562  0.1044110455576559
  0.9125967030925825  0.1879373660019123  0.3955987607909427
  0.9153402749020344  0.4375194758657258  0.4001562523426402
  0.9125879006020505  0.6870346860267178  0.3955946507291115
  0.9120647448504909  0.9375137357165314  0.3951299132328376
  0.5608154734457054  0.0636463659490139  0.3855578705257616
  0.5615394947603262  0.3106172004193317  0.3844060456032625
  0.5615234161006667  0.5643824061329460  0.3844254650662704
  0.5608388160032654  0.8113644750545382  0.3855377751593529
  0.0615041683664239  0.0633383549390628  0.1146511843377426
  0.0575944874573085  0.3091978727465389  0.1148608730930678
  0.0575619889789459  0.5658140447261339  0.1148200412895321
  0.0615423415170261  0.8116909781497672  0.1146874970293781
  0.4386748234852892  0.1872146993132171  0.6149311067601353
  0.4402051824444473  0.4374514662623351  0.6143807422825071
  0.4386814019870500  0.6878243861286254  0.6149336242539450
  0.4385046719531923  0.9374503505165658  0.6146283596491618
  0.9388017009458011  0.1872451738490617  0.8845280367394261
  0.9412361199927911  0.4374332352955799  0.8833885283668853
  0.9388092061980200  0.6878477302910014  0.8845366997728886
  0.9392328826886875  0.9374412468913246  0.8859457977220662
  0.7929997900469011  0.0622443598528648  0.8527829971849233
  0.7939022667226234  0.3127805842569925  0.8515009169121731
  0.7939694639068583  0.5622070341547198  0.8515472770282936
  0.7929390801720513  0.8127413530571682  0.8527399309599761
  0.2927933729814813  0.0621789889891985  0.6466828895513428
  0.2938199504734358  0.3124215794276270  0.6467399070692078
  0.2938599286924144  0.5625573708516506  0.6467204123998018
  0.2927552389746832  0.8128002203600523  0.6466981871013134
  0.2076509444077557  0.1876066827786857  0.1480413347388997
  0.2044340221230826  0.4375171389610182  0.1460030156184564
  0.2076497507744507  0.6874041447322337  0.1480430297659788
  0.2068038861818055  0.9375148312060556  0.1466587043839740
  0.7070200712645062  0.1863558067743262  0.3579194357304981
  0.7060446286415463  0.4375112660286397  0.3691036496996067
  0.7070211892879867  0.6886447931784162  0.3579227122614164
  0.7055730275117564  0.9375121027796157  0.3553345642929012
  0.8891551257207491  0.0622722207945250  0.5197545338859358
  0.8907771671357516  0.3118171494763479  0.5220257963459813
  0.8907833889312802  0.5631865114603191  0.5220564276741135
  0.8891533572009478  0.8127246515516886  0.5197258181279742
  0.3884599862327502  0.0620579915986448  0.9804768719906091
  0.3860200039579993  0.3115196475497832  0.9793541725487609
  0.3860270395460821  0.5634799082506554  0.9793421559972154
  0.3884579626545376  0.8129369745008126  0.9804999438369257
  0.1120365036847972  0.1871145209090291  0.4794363283333261
  0.1131391582004317  0.4375136214135838  0.4805959095597284
  0.1120381008673278  0.6878947792121562  0.4794323756050194
  0.1112682025415681  0.9375133721142427  0.4789606653997584
  0.6093335154603253  0.1876222897706463  0.0173941598603399
  0.6030450362677863  0.4375013994955538  0.0111338160038065
  0.6093387265299035  0.6873743268242052  0.0173914764115453
  0.6120476949367707  0.9375055382489818  0.0207584301686315
  0.9788229624132024  0.0631013444198312  0.2822194372371468
  0.9778484971281679  0.3136639820094014  0.2835062997947709
  0.9778351342349025  0.5613426974376917  0.2834833447922999
  0.9788353802062729  0.8119076643534049  0.2822467291475984
  0.4802411127414107  0.0631594282439215  0.2174107201744494
  0.4803881309801896  0.3147307796726390  0.2161984687274788
  0.4803819653257727  0.5602844232306340  0.2162123923614464
  0.4802538592585425  0.8118410613019728  0.2173940348195260
  0.0208619350014134  0.1868875547258335  0.7166490300715165
  0.0220637997114543  0.4374981190994736  0.7161735004026835
  0.0208677457938468  0.6881426981151096  0.7166501979950657
  0.0204029470515590  0.9374961169102414  0.7170679045599081
  0.5201267445738028  0.1870001355763160  0.7821610574394725
  0.5206676848851023  0.4374964214659329  0.7813976938972579
  0.5201282429842927  0.6879975551028864  0.7821672902306830
  0.5193617932029926  0.9374928805826470  0.7828425304605480
  0.5780766633147116  0.0623698287306522  0.5712901305415242
  0.5779135848215745  0.3112562907131647  0.5709355927824685
  0.5778523847402693  0.5637234847316838  0.5709579184933344
  0.5781460090759343  0.8126073029319909  0.5712721011056840
  0.0791685632891204  0.0621939864132931  0.9288055870701600
  0.0794107828921235  0.3110883866209067  0.9272250556646389
  0.0793039980002623  0.5638988869624573  0.9271873758488978
  0.0792722317387092  0.8127992721490744  0.9288414784506023
  0.4200427465375365  0.1874556094160166  0.4290320853221628
  0.4231568165738951  0.4374981189663526  0.4290114296607694
  0.4200499418681007  0.6875775348308264  0.4290349091489081
  0.4219305772053442  0.9374952889343479  0.4290363588167403
  0.9224931900148071  0.1871702998506890  0.0680354625954208
  0.9317134907102480  0.4374957975940833  0.0659395727535052
  0.9225080934752082  0.6878857584433081  0.0680370284869816
  0.9223733153062443  0.9374971622670721  0.0709756507082014
 
             NaN             NaN             NaN
             NaN             NaN             NaN
             NaN             NaN             NaN
             NaN             NaN             NaN
             NaN             NaN             NaN
             NaN             NaN             NaN
             NaN             NaN             NaN
             NaN             NaN             NaN
             NaN             NaN             NaN
             NaN             NaN             NaN
             NaN             NaN             NaN
             NaN             NaN             NaN
             NaN             NaN             NaN
             NaN             NaN             NaN
             NaN             NaN             NaN
             NaN             NaN             NaN
             NaN             NaN             NaN
             NaN             NaN             NaN
             NaN             NaN             NaN
             NaN             NaN             NaN
             NaN             NaN             NaN
             NaN             NaN             NaN
             NaN             NaN             NaN
             NaN             NaN             NaN
             NaN             NaN             NaN
             NaN             NaN             NaN
             NaN             NaN             NaN
             NaN             NaN             NaN
             NaN             NaN             NaN
             NaN             NaN             NaN
             NaN             NaN             NaN
             NaN             NaN             NaN
             NaN             NaN             NaN
             NaN             NaN             NaN
             NaN             NaN             NaN
             NaN             NaN             NaN
             NaN             NaN             NaN
             NaN             NaN             NaN
             NaN             NaN             NaN
             NaN             NaN             NaN
             NaN             NaN             NaN
             NaN             NaN             NaN
             NaN             NaN             NaN
             NaN             NaN             NaN
             NaN             NaN             NaN
             NaN             NaN             NaN
             NaN             NaN             NaN
             NaN             NaN             NaN
             NaN             NaN             NaN
             NaN             NaN             NaN
             NaN             NaN             NaN
             NaN             NaN             NaN
             NaN             NaN             NaN
             NaN             NaN             NaN
             NaN             NaN             NaN
             NaN             NaN             NaN
             NaN             NaN             NaN
             NaN             NaN             NaN
             NaN             NaN             NaN
             NaN             NaN             NaN
             NaN             NaN             NaN
             NaN             NaN             NaN
             NaN             NaN             NaN
             NaN             NaN             NaN
             NaN             NaN             NaN
             NaN             NaN             NaN
             NaN             NaN             NaN
             NaN             NaN             NaN
             NaN             NaN             NaN
             NaN             NaN             NaN
             NaN             NaN             NaN
             NaN             NaN             NaN
             NaN             NaN             NaN
             NaN             NaN             NaN
             NaN             NaN             NaN
             NaN             NaN             NaN
             NaN             NaN             NaN
             NaN             NaN             NaN
             NaN             NaN             NaN
             NaN             NaN             NaN
             NaN             NaN             NaN
             NaN             NaN             NaN
             NaN             NaN             NaN
             NaN             NaN             NaN
             NaN             NaN             NaN
             NaN             NaN             NaN
             NaN             NaN             NaN
             NaN             NaN             NaN
             NaN             NaN             NaN
             NaN             NaN             NaN
             NaN             NaN             NaN
             NaN             NaN             NaN
             NaN             NaN             NaN
             NaN             NaN             NaN
             NaN             NaN             NaN
             NaN             NaN             NaN
             NaN             NaN             NaN
             NaN             NaN             NaN
             NaN             NaN             NaN
             NaN             NaN             NaN
             NaN             NaN             NaN
             NaN             NaN             NaN
             NaN             NaN             NaN
             NaN             NaN             NaN
             NaN             NaN             NaN
             NaN             NaN             NaN
             NaN             NaN             NaN
             NaN             NaN             NaN
             NaN             NaN             NaN
             NaN             NaN             NaN
             NaN             NaN             NaN
