Na15 V32 O64
1.0
9.215291 0.000095 -0.002304
0.000119 11.523964 0.000009
-0.002672 0.000009 10.709173
Na V O
15 32 64
direct
0.740827 0.437440 0.153833 Na
0.741435 0.072901 0.152391 Na
0.741424 0.802248 0.152306 Na
0.241693 0.062721 0.348499 Na
0.241997 0.312730 0.348221 Na
0.241992 0.562406 0.348165 Na
0.241728 0.812444 0.348605 Na
0.258420 0.187289 0.848721 Na
0.258666 0.437430 0.848280 Na
0.258445 0.687563 0.848693 Na
0.258285 0.937444 0.848934 Na
0.758313 0.187456 0.650939 Na
0.758353 0.437437 0.651044 Na
0.758324 0.687353 0.650938 Na
0.758377 0.937439 0.651020 Na
0.586557 0.062643 0.896019 V
0.588179 0.312664 0.897502 V
0.588170 0.562347 0.897493 V
0.586504 0.812374 0.896007 V
0.086844 0.062462 0.603815 V
0.087328 0.312459 0.603822 V
0.087342 0.562556 0.603776 V
0.086881 0.812540 0.603847 V
0.413229 0.188255 0.103887 V
0.412107 0.437502 0.103617 V
0.413263 0.686726 0.103920 V
0.414298 0.937524 0.104124 V
0.912701 0.187993 0.395798 V
0.912623 0.437535 0.396028 V
0.912666 0.687024 0.395800 V
0.912705 0.937512 0.395681 V
0.560809 0.062700 0.385701 V
0.562248 0.312635 0.383258 V
0.562183 0.562322 0.383262 V
0.560858 0.812312 0.385683 V
0.061098 0.062355 0.114688 V
0.057494 0.312299 0.115253 V
0.057472 0.562763 0.115238 V
0.061199 0.812642 0.114739 V
0.439392 0.187914 0.614629 V
0.440242 0.437443 0.614315 V
0.439479 0.687062 0.614580 V
0.438634 0.937493 0.614858 V
0.939148 0.187704 0.885281 V
0.939733 0.437481 0.885126 V
0.939133 0.687398 0.885289 V
0.938811 0.937416 0.885533 V
0.793100 0.062525 0.853216 O
0.793678 0.312503 0.852745 O
0.793705 0.562477 0.852679 O
0.793032 0.812453 0.853295 O
0.293204 0.062527 0.646619 O
0.293735 0.312494 0.646454 O
0.293790 0.562496 0.646461 O
0.293181 0.812467 0.646584 O
0.206270 0.187422 0.146344 O
0.205292 0.437487 0.145963 O
0.206320 0.687655 0.146366 O
0.207198 0.937512 0.146909 O
0.706587 0.186685 0.356734 O
0.706684 0.437482 0.358536 O
0.706575 0.688367 0.356757 O
0.706386 0.937469 0.355048 O
0.889372 0.062494 0.519669 O
0.889671 0.312467 0.520086 O
0.889635 0.562547 0.520110 O
0.889406 0.812527 0.519652 O
0.388613 0.062347 0.980514 O
0.387632 0.312325 0.980010 O
0.387591 0.562648 0.979970 O
0.388652 0.812656 0.980551 O
0.111484 0.187468 0.480093 O
0.111716 0.437504 0.480231 O
0.111481 0.687573 0.480087 O
0.111291 0.937517 0.479958 O
0.609615 0.187985 0.018443 O
0.607780 0.437488 0.017023 O
0.609583 0.687014 0.018439 O
0.611436 0.937506 0.019929 O
0.979049 0.062741 0.282581 O
0.979847 0.312665 0.283590 O
0.979844 0.562382 0.283578 O
0.979108 0.812318 0.282616 O
0.479706 0.062923 0.217376 O
0.477379 0.312812 0.217353 O
0.477326 0.562164 0.217379 O
0.479745 0.812127 0.217353 O
0.020751 0.187369 0.716899 O
0.021136 0.437466 0.716824 O
0.020731 0.687709 0.716889 O
0.020426 0.937452 0.716997 O
0.520466 0.187441 0.782708 O
0.521277 0.437443 0.782438 O
0.520483 0.687626 0.782691 O
0.519674 0.937475 0.782948 O
0.578173 0.062337 0.571394 O
0.578614 0.312296 0.570516 O
0.578598 0.562676 0.570545 O
0.578214 0.812650 0.571369 O
0.078455 0.062171 0.928956 O
0.078596 0.312153 0.928505 O
0.078513 0.562863 0.928432 O
0.078599 0.812789 0.929024 O
0.422054 0.187550 0.429439 O
0.422703 0.437455 0.429269 O
0.422077 0.687508 0.429419 O
0.421535 0.937467 0.429539 O
0.923367 0.187532 0.069458 O
0.925215 0.437497 0.068475 O
0.923358 0.687538 0.069464 O
0.921713 0.937457 0.070518 O
