Li15 Fe16 P16 O64
1.0
10.426074 -0.001377 0.005389
-0.001589 12.142286 0.001261
0.003272 0.001167 9.521267
Li Fe P O
15 16 16 64
direct
0.499262 0.317854 0.745991 Li
0.497938 0.497598 0.246308 Li
0.497044 0.003691 0.247680 Li
0.497333 0.004060 0.755839 Li
0.999800 0.252334 0.503014 Li
0.000518 0.251693 0.001719 Li
0.006427 0.744880 0.496580 Li
0.001142 0.746617 0.995261 Li
0.496543 0.253030 0.244411 Li
0.497912 0.745598 0.249117 Li
0.495980 0.739028 0.759243 Li
0.000960 0.002697 0.995487 Li
0.006242 0.005232 0.496429 Li
0.000895 0.498584 0.001534 Li
0.999908 0.498437 0.502837 Li
0.779476 0.127594 0.262599 Fe
0.781019 0.126111 0.764196 Fe
0.779443 0.622777 0.263086 Fe
0.779397 0.623280 0.763561 Fe
0.283540 0.126371 0.487623 Fe
0.281904 0.126460 0.985802 Fe
0.284538 0.623290 0.488990 Fe
0.282454 0.622570 0.985697 Fe
0.219434 0.374923 0.236279 Fe
0.222839 0.375686 0.738710 Fe
0.220588 0.874930 0.236574 Fe
0.219391 0.875145 0.736049 Fe
0.716751 0.375619 0.010663 Fe
0.717528 0.376267 0.516058 Fe
0.715264 0.874667 0.016006 Fe
0.719709 0.874613 0.507750 Fe
0.595254 0.124244 0.041499 P
0.595367 0.121751 0.539592 P
0.595686 0.626857 0.042089 P
0.595314 0.628444 0.538724 P
0.093664 0.123670 0.208423 P
0.094000 0.124453 0.707639 P
0.093935 0.626480 0.209147 P
0.093914 0.626118 0.707937 P
0.405507 0.373348 0.458101 P
0.405992 0.374827 0.959006 P
0.408393 0.875268 0.459943 P
0.405011 0.874845 0.958684 P
0.906842 0.374929 0.292028 P
0.907296 0.374892 0.792947 P
0.904724 0.875225 0.293298 P
0.899189 0.874866 0.791779 P
0.596784 0.122647 0.378303 O
0.599714 0.120481 0.880756 O
0.596464 0.627579 0.376946 O
0.601930 0.633190 0.882275 O
0.096770 0.122686 0.370019 O
0.095818 0.122918 0.869074 O
0.097156 0.627640 0.370750 O
0.095984 0.627110 0.869431 O
0.402929 0.374489 0.121951 O
0.398708 0.369801 0.617414 O
0.403067 0.875112 0.120373 O
0.403385 0.875934 0.620299 O
0.904832 0.374691 0.130638 O
0.903672 0.375032 0.631219 O
0.901463 0.875022 0.133138 O
0.887322 0.875170 0.629196 O
0.955309 0.122227 0.147297 O
0.956084 0.122577 0.645221 O
0.955600 0.627747 0.147915 O
0.956090 0.627656 0.645616 O
0.456987 0.124309 0.103051 O
0.459084 0.120667 0.603186 O
0.457125 0.625573 0.103023 O
0.459191 0.631096 0.600641 O
0.044296 0.374689 0.355494 O
0.044980 0.374753 0.854905 O
0.041526 0.875360 0.356494 O
0.039376 0.875322 0.845147 O
0.544457 0.374580 0.397834 O
0.543704 0.373163 0.901387 O
0.550372 0.875443 0.401522 O
0.542766 0.875449 0.897087 O
0.665472 0.023127 0.112159 O
0.666012 0.015808 0.602277 O
0.665986 0.524397 0.107209 O
0.675428 0.531807 0.601645 O
0.162651 0.225993 0.142009 O
0.163515 0.226748 0.641632 O
0.165225 0.727796 0.141726 O
0.165366 0.727681 0.640183 O
0.336393 0.271803 0.386880 O
0.333425 0.272880 0.894092 O
0.340482 0.773751 0.390283 O
0.334184 0.773025 0.892270 O
0.836288 0.476860 0.358348 O
0.836501 0.476416 0.859714 O
0.829286 0.974473 0.363390 O
0.831505 0.976853 0.860152 O
0.335385 0.475705 0.391100 O
0.328835 0.474288 0.897142 O
0.340697 0.976782 0.389677 O
0.333393 0.976228 0.891979 O
0.835463 0.273415 0.358875 O
0.836504 0.272990 0.859183 O
0.829595 0.775962 0.363853 O
0.832202 0.772658 0.860139 O
0.665646 0.226321 0.107347 O
0.671615 0.220190 0.605226 O
0.665031 0.727772 0.115079 O
0.666009 0.735064 0.601158 O
0.164988 0.022241 0.141349 O
0.165776 0.023223 0.639543 O
0.162967 0.524056 0.143273 O
0.163955 0.524220 0.641584 O
