Na47 P16 S64
1.0
13.736913 -0.000032 0.000026
-0.000064 13.736858 -0.000791
-0.000157 -0.000408 14.216880
Na P S
47 16 64
direct
0.527466 0.746001 0.717270 Na
0.999732 0.250899 0.204562 Na
0.998816 0.250478 0.704378 Na
0.998809 0.750882 0.209388 Na
0.972511 0.753997 0.717298 Na
0.500269 0.249093 0.204560 Na
0.501177 0.249532 0.704379 Na
0.501165 0.749129 0.209375 Na
0.249097 0.999732 0.295434 Na
0.249532 0.998820 0.795614 Na
0.250903 0.500274 0.295443 Na
0.250486 0.501179 0.795626 Na
0.749126 0.998817 0.290618 Na
0.746007 0.972541 0.782711 Na
0.750878 0.501181 0.290620 Na
0.754002 0.527478 0.782721 Na
0.252732 0.999769 0.045568 Na
0.244860 0.997600 0.547070 Na
0.247259 0.500261 0.045576 Na
0.255163 0.502378 0.547078 Na
0.753115 0.999665 0.038316 Na
0.744215 0.999371 0.538694 Na
0.746877 0.500349 0.038332 Na
0.755787 0.500601 0.538679 Na
0.500241 0.252723 0.454422 Na
0.502413 0.244849 0.952928 Na
0.500349 0.753109 0.461672 Na
0.500615 0.744213 0.961322 Na
0.999739 0.247261 0.454428 Na
0.997631 0.255153 0.952929 Na
0.999664 0.746869 0.461684 Na
0.999375 0.755787 0.961312 Na
0.994148 0.994516 0.502173 Na
0.005871 0.010393 0.001296 Na
0.010389 0.494122 0.498713 Na
0.994506 0.505863 0.997836 Na
0.489594 0.005882 0.498696 Na
0.505483 0.994147 0.997825 Na
0.505848 0.505489 0.502166 Na
0.494111 0.489599 0.001295 Na
0.250011 0.250020 0.250000 Na
0.249981 0.250004 0.750006 Na
0.249975 0.750004 0.250996 Na
0.249970 0.750014 0.749023 Na
0.750004 0.249993 0.249001 Na
0.749994 0.250007 0.750987 Na
0.749994 0.749997 0.250010 Na
0.499582 0.499005 0.249900 P
0.500330 0.497124 0.753128 P
0.498998 0.000420 0.250097 P
0.497134 0.999674 0.746875 P
0.001016 0.499572 0.250102 P
0.002890 0.500321 0.746878 P
0.000432 0.001012 0.249901 P
0.999685 0.002880 0.753115 P
0.250022 0.250004 0.999819 P
0.250006 0.249993 0.500183 P
0.249976 0.750011 0.001254 P
0.250011 0.749995 0.500426 P
0.750014 0.250000 0.999578 P
0.749980 0.249989 0.498751 P
0.750009 0.749999 0.003620 P
0.750020 0.749984 0.496372 P
0.153458 0.174675 0.082069 S
0.153220 0.174780 0.581858 S
0.152712 0.675653 0.083507 S
0.154038 0.674707 0.582388 S
0.654689 0.173233 0.082446 S
0.652923 0.175592 0.580747 S
0.654752 0.673242 0.086673 S
0.654296 0.671358 0.575701 S
0.346585 0.325346 0.082066 S
0.346789 0.325216 0.581853 S
0.347219 0.824368 0.083544 S
0.345977 0.825289 0.582386 S
0.845335 0.326777 0.082446 S
0.847028 0.324403 0.580753 S
0.845268 0.826770 0.086664 S
0.845752 0.828636 0.575683 S
0.174660 0.346559 0.417933 S
0.174785 0.346799 0.918158 S
0.173231 0.845321 0.417559 S
0.175585 0.847073 0.919247 S
0.675619 0.347237 0.416471 S
0.674708 0.345973 0.917618 S
0.673243 0.845235 0.413318 S
0.671357 0.845725 0.924293 S
0.325328 0.153427 0.417932 S
0.325225 0.153222 0.918143 S
0.326770 0.654671 0.417558 S
0.324382 0.652955 0.919258 S
0.824344 0.152734 0.416487 S
0.825292 0.154043 0.917603 S
0.826771 0.654718 0.413327 S
0.828634 0.654274 0.924296 S
0.097221 0.424304 0.167553 S
0.102572 0.422098 0.670501 S
0.097165 0.925403 0.168075 S
0.092648 0.921853 0.672077 S
0.595394 0.423395 0.167243 S
0.598017 0.425360 0.669378 S
0.594870 0.925032 0.168009 S
0.588154 0.926749 0.657986 S
0.402789 0.075686 0.167547 S
0.397437 0.077882 0.670514 S
0.402854 0.574612 0.168057 S
0.407363 0.578148 0.672084 S
0.904601 0.076604 0.167233 S
0.901986 0.074627 0.669360 S
0.905123 0.574954 0.168021 S
0.911847 0.573227 0.657991 S
0.075687 0.097220 0.332452 S
0.077893 0.102564 0.829493 S
0.076611 0.595391 0.332762 S
0.074634 0.598020 0.830632 S
0.574606 0.097148 0.331930 S
0.578159 0.092644 0.827913 S
0.574954 0.594886 0.331985 S
0.573238 0.588161 0.842017 S
0.424299 0.402801 0.332448 S
0.422099 0.397434 0.829496 S
0.423394 0.904603 0.332762 S
0.425366 0.901982 0.830632 S
0.925395 0.402840 0.331933 S
0.921861 0.407355 0.827920 S
0.925035 0.905124 0.331980 S
0.926754 0.911854 0.842000 S
