Mg7 Sc16 Se32                           
   1.00000000000000     
    11.3332169999999994    0.0000000000000000    0.0000000000000000
     0.0000000000000000   11.3332099999999993    0.0000000000000000
     0.0000000000000000    0.0000000000000000   11.3331979999999994
   Mg   Sc   Se
     7    16    32
Direct
  0.5000041560094518  0.5000040883983303  0.5000041535867450
  0.6242008758882831  0.1264188833172228  0.1264187737190982
  0.1264188519714127  0.6242009248461221  0.1264188154203532
  0.1264188918634351  0.1264188097276067  0.6242009618971778
  0.3757979900309016  0.8735823065668089  0.8735822791360865
  0.8735822071699086  0.3757979828444828  0.8735822080036012
  0.8735823513099685  0.8735823697022099  0.3757979027438754
  0.9940443989481885  0.7510379714139702  0.7510381185249728
  0.7510379631844769  0.9940439800902441  0.7510380781810166
  0.7510380082069291  0.7510380857793968  0.9940443994031901
  0.9999943637413820  0.9999942666036461  0.9999941694861497
  0.0059273732998718  0.2489548300443079  0.2489547236641874
  0.2489548606042912  0.0059273420639994  0.2489546809470083
  0.2489544406485256  0.2489548954863093  0.0059270954783591
  0.7482133627131273  0.5000124812034753  0.2517942610842113
  0.7482135750026917  0.2517941162773721  0.5000127926278414
  0.9999783614272774  0.5000126742867136  0.5000125204748250
  0.2517941818458709  0.5000125702551661  0.7482134592346158
  0.2517942339797517  0.7482133030152343  0.5000125069640714
  0.5000125334563876  0.7482132984914768  0.2517942873575294
  0.5000125777893949  0.9999784073012438  0.5000125828528453
  0.5000126992089593  0.2517943578540475  0.7482134709388644
  0.5000125744049529  0.5000124196616206  0.9999781933062066
  0.7579333572793844  0.9932803433605775  0.9932804257159236
  0.9932803251773354  0.7579332793388686  0.9932804342978115
  0.9932803129311157  0.9932803350886346  0.7579331369022088
  0.7602052521254926  0.7602049516279783  0.7602050475064120
  0.2420578263715003  0.0067074260159680  0.0067073047866311
  0.0067072806111276  0.2420579299278353  0.0067073044445251
  0.0067074323136127  0.0067073803052306  0.2420576306923011
  0.2397644211233129  0.2397645529483959  0.2397642688626701
  0.7534917703001145  0.4916112058686882  0.4916113094209474
  0.9914834420269574  0.2582078485923931  0.4920528898870479
  0.9914832504157747  0.4920528561000061  0.2582077964856057
  0.7590260720503400  0.2573268862373229  0.2573267880921587
  0.2464706600627330  0.5084102627816989  0.5084101211851689
  0.0085184863923122  0.7418108845842278  0.5079500583087572
  0.0085184841243321  0.5079501894867748  0.7418109362563091
  0.2409512842373054  0.7426911906801015  0.7426912585380763
  0.2582079104669618  0.9914833081514937  0.4920528852031237
  0.4916111532010355  0.7534916548825760  0.4916113110209230
  0.4920528009466735  0.9914832928935334  0.2582078006745599
  0.2573269331916423  0.7590259746969341  0.2573267834634809
  0.7418108660998656  0.0085183876749657  0.5079500472363986
  0.5084105591809088  0.2464707039545076  0.5084101415073949
  0.5079502327840327  0.0085183959624030  0.7418109324857100
  0.7426911802058610  0.2409511730211432  0.7426912618008366
  0.2582079323126974  0.4920529178890732  0.9914833345389268
  0.4920526393558058  0.2582079234023595  0.9914833474065735
  0.4916111474590636  0.4916112449316581  0.7534915430332313
  0.2573269042386385  0.2573269080945049  0.7590257841338555
  0.7418108228103638  0.5079501929357999  0.0085183548128521
  0.5079502408324797  0.7418108555426260  0.0085183464692619
  0.5084103095937504  0.5084102522266416  0.2464708240576056
  0.7426911453409506  0.7426911938685861  0.2409514241169695
 
             NaN             NaN             NaN
             NaN             NaN             NaN
             NaN             NaN             NaN
             NaN             NaN             NaN
             NaN             NaN             NaN
             NaN             NaN             NaN
             NaN             NaN             NaN
             NaN             NaN             NaN
             NaN             NaN             NaN
             NaN             NaN             NaN
             NaN             NaN             NaN
             NaN             NaN             NaN
             NaN             NaN             NaN
             NaN             NaN             NaN
             NaN             NaN             NaN
             NaN             NaN             NaN
             NaN             NaN             NaN
             NaN             NaN             NaN
             NaN             NaN             NaN
             NaN             NaN             NaN
             NaN             NaN             NaN
             NaN             NaN             NaN
             NaN             NaN             NaN
             NaN             NaN             NaN
             NaN             NaN             NaN
             NaN             NaN             NaN
             NaN             NaN             NaN
             NaN             NaN             NaN
             NaN             NaN             NaN
             NaN             NaN             NaN
             NaN             NaN             NaN
             NaN             NaN             NaN
             NaN             NaN             NaN
             NaN             NaN             NaN
             NaN             NaN             NaN
             NaN             NaN             NaN
             NaN             NaN             NaN
             NaN             NaN             NaN
             NaN             NaN             NaN
             NaN             NaN             NaN
             NaN             NaN             NaN
             NaN             NaN             NaN
             NaN             NaN             NaN
             NaN             NaN             NaN
             NaN             NaN             NaN
             NaN             NaN             NaN
             NaN             NaN             NaN
             NaN             NaN             NaN
             NaN             NaN             NaN
             NaN             NaN             NaN
             NaN             NaN             NaN
             NaN             NaN             NaN
             NaN             NaN             NaN
             NaN             NaN             NaN
             NaN             NaN             NaN
