Li47 P16 O64                            
   1.00000000000000     
    10.5917800000000000    0.0012970000000000    0.0027000000000000
     0.0015120000000000   12.2989870000000003    0.0030320000000000
     0.0025150000000000    0.0024190000000000    9.9891839999999998
   Li   P    O 
    47    16    64
Direct
  0.3974624625571853  0.3730220316648861  0.1286886929650528
  0.6598220808706534  0.2513824434359482  0.0992949983153905
  0.6636953163923381  0.2494949078145175  0.5981097567851191
  0.6603470446013411  0.7477833215880794  0.0983471523801840
  0.6638176422702339  0.7501634340979584  0.5989855908430449
  0.1597783338892486  0.5004390820050706  0.1533876659772214
  0.1641944426191144  0.5024146008138749  0.6505196689852344
  0.1642697498283828  0.0015264627251610  0.1493809746714350
  0.1634887540211546  0.0003815364923188  0.6511351440597285
  0.3365797372919748  0.0001070950207655  0.3995001015706682
  0.3365228304375359 -0.0007820050359888  0.9014506112475764
  0.3351624336567642  0.5010212798658517  0.4032485589989470
  0.3355616470698387  0.5000629840349097  0.9022238238787913
  0.8356554914144955  0.2488501001438367  0.3492648370635603
  0.8342734554372252  0.2493862799527532  0.8505279489465720
  0.8357850245121600  0.7486646919597824  0.3489468186509707
  0.8361853498920241  0.7493335738497592  0.8488406193874969
  0.3365638447810806  0.2462364513841671  0.4032016854995165
  0.3349914439867625  0.2479829549604171  0.9013853400460634
  0.3361835883804973  0.7489199450092755  0.4009679836194246
  0.3353064647409505  0.7483156593754235  0.9009790534289830
  0.8371907145514021  0.0013924083699516  0.3495841410253166
  0.8362661904413311  0.0008310041157068  0.8474646549705857
  0.8353647074172361  0.4992242465480066  0.3469663804385982
  0.8338229854038549  0.5013216978427696  0.8514550918252036
  0.6591488667337425  0.4955643125263031  0.0984079445981172
  0.6639017394749149  0.4991115642970193  0.5984305869120909
  0.6626551718665711  0.9933933003233213  0.0961964269230791
  0.6642216912884149  0.9979288072051395  0.5985466431452875
  0.1630977077670711  0.2514818092523429  0.6465178370498018
  0.1619126921766422  0.7517997311077474  0.1520356026775380
  0.1637006396974351  0.7522443342380094  0.6504614420103991
  0.9331281162153522  0.3689909042493321  0.1497934840299713
  0.9231006576869317  0.3761903785118664  0.6519427284446495
  0.9242791785019081  0.8743086609810697  0.1482129969473137
  0.9259091887671265  0.8755020465111479  0.6486291827415704
  0.4249837710916758  0.3743199901257883  0.6036476644838974
  0.4249663664182435  0.8729926247417702  0.1014536855246376
  0.4258780981788444  0.8745744957944442  0.6000334061800996
  0.0773694862961053  0.1313376283825981  0.3422907815596536
  0.0747935208882100  0.1269690349164517  0.8555510568484548
  0.0733001024205703  0.6259992771625097  0.3529471180849599
  0.0726534793622024  0.6264255833126838  0.8500975888866193
  0.5752843337794404  0.1235313680127322  0.3980087913983286
  0.5744876749730062  0.1227609277349738  0.8983188878889161
  0.5734959720638603  0.6241615291255406  0.3988216850724016
  0.5726908531083745  0.6234603180392538  0.8984769656967715
  0.9073788295062765  0.1229653601134297  0.0967987196507477
  0.9118474141383021  0.1256703602045201  0.5968845237511838
  0.9085942262793453  0.6246510084475563  0.0973849989419728
  0.9104363920081269  0.6253914047454685  0.5967044599298149
  0.4134224680702841  0.1217415531136906  0.1524532056122984
  0.4116894962668327  0.1233617363495061  0.6537429021083087
  0.4084895769830780  0.6242486246242818  0.1536486852121093
  0.4111312827087684  0.6248870002262100  0.6535296785480689
  0.0884078301714976  0.3758387431965282  0.4072355324266562
  0.0882585060820198  0.3776002562011048  0.9021794587816575
  0.0890494583815757  0.8759265090579177  0.4028617307177525
  0.0884588179343030  0.8754094457283345  0.9032855785109621
  0.5863799289605417  0.3740737154250461  0.3467886665785893
  0.5859657540037694  0.3743172640838313  0.8443997435675230
  0.5889516431240290  0.8735257223997974  0.3464389105409069
  0.5886502500107876  0.8729139025672081  0.8457837245114819
  0.8352605840471241  0.0196399860294388  0.1463135593832460
  0.8414190850706988  0.0217759564018476  0.6472567734673513
  0.8392351103302427  0.5203770090983098  0.1473129403710314
  0.8404951736867294  0.5226912384553475  0.6500260170309813
  0.3505101964531507  0.2255261998151832  0.0954409620502013
  0.3420636478009186  0.2275699524483629  0.6042251828960269
  0.3387956586172970  0.7280450566623553  0.1023616945698283
  0.3411261055475124  0.7286428621026715  0.6020200898493814
  0.1609666752348647  0.2706501395914938  0.3708491712813219
  0.1578462431370742  0.2738370046229326  0.8502538846431402
  0.1590369802128233  0.7718075743419713  0.3529517704663017
  0.1585217944805399  0.7719491861725720  0.8515515141629741
  0.6569382352022772  0.4775366905535470  0.3975381736603312
  0.6558609455490610  0.4772160664985400  0.8976600872886135
  0.6592978078598086  0.9770428826897533  0.3971253448825504
  0.6592150419967359  0.9764293507789896  0.8966864299913853
  0.1584719645348002  0.4783043621975570  0.3531277432456552
  0.1579278530670370  0.4809901121658502  0.8474663762987651
  0.1593515002410831  0.9788778176923950  0.3509530667905087
  0.1588503256857262  0.9790469307592409  0.8525908125268057
  0.6570979264623081  0.2707600320582790  0.3980885385178151
  0.6546823064092759  0.2702714029226275  0.8980373259810933
  0.6586817096533889  0.7701093351815802  0.3985939902989154
  0.6585599015375929  0.7694246133659092  0.8969563942755860
  0.8386774021111376  0.2268755869880176  0.1484270572005817
  0.8409330517018778  0.2287788698544395  0.6486346327103653
  0.8373586168626864  0.7280591282656868  0.1480668132659708
  0.8409253359782545  0.7294460306351732  0.6473066625794510
  0.3436224070540398  0.0179483006578066  0.1023094007117090
  0.3410732480287332  0.0206285205476124  0.6009574218087425
  0.3359695919465015  0.5216122435037303  0.1035154751431874
  0.3413188142912872  0.5216619723679403  0.6015099147880316
  0.5533301191357833  0.1199785114455830  0.1021159973983476
  0.5498614809777375  0.1234092590094085  0.6011007563416598
  0.5460995195450034  0.6228572206760187  0.0999482917764007
  0.5496012864011299  0.6248224222832521  0.6017590188577810
  0.0429658496611276  0.1178425804521872  0.1509683616430026
  0.0495105448271511  0.1260291323206841  0.6510437471702253
  0.0464563078532526  0.6264389325640776  0.1515241547944465
  0.0492314958748644  0.6267319122394598  0.6475181895397025
  0.4477019089711031  0.3740625383704332  0.3989367459390572
  0.4456375264021740  0.3745977266273418  0.8893557220961942
  0.4505151176557947  0.8741943311506154  0.3985997390301930
  0.4505760139229532  0.8730849498832567  0.8990556868284606
  0.9517788260183431  0.3734732878906089  0.3505564955082601
  0.9484426135771268  0.3757120484894232  0.8510891203389154
  0.9507295551555439  0.8750619249696071  0.3501287941684774
  0.9502784384121873  0.8753331917668524  0.8507446925875647
  0.5835780395552503  0.3737397921644253  0.1906681010356446
  0.5918763894123662  0.3741452488859450  0.6879399298622277
  0.5887123383942477  0.8720754748857176  0.1902518911174143
  0.5888110305167209  0.8736562221695080  0.6896316272793346
  0.0895053863033215  0.3817287110806936  0.0560682225927393
  0.0843595152068100  0.3812073176856857  0.5635644011392970
  0.0885703963241545  0.8750676726066601  0.0595408162160510
  0.0889435642177751  0.8764455873834062  0.5591715038149523
  0.4112027286110238  0.1236344639949782  0.3084849933777784
  0.4110831406973328  0.1220031527049502  0.8099970791472711
  0.4095765396780993  0.6243911219957679  0.3099201204418816
  0.4096336444951645  0.6246346923714791  0.8097254062934746
  0.9121097383914525  0.1259448164439697  0.4406802908861266
  0.9078553094342487  0.1247359548430865  0.9407264893752959
  0.9089722261358399  0.6238522984047402  0.4403273381418769
  0.9099911332228993  0.6253258209833792  0.9410551142331969
 
             NaN             NaN             NaN
             NaN             NaN             NaN
             NaN             NaN             NaN
             NaN             NaN             NaN
             NaN             NaN             NaN
             NaN             NaN             NaN
             NaN             NaN             NaN
             NaN             NaN             NaN
             NaN             NaN             NaN
             NaN             NaN             NaN
             NaN             NaN             NaN
             NaN             NaN             NaN
             NaN             NaN             NaN
             NaN             NaN             NaN
             NaN             NaN             NaN
             NaN             NaN             NaN
             NaN             NaN             NaN
             NaN             NaN             NaN
             NaN             NaN             NaN
             NaN             NaN             NaN
             NaN             NaN             NaN
             NaN             NaN             NaN
             NaN             NaN             NaN
             NaN             NaN             NaN
             NaN             NaN             NaN
             NaN             NaN             NaN
             NaN             NaN             NaN
             NaN             NaN             NaN
             NaN             NaN             NaN
             NaN             NaN             NaN
             NaN             NaN             NaN
             NaN             NaN             NaN
             NaN             NaN             NaN
             NaN             NaN             NaN
             NaN             NaN             NaN
             NaN             NaN             NaN
             NaN             NaN             NaN
             NaN             NaN             NaN
             NaN             NaN             NaN
             NaN             NaN             NaN
             NaN             NaN             NaN
             NaN             NaN             NaN
             NaN             NaN             NaN
             NaN             NaN             NaN
             NaN             NaN             NaN
             NaN             NaN             NaN
             NaN             NaN             NaN
             NaN             NaN             NaN
             NaN             NaN             NaN
             NaN             NaN             NaN
             NaN             NaN             NaN
             NaN             NaN             NaN
             NaN             NaN             NaN
             NaN             NaN             NaN
             NaN             NaN             NaN
             NaN             NaN             NaN
             NaN             NaN             NaN
             NaN             NaN             NaN
             NaN             NaN             NaN
             NaN             NaN             NaN
             NaN             NaN             NaN
             NaN             NaN             NaN
             NaN             NaN             NaN
             NaN             NaN             NaN
             NaN             NaN             NaN
             NaN             NaN             NaN
             NaN             NaN             NaN
             NaN             NaN             NaN
             NaN             NaN             NaN
             NaN             NaN             NaN
             NaN             NaN             NaN
             NaN             NaN             NaN
             NaN             NaN             NaN
             NaN             NaN             NaN
             NaN             NaN             NaN
             NaN             NaN             NaN
             NaN             NaN             NaN
             NaN             NaN             NaN
             NaN             NaN             NaN
             NaN             NaN             NaN
             NaN             NaN             NaN
             NaN             NaN             NaN
             NaN             NaN             NaN
             NaN             NaN             NaN
             NaN             NaN             NaN
             NaN             NaN             NaN
             NaN             NaN             NaN
             NaN             NaN             NaN
             NaN             NaN             NaN
             NaN             NaN             NaN
             NaN             NaN             NaN
             NaN             NaN             NaN
             NaN             NaN             NaN
             NaN             NaN             NaN
             NaN             NaN             NaN
             NaN             NaN             NaN
             NaN             NaN             NaN
             NaN             NaN             NaN
             NaN             NaN             NaN
             NaN             NaN             NaN
             NaN             NaN             NaN
             NaN             NaN             NaN
             NaN             NaN             NaN
             NaN             NaN             NaN
             NaN             NaN             NaN
             NaN             NaN             NaN
             NaN             NaN             NaN
             NaN             NaN             NaN
             NaN             NaN             NaN
             NaN             NaN             NaN
             NaN             NaN             NaN
             NaN             NaN             NaN
             NaN             NaN             NaN
             NaN             NaN             NaN
             NaN             NaN             NaN
             NaN             NaN             NaN
             NaN             NaN             NaN
             NaN             NaN             NaN
             NaN             NaN             NaN
             NaN             NaN             NaN
             NaN             NaN             NaN
             NaN             NaN             NaN
             NaN             NaN             NaN
             NaN             NaN             NaN
             NaN             NaN             NaN
             NaN             NaN             NaN
             NaN             NaN             NaN
