Li15 Fe16 P16 O64                       
   1.00000000000000     
    10.4260739999999998   -0.0013770000000000    0.0053890000000000
    -0.0015890000000000   12.1422860000000004    0.0012610000000000
     0.0032720000000000    0.0011670000000000    9.5212669999999999
   Li   Fe   P    O 
    15    16    16    64
Direct
  0.5325099956999296  0.3121006516189240  0.7255495507764937
  0.4968885079938113  0.4992690685850857  0.2458093163588800
  0.4974274827911833  0.0035566401775834  0.2475466672624473
  0.4956224856362358  0.0092877306603528  0.7593946449388636
  0.0012689637964269  0.2525484466206317  0.5033473941247270
  0.0017250606758417  0.2512256244425977  0.0009751804048891
  0.0059176653123400  0.7449979805377454  0.4966257602169692
  0.0004261419119240  0.7468017737351853  0.9951053394538417
  0.4964186860354437  0.2524610290279776  0.2449854741252127
  0.4981653977316621  0.7457991640641398  0.2492092981666316
  0.4958257917052337  0.7377967908027381  0.7599131860244900
  0.0009759553018879  0.0026308205069228  0.9953402144200643
  0.0060826747454078  0.0051659795824656  0.4967802460489392
  0.0018683703710310  0.4993202572025546  0.0003706669257701
  0.0013458910955323  0.4987340951943776  0.5029799438203352
  0.7797154104845907  0.1271990911117598  0.2635443696125523
  0.7807058586007768  0.1257900758279652  0.7645474108324988
  0.7792272772164767  0.6239542062624840  0.2633672244350486
  0.7782045593108243  0.6233699126864871  0.7631212697075112
  0.2826243935703005  0.1263341258658086  0.4872272211864075
  0.2824340705117069  0.1270183170808840  0.9856727191511984
  0.2842147544758331  0.6244914980809888  0.4893052445629531
  0.2823670285911281  0.6237338780281607  0.9858409319885284
  0.2184660226647003  0.3753054606647934  0.2350609418308586
  0.2222753699626348  0.3759908388302055  0.7399237632984158
  0.2208680895195514  0.8750461897824481  0.2364091967124658
  0.2195102869390139  0.8752989815950535  0.7360105637620659
  0.7170858578416974  0.3762380447517934  0.0135345316984507
  0.7204500181366875  0.3788451836831116  0.5083226580933501
  0.7152176339879347  0.8749702140202292  0.0167224924505395
  0.7195939098289051  0.8754304832015438  0.5095216471008587
  0.5961445022392859  0.1239389772221387  0.0424755876247143
  0.5933369534458791  0.1246816011490215  0.5404844919106213
  0.5960268401217766  0.6278041138257348  0.0423272553919014
  0.5946075202888050  0.6276963631158613  0.5388983789078884
  0.0933700264613513  0.1234353872179520  0.2084943870151636
  0.0933976689579212  0.1246463507905225  0.7077295259387171
  0.0932542491289116  0.6269483499110311  0.2090738316599834
  0.0931782196792992  0.6262196412422827  0.7079055937860993
  0.4039880669131012  0.3748858771114816  0.4552148045012265
  0.4029804251750432  0.3759592834113493  0.9616138576832997
  0.4083464948031091  0.8758486456342643  0.4604129038289023
  0.4054792449405524  0.8753944611692942  0.9584627551749088
  0.9081638280185714  0.3750316651737418  0.2912256362866448
  0.9060647727025043  0.3750688078872371  0.7923936404423670
  0.9046046478838032  0.8754267516879738  0.2942359870287108
  0.8992037169904389  0.8748472621789554  0.7924874092029208
  0.5977747798107872  0.1265032776000750  0.3792349134173870
  0.6019767567655119  0.1188257911472040  0.8821955160230356
  0.5966934593265764  0.6267903629903797  0.3769024579004731
  0.6029319693232312  0.6352357005201428  0.8829643003425266
  0.0964113907782067  0.1225264206894167  0.3701471154025092
  0.0952328351893725  0.1230826008325670  0.8691591385318495
  0.0964760532448827  0.6280871305889053  0.3706825386097729
  0.0951995823535977  0.6273619092330395  0.8693770599838719
  0.4019838107453078  0.3755838116962810  0.1243942253509842
  0.3974626889303315  0.3722132764332625  0.6150784799090545
  0.4033798034707928  0.8755136695686219  0.1201891675313958
  0.4023176669064711  0.8760764018276401  0.6205946001443524
  0.9056386377013519  0.3744746692055450  0.1300382361697026
  0.9036065957459936  0.3753190655934183  0.6306128727658993
  0.9011881880349554  0.8752435746218935  0.1340724202350275
  0.8865478567708335  0.8757247570870494  0.6299950986472859
  0.9549324255982177  0.1217555386768147  0.1476379614227950
  0.9553829500547478  0.1233631012975921  0.6453017254448099
  0.9549296647395514  0.6288165314484835  0.1478440469937175
  0.9553929829504074  0.6276050950659068  0.6454455546161616
  0.4575754268758922  0.1248250890706155  0.1032740192605496
  0.4568125920984349  0.1187217574835542  0.6011652201611152
  0.4573830927728803  0.6258564333994202  0.1030517466435357
  0.4583967526222433  0.6327169064036049  0.5993526706347315
  0.0451055260649846  0.3745465747518874  0.3553162814010838
  0.0434586621167712  0.3744453436453631  0.8551337482811795
  0.0415789180575621  0.8755078948345512  0.3570533934556505
  0.0396338275831947  0.8752865430635826  0.8450897367955276
  0.5432389857164820  0.3757985045832982  0.3959029690895386
  0.5419634233687973  0.3745906687986990  0.9056740347238486
  0.5509323645228512  0.8769059436994271  0.4037483961807001
  0.5431981406317777  0.8759657876708367  0.8970787058229891
  0.6652259735642081  0.0228856009301177  0.1150499948988402
  0.6692686620406314  0.0213395167333846  0.6025030459705875
  0.6667264924210947  0.5253733031936533  0.1073771162827902
  0.6738524018204154  0.5300496087355452  0.6012525945446084
  0.1618206659214168  0.2259556060184351  0.1421427769586784
  0.1631732945393233  0.2269297619189144  0.6417501588301917
  0.1652729062157625  0.7279638425516045  0.1417325785510064
  0.1646550477560533  0.7277546861283397  0.6400852177938751
  0.3349595163052200  0.2726728786543511  0.3862688087836493
  0.3298867854810321  0.2746664545294132  0.8974164058195887
  0.3413625378735169  0.7742718404374759  0.3895418397163383
  0.3342548040929011  0.7737386331705011  0.8920855336943747
  0.8377592708969638  0.4773469450904005  0.3570303329871696
  0.8350808579147191  0.4763896670768993  0.8592603686399360
  0.8293830436870836  0.9746866472019018  0.3646302300532149
  0.8318782381632611  0.9767554024621601  0.8613474773888649
  0.3340019817964514  0.4771644727143391  0.3890091323136693
  0.3259734374619231  0.4750907703544371  0.8999059409133908
  0.3407126488696094  0.9770524783346042  0.3891326525633245
  0.3338763484207808  0.9769461096738163  0.8919443780291962
  0.8360454643760191  0.2739712166144223  0.3587111864590459
  0.8341549753052607  0.2733370729226673  0.8579686227844590
  0.8295158674616805  0.7763163437870073  0.3650342590617502
  0.8325209707812703  0.7725251190317152  0.8606625673215338
  0.6666666062824522  0.2262511869091378  0.1078125789412821
  0.6636584146032044  0.2270474960588205  0.6078078398760017
  0.6646220085659418  0.7286711268823659  0.1166488307974252
  0.6671160415013891  0.7338009532968424  0.6010353744090592
  0.1650401423177370  0.0222721981992733  0.1413563454132946
  0.1645923959995029  0.0232062148985682  0.6396141654485800
  0.1613726264365476  0.5242945117036739  0.1429857054188606
  0.1632548793094496  0.5241943403671707  0.6416812545051369
 
             NaN             NaN             NaN
             NaN             NaN             NaN
             NaN             NaN             NaN
             NaN             NaN             NaN
             NaN             NaN             NaN
             NaN             NaN             NaN
             NaN             NaN             NaN
             NaN             NaN             NaN
             NaN             NaN             NaN
             NaN             NaN             NaN
             NaN             NaN             NaN
             NaN             NaN             NaN
             NaN             NaN             NaN
             NaN             NaN             NaN
             NaN             NaN             NaN
             NaN             NaN             NaN
             NaN             NaN             NaN
             NaN             NaN             NaN
             NaN             NaN             NaN
             NaN             NaN             NaN
             NaN             NaN             NaN
             NaN             NaN             NaN
             NaN             NaN             NaN
             NaN             NaN             NaN
             NaN             NaN             NaN
             NaN             NaN             NaN
             NaN             NaN             NaN
             NaN             NaN             NaN
             NaN             NaN             NaN
             NaN             NaN             NaN
             NaN             NaN             NaN
             NaN             NaN             NaN
             NaN             NaN             NaN
             NaN             NaN             NaN
             NaN             NaN             NaN
             NaN             NaN             NaN
             NaN             NaN             NaN
             NaN             NaN             NaN
             NaN             NaN             NaN
             NaN             NaN             NaN
             NaN             NaN             NaN
             NaN             NaN             NaN
             NaN             NaN             NaN
             NaN             NaN             NaN
             NaN             NaN             NaN
             NaN             NaN             NaN
             NaN             NaN             NaN
             NaN             NaN             NaN
             NaN             NaN             NaN
             NaN             NaN             NaN
             NaN             NaN             NaN
             NaN             NaN             NaN
             NaN             NaN             NaN
             NaN             NaN             NaN
             NaN             NaN             NaN
             NaN             NaN             NaN
             NaN             NaN             NaN
             NaN             NaN             NaN
             NaN             NaN             NaN
             NaN             NaN             NaN
             NaN             NaN             NaN
             NaN             NaN             NaN
             NaN             NaN             NaN
             NaN             NaN             NaN
             NaN             NaN             NaN
             NaN             NaN             NaN
             NaN             NaN             NaN
             NaN             NaN             NaN
             NaN             NaN             NaN
             NaN             NaN             NaN
             NaN             NaN             NaN
             NaN             NaN             NaN
             NaN             NaN             NaN
             NaN             NaN             NaN
             NaN             NaN             NaN
             NaN             NaN             NaN
             NaN             NaN             NaN
             NaN             NaN             NaN
             NaN             NaN             NaN
             NaN             NaN             NaN
             NaN             NaN             NaN
             NaN             NaN             NaN
             NaN             NaN             NaN
             NaN             NaN             NaN
             NaN             NaN             NaN
             NaN             NaN             NaN
             NaN             NaN             NaN
             NaN             NaN             NaN
             NaN             NaN             NaN
             NaN             NaN             NaN
             NaN             NaN             NaN
             NaN             NaN             NaN
             NaN             NaN             NaN
             NaN             NaN             NaN
             NaN             NaN             NaN
             NaN             NaN             NaN
             NaN             NaN             NaN
             NaN             NaN             NaN
             NaN             NaN             NaN
             NaN             NaN             NaN
             NaN             NaN             NaN
             NaN             NaN             NaN
             NaN             NaN             NaN
             NaN             NaN             NaN
             NaN             NaN             NaN
             NaN             NaN             NaN
             NaN             NaN             NaN
             NaN             NaN             NaN
             NaN             NaN             NaN
             NaN             NaN             NaN
             NaN             NaN             NaN
