Li46 P16 O64                            
   1.00000000000000     
    10.4929179999999995   -0.0056400000000000   -0.0224060000000000
    -0.0065440000000000   12.2863070000000008   -0.0102480000000000
    -0.0209900000000000   -0.0082490000000000    9.8851949999999995
   Li   P    O 
    46    16    64
Direct
  0.2974743035789622  0.3497926046486288  0.1547779847711870
  0.6652117393459398  0.2508226332898617  0.5975989390216473
  0.6591319963089647  0.7457234988155983  0.0959360384294392
  0.6636300738749943  0.7507754145689091  0.5991805911194337
  0.1539453880217798  0.5089773632592193  0.1533284593519246
  0.1649035382160237  0.5005751077489151  0.6515923871495168
  0.1651962449960710  0.9948160141318015  0.1517571594905097
  0.1647267586165942  0.0003149975899902  0.6538362849245374
  0.3367748205794118  0.0003110044488672  0.4013259061079529
  0.3387812103742515  0.0005651120774311  0.9070611007866565
  0.3387830804357099  0.5003278884823402  0.4046830448036282
  0.3395929540802111  0.4960434710349315  0.9049022804866206
  0.8325268428491847  0.2493568320709983  0.3417184660760768
  0.8334762468952526  0.2489936677539328  0.8563657328844411
  0.8350880816709313  0.7483335211244295  0.3473957117204040
  0.8357247913565328  0.7488895790691992  0.8475778822383250
  0.3396412598894400  0.2453550221624951  0.4090045591913698
  0.3421973699474922  0.2484955109475765  0.9031627013210447
  0.3373187684294102  0.7484821478197595  0.4015653233146824
  0.3360299197453476  0.7481856991102731  0.9035673681592957
  0.8393756905637239  0.0037085115829825  0.3459446292463393
  0.8364580223757435  0.0023497849850995  0.8465588202373666
  0.8320832438058635  0.4969946285467243  0.3449516793428446
  0.8340614131621281  0.4983256657395171  0.8522481025369764
  0.6546590682415879  0.4843733371722700  0.0921373458227561
  0.6656565983798524  0.5009308024746104  0.5952491252985238
  0.6656252306609494  0.9963385531920754  0.0996415994575476
  0.6646029010206248  0.0006262633246457  0.5965796851952445
  0.1649666505945731  0.2519014021485011  0.6530498103700593
  0.1629495598918341  0.7510988482643266  0.1541240183750346
  0.1644330391854635  0.7520990850583046  0.6515733069498624
  0.9344076465752913  0.3661521227211003  0.1469128205503193
  0.9253336902595399  0.3742726249656969  0.6526907496383522
  0.9223294083217504  0.8760254977713979  0.1485840487757958
  0.9242304951282519  0.8764716808444507  0.6483113086063216
  0.4245517102283481  0.3744209377232283  0.6076860316219213
  0.4258654404413753  0.8726611833955397  0.1019546817578857
  0.4257167725095676  0.8755303010007116  0.6007048415087749
  0.0826643876637380  0.1360815302969103  0.3306375798836474
  0.0794555179727927  0.1279531828715421  0.8640949364794570
  0.0735535226192208  0.6259028428023273  0.3543581344000146
  0.0752835149477630  0.6243308961769162  0.8490413830010785
  0.5770958670238602  0.1282308536112359  0.3858317692430926
  0.5791739926328190  0.1340356784989483  0.9194765278486350
  0.5759719186103081  0.6220232030671485  0.3995117525559967
  0.5741379838364097  0.6201788794874060  0.8979937684061001
  0.9149765851622488  0.1210413119657251  0.0956842167393025
  0.9158914664882644  0.1261103192757677  0.5949376223448213
  0.9074719817605075  0.6251449181737383  0.0956588703921334
  0.9116749063966513  0.6252291951157435  0.5953319032465250
  0.4103424728288589  0.1166301238360350  0.1538577236566577
  0.4141226568565251  0.1220776104918859  0.6555863790214014
  0.4077098709538267  0.6218731736108434  0.1543786947974619
  0.4111602300819251  0.6264707593991239  0.6552584359674212
  0.0911084878460996  0.3773976813505502  0.4051009975295682
  0.0929304284435138  0.3778258544480323  0.9052826898657712
  0.0885404466061925  0.8750353911041474  0.4052741173604392
  0.0881785644777824  0.8734040063840219  0.9042522287592408
  0.5847335201114982  0.3756082474393341  0.3465754644794088
  0.5866449900852576  0.3733809260805598  0.8328069110568841
  0.5899262060497570  0.8726466620530434  0.3457929932925038
  0.5895221254205910  0.8733770235206981  0.8453774337394311
  0.8396775036347321  0.0194452492425550  0.1460298814975534
  0.8441380107607375  0.0229267047166049  0.6437018175725424
  0.8399874634110887  0.5213751887668229  0.1442155346039570
  0.8440523479622275  0.5233029745770970  0.6500576467560044
  0.3440752067797559  0.2146935778620879  0.0920942191298502
  0.3420370611254097  0.2242593056322349  0.6066890551904375
  0.3398044003205645  0.7267743826737511  0.1045470430124835
  0.3421096666287263  0.7297779542401946  0.6037945833697675
  0.1669167864577452  0.2783454516682017  0.3572489525161298
  0.1607718115184806  0.2756642863422121  0.8511413364560767
  0.1580195490041005  0.7713000701755818  0.3556895837248573
  0.1578343868752687  0.7708708257107790  0.8517321423445436
  0.6562801092392476  0.4785911463391761  0.4025252879209291
  0.6546928622913848  0.4756682145734419  0.8918170097151260
  0.6603772508004756  0.9754972240706877  0.3953994674479839
  0.6613417866218623  0.9738579562857309  0.8979892282786001
  0.1587232661389157  0.4820829202383349  0.3539588242648581
  0.1589395974056086  0.4807136134346033  0.8476148285596614
  0.1590443304227489  0.9761608390975759  0.3540262742086350
  0.1593552503909909  0.9756205764131667  0.8550783007476874
  0.6568514972104398  0.2738142415223860  0.4002326000687686
  0.6552737509247138  0.2702246484682213  0.8770427042910721
  0.6589529126047089  0.7703428407652031  0.3999563091292988
  0.6574149515384042  0.7686654584134865  0.8945404299483004
  0.8577203624945249  0.2252030052142111  0.1518601429230347
  0.8460180487686396  0.2281192208000458  0.6468534759756503
  0.8361184866819883  0.7273267122086212  0.1460524909828554
  0.8422809118861148  0.7282522857159087  0.6463521531173483
  0.3391882492370220  0.0108979665763013  0.1088089451559067
  0.3428435164732814  0.0193828665794230  0.6037851261558097
  0.3305531660488986  0.5223819387109364  0.1063271868899823
  0.3408561154759207  0.5251795698938451  0.6016336209354908
  0.5481614901754039  0.1076889887616229  0.1087967260932923
  0.5500720620571483  0.1228999313550092  0.5983985077451728
  0.5440095492925026  0.6205136034251109  0.0979595745045424
  0.5495225431637520  0.6271590608824280  0.6045217411740050
  0.0534152550983368  0.1094588724985153  0.1402382951325168
  0.0528158264133981  0.1248032203070240  0.6513864991545273
  0.0447674806107982  0.6292368338577943  0.1514707324166856
  0.0510083054501793  0.6271730569836386  0.6446798733067720
  0.4473103000317015  0.3741261428279372  0.4059932389605218
  0.4448809297756046  0.3744242113846004  0.8684003774070699
  0.4517804140698558  0.8735175519409577  0.3980380473138622
  0.4513210323962252  0.8727565161291980  0.8971941998248270
  0.9533327387807697  0.3759851653188136  0.3516028070165322
  0.9521743929282651  0.3759718578125112  0.8583520386297954
  0.9501740094771363  0.8735460357466007  0.3524617667489431
  0.9503040443083876  0.8741580480226311  0.8499783411958383
  0.5798119915680878  0.3798153871230394  0.1952592075169611
  0.5954219236028787  0.3795853541183248  0.6762532265287210
  0.5904690226479725  0.8687771569436444  0.1899716535175512
  0.5902675529710208  0.8747174229904539  0.6888045741215234
  0.1014405062787469  0.3830488908456709  0.0603532125866139
  0.0893544634277904  0.3786990259033290  0.5619297666455630
  0.0869661828894319  0.8703740094000032  0.0600720448953550
  0.0886768879972703  0.8752716832992100  0.5617043865874924
  0.4056698060384025  0.1230550736721710  0.3111070016601482
  0.4158448731889648  0.1204239899216535  0.8114099211855795
  0.4112992156651986  0.6242789626252613  0.3108794464097225
  0.4090429024428895  0.6256798692888165  0.8112732268405886
  0.9173502055433446  0.1266995510720743  0.4386864823741191
  0.9089032638849376  0.1226045105695126  0.9383870687982646
  0.9079970593602477  0.6238310170964755  0.4391051255393299
  0.9105206967604299  0.6259472643284174  0.9392218027410575
 
             NaN             NaN             NaN
             NaN             NaN             NaN
             NaN             NaN             NaN
             NaN             NaN             NaN
             NaN             NaN             NaN
             NaN             NaN             NaN
             NaN             NaN             NaN
             NaN             NaN             NaN
             NaN             NaN             NaN
             NaN             NaN             NaN
             NaN             NaN             NaN
             NaN             NaN             NaN
             NaN             NaN             NaN
             NaN             NaN             NaN
             NaN             NaN             NaN
             NaN             NaN             NaN
             NaN             NaN             NaN
             NaN             NaN             NaN
             NaN             NaN             NaN
             NaN             NaN             NaN
             NaN             NaN             NaN
             NaN             NaN             NaN
             NaN             NaN             NaN
             NaN             NaN             NaN
             NaN             NaN             NaN
             NaN             NaN             NaN
             NaN             NaN             NaN
             NaN             NaN             NaN
             NaN             NaN             NaN
             NaN             NaN             NaN
             NaN             NaN             NaN
             NaN             NaN             NaN
             NaN             NaN             NaN
             NaN             NaN             NaN
             NaN             NaN             NaN
             NaN             NaN             NaN
             NaN             NaN             NaN
             NaN             NaN             NaN
             NaN             NaN             NaN
             NaN             NaN             NaN
             NaN             NaN             NaN
             NaN             NaN             NaN
             NaN             NaN             NaN
             NaN             NaN             NaN
             NaN             NaN             NaN
             NaN             NaN             NaN
             NaN             NaN             NaN
             NaN             NaN             NaN
             NaN             NaN             NaN
             NaN             NaN             NaN
             NaN             NaN             NaN
             NaN             NaN             NaN
             NaN             NaN             NaN
             NaN             NaN             NaN
             NaN             NaN             NaN
             NaN             NaN             NaN
             NaN             NaN             NaN
             NaN             NaN             NaN
             NaN             NaN             NaN
             NaN             NaN             NaN
             NaN             NaN             NaN
             NaN             NaN             NaN
             NaN             NaN             NaN
             NaN             NaN             NaN
             NaN             NaN             NaN
             NaN             NaN             NaN
             NaN             NaN             NaN
             NaN             NaN             NaN
             NaN             NaN             NaN
             NaN             NaN             NaN
             NaN             NaN             NaN
             NaN             NaN             NaN
             NaN             NaN             NaN
             NaN             NaN             NaN
             NaN             NaN             NaN
             NaN             NaN             NaN
             NaN             NaN             NaN
             NaN             NaN             NaN
             NaN             NaN             NaN
             NaN             NaN             NaN
             NaN             NaN             NaN
             NaN             NaN             NaN
             NaN             NaN             NaN
             NaN             NaN             NaN
             NaN             NaN             NaN
             NaN             NaN             NaN
             NaN             NaN             NaN
             NaN             NaN             NaN
             NaN             NaN             NaN
             NaN             NaN             NaN
             NaN             NaN             NaN
             NaN             NaN             NaN
             NaN             NaN             NaN
             NaN             NaN             NaN
             NaN             NaN             NaN
             NaN             NaN             NaN
             NaN             NaN             NaN
             NaN             NaN             NaN
             NaN             NaN             NaN
             NaN             NaN             NaN
             NaN             NaN             NaN
             NaN             NaN             NaN
             NaN             NaN             NaN
             NaN             NaN             NaN
             NaN             NaN             NaN
             NaN             NaN             NaN
             NaN             NaN             NaN
             NaN             NaN             NaN
             NaN             NaN             NaN
             NaN             NaN             NaN
             NaN             NaN             NaN
             NaN             NaN             NaN
             NaN             NaN             NaN
             NaN             NaN             NaN
             NaN             NaN             NaN
             NaN             NaN             NaN
             NaN             NaN             NaN
             NaN             NaN             NaN
             NaN             NaN             NaN
             NaN             NaN             NaN
             NaN             NaN             NaN
             NaN             NaN             NaN
             NaN             NaN             NaN
             NaN             NaN             NaN
             NaN             NaN             NaN
             NaN             NaN             NaN
