Li46 P16 O64                            
   1.00000000000000     
    10.4929179999999995   -0.0056400000000000   -0.0224060000000000
    -0.0065440000000000   12.2863070000000008   -0.0102480000000000
    -0.0209900000000000   -0.0082490000000000    9.8851949999999995
   Li   P    O 
    46    16    64
Direct
  0.2700299427489704  0.3356467099432178  0.1634358369032344
  0.6653658447841101  0.2510018425856526  0.5980400209721166
  0.6594538468125246  0.7460547478897985  0.0958483603395446
  0.6636872238911156  0.7508131589708978  0.5991032586602270
  0.1554611714680022  0.5103741101224751  0.1514224169050540
  0.1655281914614868  0.5003741437944285  0.6517655318956185
  0.1653520810002818  0.9947085219486249  0.1517779889123632
  0.1648858319594461  1.0000319526596746  0.6536313773264333
  0.3369886798507564  0.0002407189961958  0.4013385638941819
  0.3387061487753306  0.0006508469334540  0.9072497654752125
  0.3397416802793336  0.5002819589614269  0.4031232943222275
  0.3401589637846423  0.4956073432896258  0.9069697144719185
  0.8321978780075036  0.2493204523371728  0.3415391734723914
  0.8333585739717649  0.2488553168365129  0.8565465086484805
  0.8352459438142510  0.7482825253701794  0.3474380256287130
  0.8357952907837185  0.7488256162588669  0.8472655353646592
  0.3413885495373051  0.2457163652684074  0.4091524397650956
  0.3428821429917181  0.2493846478772331  0.9041992178095090
  0.3375452724471293  0.7485786105469503  0.4013354422510956
  0.3363832727675974  0.7483766963566690  0.9039796108898832
  0.8393727440144253  0.0037552844055589  0.3459609972948992
  0.8366141031806063  0.0023690700527332  0.8464670242971247
  0.8320029735702803  0.4971082873982474  0.3449010960531327
  0.8338927768142369  0.4982472539587839  0.8522183516527456
  0.6541287297920478  0.4846704789729256  0.0920644518137034
  0.6657384018399761  0.5011731399816077  0.5952025793401372
  0.6656381588957393 -0.0033675917758907  0.0992088644699546
  0.6646420065597731  0.0007174392535537  0.5967743508551414
  0.1655650835904048  0.2515172143899069  0.6539088250913281
  0.1635878767412863  0.7515405030204728  0.1537094713188722
  0.1646257746685071  0.7519952402012018  0.6516753084204377
  0.9329797654125859  0.3667814986937138  0.1465972354020027
  0.9256667859068390  0.3741248643185266  0.6523881652242248
  0.9222243640981628  0.8758983349129577  0.1485017769266444
  0.9242562183414453  0.8764218797883396  0.6480973306782537
  0.4248179874241848  0.3748401116029573  0.6076741108797501
  0.4265926435384449  0.8729140018038294  0.1021484765117079
  0.4259379885870013  0.8753829956149225  0.6005946754837779
  0.0825057202134303  0.1356094939283250  0.3310641116846177
  0.0794960207892239  0.1275317608797276  0.8634157606541921
  0.0737367410346064  0.6263063580227423  0.3535696639496136
  0.0755265676594160  0.6242645913370157  0.8492792754692436
  0.5773614601276633  0.1284539260009633  0.3868073165909492
  0.5788939095413353  0.1340177705963674  0.9189172286350412
  0.5761839420497115  0.6220302330138979  0.3993829912540064
  0.5740231435268333  0.6202653155790613  0.8980467593341565
  0.9151798304726306  0.1211335413497069  0.0956748838482636
  0.9161291867662805  0.1261883282561666  0.5948825045599578
  0.9077170187649923  0.6251648859965425  0.0954079972576129
  0.9120845803118086  0.6250333463402454  0.5952964220209407
  0.4102780867298397  0.1162370064053644  0.1539933731937642
  0.4139479861936833  0.1221077707366411  0.6556427548406070
  0.4079237066688258  0.6233337772491168  0.1541472871509016
  0.4111008195589021  0.6265754540377357  0.6551825618447994
  0.0915181853318263  0.3779872905819138  0.4043692867320374
  0.0929094924738335  0.3775038656526272  0.9054491959893298
  0.0885531214859084  0.8750832503704745  0.4052289021998707
  0.0881458502819971  0.8733863652475359  0.9041643771704947
  0.5856555472244261  0.3756622534151803  0.3469973101543531
  0.5867325904644171  0.3734589369941324  0.8323779213736772
  0.5903352369656142  0.8728637257405585  0.3458788802027115
  0.5897283071356133  0.8735941139840109  0.8452214608813702
  0.8398723535324466  0.0195860388399307  0.1459583449948899
  0.8443435791978032  0.0230475422932585  0.6436006131859121
  0.8406400782661099  0.5212378670762150  0.1441579892554382
  0.8444937657495283  0.5230103860265345  0.6498871558425852
  0.3427730281254122  0.2136850752210139  0.0922556265630226
  0.3418114393512436  0.2241458491962040  0.6061807869708156
  0.3410365319824262  0.7291737169217211  0.1054482404361678
  0.3421279781824598  0.7299595659022932  0.6037133513409106
  0.1684021453763786  0.2800589619466530  0.3527334010082914
  0.1606731912168329  0.2753635770735687  0.8514749138149041
  0.1580538560470517  0.7715025123786091  0.3553465073453523
  0.1578778140933913  0.7708048093368813  0.8519623003995288
  0.6568880248623034  0.4787859854050990  0.4031614198353055
  0.6547133737368558  0.4756661667205599  0.8917924485848951
  0.6605993896212343  0.9757532303474270  0.3957709912844036
  0.6615669423158891  0.9741568726780210  0.8976570012822808
  0.1585181989581497  0.4828159631850802  0.3534264051686707
  0.1588556512574839  0.4803965115929755  0.8483213686552876
  0.1589771188057577  0.9763818165057206  0.3542722870029023
  0.1593726571411242  0.9755589450613826  0.8549098251457503
  0.6574603444478789  0.2737193626786167  0.4012324907138809
  0.6552870201248467  0.2701566371889735  0.8764539972089972
  0.6593912979335204  0.7705695498732322  0.4000692451278774
  0.6577022212412185  0.7689345024248341  0.8943661524326931
  0.8577385815621071  0.2253365416144238  0.1515862630044710
  0.8464942668601079  0.2282054536295318  0.6469896095388822
  0.8363434420431125  0.7272034977229231  0.1460808210329672
  0.8425754864049977  0.7280199463900888  0.6461861550533403
  0.3392226210810059  0.0103319970094024  0.1095546369309214
  0.3429398919463327  0.0192985984161715  0.6037481087477271
  0.3297976904217613  0.5254304218686341  0.1047862972488312
  0.3408470666848111  0.5253821963657235  0.6011147185594059
  0.5477748768820724  0.1079062719025267  0.1080558450249674
  0.5500626238477123  0.1230269451370821  0.5988610016833328
  0.5444536258351149  0.6214479181206541  0.0979581453943670
  0.5495408167723305  0.6273598963772875  0.6045580124394014
  0.0536245489648131  0.1098350991365538  0.1406809276861415
  0.0531764055113395  0.1247589291943365  0.6510838510004289
  0.0451776119525547  0.6295163742984893  0.1506342782523930
  0.0513307809776512  0.6268137036037843  0.6449598738179414
  0.4483144801149483  0.3741791217562684  0.4064848234746950
  0.4449499538571079  0.3744450055954567  0.8672816403904591
  0.4521347393039382  0.8736178537025100  0.3979282023719595
  0.4515982817354081  0.8731276517370293  0.8970837828102789
  0.9536094908153315  0.3757840275007545  0.3517745001004961
  0.9521454003238673  0.3758394080528488  0.8589770207659709
  0.9501659413736786  0.8736709705342025  0.3524187349659360
  0.9503373743786581  0.8741123601729082  0.8496619942810751
  0.5825979679693997  0.3795765603207747  0.1958478320456062
  0.5958784733742069  0.3798539177088910  0.6759366716645122
  0.5912991830949160  0.8692119793188038  0.1900808484144750
  0.5904485887923729  0.8748331774032356  0.6886530222917293
  0.1014765963368409  0.3821958413287784  0.0609896902127653
  0.0908965387411267  0.3775329454320795  0.5610351730595998
  0.0866841278118009  0.8706256426037258  0.0599761261074969
  0.0886645370598437  0.8750969548552151  0.5616454513169755
  0.4061140282257838  0.1230097262217293  0.3112429080118077
  0.4152423738437465  0.1206906107984836  0.8114187926946029
  0.4117651062848933  0.6248802433757550  0.3107798977806446
  0.4088227255550574  0.6256869982543968  0.8111654576600864
  0.9176431480552126  0.1269041921014745  0.4386106835740463
  0.9094565742826975  0.1225584157214320  0.9383832818264026
  0.9086581700846323  0.6237018901012138  0.4390547066203628
  0.9103596611376223  0.6258656728527142  0.9389706744912355
 
             NaN             NaN             NaN
             NaN             NaN             NaN
             NaN             NaN             NaN
             NaN             NaN             NaN
             NaN             NaN             NaN
             NaN             NaN             NaN
             NaN             NaN             NaN
             NaN             NaN             NaN
             NaN             NaN             NaN
             NaN             NaN             NaN
             NaN             NaN             NaN
             NaN             NaN             NaN
             NaN             NaN             NaN
             NaN             NaN             NaN
             NaN             NaN             NaN
             NaN             NaN             NaN
             NaN             NaN             NaN
             NaN             NaN             NaN
             NaN             NaN             NaN
             NaN             NaN             NaN
             NaN             NaN             NaN
             NaN             NaN             NaN
             NaN             NaN             NaN
             NaN             NaN             NaN
             NaN             NaN             NaN
             NaN             NaN             NaN
             NaN             NaN             NaN
             NaN             NaN             NaN
             NaN             NaN             NaN
             NaN             NaN             NaN
             NaN             NaN             NaN
             NaN             NaN             NaN
             NaN             NaN             NaN
             NaN             NaN             NaN
             NaN             NaN             NaN
             NaN             NaN             NaN
             NaN             NaN             NaN
             NaN             NaN             NaN
             NaN             NaN             NaN
             NaN             NaN             NaN
             NaN             NaN             NaN
             NaN             NaN             NaN
             NaN             NaN             NaN
             NaN             NaN             NaN
             NaN             NaN             NaN
             NaN             NaN             NaN
             NaN             NaN             NaN
             NaN             NaN             NaN
             NaN             NaN             NaN
             NaN             NaN             NaN
             NaN             NaN             NaN
             NaN             NaN             NaN
             NaN             NaN             NaN
             NaN             NaN             NaN
             NaN             NaN             NaN
             NaN             NaN             NaN
             NaN             NaN             NaN
             NaN             NaN             NaN
             NaN             NaN             NaN
             NaN             NaN             NaN
             NaN             NaN             NaN
             NaN             NaN             NaN
             NaN             NaN             NaN
             NaN             NaN             NaN
             NaN             NaN             NaN
             NaN             NaN             NaN
             NaN             NaN             NaN
             NaN             NaN             NaN
             NaN             NaN             NaN
             NaN             NaN             NaN
             NaN             NaN             NaN
             NaN             NaN             NaN
             NaN             NaN             NaN
             NaN             NaN             NaN
             NaN             NaN             NaN
             NaN             NaN             NaN
             NaN             NaN             NaN
             NaN             NaN             NaN
             NaN             NaN             NaN
             NaN             NaN             NaN
             NaN             NaN             NaN
             NaN             NaN             NaN
             NaN             NaN             NaN
             NaN             NaN             NaN
             NaN             NaN             NaN
             NaN             NaN             NaN
             NaN             NaN             NaN
             NaN             NaN             NaN
             NaN             NaN             NaN
             NaN             NaN             NaN
             NaN             NaN             NaN
             NaN             NaN             NaN
             NaN             NaN             NaN
             NaN             NaN             NaN
             NaN             NaN             NaN
             NaN             NaN             NaN
             NaN             NaN             NaN
             NaN             NaN             NaN
             NaN             NaN             NaN
             NaN             NaN             NaN
             NaN             NaN             NaN
             NaN             NaN             NaN
             NaN             NaN             NaN
             NaN             NaN             NaN
             NaN             NaN             NaN
             NaN             NaN             NaN
             NaN             NaN             NaN
             NaN             NaN             NaN
             NaN             NaN             NaN
             NaN             NaN             NaN
             NaN             NaN             NaN
             NaN             NaN             NaN
             NaN             NaN             NaN
             NaN             NaN             NaN
             NaN             NaN             NaN
             NaN             NaN             NaN
             NaN             NaN             NaN
             NaN             NaN             NaN
             NaN             NaN             NaN
             NaN             NaN             NaN
             NaN             NaN             NaN
             NaN             NaN             NaN
             NaN             NaN             NaN
             NaN             NaN             NaN
             NaN             NaN             NaN
             NaN             NaN             NaN
