Li47 P16 O64
1.0
10.613214 -0.002119 -0.010103
-0.002450 12.363897 -0.003162
-0.009510 -0.002528 10.027574
Li P O
47 16 64
direct
0.516924 0.324392 0.097610 Li
0.663392 0.251962 0.601174 Li
0.663130 0.750333 0.098636 Li
0.663449 0.751459 0.599558 Li
0.164609 0.497840 0.150435 Li
0.164050 0.499053 0.651134 Li
0.163559 0.996802 0.151672 Li
0.164143 0.998900 0.651004 Li
0.337094 0.001046 0.400422 Li
0.337453 0.001196 0.903323 Li
0.338276 0.499785 0.398117 Li
0.338361 0.498175 0.904223 Li
0.832923 0.249140 0.345273 Li
0.834344 0.248933 0.853682 Li
0.836565 0.748780 0.349143 Li
0.836483 0.748972 0.849278 Li
0.337996 0.250379 0.398469 Li
0.338016 0.250175 0.903642 Li
0.337280 0.749120 0.400126 Li
0.337284 0.749442 0.902408 Li
0.836834 0.001903 0.348554 Li
0.836936 0.001974 0.849849 Li
0.834347 0.500530 0.349458 Li
0.834852 0.500105 0.850025 Li
0.659615 0.493716 0.097100 Li
0.663698 0.501014 0.598388 Li
0.664475 1.002335 0.100530 Li
0.663221 1.000787 0.599451 Li
0.164025 0.250302 0.149430 Li
0.163978 0.250860 0.650984 Li
0.164152 0.750624 0.150865 Li
0.163859 0.750985 0.651576 Li
0.922969 0.373821 0.148139 Li
0.925096 0.374375 0.649126 Li
0.925324 0.875668 0.149140 Li
0.925571 0.875572 0.649282 Li
0.425812 0.375640 0.602034 Li
0.428145 0.875872 0.101810 Li
0.426677 0.875715 0.601149 Li
0.074234 0.125575 0.349120 Li
0.074907 0.125336 0.852461 Li
0.074049 0.623991 0.350614 Li
0.074514 0.624077 0.851875 Li
0.574012 0.128550 0.395374 Li
0.575080 0.130388 0.906673 Li
0.573906 0.624021 0.399129 Li
0.573268 0.623345 0.899116 Li
0.913696 0.125052 0.097869 P
0.912088 0.125060 0.596751 P
0.910629 0.624923 0.097086 P
0.911722 0.625342 0.597293 P
0.408450 0.120925 0.152389 P
0.410936 0.124588 0.653269 P
0.410337 0.626498 0.151950 P
0.410419 0.626301 0.653334 P
0.088233 0.375343 0.403259 P
0.088186 0.375043 0.902935 P
0.088511 0.874486 0.404030 P
0.088728 0.874454 0.903273 P
0.589239 0.376783 0.349402 P
0.588034 0.374564 0.840486 P
0.590115 0.875156 0.347227 P
0.589949 0.875425 0.846899 P
0.843109 0.021676 0.148770 O
0.841972 0.021822 0.647797 O
0.840259 0.522333 0.147864 O
0.842157 0.522627 0.649138 O
0.336018 0.220980 0.098377 O
0.340316 0.227130 0.601569 O
0.342521 0.732032 0.103799 O
0.340962 0.729962 0.602376 O
0.157778 0.272296 0.351667 O
0.157991 0.272111 0.851451 O
0.158241 0.771350 0.352658 O
0.158695 0.771291 0.852326 O
0.659224 0.479902 0.403957 O
0.657236 0.477157 0.896373 O
0.659509 0.978484 0.398605 O
0.660512 0.977777 0.898490 O
0.158570 0.478370 0.352234 O
0.158122 0.478144 0.851668 O
0.158420 0.977469 0.353512 O
0.159032 0.977327 0.852423 O
0.658920 0.273517 0.402119 O
0.657297 0.270570 0.884459 O
0.659747 0.772013 0.399163 O
0.659084 0.771487 0.897308 O
0.849122 0.228221 0.150517 O
0.843005 0.227911 0.648456 O
0.841327 0.728504 0.148034 O
0.841803 0.728616 0.648113 O
0.338446 0.015726 0.105641 O
0.341300 0.020951 0.601769 O
0.337046 0.526922 0.099006 O
0.340152 0.524034 0.600610 O
0.544899 0.118769 0.099996 O
0.548626 0.124912 0.600315 O
0.548327 0.625880 0.099222 O
0.548641 0.627172 0.601828 O
0.053131 0.121500 0.147625 O
0.050469 0.124211 0.648972 O
0.048910 0.624896 0.149351 O
0.050017 0.625591 0.649350 O
0.451312 0.375649 0.403976 O
0.449089 0.374140 0.887334 O
0.451835 0.874867 0.398937 O
0.451721 0.875239 0.898467 O
0.949866 0.376182 0.352196 O
0.949909 0.375227 0.850713 O
0.950288 0.874566 0.351758 O
0.950717 0.874707 0.850299 O
0.590450 0.380226 0.196618 O
0.590568 0.379572 0.684900 O
0.591744 0.874637 0.191579 O
0.590390 0.875662 0.690880 O
0.088399 0.375074 0.058616 O
0.089607 0.375192 0.559292 O
0.088178 0.873664 0.058957 O
0.088917 0.874291 0.559902 O
0.408468 0.124276 0.308807 O
0.410247 0.124179 0.808899 O
0.411059 0.625513 0.308132 O
0.409432 0.625610 0.809082 O
0.911372 0.125053 0.440933 O
0.912123 0.124373 0.941593 O
0.910994 0.625163 0.441450 O
0.910417 0.625106 0.941093 O
