Na6 P2 S8                               
   1.00000000000000     
    13.9300868925339589    0.0001652154070247    0.0000088774766304
     0.0001448224978133   13.9301129713826590    0.0001982681201417
     0.0000340174341809    0.0001655821011086   14.3121251245005823
   Na   P    S 
    47    16    64
Direct
  0.5304540876057047  0.7460175242353984  0.7204306440466723
  0.9997679836352802  0.2511838882973407  0.2064458674358178
  0.9986866665762406  0.2504711208131880  0.7057668975691840
  0.9987925518566527  0.7511440118407720  0.2118362831497720
  0.9695442175577114  0.7539798104041182  0.7204292219009076
  0.5002358795750581  0.2488145835827780  0.2064442520671221
  0.5013218289844090  0.2495196975911469  0.7057698396597232
  0.5012084914261266  0.7488580550793174  0.2118383220724809
  0.2488171208665975  0.9997721773933819  0.2935562748523353
  0.2495236280562168  0.9986887260989761  0.7942324537242271
  0.2511852196939230  0.5002317695559952  0.2935573486332075
  0.2504775668777199  0.5013210176057612  0.7942365790801418
  0.7488578023619823  0.9987907628806241  0.2881604874682679
  0.7460192280102333  0.9695376794537793  0.7795643872255837
  0.7511426200587010  0.5012077188576427  0.2881657556947346
  0.7539782084529421  0.5304527533842744  0.7795736577686156
  0.2528032030277316  0.9996813401975615  0.0441587329620319
  0.2441158604800222  0.9975241494781955  0.5454320204394563
  0.2471821791399478  0.5003430147958667  0.0441699485115663
  0.2558824788423593  0.5024786674257768  0.5454348784852954
  0.7530821128842717  0.9999063530015775  0.0352427604820420
  0.7433603961803854  0.9999248378757457  0.5359978884545171
  0.7469100720759485  0.5000917482039497  0.0352477521162626
  0.7566416212526903  0.5000608870543601  0.5360044169309077
  0.9996778912673463  0.2471935503000182  0.4558338909469555
  0.9975232599796797  0.2558828903000219  0.9545634216701160
  0.9999037325097291  0.7469159101686742  0.4647542787013137
  0.9999239242963114  0.7566402956660525  0.9639969749565793
  0.5003411414000851  0.2528088926338654  0.4558361466402658
  0.5024797662318576  0.2441129094718164  0.9545694113630603
  0.5000949851879142  0.7530841945715565  0.4647550591777048
  0.5000637907257399  0.7433596638221331  0.9639979559858460
  0.9940534453971424  0.9955449625272124  0.5023072932664618
  0.0060518260541187  0.0116323955836819  0.0017692419189217
  0.0116323622018228  0.4939493957649503  0.4982266956195218
  0.9955358691679379  0.5059382642128298  0.9976938065540608
  0.4883597012197853  0.0060499226408481  0.4982302557029215
  0.5044558670841326  0.9940503535315131  0.9976922421683483
  0.5059314573647171  0.5044577916533513  0.5023083820323180
  0.4939469392650437  0.4883585440313709  0.0017717356044784
  0.2500040928927589  0.2500054190746326  0.2500006573341125
  0.2500025400094614  0.2500083558553925  0.7500024013681994
  0.2499971530584375  0.7500010008270124  0.2509931483318724
  0.2499992591268452  0.7500059052563586  0.7493532098128597
  0.7500106554944850  0.2499971471921114  0.2490004303261841
  0.7500072469238930  0.2500001088381012  0.7506492303548598
  0.7500031787431496  0.7499964434738544  0.2500018634738268
  0.9997893743519271  0.0011173359006591  0.2502305081922813
  0.9995612926856410  0.0028991277016885  0.7531460226176421
  0.0011141622567337  0.5002113599262756  0.2497749928894279
  0.0029018405430605  0.5004395441400433  0.7468595549024357
  0.4988888823757378  0.9997906347546532  0.2497753903163868
  0.4971014514937693  0.9995562152731452  0.7468579436527492
  0.5002112012977022  0.4988859480811882  0.2502280150567060
  0.5004401417965241  0.4971054227424290  0.7531443403949680
  0.2500029772958214  0.2500086749561348  0.0003219216552992
  0.2500156168924548  0.2500014414767477  0.4996854215749025
  0.2499765580135005  0.7500231471187959  0.0014740666493225
  0.2500030807503180  0.7499997623481676  0.5002391304582403
  0.7500020810665262  0.2500030263461213  0.9997657487944167
  0.7500397009169220  0.2499934378742665  0.4985320620841236
  0.7499956563094159  0.7499994574575339  0.0032585411230173
  0.7499998678456095  0.7499962373813105  0.4967542764698223
  0.1543353284955202  0.1744043511642772  0.0828508844729328
  0.1541973778258523  0.1746470212553817  0.5817902642494985
  0.1535329265871326  0.6757166858552566  0.0841004193424482
  0.1551696150243913  0.6744411377967623  0.5826211294708514
  0.6557027839665750  0.1726710783241572  0.0827555674118443
  0.6537797944925927  0.1755268148689311  0.5808519281131126
  0.6560649868215478  0.6725387298411292  0.0864887480608587
  0.6558910017882837  0.6706344920407474  0.5765129290485191
  0.3456605071589820  0.3256103339334118  0.0828552023033851
  0.3458184127422186  0.3253542449617512  0.5817891171841012
  0.3464399024774636  0.8243103156524185  0.0841091791130495
  0.3448285813593017  0.8255600609376259  0.5826235581684287
  0.8442958751362681  0.3273322382264965  0.0827590306551471
  0.8462642285840829  0.3244603530553434  0.5808488020173215
  0.8439291341171824  0.8274645366922897  0.0864865608539631
  0.8441022053018159  0.8293642495901565  0.5765177477903620
  0.1744027565861757  0.3456599795764177  0.4171449006224464
  0.1746482334025004  0.3458146814429881  0.9182121725155312
  0.1726693179616987  0.8442934076689639  0.4172416396567229
  0.1755228226164078  0.8462513319870055  0.9191436764659073
  0.6757235664688324  0.3464452481786324  0.4158988166696531
  0.6744375765993738  0.3448276582490024  0.9173755569633002
  0.6725368147737640  0.8439267277220139  0.4135117391316143
  0.6706331542761035  0.8441029486345926  0.9234870131708632
  0.3256083104297360  0.1543391256076205  0.4171427201591058
  0.3253474464158117  0.1541983278035985  0.9182060243532746
  0.3273247246271893  0.6557028460851910  0.4172413188751207
  0.3244577233895569  0.6537747681053503  0.9191490120616592
  0.8243075115478078  0.1535397486965309  0.4159014439814399
  0.8255541421516739  0.1551751336567762  0.9173725824876797
  0.8274584464485102  0.6560640510418949  0.4135126297292757
  0.8293553876629289  0.6558885904491660  0.9234875090234382
  0.0959044090742225  0.4245441692508933  0.1666542658295356
  0.1017686330699661  0.4217242647910950  0.6707370005316022
  0.0952955414612120  0.9255304627102348  0.1675990815662090
  0.0908378082246486  0.9211568717837935  0.6716862371749173
  0.5952404140716894  0.4228195892440283  0.1675699826860253
  0.5977086141000285  0.4254637516223312  0.6694654832240730
  0.5941925733986437  0.9242477030736183  0.1675123953046906
  0.5866629190680612  0.9265282914627733  0.6567154286221282
  0.4040967659458445  0.0754564962307782  0.1666545167488067
  0.3982294365207295  0.0782710085259453  0.6707371230973678
  0.4046975141622795  0.5744685398156193  0.1676011833483457
  0.4091567275906840  0.5788391562039692  0.6716824464576518
  0.9047578844878856  0.0771771792245275  0.1675702538725261
  0.9022850031044527  0.0745285485240430  0.6694647474560256
  0.9058029812497637  0.5757446705668556  0.1675125602021410
  0.9133311255497105  0.5734647045649837  0.6567169578910708
  0.0754601401601107  0.0959075409553591  0.3333450632223105
  0.0782756773326696  0.1017706664470666  0.8292629491048373
  0.0771791337836092  0.5952415852623503  0.3324297087208592
  0.0745379223790437  0.5977087879907330  0.8305353022467159
  0.5744782740545062  0.0953009009218206  0.3324017141820335
  0.5788416234163734  0.0908324641606058  0.8283146307435842
  0.5757476950428568  0.5941945025342719  0.3324875746084928
  0.5734666579237526  0.5866698580842851  0.8432807371564550
  0.4245453579177649  0.4040928310794030  0.3333399801900967
  0.4217234009346384  0.3982274212253714  0.8292562491887310
  0.4228180536680313  0.9047546565438580  0.3324265745148267
  0.4254582356891419  0.9022815487664175  0.8305295070874052
  0.9255263301102872  0.4046956605201473  0.3323933525867204
  0.9211556482692203  0.4091580292288910  0.8283151835929630
  0.9242517536229684  0.9058027962282296  0.3324806442763659
  0.9265295224051044  0.9133255153697277  0.8432774795682221
