Na47 P16 S64
1.0
13.930087 0.000165 0.000009
0.000145 13.930113 0.000198
0.000034 0.000166 14.312125
Na P S
47 16 64
direct
0.530454 0.746018 0.720431 Na
0.999768 0.251184 0.206446 Na
0.998687 0.250471 0.705767 Na
0.998793 0.751144 0.211836 Na
0.969544 0.753980 0.720429 Na
0.500236 0.248815 0.206444 Na
0.501322 0.249520 0.705770 Na
0.501208 0.748858 0.211838 Na
0.248817 0.999772 0.293556 Na
0.249524 0.998689 0.794232 Na
0.251185 0.500232 0.293557 Na
0.250478 0.501321 0.794237 Na
0.748858 0.998791 0.288160 Na
0.746019 0.969538 0.779564 Na
0.751143 0.501208 0.288166 Na
0.753978 0.530453 0.779574 Na
0.252803 0.999681 0.044159 Na
0.244116 0.997524 0.545432 Na
0.247182 0.500343 0.044170 Na
0.255882 0.502479 0.545435 Na
0.753082 0.999906 0.035243 Na
0.743360 0.999925 0.535998 Na
0.746910 0.500092 0.035248 Na
0.756642 0.500061 0.536004 Na
0.999678 0.247194 0.455834 Na
0.997523 0.255883 0.954563 Na
0.999904 0.746916 0.464754 Na
0.999924 0.756640 0.963997 Na
0.500341 0.252809 0.455836 Na
0.502480 0.244113 0.954569 Na
0.500095 0.753084 0.464755 Na
0.500064 0.743360 0.963998 Na
0.994053 0.995545 0.502307 Na
0.006052 0.011632 0.001769 Na
0.011632 0.493949 0.498227 Na
0.995536 0.505938 0.997694 Na
0.488360 0.006050 0.498230 Na
0.504456 0.994050 0.997692 Na
0.505931 0.504458 0.502308 Na
0.493947 0.488359 0.001772 Na
0.250004 0.250005 0.250001 Na
0.250003 0.250008 0.750002 Na
0.249997 0.750001 0.250993 Na
0.249999 0.750006 0.749353 Na
0.750011 0.249997 0.249000 Na
0.750007 0.250000 0.750649 Na
0.750003 0.749996 0.250002 Na
0.999789 0.001117 0.250231 P
0.999561 0.002899 0.753146 P
0.001114 0.500211 0.249775 P
0.002902 0.500440 0.746860 P
0.498889 0.999791 0.249775 P
0.497101 0.999556 0.746858 P
0.500211 0.498886 0.250228 P
0.500440 0.497105 0.753144 P
0.250003 0.250009 0.000322 P
0.250016 0.250001 0.499685 P
0.249977 0.750023 0.001474 P
0.250003 0.750000 0.500239 P
0.750002 0.250003 0.999766 P
0.750040 0.249993 0.498532 P
0.749996 0.749999 0.003259 P
0.750000 0.749996 0.496754 P
0.154335 0.174404 0.082851 S
0.154197 0.174647 0.581790 S
0.153533 0.675717 0.084100 S
0.155170 0.674441 0.582621 S
0.655703 0.172671 0.082756 S
0.653780 0.175527 0.580852 S
0.656065 0.672539 0.086489 S
0.655891 0.670634 0.576513 S
0.345661 0.325610 0.082855 S
0.345818 0.325354 0.581789 S
0.346440 0.824310 0.084109 S
0.344829 0.825560 0.582624 S
0.844296 0.327332 0.082759 S
0.846264 0.324460 0.580849 S
0.843929 0.827465 0.086487 S
0.844102 0.829364 0.576518 S
0.174403 0.345660 0.417145 S
0.174648 0.345815 0.918212 S
0.172669 0.844293 0.417242 S
0.175523 0.846251 0.919144 S
0.675724 0.346445 0.415899 S
0.674438 0.344828 0.917376 S
0.672537 0.843927 0.413512 S
0.670633 0.844103 0.923487 S
0.325608 0.154339 0.417143 S
0.325347 0.154198 0.918206 S
0.327325 0.655703 0.417241 S
0.324458 0.653775 0.919149 S
0.824308 0.153540 0.415901 S
0.825554 0.155175 0.917373 S
0.827458 0.656064 0.413513 S
0.829355 0.655889 0.923488 S
0.095904 0.424544 0.166654 S
0.101769 0.421724 0.670737 S
0.095296 0.925530 0.167599 S
0.090838 0.921157 0.671686 S
0.595240 0.422820 0.167570 S
0.597709 0.425464 0.669465 S
0.594193 0.924248 0.167512 S
0.586663 0.926528 0.656715 S
0.404097 0.075456 0.166655 S
0.398229 0.078271 0.670737 S
0.404698 0.574469 0.167601 S
0.409157 0.578839 0.671682 S
0.904758 0.077177 0.167570 S
0.902285 0.074529 0.669465 S
0.905803 0.575745 0.167513 S
0.913331 0.573465 0.656717 S
0.075460 0.095908 0.333345 S
0.078276 0.101771 0.829263 S
0.077179 0.595242 0.332430 S
0.074538 0.597709 0.830535 S
0.574478 0.095301 0.332402 S
0.578842 0.090832 0.828315 S
0.575748 0.594195 0.332488 S
0.573467 0.586670 0.843281 S
0.424545 0.404093 0.333340 S
0.421723 0.398227 0.829256 S
0.422818 0.904755 0.332427 S
0.425458 0.902282 0.830530 S
0.925526 0.404696 0.332393 S
0.921156 0.409158 0.828315 S
0.924252 0.905803 0.332481 S
0.926530 0.913326 0.843277 S
