Mg7 Sc16 Se32                           
   1.00000000000000     
    11.2087950000000003    0.0000000000000000    0.0000010000000000
     0.0000000000000000   11.2087959999999995    0.0000000000000000
     0.0000010000000000    0.0000000000000000   11.2087959999999995
   Mg   Sc   Se
     7    16    32
Direct
  0.4305012756910326  0.4305013269343580  0.4305013220398816
  0.6256364679211250  0.1268401447011593  0.1268401181628528
  0.1268398119239385  0.6256364956912863  0.1268401028940928
  0.1268398882404879  0.1268400369225718  0.6256364821419618
  0.3760659158709800  0.8729162298801195  0.8729161847452602
  0.8729160825212885  0.3760660684393000  0.8729161320247700
  0.8729160376003929  0.8729160736546215  0.3760661046822651
  0.9935551730823273  0.7503677211962001  0.7503675077196593
  0.7503676761905883  0.9935552767269538  0.7503676742453103
  0.7503675915867277  0.7503678974123490  0.9935552641733627
  0.0005362600776589  0.0005359151461992  0.0005359662126409
  0.0069303225887726  0.2505767604989098  0.2505768527970484
  0.2505767356078124  0.0069301111799914  0.2505770081872940
  0.2505765614157709  0.2505770651964999  0.0069299119582990
  0.7503118235225303  0.5000419764968603  0.2534123725319410
  0.7503119116425953  0.2534126898699184  0.5000422728710132
  0.9877857615168147  0.5006595039437189  0.5006595837519467
  0.2534126009097224  0.5000421170456286  0.7503118956474066
  0.2534126700188022  0.7503119784948571  0.5000422552296679
  0.5000420180386647  0.7503119290188638  0.2534124199768358
  0.5006595538488159  0.9877856853540677  0.5006595129685061
  0.5000420703045029  0.2534125037143741  0.7503118872595981
  0.5006595197701955  0.5006593734019665  0.9877857667964369
  0.7582499811647839  0.9935698406483735  0.9935697318019446
  0.9935696171257336  0.7582498447302362  0.9935695722690150
  0.9935697270271883  0.9935697484928189  0.7582499589806373
  0.7564852775281891  0.7564853748188703  0.7564853472953598
  0.2434527708150575  0.0075763263707126  0.0075762773020225
  0.0075759221391950  0.2434525018697469  0.0075761460167429
  0.0075761006919836  0.0075760122705984  0.2434525682754442
  0.2461291619226295  0.2461290208885473  0.2461287284848812
  0.7501051327609741  0.4921942926708356  0.4921940609518703
  0.9924890967733724  0.2579783443466251  0.4934217512469665
  0.9924890555453847  0.4934216334798927  0.2579784047909554
  0.7616113480509600  0.2569347981536973  0.2569349946403518
  0.2344882646486059  0.5077989877768739  0.5077990045676273
  0.0080656881205685  0.7427557457196453  0.5075380360093172
  0.0080656389894318  0.5075381359157194  0.7427558625532461
  0.2390857166912991  0.7431150070906538  0.7431151778902533
  0.2579784017020783  0.9924890659145396  0.4934219571983980
  0.4921943094871052  0.7501051392058180  0.4921940863107159
  0.4934216955145393  0.9924890742254584  0.2579783448688325
  0.2569347559377077  0.7616111894027465  0.2569349696490658
  0.7427557839402046  0.0080657588667448  0.5075381081207891
  0.5077989228203477  0.2344882752644628  0.5077989082495787
  0.5075380521592630  0.0080656430771750  0.7427557800553380
  0.7431150064876262  0.2390857445962894  0.7431152136996222
  0.2579783509865301  0.4934220276679142  0.9924889824402171
  0.4934215809216576  0.2579782362707025  0.9924890400851221
  0.4921942339975772  0.4921941258055186  0.7501052144123485
  0.2569348183421984  0.2569349087324144  0.7616110392951316
  0.7427557358791476  0.5075381850965609  0.0080655448502712
  0.5075379917727568  0.7427557224011642  0.0080655516245003
  0.5077988253039661  0.5077989312308961  0.2344881884849430
  0.7431149951852607  0.7431150221725370  0.2390857067582837
 
             NaN             NaN             NaN
             NaN             NaN             NaN
             NaN             NaN             NaN
             NaN             NaN             NaN
             NaN             NaN             NaN
             NaN             NaN             NaN
             NaN             NaN             NaN
             NaN             NaN             NaN
             NaN             NaN             NaN
             NaN             NaN             NaN
             NaN             NaN             NaN
             NaN             NaN             NaN
             NaN             NaN             NaN
             NaN             NaN             NaN
             NaN             NaN             NaN
             NaN             NaN             NaN
             NaN             NaN             NaN
             NaN             NaN             NaN
             NaN             NaN             NaN
             NaN             NaN             NaN
             NaN             NaN             NaN
             NaN             NaN             NaN
             NaN             NaN             NaN
             NaN             NaN             NaN
             NaN             NaN             NaN
             NaN             NaN             NaN
             NaN             NaN             NaN
             NaN             NaN             NaN
             NaN             NaN             NaN
             NaN             NaN             NaN
             NaN             NaN             NaN
             NaN             NaN             NaN
             NaN             NaN             NaN
             NaN             NaN             NaN
             NaN             NaN             NaN
             NaN             NaN             NaN
             NaN             NaN             NaN
             NaN             NaN             NaN
             NaN             NaN             NaN
             NaN             NaN             NaN
             NaN             NaN             NaN
             NaN             NaN             NaN
             NaN             NaN             NaN
             NaN             NaN             NaN
             NaN             NaN             NaN
             NaN             NaN             NaN
             NaN             NaN             NaN
             NaN             NaN             NaN
             NaN             NaN             NaN
             NaN             NaN             NaN
             NaN             NaN             NaN
             NaN             NaN             NaN
             NaN             NaN             NaN
             NaN             NaN             NaN
             NaN             NaN             NaN
