Li48 P16 O64                            
   1.00000000000000     
    10.4768561411431715   -0.0036779530485915    0.0108884567767160
    -0.0042394237325527   12.1811296323247849    0.0057058192566707
     0.0102597536942881    0.0045930536348037    9.8418627243107935
   Li   P    O 
    47    16    64
Direct
  0.4215780010072195  0.3735041223487833  0.1021010617736894
  0.6640876486714098  0.2491853523149875  0.0994838527824603
  0.6633557549002672  0.2504378017301578  0.5977221276446203
  0.6647434514186986  0.7497868685137208  0.0981595991046438
  0.6636490077741461  0.7508660547130254  0.5973321638457693
  0.1636228706764606  0.4926257671192127  0.1543222684399719
  0.1626413728033272  0.5019115608718693  0.6519253850995629
  0.1661400508823891  0.0032245130443304  0.1496668872616713
  0.1633333957892661  0.0018206278385857  0.6523056550159286
  0.3364892815129619  0.0021893110478837  0.4013860352209189
  0.3364467979713056  0.0021976730083337  0.9033183326648476
  0.3351168287726821  0.4994696149387165  0.4014279621684236
  0.3328980733108531  0.5002423230879263  0.9014780452124880
  0.8373893646207521  0.2479623775020558  0.3483990177296576
  0.8359271059775500  0.2497427866652258  0.8479108652434677
  0.8368547743321514  0.7495897251978486  0.3473452811035961
  0.8365637626040304  0.7492258330433885  0.8484401494764946
  0.3346856858566056  0.2488077768957601  0.3962419354528675
  0.3311617045240255  0.2493385865159432  0.9074305164622075
  0.3359088105946045  0.7489822203459382  0.4021212893895519
  0.3355677615454948  0.7488522404019381  0.9025807192719096
  0.8372572075409597  0.0013767552271133  0.3457648380752164
  0.8361255025196157  0.0010936771843834  0.8478658480618618
  0.8376878103550672  0.4993919157251300  0.3475577532241432
  0.8366015257707371  0.5006667139592403  0.8487777823656980
  0.6651049951469846  0.4981383505859766  0.0977696884195068
  0.6636084845255779  0.4993959344959583  0.5979386821205930
  0.6635679654121002  0.9957480592297561  0.0965653464553763
  0.6641763374491245  0.9987343881425037  0.5980968330722666
  0.1622873481858549  0.2532230996462767  0.6471031816902989
  0.1640192680868879  0.7504496435153614  0.1531847551785775
  0.1637562861273230  0.7523037983842915  0.6515968615700043
  0.9321472828842603  0.3680312535811354  0.1520839170633392
  0.9207662303071614  0.3759673085133867  0.6497090844106982
  0.9254943853071348  0.8758812525624701  0.1487207814924199
  0.9250215726736003  0.8761620530955295  0.6490394869307403
  0.4235134268399406  0.3743392190496194  0.6012590108804720
  0.4239191057716814  0.8756889596270926  0.1013829627359119
  0.4233883266127516  0.8757709661601837  0.6009001483703681
  0.0791628247828779  0.1319194028629248  0.3381971277760033
  0.0759710728835414  0.1293695699668155  0.8572572083721129
  0.0762377555662650  0.6234784568109341  0.3512293918676138
  0.0758945150667901  0.6249810365609959  0.8505818423138726
  0.5767882548889525  0.1245247302788895  0.3974797689557258
  0.5754538610197165  0.1252044496267455  0.9020057053994787
  0.5758876981495621  0.6241898836307239  0.3986979188465220
  0.5749242235489948  0.6241267312768628  0.8994308736285982
  0.9093541506836826  0.1217790693319791  0.0954774757614397
  0.9117375007855237  0.1246594753380278  0.5950854689534543
  0.9126006959702190  0.6241739066291451  0.0960515731950036
  0.9106650136517154  0.6268383596531012  0.5951276878372540
  0.4159856875160754  0.1251454963437907  0.1540832645693861
  0.4122059744071767  0.1254567317417229  0.6549467107879372
  0.4115168719294280  0.6247256174131997  0.1547916809601614
  0.4114182639057080  0.6251775817971519  0.6546248149292470
  0.0877765717455838  0.3743473798246920  0.4102917623760813
  0.0865636953652287  0.3775914262175433  0.9013670243183849
  0.0894313142312546  0.8758997202558988  0.4043970224093866
  0.0892417274701226  0.8753425346817196  0.9048756239111869
  0.5888765282062544  0.3750570685336344  0.3453111950164863
  0.5872982382118455  0.3755245991735481  0.8452610002944791
  0.5884627168279110  0.8739835764846692  0.3453959998547025
  0.5877360862591220  0.8741068105687236  0.8447856698998927
  0.8360345242859435  0.0181158472123682  0.1441339285584555
  0.8413283086931641  0.0208549925202770  0.6464567983617673
  0.8419848514770832  0.5211517010200809  0.1475090276182925
  0.8395190971117827  0.5244890302787709  0.6476755849478840
  0.3546311970709246  0.2287967217894026  0.0997576382589444
  0.3433053073458470  0.2286371730541506  0.6029238270554671
  0.3419923127180342  0.7284828926416845  0.1036294551160613
  0.3415016841647499  0.7286671057629683  0.6032848811531980
  0.1584947791350178  0.2696114656319384  0.3739418107057983
  0.1574518726082813  0.2748890161120489  0.8486851634164084
  0.1586412238696272  0.7713029095753764  0.3545186304171763
  0.1592256064673949  0.7722004416509938  0.8521533127391263
  0.6591081560159702  0.4784762894429387  0.3969950472225869
  0.6580879279090517  0.4788546896550636  0.8963889865294598
  0.6590985222270027  0.9768760457308524  0.3967746802261946
  0.6579758249844686  0.9773128969742871  0.8951358465941259
  0.1582757960274961  0.4771106519366244  0.3551316860624842
  0.1574262905285179  0.4808895314678770  0.8470604247613478
  0.1604329197099262  0.9780704803708121  0.3521363931244036
  0.1588242080689000  0.9789958676293817  0.8536309335952298
  0.6588427462876520  0.2718630461358785  0.3971639414909919
  0.6568257508327853  0.2723115555585914  0.8976432680241065
  0.6584535576957600  0.7705086728467199  0.3968650293150199
  0.6579765425681335  0.7708183379141914  0.8965160910460559
  0.8398510126698100  0.2251304194583424  0.1491723130106828
  0.8396115631351291  0.2274163838414072  0.6455126544768400
  0.8422205846017817  0.7279763801000234  0.1469917847133276
  0.8407462002398544  0.7306646214140524  0.6458699447850553
  0.3449934162032469  0.0214801707483377  0.1027730007697011
  0.3418182153798155  0.0219362132313273  0.6037383066397015
  0.3412491111083634  0.5219424408450082  0.1033181281275247
  0.3416621774470909  0.5221818733770669  0.6025099700857756
  0.5565012235224683  0.1198409665154347  0.1058782558889746
  0.5507810032979512  0.1241601843099759  0.6023417992487969
  0.5501287530390125  0.6246469213036574  0.1026384976771397
  0.5499238359763866  0.6253463347214354  0.6023800554325114
  0.0453026972459566  0.1169053186864637  0.1465245409790689
  0.0486065141439065  0.1255586112043582  0.6503545174811137
  0.0505765496899204  0.6248446768432583  0.1488083420221400
  0.0487424858534220  0.6280862791430439  0.6472549210500003
  0.4506812971669571  0.3754265639963101  0.3979310687011717
  0.4487296163657731  0.3768573581022778  0.8957325738310701
  0.4502175837180504  0.8743658881501544  0.3983500775122400
  0.4494874782058580  0.8741502271036009  0.8974246145540888
  0.9502322852283156  0.3738005370304663  0.3543295337992915
  0.9484004013810771  0.3759823207890035  0.8459541696437635
  0.9510515568110709  0.8752360495370035  0.3521938493831555
  0.9507255768601646  0.8749019796451357  0.8529477484932181
  0.5896378867696523  0.3752637015246883  0.1887259705237792
  0.5895606959041962  0.3752165939948949  0.6882494840835655
  0.5884678062861146  0.8727403183247950  0.1887793443157259
  0.5880146156353350  0.8737764758904116  0.6880007280542821
  0.0837255430900253  0.3823905441927151  0.0552446238174037
  0.0828982730089691  0.3823104745262724  0.5670350976612230
  0.0906376646633036  0.8741700274542933  0.0614415645296471
  0.0895428247411688  0.8764627632313967  0.5614087987483349
  0.4134632317499717  0.1240600221174541  0.3114292432632614
  0.4116054435919711  0.1254269009922152  0.8117010746029651
  0.4109602405253485  0.6247965915948482  0.3116934718289915
  0.4106139158807199  0.6251619040114501  0.8113844620952990
  0.9126247464291684  0.1239487234071264  0.4384723751249062
  0.9067978447744895  0.1247833072832333  0.9381107926434019
  0.9103724892159261  0.6256453272893426  0.4383629389161960
  0.9117008205021153  0.6251401403199088  0.9390970504274204
 
  0.00000000E+00  0.00000000E+00  0.00000000E+00
  0.00000000E+00  0.00000000E+00  0.00000000E+00
  0.00000000E+00  0.00000000E+00  0.00000000E+00
  0.00000000E+00  0.00000000E+00  0.00000000E+00
  0.00000000E+00  0.00000000E+00  0.00000000E+00
  0.00000000E+00  0.00000000E+00  0.00000000E+00
  0.00000000E+00  0.00000000E+00  0.00000000E+00
  0.00000000E+00  0.00000000E+00  0.00000000E+00
  0.00000000E+00  0.00000000E+00  0.00000000E+00
  0.00000000E+00  0.00000000E+00  0.00000000E+00
  0.00000000E+00  0.00000000E+00  0.00000000E+00
  0.00000000E+00  0.00000000E+00  0.00000000E+00
  0.00000000E+00  0.00000000E+00  0.00000000E+00
  0.00000000E+00  0.00000000E+00  0.00000000E+00
  0.00000000E+00  0.00000000E+00  0.00000000E+00
  0.00000000E+00  0.00000000E+00  0.00000000E+00
  0.00000000E+00  0.00000000E+00  0.00000000E+00
  0.00000000E+00  0.00000000E+00  0.00000000E+00
  0.00000000E+00  0.00000000E+00  0.00000000E+00
  0.00000000E+00  0.00000000E+00  0.00000000E+00
  0.00000000E+00  0.00000000E+00  0.00000000E+00
  0.00000000E+00  0.00000000E+00  0.00000000E+00
  0.00000000E+00  0.00000000E+00  0.00000000E+00
  0.00000000E+00  0.00000000E+00  0.00000000E+00
  0.00000000E+00  0.00000000E+00  0.00000000E+00
  0.00000000E+00  0.00000000E+00  0.00000000E+00
  0.00000000E+00  0.00000000E+00  0.00000000E+00
  0.00000000E+00  0.00000000E+00  0.00000000E+00
  0.00000000E+00  0.00000000E+00  0.00000000E+00
  0.00000000E+00  0.00000000E+00  0.00000000E+00
  0.00000000E+00  0.00000000E+00  0.00000000E+00
  0.00000000E+00  0.00000000E+00  0.00000000E+00
  0.00000000E+00  0.00000000E+00  0.00000000E+00
  0.00000000E+00  0.00000000E+00  0.00000000E+00
  0.00000000E+00  0.00000000E+00  0.00000000E+00
  0.00000000E+00  0.00000000E+00  0.00000000E+00
  0.00000000E+00  0.00000000E+00  0.00000000E+00
  0.00000000E+00  0.00000000E+00  0.00000000E+00
  0.00000000E+00  0.00000000E+00  0.00000000E+00
  0.00000000E+00  0.00000000E+00  0.00000000E+00
  0.00000000E+00  0.00000000E+00  0.00000000E+00
  0.00000000E+00  0.00000000E+00  0.00000000E+00
  0.00000000E+00  0.00000000E+00  0.00000000E+00
  0.00000000E+00  0.00000000E+00  0.00000000E+00
  0.00000000E+00  0.00000000E+00  0.00000000E+00
  0.00000000E+00  0.00000000E+00  0.00000000E+00
  0.00000000E+00  0.00000000E+00  0.00000000E+00
  0.00000000E+00  0.00000000E+00  0.00000000E+00
  0.00000000E+00  0.00000000E+00  0.00000000E+00
  0.00000000E+00  0.00000000E+00  0.00000000E+00
  0.00000000E+00  0.00000000E+00  0.00000000E+00
  0.00000000E+00  0.00000000E+00  0.00000000E+00
  0.00000000E+00  0.00000000E+00  0.00000000E+00
  0.00000000E+00  0.00000000E+00  0.00000000E+00
  0.00000000E+00  0.00000000E+00  0.00000000E+00
  0.00000000E+00  0.00000000E+00  0.00000000E+00
  0.00000000E+00  0.00000000E+00  0.00000000E+00
  0.00000000E+00  0.00000000E+00  0.00000000E+00
  0.00000000E+00  0.00000000E+00  0.00000000E+00
  0.00000000E+00  0.00000000E+00  0.00000000E+00
  0.00000000E+00  0.00000000E+00  0.00000000E+00
  0.00000000E+00  0.00000000E+00  0.00000000E+00
  0.00000000E+00  0.00000000E+00  0.00000000E+00
  0.00000000E+00  0.00000000E+00  0.00000000E+00
  0.00000000E+00  0.00000000E+00  0.00000000E+00
  0.00000000E+00  0.00000000E+00  0.00000000E+00
  0.00000000E+00  0.00000000E+00  0.00000000E+00
  0.00000000E+00  0.00000000E+00  0.00000000E+00
  0.00000000E+00  0.00000000E+00  0.00000000E+00
  0.00000000E+00  0.00000000E+00  0.00000000E+00
  0.00000000E+00  0.00000000E+00  0.00000000E+00
  0.00000000E+00  0.00000000E+00  0.00000000E+00
  0.00000000E+00  0.00000000E+00  0.00000000E+00
  0.00000000E+00  0.00000000E+00  0.00000000E+00
  0.00000000E+00  0.00000000E+00  0.00000000E+00
  0.00000000E+00  0.00000000E+00  0.00000000E+00
  0.00000000E+00  0.00000000E+00  0.00000000E+00
  0.00000000E+00  0.00000000E+00  0.00000000E+00
  0.00000000E+00  0.00000000E+00  0.00000000E+00
  0.00000000E+00  0.00000000E+00  0.00000000E+00
  0.00000000E+00  0.00000000E+00  0.00000000E+00
  0.00000000E+00  0.00000000E+00  0.00000000E+00
  0.00000000E+00  0.00000000E+00  0.00000000E+00
  0.00000000E+00  0.00000000E+00  0.00000000E+00
  0.00000000E+00  0.00000000E+00  0.00000000E+00
  0.00000000E+00  0.00000000E+00  0.00000000E+00
  0.00000000E+00  0.00000000E+00  0.00000000E+00
  0.00000000E+00  0.00000000E+00  0.00000000E+00
  0.00000000E+00  0.00000000E+00  0.00000000E+00
  0.00000000E+00  0.00000000E+00  0.00000000E+00
  0.00000000E+00  0.00000000E+00  0.00000000E+00
  0.00000000E+00  0.00000000E+00  0.00000000E+00
  0.00000000E+00  0.00000000E+00  0.00000000E+00
  0.00000000E+00  0.00000000E+00  0.00000000E+00
  0.00000000E+00  0.00000000E+00  0.00000000E+00
  0.00000000E+00  0.00000000E+00  0.00000000E+00
  0.00000000E+00  0.00000000E+00  0.00000000E+00
  0.00000000E+00  0.00000000E+00  0.00000000E+00
  0.00000000E+00  0.00000000E+00  0.00000000E+00
  0.00000000E+00  0.00000000E+00  0.00000000E+00
  0.00000000E+00  0.00000000E+00  0.00000000E+00
  0.00000000E+00  0.00000000E+00  0.00000000E+00
  0.00000000E+00  0.00000000E+00  0.00000000E+00
  0.00000000E+00  0.00000000E+00  0.00000000E+00
  0.00000000E+00  0.00000000E+00  0.00000000E+00
  0.00000000E+00  0.00000000E+00  0.00000000E+00
  0.00000000E+00  0.00000000E+00  0.00000000E+00
  0.00000000E+00  0.00000000E+00  0.00000000E+00
  0.00000000E+00  0.00000000E+00  0.00000000E+00
  0.00000000E+00  0.00000000E+00  0.00000000E+00
  0.00000000E+00  0.00000000E+00  0.00000000E+00
  0.00000000E+00  0.00000000E+00  0.00000000E+00
  0.00000000E+00  0.00000000E+00  0.00000000E+00
  0.00000000E+00  0.00000000E+00  0.00000000E+00
  0.00000000E+00  0.00000000E+00  0.00000000E+00
  0.00000000E+00  0.00000000E+00  0.00000000E+00
  0.00000000E+00  0.00000000E+00  0.00000000E+00
  0.00000000E+00  0.00000000E+00  0.00000000E+00
  0.00000000E+00  0.00000000E+00  0.00000000E+00
  0.00000000E+00  0.00000000E+00  0.00000000E+00
  0.00000000E+00  0.00000000E+00  0.00000000E+00
  0.00000000E+00  0.00000000E+00  0.00000000E+00
  0.00000000E+00  0.00000000E+00  0.00000000E+00
  0.00000000E+00  0.00000000E+00  0.00000000E+00
  0.00000000E+00  0.00000000E+00  0.00000000E+00
  0.00000000E+00  0.00000000E+00  0.00000000E+00
  0.00000000E+00  0.00000000E+00  0.00000000E+00
