Na47 P16 S64                            
   1.00000000000000     
    13.7484230000000007   -0.0106640000000000   -0.0000220000000000
    -0.0107490000000000   13.7671489999999999   -0.0003990000000000
    -0.0000590000000000   -0.0001410000000000   14.1665679999999998
   Na   P    S 
    47    16    64
Direct
  0.6301068618907621  0.7535230662654639  0.7466856675662045
  0.9998959128604966  0.2503837299361866  0.2051055509865903
  0.9995922051632692  0.2501919498751122  0.7043649116107705
  0.9993805784861814  0.7504299067716225  0.2098492778819122
  0.9886171599826006  0.7514476578600421  0.7140224048964569
  0.5000753116327086  0.2496770014110354  0.2064640111063272
  0.5005176984135495  0.2500896797874727  0.7058554282597270
  0.5003832813732498  0.7496387965456269  0.2088779178448801
  0.2493476022606029  0.9992537745628934  0.2924879901395677
  0.2480665956615586  0.9987235947349593  0.7910892530371229
  0.2513306228812162  0.5008158677018907  0.2961669379992329
  0.2507574119912293  0.5021746318478273  0.7943964855216112
  0.7487375091231023  0.9989103062619449  0.2942632702851288
  0.7488933042688550  0.9887690481097210  0.7894986584763408
  0.7505336089192375  0.5010494995760137  0.2904505232405484
  0.7541319547551136  0.5109880891235136  0.7864013727700365
  0.2524149731605709  0.9991457847047922  0.0410601872037327
  0.2443241397225395 -0.0001181428755862  0.5419907342480967
  0.2474732042745305  0.4997044533894496  0.0460482775440094
  0.2548258638967612  0.5037316126555690  0.5469691830487432
  0.7520567983343641  0.0005711277047937  0.0431229981220482
  0.7458106157977783  0.9979051388884344  0.5429311405624373
  0.7473325272308300  0.5008202454052791  0.0383075671274962
  0.7566145701292727  0.4983232734588524  0.5383556932968677
  0.5000429972628820  0.2512375748763313  0.4566941772218996
  0.5009454885464401  0.2480584058531124  0.9546084754922339
  0.4997935786344077  0.7514245115172973  0.4705786481512494
  0.4978193351591866  0.7475505079682985  0.9543424432449591
  0.9999519490931221  0.2488601458722811  0.4546399484460777
  0.9989656450217687  0.2519659389062813  0.9538668225676438
  1.0002135889800321  0.7487895258626553  0.4622545200389890
  0.9999384079176775  0.7522316957922153  0.9588339479719484
  0.9931876050753029  0.9984344073550971  0.5011240993289028
  0.0021257411927177  0.0072140252904189  0.0000825510098769
  0.0091137157490021  0.4968346374529155  0.4997039335705989
  0.9979488428883478  0.4997889346830179  0.9986275162642009
  0.4920491045360438  1.0005629222801424  0.4993655973707483
  0.5055547049014035  0.9978726470644959  0.9995522928924354
  0.5047416338722394  0.5043718777798533  0.5015873878126414
  0.4929598393313853  0.4950706906694251  0.0020376362925030
  0.2492779241993574  0.2511831892122143  0.2500444332375498
  0.2490912193086542  0.2519922498795036  0.7500875485971452
  0.2512117166693265  0.7488499634389468  0.2502770036051673
  0.2870066362144649  0.7484010917449154  0.7486416628588448
  0.7507845401229242  0.2488042473892336  0.2495853136310546
  0.7509599300496870  0.2480065572308810  0.7504874056880829
  0.7485619298889333  0.7511314691446146  0.2493492067760775
  0.4998543763128606  0.4996170509421198  0.2503057663115708
  0.5000369085365063  0.4982958486739585  0.7514664319708363
  0.4997280399676219  0.0000839990446692  0.2501841701859378
  0.4970886702527999  0.0011413500788043  0.7489040799899306
  0.0008802111397127  0.4996175109620150  0.2499293942019567
  0.0026419620987883  0.4981287178375009  0.7484829067258892
  0.9994586096308117  0.0006959202996538  0.2497034181315461
  0.9992459697894673  0.0029193809222979  0.7513004147156974
  0.2498291911643730  0.2504895080501195  0.0001504915527707
  0.2495947527907411  0.2508419689665239  0.4997876005384002
  0.2502855318944214  0.7483304385803373  0.0007880003545194
  0.2493725469886448  0.7525280024047977  0.4989760350871060
  0.7500892480387957  0.2494072548686417 -0.0002110130093506
  0.7503094546250014  0.2490201755506337  0.4992934801602846
  0.7495092020037936  0.7500046196764448  0.0006844981259061
  0.7513820168668394  0.7482616412108382  0.4965110570289425
  0.1540431553282016  0.1740752067599015  0.0825662753961807
  0.1529576165915107  0.1751212909312912  0.5813989361756280
  0.1527119351793484  0.6752817578841736  0.0839143271752798
  0.1558693670004984  0.6774758958602235  0.5842133174629108
  0.6539764341036830  0.1740136692034747  0.0830135523342826
  0.6536903848519942  0.1748336233081853  0.5818176877075352
  0.6532773898821370  0.6743977110199141  0.0831968139471283
  0.6557343984089116  0.6673348073795277  0.5740098119266484
  0.3462832184933041  0.3255915625874395  0.0829794809378144
  0.3459883631195016  0.3257155039376207  0.5821747298092020
  0.3466103636416484  0.8245950248707675  0.0827201324264455
  0.3452579364019833  0.8306095018010720  0.5780200926014137
  0.8456197285565917  0.3261947189471848  0.0824156083545008
  0.8471935173012051  0.3241742962406049  0.5811478758091915
  0.8450084436760142  0.8262083784869081  0.0835587546098552
  0.8446532777214842  0.8249572771560438  0.5799474574742850
  0.1743122913699865  0.3474736475563893  0.4176730509391275
  0.1742248052913434  0.3473836559879947  0.9190528792315490
  0.1712181489632214  0.8445854069721876  0.4139773122994654
  0.1772586376472355  0.8424256669992048  0.9151373082600023
  0.6757452775937357  0.3451386482966955  0.4160447213207277
  0.6754165937826933  0.3448568146487140  0.9169026213691888
  0.6733050343042495  0.8441776700714246  0.4154752015668186
  0.6716608006662294  0.8480366523698248  0.9214101916537045
  0.3248572886065804  0.1549301127538766  0.4168060637294206
  0.3247805304349707  0.1548923264392480  0.9173101784410737
  0.3262985524618772  0.6558152417477244  0.4174238012169257
  0.3259001963727261  0.6489051709648304  0.9221578776506516
  0.8252978250544049  0.1520017118163797  0.4173232271043677
  0.8254156058456591  0.1524522439374155  0.9185949985215111
  0.8291220786127375  0.6557750988055815  0.4115185872364869
  0.8256489168108559  0.6555771466744709  0.9186569735517056
  0.0970769747673975  0.4237847312812231  0.1678389059322826
  0.1019568473307216  0.4220074045226876  0.6698565619749033
  0.0948911729895332  0.9255151175152988  0.1662494659482469
  0.0919512535440126  0.9253228406730943  0.6677416301953989
  0.5950990394590310  0.4241322581888703  0.1666987598863058
  0.5971485618287509  0.4249388761775917  0.6679960254427604
  0.5966126456061821  0.9249049597973195  0.1684938997853482
  0.5899274253528661  0.9275548081581144  0.6619618156227253
  0.4044467251219763  0.0753651727216827  0.1665849998332644
  0.3997038422805094  0.0778825350178348  0.6687950000584258
  0.4027268264057449  0.5748109246608043  0.1686868631833430
  0.4080165205966158  0.5786203713772794  0.6702279971872735
  0.9031805674214360  0.0766642844170614  0.1678461663320643
  0.9004421837010791  0.0762029321060345  0.6695650261235436
  0.9056094294455885  0.5747778502239288  0.1665299881616473
  0.9103225102927726  0.5719917514828102  0.6617070252097927
  0.0755826726667183  0.0963566525508545  0.3323305964254091
  0.0772965966772478  0.1013470054234509  0.8295906425079822
  0.0764370987740859  0.5953953105136119  0.3325718970396250
  0.0744637736985744  0.5944622612160176  0.8331428561759127
  0.5746884078606339  0.0965388083566102  0.3330399083442430
  0.5768210140452439  0.0959108352852632  0.8297563726415275
  0.5754907884307957  0.5954999764802034  0.3321422743878147
  0.5758063127268203  0.5854354358181909  0.8427254598987783
  0.4249415140678874  0.4033737764110407  0.3332950742643105
  0.4220321537614383  0.3995136875435748  0.8296768684653361
  0.4239838059964174  0.9042508076416513  0.3322976222341675
  0.4235459650757937  0.9072402165634913  0.8346790842891152
  0.9246958107202481  0.4037154005083917  0.3322427831197903
  0.9233068790776250  0.4028729751108561  0.8292648234320683
  0.9242344447101416  0.9047386246493118  0.3321412619478522
  0.9271224511654584  0.9096929636069769  0.8385983326757401
 
             NaN             NaN             NaN
             NaN             NaN             NaN
             NaN             NaN             NaN
             NaN             NaN             NaN
             NaN             NaN             NaN
             NaN             NaN             NaN
             NaN             NaN             NaN
             NaN             NaN             NaN
             NaN             NaN             NaN
             NaN             NaN             NaN
             NaN             NaN             NaN
             NaN             NaN             NaN
             NaN             NaN             NaN
             NaN             NaN             NaN
             NaN             NaN             NaN
             NaN             NaN             NaN
             NaN             NaN             NaN
             NaN             NaN             NaN
             NaN             NaN             NaN
             NaN             NaN             NaN
             NaN             NaN             NaN
             NaN             NaN             NaN
             NaN             NaN             NaN
             NaN             NaN             NaN
             NaN             NaN             NaN
             NaN             NaN             NaN
             NaN             NaN             NaN
             NaN             NaN             NaN
             NaN             NaN             NaN
             NaN             NaN             NaN
             NaN             NaN             NaN
             NaN             NaN             NaN
             NaN             NaN             NaN
             NaN             NaN             NaN
             NaN             NaN             NaN
             NaN             NaN             NaN
             NaN             NaN             NaN
             NaN             NaN             NaN
             NaN             NaN             NaN
             NaN             NaN             NaN
             NaN             NaN             NaN
             NaN             NaN             NaN
             NaN             NaN             NaN
             NaN             NaN             NaN
             NaN             NaN             NaN
             NaN             NaN             NaN
             NaN             NaN             NaN
             NaN             NaN             NaN
             NaN             NaN             NaN
             NaN             NaN             NaN
             NaN             NaN             NaN
             NaN             NaN             NaN
             NaN             NaN             NaN
             NaN             NaN             NaN
             NaN             NaN             NaN
             NaN             NaN             NaN
             NaN             NaN             NaN
             NaN             NaN             NaN
             NaN             NaN             NaN
             NaN             NaN             NaN
             NaN             NaN             NaN
             NaN             NaN             NaN
             NaN             NaN             NaN
             NaN             NaN             NaN
             NaN             NaN             NaN
             NaN             NaN             NaN
             NaN             NaN             NaN
             NaN             NaN             NaN
             NaN             NaN             NaN
             NaN             NaN             NaN
             NaN             NaN             NaN
             NaN             NaN             NaN
             NaN             NaN             NaN
             NaN             NaN             NaN
             NaN             NaN             NaN
             NaN             NaN             NaN
             NaN             NaN             NaN
             NaN             NaN             NaN
             NaN             NaN             NaN
             NaN             NaN             NaN
             NaN             NaN             NaN
             NaN             NaN             NaN
             NaN             NaN             NaN
             NaN             NaN             NaN
             NaN             NaN             NaN
             NaN             NaN             NaN
             NaN             NaN             NaN
             NaN             NaN             NaN
             NaN             NaN             NaN
             NaN             NaN             NaN
             NaN             NaN             NaN
             NaN             NaN             NaN
             NaN             NaN             NaN
             NaN             NaN             NaN
             NaN             NaN             NaN
             NaN             NaN             NaN
             NaN             NaN             NaN
             NaN             NaN             NaN
             NaN             NaN             NaN
             NaN             NaN             NaN
             NaN             NaN             NaN
             NaN             NaN             NaN
             NaN             NaN             NaN
             NaN             NaN             NaN
             NaN             NaN             NaN
             NaN             NaN             NaN
             NaN             NaN             NaN
             NaN             NaN             NaN
             NaN             NaN             NaN
             NaN             NaN             NaN
             NaN             NaN             NaN
             NaN             NaN             NaN
             NaN             NaN             NaN
             NaN             NaN             NaN
             NaN             NaN             NaN
             NaN             NaN             NaN
             NaN             NaN             NaN
             NaN             NaN             NaN
             NaN             NaN             NaN
             NaN             NaN             NaN
             NaN             NaN             NaN
             NaN             NaN             NaN
             NaN             NaN             NaN
             NaN             NaN             NaN
             NaN             NaN             NaN
             NaN             NaN             NaN
             NaN             NaN             NaN
