Na47 P16 S64
1.0
13.748423 -0.010664 -0.000022
-0.010749 13.767149 -0.000399
-0.000059 -0.000141 14.166568
Na P S
47 16 64
direct
0.630530 0.749421 0.737558 Na
0.999902 0.250340 0.205243 Na
0.999559 0.250178 0.704417 Na
0.999557 0.750331 0.209791 Na
0.989694 0.751496 0.714436 Na
0.500101 0.249660 0.206360 Na
0.500441 0.249824 0.705869 Na
0.500444 0.749677 0.208282 Na
0.249449 0.999291 0.292280 Na
0.248219 0.998490 0.790756 Na
0.251301 0.500707 0.296168 Na
0.250720 0.502538 0.794451 Na
0.748709 0.998951 0.294357 Na
0.747963 0.987605 0.789608 Na
0.750539 0.501050 0.290475 Na
0.753106 0.511368 0.785917 Na
0.252487 0.999020 0.040866 Na
0.244888 1.000183 0.542138 Na
0.247829 0.499669 0.046027 Na
0.254659 0.503405 0.546871 Na
0.752314 1.000303 0.043307 Na
0.745104 0.997251 0.543725 Na
0.747368 0.501027 0.038150 Na
0.755351 0.499141 0.538987 Na
0.500088 0.251023 0.456851 Na
0.500904 0.248069 0.954496 Na
0.500129 0.751170 0.470170 Na
0.500231 0.747827 0.950340 Na
0.999899 0.248974 0.454632 Na
0.999111 0.251931 0.953906 Na
0.999873 0.748828 0.462084 Na
0.999769 0.752170 0.959060 Na
0.993209 0.998757 0.501012 Na
0.001939 0.006644 0.000078 Na
0.008497 0.496986 0.499715 Na
0.998200 0.499449 0.998780 Na
0.493447 -0.000051 0.500364 Na
0.506021 0.997537 0.999616 Na
0.504836 0.504322 0.501658 Na
0.493826 0.496366 0.000918 Na
0.249303 0.251120 0.249965 Na
0.249269 0.251951 0.750144 Na
0.251255 0.748965 0.250110 Na
0.286009 0.749086 0.749463 Na
0.750709 0.248882 0.249588 Na
0.750725 0.248052 0.750514 Na
0.748750 0.751036 0.249741 Na
0.499861 0.499658 0.250466 P
0.500798 0.498725 0.751475 P
0.499610 0.000132 0.250543 P
0.498252 1.000071 0.749130 P
0.000936 0.499570 0.249771 P
0.002190 0.498508 0.748729 P
-0.000399 0.000649 0.249690 P
0.998775 0.002687 0.751069 P
0.249797 0.250427 1.000104 P
0.249586 0.250876 0.499770 P
0.250457 0.748344 0.000550 P
0.249469 0.752035 0.499232 P
0.750218 0.249575 1.000010 P
0.750410 0.249113 0.499236 P
0.749537 0.751664 0.001437 P
0.750544 0.747958 0.497712 P
0.153896 0.174130 0.082509 S
0.152977 0.175232 0.581564 S
0.152915 0.674946 0.083522 S
0.155268 0.676581 0.583344 S
0.654193 0.173975 0.083051 S
0.653813 0.174715 0.581827 S
0.654129 0.674669 0.083758 S
0.655127 0.668646 0.576536 S
0.346286 0.325493 0.082911 S
0.346076 0.325587 0.582240 S
0.346613 0.824435 0.082582 S
0.344970 0.830097 0.579046 S
0.845651 0.326415 0.082650 S
0.847113 0.324461 0.581150 S
0.846329 0.825965 0.084706 S
0.844649 0.824673 0.580837 S
0.174268 0.347504 0.417671 S
0.174285 0.347350 0.918866 S
0.171842 0.844830 0.414605 S
0.176951 0.842472 0.915242 S
0.675718 0.345284 0.416204 S
0.675333 0.344954 0.917092 S
0.673365 0.844126 0.416027 S
0.672043 0.850153 0.923481 S
0.324640 0.154952 0.416760 S
0.324642 0.154741 0.917292 S
0.326643 0.655838 0.417619 S
0.326358 0.649355 0.921592 S
0.825360 0.152223 0.417136 S
0.825745 0.152961 0.918659 S
0.828159 0.655188 0.413021 S
0.824629 0.658037 0.917133 S
0.097296 0.423623 0.168025 S
0.101455 0.422485 0.669902 S
0.095090 0.925520 0.166220 S
0.091786 0.925428 0.667448 S
0.595022 0.424367 0.166715 S
0.596956 0.424446 0.667700 S
0.596449 0.925046 0.168893 S
0.590893 0.924004 0.664675 S
0.404290 0.075292 0.166833 S
0.401338 0.076769 0.668129 S
0.402697 0.574828 0.168911 S
0.407425 0.577830 0.669966 S
0.903382 0.076716 0.167904 S
0.900252 0.076286 0.669479 S
0.905766 0.574619 0.166211 S
0.909900 0.572728 0.662166 S
0.075697 0.096238 0.332378 S
0.077011 0.100507 0.829841 S
0.076270 0.595549 0.332494 S
0.074186 0.594610 0.833594 S
0.574481 0.096624 0.333421 S
0.577183 0.095862 0.829716 S
0.575538 0.595582 0.332351 S
0.576739 0.588300 0.839698 S
0.425106 0.403359 0.333613 S
0.422912 0.400416 0.830310 S
0.423844 0.904231 0.332643 S
0.422738 0.908002 0.835425 S
0.924708 0.403786 0.332190 S
0.922898 0.403210 0.829252 S
0.924346 0.904646 0.332200 S
0.926330 0.909092 0.837857 S
