Li7 Mn16 O32                            
   1.00000000000000     
     8.3831550000000004    0.0668510000000000    0.0039430000000000
     0.0294460000000000    8.1879240000000006    0.0202620000000000
    -0.0173880000000000   -0.0085660000000000    8.2515070000000001
   Li   Mn   O 
     7    16    32
Direct
  0.2338749103861331  0.5101845060094611  0.7359708141840563
  0.8804931119804752  0.8707618473762602  0.8800182215213568
  0.1184665338217182  0.1297982253940381  0.1224594238871255
  0.8836809330223422  0.3718809790721245  0.3808627514564799
  0.3808752304696148  0.8755029357341806  0.3803151200575253
  0.6148362007768382  0.1292971685379167  0.6264018844949829
  0.6180110533595318  0.6251194084949073  0.1142150817446594
  0.5055030918670059  0.2535486974315515  0.2466068408097181
  0.2600687465575030  0.5032554183382022  0.2451272720480473
  0.2579820437959116  0.2456418819965390  0.5007675067896300
  0.5077930928094508  0.4957001637229015  0.4964034396657266
  0.4996576725127516  0.7511712624568034  0.7535059155959437
  0.7521099825359244  0.4953961677962100  0.7394964976977647
  0.7411669760947441  0.7540499630808847  0.4955827334990913
  0.2455266731994582  0.0044067423603729  0.7568669895149572
  0.2519247895974290  0.7530545077069075  1.0044358004195950
  0.4958419327434554  0.0088492454171416  0.0013647764178682
  0.7442037624561223  0.0032245210573240  0.2539718698010192
  0.7478683754666798  0.2496406118646127  0.9967787875916013
 -0.0035757228805940  0.2466327755475956  0.7460911343414973
  0.0003633213187445  0.4960707408723994  1.0010568506099125
  0.9971455206065043  0.7474803065059820  0.2538811425807344
  0.9957971597492981  0.9979068090222474  0.5018609780269278
  0.7519973597855582  0.0122946324863965  0.0256318196062145
  0.0204701067381697  0.7317599691483756  0.0178800695478012
  0.0135408077842872  0.0108542625001036  0.7388707994187926
  0.7368799549564790  0.7324922548386280  0.7318481819890981
  0.2390166096037127  0.9827267792460682  0.9871734126200117
  0.9805393557036222  0.2633596646269360  0.9811600712400681
  0.9727706364515566  0.9915531645984426  0.2670005819690716
  0.2767614188632865  0.2696954008661476  0.2449092176372429
  0.7371263739028947  0.5160798937169876  0.5038953433478787
  0.0154549411700835  0.2340913131359383  0.5167429736310369
  0.0326440990320327  0.5056912880420292  0.2443272706234517
  0.7322455751133440  0.2350550498336561  0.2576772519914005
  0.2787990798081860  0.4831874485504593  0.4857334842924582
  0.9663958022142418  0.7624308574969978  0.4840040559777279
  0.9851197380201276  0.4794469439100830  0.7548243750130249
  0.2638876942642109  0.7634271525669020  0.7708629700614430
  0.2540786782490249  0.0149869651297806  0.5254015867767631
  0.5120577171820865  0.7304609185927879  0.5151837082650595
  0.5143482717935859  0.0201503705172168  0.2396080784655684
  0.2549599478941189  0.7359672739745605  0.2354152800175627
  0.7360070812345321  0.9811599851755433  0.4864650793940311
  0.4968310585610808  0.2651800519979716  0.4779671580062257
  0.4702057208632590  0.0101668351855684  0.7699502578389716
  0.7705210158332210  0.2648556012564991  0.7367502858468241
  0.2544711758820080  0.5226336268624020  0.0162392974402650
  0.5209141282523448  0.2415416511393358  0.0205132867338476
  0.5245613552453807  0.4912612786911152  0.7206835057931714
  0.2208061886137085  0.2361710351827253  0.7539296582704511
  0.7500695841507368  0.4893717483837398  0.9676888784902296
  0.4807524562703346  0.7693277977398463  0.9871121310593520
  0.4918981948246842  0.4884769351091182  0.2611536681506691
  0.7403030325305275  0.7684257749628246  0.2658071198789722
 
             NaN             NaN             NaN
             NaN             NaN             NaN
             NaN             NaN             NaN
             NaN             NaN             NaN
             NaN             NaN             NaN
             NaN             NaN             NaN
             NaN             NaN             NaN
             NaN             NaN             NaN
             NaN             NaN             NaN
             NaN             NaN             NaN
             NaN             NaN             NaN
             NaN             NaN             NaN
             NaN             NaN             NaN
             NaN             NaN             NaN
             NaN             NaN             NaN
             NaN             NaN             NaN
             NaN             NaN             NaN
             NaN             NaN             NaN
             NaN             NaN             NaN
             NaN             NaN             NaN
             NaN             NaN             NaN
             NaN             NaN             NaN
             NaN             NaN             NaN
             NaN             NaN             NaN
             NaN             NaN             NaN
             NaN             NaN             NaN
             NaN             NaN             NaN
             NaN             NaN             NaN
             NaN             NaN             NaN
             NaN             NaN             NaN
             NaN             NaN             NaN
             NaN             NaN             NaN
             NaN             NaN             NaN
             NaN             NaN             NaN
             NaN             NaN             NaN
             NaN             NaN             NaN
             NaN             NaN             NaN
             NaN             NaN             NaN
             NaN             NaN             NaN
             NaN             NaN             NaN
             NaN             NaN             NaN
             NaN             NaN             NaN
             NaN             NaN             NaN
             NaN             NaN             NaN
             NaN             NaN             NaN
             NaN             NaN             NaN
             NaN             NaN             NaN
             NaN             NaN             NaN
             NaN             NaN             NaN
             NaN             NaN             NaN
             NaN             NaN             NaN
             NaN             NaN             NaN
             NaN             NaN             NaN
             NaN             NaN             NaN
             NaN             NaN             NaN
