Li7 Mn16 O32                            
   1.00000000000000     
     8.3831550000000004    0.0668510000000000    0.0039430000000000
     0.0294460000000000    8.1879240000000006    0.0202620000000000
    -0.0173880000000000   -0.0085660000000000    8.2515070000000001
   Li   Mn   O 
     7    16    32
Direct
  0.1879959937212245  0.5571646430219348  0.6897714068824435
  0.8802538471325804  0.8701254065669560  0.8803227053721977
  0.1196621016543271  0.1304824979277541  0.1235250303026459
  0.8837856631751071  0.3714204055517488  0.3806519201830396
  0.3808992695143418  0.8767658720388920  0.3809935656200972
  0.6152537160378717  0.1265455863687337  0.6271168882822623
  0.6196050495119448  0.6239333089585639  0.1151265440967663
  0.5070088298515325  0.2559046818866387  0.2478267080707433
  0.2632118702439845  0.4964246940379059  0.2507959023887145
  0.2563706292167781  0.2451903237089259  0.5031085034307975
  0.5082354522565299  0.5002179571479943  0.4967849303101516
  0.4963349555119252  0.7505596111559031  0.7542288848114876
  0.7537926131090429  0.4963822895855708  0.7422121977301528
  0.7435631824770562  0.7514713814569182  0.4965546684694525
  0.2442526114237451  0.0021243555938562  0.7600970698135842
  0.2517604171131771  0.7531481329828964 -0.0029275601032254
  0.4967184121972698  0.0071810583800638  0.0043176361846805
  0.7501952650921415  0.0043064597705164  0.2516921283044575
  0.7473959482912965  0.2470508722139997  0.9981019983032400
  1.0004665188029538  0.2494663746717166  0.7474896152545878
  0.0014987823626017  0.4951478820645608 -0.0005623507945828
  0.9977970886175653  0.7485440115538846  0.2540110246186167
  0.9957464238338283 -0.0030480694690181  0.5005717649582644
  0.7530046194401505  0.0118987796465169  0.0267564075395900
  0.0194242534583345  0.7287185158802415  0.0188613996629650
  0.0128694063180124  0.0105963977043866  0.7409386750509165
  0.7470110399329745  0.7320407235758167  0.7295419641405564
  0.2402291453625775  0.9820810714717308  0.9893869495143807
  0.9837807116861746  0.2623420400863433  0.9809608126075057
  0.9732085791897398 -0.0089093341211961  0.2697409075752025
  0.2775843011999972  0.2692576925056642  0.2458312023462620
  0.7355101772848410  0.5148426666649434  0.5026800615786594
  0.0159049096041124  0.2337046010194539  0.5180710375838814
  0.0327729751921488  0.5059772971090815  0.2465942306471768
  0.7324637578772093  0.2325319313010761  0.2593281744031481
  0.2766241362485527  0.4831833446856124  0.4847161318534937
  0.9717520086326329  0.7611335766665969  0.4844790100851247
  0.9851087962922401  0.4773328307917024  0.7498035094494723
  0.2523930444706876  0.7650556799620921  0.7757123873866225
  0.2550304753023398  0.0141256843078704  0.5257369873354445
  0.5129601578273081  0.7340874650405705  0.5206381538635807
  0.5144246732599916  0.0190792747043955  0.2403381440141357
  0.2558090695773736  0.7352476946539376  0.2383406925844486
  0.7383506160687456  0.9795808952991168  0.4869191654002458
  0.4962541415704332  0.2647484029401030  0.4809739965483413
  0.4703945240525476  0.0049927061340402  0.7678616112128739
  0.7701204862970612  0.2647824066230911  0.7372884882510917
  0.2508445339319542  0.5207317568391304  0.0169445124061110
  0.5248031471612162  0.2408066678539598  0.0217775716261901
  0.5285625104338205  0.4970460955810732  0.7221134811564852
  0.2209729567887529  0.2312733595907323  0.7552190950506935
  0.7552808491810047  0.4896683399077290  0.9677185441373292
  0.4782424875161980  0.7652004499302333  0.9807520398189217
  0.4892853561108529  0.4879269854158354  0.2614222909257879
  0.7417528099670632  0.7663226086884743  0.2657000654695976
 
             NaN             NaN             NaN
             NaN             NaN             NaN
             NaN             NaN             NaN
             NaN             NaN             NaN
             NaN             NaN             NaN
             NaN             NaN             NaN
             NaN             NaN             NaN
             NaN             NaN             NaN
             NaN             NaN             NaN
             NaN             NaN             NaN
             NaN             NaN             NaN
             NaN             NaN             NaN
             NaN             NaN             NaN
             NaN             NaN             NaN
             NaN             NaN             NaN
             NaN             NaN             NaN
             NaN             NaN             NaN
             NaN             NaN             NaN
             NaN             NaN             NaN
             NaN             NaN             NaN
             NaN             NaN             NaN
             NaN             NaN             NaN
             NaN             NaN             NaN
             NaN             NaN             NaN
             NaN             NaN             NaN
             NaN             NaN             NaN
             NaN             NaN             NaN
             NaN             NaN             NaN
             NaN             NaN             NaN
             NaN             NaN             NaN
             NaN             NaN             NaN
             NaN             NaN             NaN
             NaN             NaN             NaN
             NaN             NaN             NaN
             NaN             NaN             NaN
             NaN             NaN             NaN
             NaN             NaN             NaN
             NaN             NaN             NaN
             NaN             NaN             NaN
             NaN             NaN             NaN
             NaN             NaN             NaN
             NaN             NaN             NaN
             NaN             NaN             NaN
             NaN             NaN             NaN
             NaN             NaN             NaN
             NaN             NaN             NaN
             NaN             NaN             NaN
             NaN             NaN             NaN
             NaN             NaN             NaN
             NaN             NaN             NaN
             NaN             NaN             NaN
             NaN             NaN             NaN
             NaN             NaN             NaN
             NaN             NaN             NaN
             NaN             NaN             NaN
