Na15 V32 O64
1.0
9.099798 -0.004372 -0.000889
0.008249 11.564279 -0.105547
-0.000781 -0.026253 10.638716
Na V O
15 32 64
direct
0.743560 0.329914 0.154540 Na
0.742944 0.063679 0.151171 Na
0.742690 0.795858 0.155957 Na
0.247719 0.061092 0.349972 Na
0.241936 0.312016 0.348212 Na
0.246838 0.561027 0.346834 Na
0.241103 0.810901 0.348373 Na
0.256612 0.186426 0.845493 Na
0.255876 0.437020 0.850838 Na
0.256725 0.687097 0.845362 Na
0.255497 0.937121 0.851707 Na
0.756953 0.188176 0.655009 Na
0.755817 0.439389 0.646968 Na
0.756894 0.687747 0.653237 Na
0.755412 0.938655 0.649169 Na
0.580525 0.063451 0.895707 V
0.581068 0.312791 0.897056 V
0.585149 0.563899 0.894379 V
0.581786 0.811045 0.897909 V
0.082135 0.063630 0.602352 V
0.081988 0.311733 0.605808 V
0.083459 0.564335 0.601225 V
0.082163 0.811901 0.606147 V
0.420770 0.188929 0.102303 V
0.419221 0.440081 0.104714 V
0.417160 0.685263 0.101100 V
0.420826 0.937413 0.107126 V
0.917969 0.188895 0.397383 V
0.918199 0.437016 0.392188 V
0.917057 0.688815 0.396198 V
0.916088 0.936099 0.394028 V
0.567065 0.061821 0.388483 V
0.563165 0.309489 0.387517 V
0.568902 0.561782 0.382793 V
0.561085 0.809536 0.387010 V
0.064663 0.063954 0.114317 V
0.064725 0.309207 0.112276 V
0.056181 0.563822 0.113681 V
0.063980 0.817836 0.112045 V
0.436862 0.191115 0.612859 V
0.435634 0.436565 0.612449 V
0.438021 0.690731 0.612316 V
0.434508 0.936392 0.614239 V
0.936282 0.185317 0.886989 V
0.934547 0.437563 0.885239 V
0.936968 0.685085 0.886606 V
0.932385 0.938318 0.886438 V
0.790308 0.067317 0.848149 O
0.791634 0.309903 0.848109 O
0.793072 0.567235 0.845573 O
0.791056 0.808289 0.849369 O
0.291334 0.065814 0.649962 O
0.291548 0.308155 0.652637 O
0.292740 0.566045 0.648519 O
0.291258 0.808253 0.652885 O
0.209444 0.191197 0.151329 O
0.204217 0.437895 0.149056 O
0.204548 0.683839 0.147398 O
0.207980 0.932343 0.153622 O
0.710342 0.191917 0.349583 O
0.708488 0.430780 0.354640 O
0.709952 0.693827 0.354288 O
0.706274 0.933052 0.349379 O
0.884640 0.065455 0.519491 O
0.887632 0.308794 0.520544 O
0.886037 0.565860 0.518725 O
0.887380 0.808788 0.521296 O
0.385228 0.067625 0.980852 O
0.384049 0.310379 0.979566 O
0.386442 0.566758 0.976269 O
0.384215 0.810444 0.980427 O
0.115400 0.184785 0.479030 O
0.114162 0.440778 0.479677 O
0.115453 0.685326 0.478746 O
0.113379 0.940932 0.479974 O
0.614961 0.191006 0.021717 O
0.611733 0.432835 0.016935 O
0.611828 0.690710 0.018916 O
0.613988 0.933491 0.021700 O
0.977331 0.067418 0.283378 O
0.981344 0.309441 0.280129 O
0.981734 0.566612 0.284837 O
0.979875 0.809543 0.279981 O
0.477647 0.065552 0.219177 O
0.478283 0.306941 0.218437 O
0.469434 0.565376 0.219436 O
0.477166 0.804932 0.218989 O
0.020845 0.181459 0.719858 O
0.023457 0.440577 0.716344 O
0.023016 0.682115 0.720191 O
0.020931 0.940553 0.717168 O
0.520146 0.194494 0.781546 O
0.523390 0.435889 0.781199 O
0.522645 0.693521 0.779477 O
0.521086 0.935111 0.784302 O
0.575481 0.066379 0.574148 O
0.581387 0.309433 0.570459 O
0.575326 0.566206 0.570194 O
0.580679 0.810387 0.570905 O
0.077417 0.064793 0.930861 O
0.076823 0.307579 0.926900 O
0.078257 0.564758 0.929514 O
0.076249 0.810859 0.927552 O
0.420874 0.189651 0.429566 O
0.424867 0.431816 0.426787 O
0.421261 0.690142 0.428983 O
0.423397 0.932648 0.428495 O
0.920046 0.191610 0.071465 O
0.929544 0.437676 0.071612 O
0.927514 0.688920 0.070868 O
0.920925 0.935328 0.072693 O
