Li47 P16 O64                            
   1.00000000000000     
    10.4208940000000005    0.0004680000000000   -0.0066470000000000
     0.0005390000000000   12.1766660000000009   -0.0023920000000000
    -0.0062810000000000   -0.0019200000000000    9.7945480000000007
   Li   P    O 
    47    16    64
Direct
  0.5247884659648984  0.2855350942984337  0.0651573030883728
  0.6651511040603626  0.2500032598438506  0.6010577922418403
  0.6649459180113862  0.7517079483126820  0.0975018617822360
  0.6647169904296063  0.7521512690769649  0.5985949456345221
  0.1647087457560546  0.4974662328672553  0.1518581828782811
  0.1644769956369596  0.4992186214889615  0.6527328812043600
  0.1645076681005244  0.9948361311282237  0.1546868151106187
  0.1643122018036413  0.9984764385004608  0.6523502034928730
  0.3354692206468438 -0.0004990362377511  0.4034492057119983
  0.3360825832775775  0.0007035878430123  0.9024514773969677
  0.3363826215085012  0.5009907406074187  0.4002953705975272
  0.3383138060027363  0.4964548551600112  0.9092363970320233
  0.8344560049862680  0.2492730710807463  0.3468721997200882
  0.8336996995686403  0.2500636330805402  0.8536564445584225
  0.8362414429098992  0.7488345916467593  0.3481436292432343
  0.8363073713475759  0.7489296006571683  0.8478312033637455
  0.3369551272058356  0.2497988199166733  0.3996051355578630
  0.3322849367138760  0.2508619044855304  0.9022596024366026
  0.3361135357388414  0.7494997124439079  0.4021582663570467
  0.3362024430703013  0.7494230491541957  0.9027686020580951
  0.8362088603544003  0.0012730332616635  0.3492539658773890
  0.8362202018043555  0.0008157649886568  0.8475247171758490
  0.8357536439473411  0.5019755763219940  0.3478307346895007
  0.8363489265692434  0.5018539801216999  0.8482908187605922
  0.6614485879043618  0.4976565692246290  0.0952675259746314
  0.6655581332931567  0.5028405154815644  0.6005057455755626
  0.6648699404146281  0.0031404037654159  0.1000235642028826
  0.6642282921436735  0.9997556645037760  0.5974699069509938
  0.1680594962337678  0.2533135681181141  0.1504883532409663
  0.1634805658229856  0.2506889118186020  0.6519831387978047
  0.1639724975200966  0.7508238323205426  0.1521108381369786
  0.1643263307552390  0.7513691630716659  0.6530626777557416
  0.9202265762051518  0.3767986726840261  0.1464011103324870
  0.9226688596055256  0.3746996256829803  0.6497355365423643
  0.9226610010929307  0.8747544851748887  0.1493064353224311
  0.9234678673989698  0.8751584654457252  0.6487200389839000
  0.4215483051338339  0.3760477183833533  0.6049234239585253
  0.4271181188118771  0.8757536535384127  0.1002334149888874
  0.4242461407102922  0.8751632996078436  0.6016417227415690
  0.0774618946122105  0.1247204308898600  0.3522579830683100
  0.0768108745390520  0.1249108596188576  0.8506771333886971
  0.0769797777321123  0.6246138254790913  0.3506346683999118
  0.0779470526693299  0.6244603836246893  0.8523794143303153
  0.5762434097379509  0.1260826949149678  0.3960807467866600
  0.5806014147257101  0.1243252410094717  0.9000445815120720
  0.5769726191580267  0.6261714873030160  0.4014191491983077
  0.5752185040940282  0.6255952107738907  0.8977312063804307
  0.9147631589038970  0.1243861026291208  0.0956691206853135
  0.9122178450934664  0.1249587856365342  0.5956505160695662
  0.9116403580490786  0.6254500447779888  0.0953468080409843
  0.9131614680710415  0.6255270539169013  0.5955129028484073
  0.4079017075202662  0.1188268443010332  0.1546053639614603
  0.4120048807654101  0.1251876605812311  0.6550554001068021
  0.4122065632973876  0.6283729425754226  0.1547900584348562
  0.4110154963279228  0.6257671867622258  0.6553882506483326
  0.0877200919452011  0.3751373807115034  0.4047433882283821
  0.0867168497353010  0.3751169455592947  0.9047508469133053
  0.0876845262043142  0.8744196159500354  0.4052929908352628
  0.0877733606354717  0.8748683201601285  0.9049702742954170
  0.5892729573773978  0.3775495494960431  0.3503589009127769
  0.5886232829239731  0.3761975702685408  0.8387686763964680
  0.5889290429868720  0.8755238343500494  0.3455790812698962
  0.5891468073797788  0.8752561681364498  0.8451954280428318
  0.8434813060378803  0.0223334545878582  0.1485869727291758
  0.8419154224411410  0.0213969904752235  0.6467337166021317
  0.8399516980895759  0.5228139791406968  0.1467248632387455
  0.8432362772288007  0.5224069718260926  0.6478306152420361
  0.3402037475173016  0.2212766841856023  0.0985252815053416
  0.3414240366180044  0.2283906073653683  0.6027965518175888
  0.3442251838425693  0.7345869904817743  0.1071094386245693
  0.3412575716683298  0.7294978151108527  0.6037461146337053
  0.1573603817835908  0.2715171342851488  0.3526321417381806
  0.1558670563737558  0.2713638018976880  0.8523826031072242
  0.1580613003500772  0.7713093902289526  0.3531661922373213
  0.1584817130435524  0.7714743765221497  0.8541535941417876
  0.6594473048375037  0.4804236091378589  0.4032117182961424
  0.6575831737048585  0.4796146369429199  0.8925855520805285
  0.6585974057942294  0.9792012759847970  0.3974811134251289
  0.6599029474404086  0.9779782444964766  0.8979503953874588
  0.1583188436811084  0.4781149615431440  0.3531437892348782
  0.1581552800249939  0.4777136138083962  0.8529031335704657
  0.1578646448815020  0.9779036642818207  0.3542516173119502
  0.1582594120009492  0.9780771353097826  0.8534218186171931
  0.6585333508488035  0.2733203898582257  0.4005399213268085
  0.6555676388665985  0.2722257864845724  0.8918628853288263
  0.6594116823228259  0.7723014257773758  0.3976327088481937
  0.6588097446568247  0.7713650594641486  0.8961713161658116
  0.8534430279824078  0.2295368766858930  0.1510434338525951
  0.8424054515764109  0.2278553593557034  0.6490442763141152
  0.8419703142126520  0.7291758790862919  0.1469183859456703
  0.8424809820548956  0.7288530152428413  0.6467567956305122
  0.3389922073530962  0.0142081360238489  0.1058005490952184
  0.3418471051704045  0.0215815457494081  0.6036088755451327
  0.3345609433673287  0.5318273992695454  0.0996748677169915
  0.3413811761029787  0.5228375237812188  0.6014391444698437
  0.5460286616843987  0.1225730972440491  0.1009602583600776
  0.5508954974055320  0.1254457596384667  0.6023178718832386
  0.5505203256960495  0.6264230769992296  0.1010887289691905
  0.5506352163782365  0.6268798956430099  0.6047862729623860
  0.0551806688832779  0.1225770281728963  0.1455669956794531
  0.0516740192063979  0.1242429314190083  0.6469433121216162
  0.0506380636846896  0.6246362518514418  0.1478747072409903
  0.0522557830945396  0.6257444758369389  0.6476393583376626
  0.4503722151371767  0.3758464731510158  0.4022763438901080
  0.4498582617949776  0.3727380462431528  0.8903257519295579
  0.4499005809538333  0.8748306055494715  0.3976146646850791
  0.4499350852047490  0.8751944153217494  0.8966078446167665
  0.9483163348656563  0.3755370547462771  0.3532072046919660
  0.9474415936853385  0.3757637817221181  0.8529391822778527
  0.9485731713152280  0.8748013278244654  0.3531730292603399
  0.9489299132030377  0.8749698916623770  0.8520532940472406
  0.5909556272769831  0.3796271805326042  0.1943647494583554
  0.5909928156663558  0.3773459149788824  0.6817049699593962
  0.5909576141603103  0.8759374571218947  0.1882189293483971
  0.5900628622436600  0.8760692175872381  0.6877868068077252
  0.0872279628730021  0.3750442119277912  0.0619315000291528
  0.0888118872620265  0.3748945588360277  0.5621351498799472
  0.0873991420215065  0.8744768253958329  0.0623229499660152
  0.0887919574532890  0.8744141855173536  0.5626339235361170
  0.4080441953796651  0.1223271985600604  0.3121514045609547
  0.4115645446651757  0.1254299859408548  0.8124075488507363
  0.4131041314162440  0.6257008450134267  0.3122764191198260
  0.4088296599837093  0.6243478154015829  0.8126842743833058
  0.9108835740049662  0.1257200909443991  0.4382029502350298
  0.9113884682603709  0.1244518609505623  0.9385863706593435
  0.9120616184590549  0.6251640785309209  0.4380669319725842
  0.9114392437623998  0.6255243200288114  0.9379287042544261
 
             NaN             NaN             NaN
             NaN             NaN             NaN
             NaN             NaN             NaN
             NaN             NaN             NaN
             NaN             NaN             NaN
             NaN             NaN             NaN
             NaN             NaN             NaN
             NaN             NaN             NaN
             NaN             NaN             NaN
             NaN             NaN             NaN
             NaN             NaN             NaN
             NaN             NaN             NaN
             NaN             NaN             NaN
             NaN             NaN             NaN
             NaN             NaN             NaN
             NaN             NaN             NaN
             NaN             NaN             NaN
             NaN             NaN             NaN
             NaN             NaN             NaN
             NaN             NaN             NaN
             NaN             NaN             NaN
             NaN             NaN             NaN
             NaN             NaN             NaN
             NaN             NaN             NaN
             NaN             NaN             NaN
             NaN             NaN             NaN
             NaN             NaN             NaN
             NaN             NaN             NaN
             NaN             NaN             NaN
             NaN             NaN             NaN
             NaN             NaN             NaN
             NaN             NaN             NaN
             NaN             NaN             NaN
             NaN             NaN             NaN
             NaN             NaN             NaN
             NaN             NaN             NaN
             NaN             NaN             NaN
             NaN             NaN             NaN
             NaN             NaN             NaN
             NaN             NaN             NaN
             NaN             NaN             NaN
             NaN             NaN             NaN
             NaN             NaN             NaN
             NaN             NaN             NaN
             NaN             NaN             NaN
             NaN             NaN             NaN
             NaN             NaN             NaN
             NaN             NaN             NaN
             NaN             NaN             NaN
             NaN             NaN             NaN
             NaN             NaN             NaN
             NaN             NaN             NaN
             NaN             NaN             NaN
             NaN             NaN             NaN
             NaN             NaN             NaN
             NaN             NaN             NaN
             NaN             NaN             NaN
             NaN             NaN             NaN
             NaN             NaN             NaN
             NaN             NaN             NaN
             NaN             NaN             NaN
             NaN             NaN             NaN
             NaN             NaN             NaN
             NaN             NaN             NaN
             NaN             NaN             NaN
             NaN             NaN             NaN
             NaN             NaN             NaN
             NaN             NaN             NaN
             NaN             NaN             NaN
             NaN             NaN             NaN
             NaN             NaN             NaN
             NaN             NaN             NaN
             NaN             NaN             NaN
             NaN             NaN             NaN
             NaN             NaN             NaN
             NaN             NaN             NaN
             NaN             NaN             NaN
             NaN             NaN             NaN
             NaN             NaN             NaN
             NaN             NaN             NaN
             NaN             NaN             NaN
             NaN             NaN             NaN
             NaN             NaN             NaN
             NaN             NaN             NaN
             NaN             NaN             NaN
             NaN             NaN             NaN
             NaN             NaN             NaN
             NaN             NaN             NaN
             NaN             NaN             NaN
             NaN             NaN             NaN
             NaN             NaN             NaN
             NaN             NaN             NaN
             NaN             NaN             NaN
             NaN             NaN             NaN
             NaN             NaN             NaN
             NaN             NaN             NaN
             NaN             NaN             NaN
             NaN             NaN             NaN
             NaN             NaN             NaN
             NaN             NaN             NaN
             NaN             NaN             NaN
             NaN             NaN             NaN
             NaN             NaN             NaN
             NaN             NaN             NaN
             NaN             NaN             NaN
             NaN             NaN             NaN
             NaN             NaN             NaN
             NaN             NaN             NaN
             NaN             NaN             NaN
             NaN             NaN             NaN
             NaN             NaN             NaN
             NaN             NaN             NaN
             NaN             NaN             NaN
             NaN             NaN             NaN
             NaN             NaN             NaN
             NaN             NaN             NaN
             NaN             NaN             NaN
             NaN             NaN             NaN
             NaN             NaN             NaN
             NaN             NaN             NaN
             NaN             NaN             NaN
             NaN             NaN             NaN
             NaN             NaN             NaN
             NaN             NaN             NaN
             NaN             NaN             NaN
             NaN             NaN             NaN
             NaN             NaN             NaN
