Li47 P16 O64
1.0
10.420894 0.000468 -0.006647
0.000539 12.176666 -0.002392
-0.006281 -0.001920 9.794548
Li P O
47 16 64
direct
0.543059 0.311486 0.097524 Li
0.665343 0.249573 0.601354 Li
0.664581 0.750651 0.097584 Li
0.664468 0.751778 0.598458 Li
0.164386 0.497859 0.151877 Li
0.163952 0.499234 0.652213 Li
0.163394 0.996745 0.153473 Li
0.164394 0.998518 0.652198 Li
0.335992 0.000653 0.402118 Li
0.336165 0.000743 0.902217 Li
0.336239 0.500598 0.401143 Li
0.336734 0.498862 0.904657 Li
0.834940 0.248986 0.346570 Li
0.835679 0.249062 0.850193 Li
0.836194 0.748916 0.348077 Li
0.836194 0.749063 0.847733 Li
0.336040 0.249855 0.401561 Li
0.336649 0.250436 0.903710 Li
0.336121 0.749304 0.401597 Li
0.336061 0.749294 0.902492 Li
0.836454 0.001189 0.348361 Li
0.836208 0.001161 0.847584 Li
0.835660 0.501304 0.347693 Li
0.835548 0.500784 0.848458 Li
0.661401 0.495902 0.096328 Li
0.665746 0.502438 0.598427 Li
0.665563 1.000228 0.098693 Li
0.664196 0.999692 0.598026 Li
0.164045 0.252058 0.151532 Li
0.163776 0.250859 0.652393 Li
0.163736 0.750508 0.151960 Li
0.164222 0.751107 0.652555 Li
0.920955 0.375473 0.147532 Li
0.922904 0.375005 0.648928 Li
0.922939 0.874680 0.149070 Li
0.923542 0.875143 0.648583 Li
0.420996 0.375559 0.607027 Li
0.426170 0.874627 0.100863 Li
0.423923 0.875333 0.600891 Li
0.077122 0.124926 0.351315 Li
0.077481 0.124985 0.851484 Li
0.076623 0.624600 0.350905 Li
0.076831 0.624595 0.851803 Li
0.576772 0.125863 0.397616 Li
0.577020 0.127143 0.902721 Li
0.576610 0.625687 0.399774 Li
0.575895 0.624877 0.898461 Li
0.913041 0.124626 0.095378 P
0.912765 0.124825 0.595268 P
0.911232 0.624925 0.095295 P
0.912566 0.625429 0.595413 P
0.410074 0.122414 0.154564 P
0.411708 0.124759 0.654880 P
0.411846 0.626132 0.154452 P
0.411334 0.625851 0.654908 P
0.087750 0.375136 0.404679 P
0.087434 0.375049 0.904717 P
0.088036 0.874585 0.404949 P
0.087983 0.874732 0.904876 P
0.588783 0.375970 0.349354 P
0.587638 0.375120 0.839446 P
0.588901 0.875218 0.345349 P
0.588660 0.875356 0.845332 P
0.842728 0.021521 0.147434 O
0.842051 0.021514 0.646529 O
0.839949 0.522067 0.146647 O
0.842491 0.522359 0.647872 O
0.336744 0.221980 0.099255 O
0.341157 0.227959 0.602878 O
0.342975 0.731178 0.104974 O
0.341510 0.729453 0.603134 O
0.157768 0.271697 0.352746 O
0.157710 0.271691 0.853083 O
0.158286 0.771316 0.352958 O
0.158452 0.771315 0.853642 O
0.658994 0.479485 0.401552 O
0.656599 0.477477 0.895739 O
0.658761 0.978803 0.397077 O
0.659028 0.978468 0.897441 O
0.158344 0.478304 0.353161 O
0.157939 0.478250 0.853037 O
0.158321 0.977985 0.353613 O
0.158657 0.977965 0.853606 O
0.658823 0.272425 0.400884 O
0.656471 0.270541 0.885905 O
0.659003 0.771942 0.397726 O
0.658585 0.771595 0.896550 O
0.846555 0.228523 0.148452 O
0.843112 0.228039 0.647764 O
0.841554 0.728609 0.146989 O
0.842065 0.728833 0.646706 O
0.340603 0.017278 0.105826 O
0.341670 0.021282 0.602772 O
0.337863 0.526501 0.100192 O
0.341114 0.522904 0.602048 O
0.547878 0.120951 0.101350 O
0.550591 0.125090 0.602237 O
0.550621 0.625156 0.101702 O
0.550696 0.626388 0.603551 O
0.052769 0.123572 0.146665 O
0.051973 0.124255 0.647193 O
0.050328 0.624459 0.147600 O
0.051688 0.625537 0.647407 O
0.449930 0.375286 0.402143 O
0.446876 0.374390 0.881980 O
0.449641 0.875082 0.396810 O
0.449560 0.875160 0.897319 O
0.948529 0.375430 0.352782 O
0.948309 0.375149 0.852349 O
0.948916 0.874787 0.352823 O
0.949099 0.874946 0.852071 O
0.590360 0.377554 0.193556 O
0.592526 0.378154 0.682166 O
0.590744 0.874848 0.187975 O
0.589367 0.875679 0.687914 O
0.087467 0.375142 0.061991 O
0.088880 0.374991 0.562124 O
0.088049 0.874351 0.062256 O
0.089001 0.874529 0.562315 O
0.410007 0.125141 0.311943 O
0.410879 0.124608 0.812109 O
0.411783 0.624844 0.311880 O
0.410064 0.625177 0.812229 O
0.911531 0.125245 0.437850 O
0.911622 0.124522 0.938028 O
0.911341 0.624992 0.437995 O
0.910619 0.625030 0.937827 O
