Li47 P16 O64
1.0
10.443131 0.000982 -0.006567
0.001132 12.142448 -0.004792
-0.006176 -0.003847 9.799013
Li P O
47 16 64
direct
0.428540 0.370692 0.098072 Li
0.663298 0.251157 0.604208 Li
0.664409 0.750341 0.097634 Li
0.664071 0.752292 0.598519 Li
0.164893 0.498746 0.151788 Li
0.163529 0.499634 0.652079 Li
0.163989 0.994894 0.154620 Li
0.164098 0.998465 0.651819 Li
0.335960 0.000742 0.402805 Li
0.336414 0.000881 0.901816 Li
0.335206 0.501647 0.402242 Li
0.336394 0.500537 0.902458 Li
0.832841 0.249418 0.345634 Li
0.836526 0.249355 0.851478 Li
0.835721 0.749084 0.347802 Li
0.835858 0.749165 0.847944 Li
0.334805 0.249247 0.403079 Li
0.336224 0.248043 0.900567 Li
0.336221 0.749189 0.401765 Li
0.336212 0.749213 0.902356 Li
0.836239 0.001138 0.348367 Li
0.835884 0.001297 0.847647 Li
0.834284 0.501151 0.347884 Li
0.836271 0.500322 0.848014 Li
0.665227 0.494057 0.095684 Li
0.664102 0.502848 0.598356 Li
0.666372 1.001433 0.099849 Li
0.663533 1.000656 0.597661 Li
0.164217 0.251068 0.151103 Li
0.163184 0.250542 0.652441 Li
0.164669 0.749625 0.151595 Li
0.163748 0.750798 0.652530 Li
0.922105 0.375939 0.146934 Li
0.923664 0.375007 0.648917 Li
0.923793 0.874365 0.148828 Li
0.923336 0.875294 0.648817 Li
0.418708 0.376114 0.601482 Li
0.424893 0.874269 0.101630 Li
0.424180 0.875670 0.601014 Li
0.076507 0.124408 0.351530 Li
0.077384 0.124541 0.850770 Li
0.075510 0.624642 0.350710 Li
0.076085 0.624615 0.851410 Li
0.576432 0.126897 0.395298 Li
0.578949 0.129459 0.907550 Li
0.576121 0.626199 0.399616 Li
0.576709 0.624577 0.899025 Li
0.915226 0.124102 0.095350 P
0.912000 0.125274 0.595035 P
0.911600 0.625002 0.095183 P
0.911602 0.625238 0.595327 P
0.409365 0.123510 0.154704 P
0.411866 0.124808 0.654875 P
0.412926 0.623594 0.154493 P
0.411119 0.626413 0.654926 P
0.087465 0.375262 0.404588 P
0.088750 0.375079 0.904689 P
0.088019 0.874180 0.405070 P
0.088303 0.874478 0.904631 P
0.586279 0.376924 0.349048 P
0.587234 0.375222 0.839973 P
0.588770 0.875449 0.345110 P
0.588692 0.875725 0.845778 P
0.844098 0.021459 0.147673 O
0.841264 0.021845 0.646522 O
0.840974 0.521835 0.146916 O
0.841479 0.521759 0.647258 O
0.340311 0.226972 0.101136 O
0.340090 0.228218 0.604302 O
0.342483 0.727389 0.102971 O
0.340963 0.730305 0.604035 O
0.157012 0.271430 0.352159 O
0.158739 0.271323 0.852950 O
0.158495 0.770809 0.352967 O
0.158480 0.770768 0.853181 O
0.657535 0.480184 0.401302 O
0.658784 0.476903 0.895165 O
0.658594 0.979385 0.396374 O
0.659397 0.978724 0.898114 O
0.158162 0.478553 0.352993 O
0.159191 0.478523 0.852851 O
0.158571 0.977807 0.354269 O
0.158893 0.977819 0.853118 O
0.657188 0.273598 0.399960 O
0.658516 0.269091 0.875494 O
0.659074 0.772129 0.397666 O
0.658512 0.771428 0.896340 O
0.854185 0.229344 0.150527 O
0.842718 0.229041 0.647038 O
0.841746 0.728805 0.146782 O
0.841292 0.728856 0.646872 O
0.337715 0.019541 0.104658 O
0.341280 0.021169 0.603314 O
0.342560 0.519999 0.103023 O
0.340004 0.523509 0.602639 O
0.546106 0.118541 0.101437 O
0.549505 0.125730 0.600063 O
0.551611 0.623674 0.102159 O
0.549716 0.627223 0.602686 O
0.055405 0.121458 0.145334 O
0.050938 0.124391 0.647145 O
0.050518 0.624602 0.147208 O
0.050367 0.625195 0.647575 O
0.447838 0.375558 0.402823 O
0.449784 0.373758 0.895627 O
0.449820 0.875179 0.396822 O
0.449975 0.875338 0.898278 O
0.948445 0.375850 0.353409 O
0.950034 0.375283 0.852405 O
0.949418 0.874585 0.352389 O
0.949530 0.874905 0.852270 O
0.584400 0.380087 0.193376 O
0.583601 0.381298 0.682558 O
0.590098 0.874717 0.187842 O
0.588943 0.876365 0.688375 O
0.089445 0.375268 0.061916 O
0.089281 0.374971 0.561939 O
0.088710 0.873715 0.061985 O
0.088335 0.874073 0.562314 O
0.408321 0.125435 0.312047 O
0.412740 0.124367 0.812044 O
0.411888 0.624541 0.311933 O
0.411108 0.625205 0.812280 O
0.911119 0.125427 0.437702 O
0.912772 0.124208 0.938210 O
0.910735 0.625045 0.437993 O
0.910757 0.624897 0.937807 O
