Mg7 Sc16 Se32
1.0
11.209377 0.000000 0.000001
0.000000 11.209379 -0.000000
0.000000 -0.000000 11.209378
Mg Sc Se
7 16 32
direct
0.377307 0.377307 0.377307 Mg
0.625000 0.125000 0.125000 Mg
0.125000 0.625000 0.125000 Mg
0.125000 0.125000 0.625000 Mg
0.377307 0.872693 0.872693 Mg
0.872693 0.377307 0.872693 Mg
0.872693 0.872693 0.377307 Mg
0.993884 0.749760 0.749760 Sc
0.749760 0.993884 0.749760 Sc
0.749760 0.749760 0.993884 Sc
1.000175 1.000175 1.000175 Sc
0.000175 0.249825 0.249825 Sc
0.249825 0.000175 0.249825 Sc
0.249825 0.249825 0.000175 Sc
0.749760 0.500240 0.256116 Sc
0.749760 0.256116 0.500240 Sc
-0.006116 0.500240 0.500240 Sc
0.256116 0.500240 0.749760 Sc
0.256116 0.749760 0.500240 Sc
0.500240 0.749760 0.256116 Sc
0.500240 -0.006116 0.500240 Sc
0.500240 0.256116 0.749760 Sc
0.500240 0.500240 -0.006116 Sc
0.758156 0.992929 0.992929 Se
0.992929 0.758156 0.992929 Se
0.992929 0.992929 0.758156 Se
0.756563 0.756563 0.756563 Se
0.243000 0.007000 0.007000 Se
0.007000 0.243000 0.007000 Se
0.007000 0.007000 0.243000 Se
0.243000 0.243000 0.243000 Se
0.756563 0.493437 0.493437 Se
0.992929 0.257071 0.491844 Se
0.992929 0.491844 0.257071 Se
0.758156 0.257071 0.257071 Se
0.240091 0.507142 0.507142 Se
0.009909 0.742858 0.507142 Se
0.009909 0.507142 0.742858 Se
0.240091 0.742858 0.742858 Se
0.257071 0.992929 0.491844 Se
0.493437 0.756563 0.493437 Se
0.491844 0.992929 0.257071 Se
0.257071 0.758156 0.257071 Se
0.742858 0.009909 0.507142 Se
0.507142 0.240091 0.507142 Se
0.507142 0.009909 0.742858 Se
0.742858 0.240091 0.742858 Se
0.257071 0.491844 0.992929 Se
0.491844 0.257071 0.992929 Se
0.493437 0.493437 0.756563 Se
0.257071 0.257071 0.758156 Se
0.742858 0.507142 0.009909 Se
0.507142 0.742858 0.009909 Se
0.507142 0.507142 0.240091 Se
0.742858 0.742858 0.240091 Se
