Li7 Mn16 O32                            
   1.00000000000000     
     8.7307670000000002    0.0085450000000000   -0.0098220000000000
     0.0079030000000000    8.2138390000000001   -0.0340120000000000
    -0.0067220000000000   -0.0305720000000000    8.2138120000000008
   Li   Mn   O 
     7    16    32
Direct
  0.2749975510895353  0.4838944476723945  0.7661152200042710
  0.3615413780792660  0.8680015499722182  0.3819998289748849
  0.8668237824011490  0.8751182066404254  0.8761798690087074
  0.1378618944610652  0.1320266909207831  0.1179754777576697
  0.8668177259910927  0.3738206840384740  0.3748828681591223
  0.6330911970783651  0.1244868075401148  0.6229659849495603
  0.6330970755603427  0.6270324060992428  0.1255098802293632
  0.4987470148116129  0.2482636890474102  0.2492380856182257
  0.2498127339761060  0.5002924816903939  0.2501699718884262
  0.2493855509827748  0.2518014592451860  0.5008815537289788
  0.5062443281296238  0.4973042582710788  0.4983908334103354
  0.5062377378320509  0.7516035051293811  0.7526995220253029
  0.7490430448971293  0.4993983706599313  0.7506010481620833
  0.7564715357221889  0.7490450336322801  0.5009510240582667
  0.2498121831141729 -0.0001693900218257  0.7497068250287732
  0.2493916528573926  0.7491172780072218  0.9982041020721351
  0.4987389283260061  0.0007698608956616  0.0017387959891271
  0.7497217856445965  0.9996164766703157  0.2503813809160021
  0.7439068704232265  0.2500329968429439  0.9999672256768307
  0.9930373749474959  0.2495766720875373  0.7467755308733420
  0.9930316792364930  0.5032192921730931  0.0004291718628388
  0.0009715833016885  0.7518480307058010  0.2506626191059523
  0.0009769638650950  0.9993325026770563  0.4981497980196775
  0.7230726501901861  0.0119024042167297  0.0123099711420717
  0.9945074381335186  0.7369854350706491  0.0151190317721976
  1.0000952877366891  0.0164974782103222  0.7357326254007915
  0.7328856342254353  0.7349982867497381  0.7396793001501133
  0.2739661453220020  0.9876493389162370  0.9841474186220067
  0.9949840218154283  0.2673262758897527  0.9826711874649425
  0.0038486311649741  0.9867803509679189  0.2632186354017610
  0.2739749978225276  0.2658491472246050  0.2623539561355213
  0.7328859288553987  0.5103273129164352  0.5150007078778016
  0.9945064556354837  0.2348755413892292  0.5130097231392281
  1.0000745434140006  0.5142694132005536  0.2335031099621041
  0.7230741058721585  0.2376811754593539  0.2381026060611367
  0.2873104188615658  0.4850622705210059  0.4991976566675577
  0.0028876413304241  0.7692504215301508  0.4807462335537404
  0.9722621375019016  0.4878033968752734  0.7621949808680687
  0.2873129539513042  0.7507698957667325  0.7649530768471017
  0.2256843280374225  0.0129617801476542  0.5152796182069118
  0.5051072638022751  0.7333460878968012  0.5166593081859457
  0.4955873516670071  0.0134446411785758  0.2365555570323332
  0.2256793922091338  0.7347268691660386  0.2370390584724345
  0.7767148467669392  0.9875712848351630  0.4881983413578472
  0.5050564554052918  0.2632434824157689  0.4845031230307133
  0.5000714352833446  0.9842641542138538  0.7641016748403671
  0.7662546250357695  0.2638944937197411  0.7609542948930933
  0.2133263705436266  0.5148430440603606  0.0009267926456164
  0.4970759239530693  0.2311998877478292  0.0188032791078753
  0.5226189128821860  0.5123087220011248  0.7376942701684917
  0.2133228589575586  0.2490992644091377  0.7351473625055981
  0.7662529163830346  0.4890361176108627  0.9861089261505140
  0.5050570294814419  0.7655040485311639  0.9867631021074493
  0.5001038113108232  0.4858966623573632  0.2657383587718459
  0.7767151068556697  0.7618076834568035  0.2624186021110439
 
             NaN             NaN             NaN
             NaN             NaN             NaN
             NaN             NaN             NaN
             NaN             NaN             NaN
             NaN             NaN             NaN
             NaN             NaN             NaN
             NaN             NaN             NaN
             NaN             NaN             NaN
             NaN             NaN             NaN
             NaN             NaN             NaN
             NaN             NaN             NaN
             NaN             NaN             NaN
             NaN             NaN             NaN
             NaN             NaN             NaN
             NaN             NaN             NaN
             NaN             NaN             NaN
             NaN             NaN             NaN
             NaN             NaN             NaN
             NaN             NaN             NaN
             NaN             NaN             NaN
             NaN             NaN             NaN
             NaN             NaN             NaN
             NaN             NaN             NaN
             NaN             NaN             NaN
             NaN             NaN             NaN
             NaN             NaN             NaN
             NaN             NaN             NaN
             NaN             NaN             NaN
             NaN             NaN             NaN
             NaN             NaN             NaN
             NaN             NaN             NaN
             NaN             NaN             NaN
             NaN             NaN             NaN
             NaN             NaN             NaN
             NaN             NaN             NaN
             NaN             NaN             NaN
             NaN             NaN             NaN
             NaN             NaN             NaN
             NaN             NaN             NaN
             NaN             NaN             NaN
             NaN             NaN             NaN
             NaN             NaN             NaN
             NaN             NaN             NaN
             NaN             NaN             NaN
             NaN             NaN             NaN
             NaN             NaN             NaN
             NaN             NaN             NaN
             NaN             NaN             NaN
             NaN             NaN             NaN
             NaN             NaN             NaN
             NaN             NaN             NaN
             NaN             NaN             NaN
             NaN             NaN             NaN
             NaN             NaN             NaN
             NaN             NaN             NaN
