Li7 Mn16 O32                            
   1.00000000000000     
     8.7307670000000002    0.0085450000000000   -0.0098220000000000
     0.0079030000000000    8.2138390000000001   -0.0340120000000000
    -0.0067220000000000   -0.0305720000000000    8.2138120000000008
   Li   Mn   O 
     7    16    32
Direct
  0.2725963909926368  0.4856446603636178  0.7643615624981979
  0.3618199789676411  0.8682999016500246  0.3817022231534715
  0.8667363879511046  0.8747373378593586  0.8759428046090215
  0.1377095652647737  0.1318331635462371  0.1181703683683907
  0.8667309774722346  0.3740627544154543  0.3752737545569504
  0.6331960287529639  0.1246572278726620  0.6231146820855221
  0.6332037836708042  0.6268774263684262  0.1253326650152123
  0.4993148033109954  0.2484205461450821  0.2491512874664786
  0.2499547052294393  0.5001880116806759  0.2499172423969780
  0.2494418716589785  0.2516377497900482  0.5006915811349930
  0.5069335886025805  0.4966440077045363  0.4989211316041853
  0.5069238589217122  0.7510668001340425  0.7533598692246167
  0.7490323031947239  0.4994096715934373  0.7505838529068606
  0.7564164537494581  0.7484662219188926  0.5015181540422823
  0.2499524050757687  0.0000851792172598  0.7498151936789265
  0.2494571944294250  0.7493042667410517  0.9983716455952643
  0.4993111308776213  1.0008566359206690  1.0015786132556781
  0.7499289518135657  0.9996527437252186  0.2503493634329266
  0.7440810693367097  0.2505770762684437 -0.0005609088666119
  0.9921972862071486  0.2499349265722662  0.7461645012129174
  0.9921922032311621  0.5038319013945288  0.0000852827778920
  0.0006914566212690  0.7516611309264107  0.2507935506000092
  0.0006980962481604 -0.0007994412137292  0.4983457921419078
  0.7234876389365406  0.0119483350384552  0.0122454024371288
  0.9942844286920478  0.7373119442412017  0.0153283380539236
  0.9994498044390789  0.0167889637126680  0.7357927388288686
  0.7335521422469885  0.7330336475022066  0.7401965365368858
  0.2743890805854787  0.9878787341506301  0.9841885377243603
  0.9939519160548371  0.2675953226222484  0.9823955484181679
  0.0038583590287487  0.9865470229509135  0.2634522661239129
  0.2743882566134583  0.2658120472067695  0.2621256912617673
  0.7335558258347005  0.5098527066525746  0.5169198469710741
  0.9942796990695111  0.2346573071304921  0.5126668417026952
  0.9994373774106122  0.5142031037647192  0.2332164840462075
  0.7234873402983379  0.2377347415505986  0.2381036022822898
  0.2878040429922279  0.4848937930564698  0.4992454208647469
  0.0023779842769080  0.7689020656427964  0.4810858002330777
  0.9696395768235417  0.4883517248185320  0.7616285573071524
  0.2878032341346323  0.7507336204708941  0.7651212370508995
  0.2255481544140286  0.0128457161594478  0.5154384038162705
  0.5062332129278169  0.7330342262085736  0.5169735897739122
  0.4960105778713522  0.0135555144789383  0.2364460545653992
  0.2255490167058841  0.7345624886737883  0.2371551775685917
  0.7765360420269494  0.9873737604310192  0.4883394187722466
  0.5052591057647633  0.2628884215262106  0.4844230735281271
  0.5008264288833988  0.9839168345854538  0.7641187963467582
  0.7653913821537476  0.2656564587188048  0.7604601484620708
  0.2126201010078685  0.5150840157669561  0.0005742904879007
  0.4977876832685987  0.2313797393444127  0.0186302484618429
  0.5247068837465287  0.5116575932725937  0.7383604744319473
  0.2126191879080399  0.2494446230365864  0.7349039968187853
  0.7653977270750227  0.4894800138707844  0.9843812691996796
  0.5052632394135689  0.7655909616740106  0.9871299095390389
  0.5008417894091115  0.4858811944866092  0.2660816920694997
  0.7765392300768863  0.7616785907607863  0.2625794364670066
 
             NaN             NaN             NaN
             NaN             NaN             NaN
             NaN             NaN             NaN
             NaN             NaN             NaN
             NaN             NaN             NaN
             NaN             NaN             NaN
             NaN             NaN             NaN
             NaN             NaN             NaN
             NaN             NaN             NaN
             NaN             NaN             NaN
             NaN             NaN             NaN
             NaN             NaN             NaN
             NaN             NaN             NaN
             NaN             NaN             NaN
             NaN             NaN             NaN
             NaN             NaN             NaN
             NaN             NaN             NaN
             NaN             NaN             NaN
             NaN             NaN             NaN
             NaN             NaN             NaN
             NaN             NaN             NaN
             NaN             NaN             NaN
             NaN             NaN             NaN
             NaN             NaN             NaN
             NaN             NaN             NaN
             NaN             NaN             NaN
             NaN             NaN             NaN
             NaN             NaN             NaN
             NaN             NaN             NaN
             NaN             NaN             NaN
             NaN             NaN             NaN
             NaN             NaN             NaN
             NaN             NaN             NaN
             NaN             NaN             NaN
             NaN             NaN             NaN
             NaN             NaN             NaN
             NaN             NaN             NaN
             NaN             NaN             NaN
             NaN             NaN             NaN
             NaN             NaN             NaN
             NaN             NaN             NaN
             NaN             NaN             NaN
             NaN             NaN             NaN
             NaN             NaN             NaN
             NaN             NaN             NaN
             NaN             NaN             NaN
             NaN             NaN             NaN
             NaN             NaN             NaN
             NaN             NaN             NaN
             NaN             NaN             NaN
             NaN             NaN             NaN
             NaN             NaN             NaN
             NaN             NaN             NaN
             NaN             NaN             NaN
             NaN             NaN             NaN
