Li15 Fe16 P16 O64
1.0
10.426367 -0.000223 0.005522
-0.000251 12.142310 0.000222
0.003437 0.000207 9.521388
Li Fe P O
15 16 16 64
direct
0.499272 0.374971 0.745963 Li
0.497265 0.497313 0.245394 Li
0.497500 0.004028 0.248396 Li
0.496712 0.007448 0.757519 Li
0.999844 0.251952 0.502885 Li
0.000707 0.251542 0.001612 Li
0.006329 0.744872 0.496579 Li
0.001021 0.746969 0.995432 Li
0.497229 0.252748 0.245309 Li
0.497463 0.745939 0.248390 Li
0.496600 0.742414 0.757562 Li
0.001074 0.003037 0.995316 Li
0.006312 0.005211 0.496454 Li
0.000717 0.498461 0.001644 Li
0.999872 0.498093 0.502930 Li
0.779488 0.127374 0.262755 Fe
0.780205 0.126412 0.763854 Fe
0.779449 0.622566 0.262913 Fe
0.780227 0.623566 0.763889 Fe
0.284036 0.126532 0.488281 Fe
0.282205 0.126939 0.985734 Fe
0.284046 0.623466 0.488330 Fe
0.282164 0.623048 0.985796 Fe
0.219429 0.375064 0.236294 Fe
0.222830 0.375026 0.738719 Fe
0.220579 0.875031 0.236577 Fe
0.219380 0.875043 0.736055 Fe
0.716750 0.375041 0.010666 Fe
0.717522 0.374967 0.516043 Fe
0.715267 0.874987 0.015987 Fe
0.719699 0.874976 0.507752 Fe
0.595471 0.123724 0.041768 P
0.595340 0.121635 0.539155 P
0.595512 0.626334 0.041816 P
0.595354 0.628304 0.539173 P
0.093823 0.123651 0.208734 P
0.093949 0.124217 0.707762 P
0.093760 0.626456 0.208825 P
0.093979 0.625888 0.707809 P
0.405500 0.375003 0.458084 P
0.405981 0.375009 0.959014 P
0.408389 0.874952 0.459945 P
0.404981 0.874952 0.958677 P
0.906841 0.374979 0.292026 P
0.907292 0.374996 0.792969 P
0.904723 0.874946 0.293311 P
0.899193 0.874966 0.791767 P
0.596687 0.122534 0.377627 O
0.600781 0.118726 0.881477 O
0.596616 0.627427 0.377645 O
0.600926 0.631407 0.881553 O
0.096927 0.122538 0.370337 O
0.095881 0.122924 0.869225 O
0.096950 0.627513 0.370419 O
0.095951 0.627126 0.869270 O
0.402923 0.374985 0.121955 O
0.398709 0.374953 0.617401 O
0.403023 0.874940 0.120364 O
0.403376 0.874944 0.620302 O
0.904844 0.375018 0.130642 O
0.903669 0.375004 0.631241 O
0.901462 0.874881 0.133149 O
0.887331 0.874921 0.629190 O
0.955500 0.122218 0.147512 O
0.956086 0.122510 0.645384 O
0.955414 0.627747 0.147661 O
0.956106 0.627593 0.645484 O
0.457070 0.124316 0.103046 O
0.459117 0.119703 0.601863 O
0.457084 0.625585 0.103008 O
0.459166 0.630151 0.601959 O
0.044281 0.375042 0.355510 O
0.044971 0.375005 0.854924 O
0.041522 0.874972 0.356491 O
0.039372 0.874994 0.845138 O
0.544439 0.375009 0.397809 O
0.543697 0.375155 0.901402 O
0.550366 0.875027 0.401534 O
0.542744 0.875012 0.897100 O
0.665313 0.022714 0.113526 O
0.666025 0.015370 0.601730 O
0.665897 0.524091 0.107325 O
0.673559 0.530779 0.603444 O
0.162755 0.226073 0.142618 O
0.163726 0.226327 0.641613 O
0.165018 0.727853 0.141581 O
0.165577 0.727302 0.639896 O
0.335869 0.273066 0.388971 O
0.331253 0.274246 0.895612 O
0.340681 0.773398 0.389988 O
0.333834 0.773323 0.892111 O
0.835809 0.476651 0.358654 O
0.836498 0.476698 0.859501 O
0.829450 0.974214 0.363584 O
0.831834 0.977061 0.860105 O
0.335895 0.476981 0.389005 O
0.330987 0.475656 0.895644 O
0.340516 0.976429 0.389973 O
0.333707 0.976527 0.892113 O
0.835934 0.273204 0.358542 O
0.836500 0.273275 0.859449 O
0.829427 0.775704 0.363672 O
0.831865 0.772871 0.860160 O
0.665763 0.226011 0.107257 O
0.673449 0.219196 0.603478 O
0.665205 0.727373 0.113684 O
0.666010 0.734604 0.601697 O
0.165214 0.022314 0.141505 O
0.165571 0.022833 0.639822 O
0.162833 0.524120 0.142668 O
0.163755 0.523809 0.641578 O
