Mg15 Mn32 O64                           
   1.00000000000000     
    11.4986219999999992   -0.0000140000000000   -0.0007180000000000
    -0.0000170000000000   11.5149340000000002    0.0000000000000000
    -0.0001090000000000    0.0000020000000000    9.1717099999999991
   Mg   Mn   O 
    15    32    64
Direct
  0.5005393702479658  0.6677123259888953  0.6783401728504898
  0.5005106582881158  0.2395585626343610  0.7339303457887768
  0.0001156420207464  0.2367070165549718  0.7359542959358033
  1.0002722515341536  0.7383700854693237  0.7377941451128546
  0.5002992858501994  0.9854432157164504  0.4867493565548142
  1.0000568802948331  0.9870177412083133  0.4842897775018999
  0.0003790838624295  0.4872090621803981  0.4878931888786527
  0.2500151694534659  0.9874738616205970  0.2386221072077795
  0.2539523282622996  0.4861581034555484  0.2374330262777665
  0.7492170560428770  0.9881945368242139  0.2379263919878628
  0.7466958087196629  0.4880393806491058  0.2365757944026592
  0.2481201862477601  0.2323500336126035  0.9872849718365724
  0.2510155558722316  0.7400178336061664  0.9865016936747409
  0.7504218434275589  0.2335810486405712  0.9873217756876207
  0.7499234608772941  0.7410647396958516  0.9859599627576435
  0.1243965776140556  0.2382834949104447  0.3645738697370870
  0.1254528936673331  0.7363467137410894  0.3609385472001449
  0.6221090750199986  0.2388861680670866  0.3609241277866231
  0.6248435993000112  0.7371993495850161  0.3583752836863021
  0.3759486160850395  0.2373104526612301  0.3602988869033176
  0.3765052413965055  0.7361762673028883  0.3583682464181440
  0.8728317237041029  0.2389624936677542  0.3618678732428323
  0.8750527218328404  0.7367835705985331  0.3609953761745184
  0.1247374414922190  0.9865928649662018  0.8606224016715198
  0.1247083226986045  0.4860907318473215  0.8664251206758545
  0.6226740845811999  0.9870592033375161  0.8580458158739260
  0.6276924155617213  0.4864256889599309  0.8669894211712345
  0.3759022317781890  0.9858348071363523  0.8589405447793947
  0.3730269522576746  0.4854467709995026  0.8672712090193090
  0.8746679104561268  0.9871063315056660  0.8608604394039560
  0.8756902461355421  0.4864044001402943  0.8663571808626267
 -0.0001566736850368  0.1112645995947657  0.1122366053582770
  1.0006649912212637  0.6114676279242898  0.1140979900598922
  0.4985903870433374  0.1099654201423850  0.1105045065599659
  0.5012974968028008  0.6134593870338090  0.1111935892004480
 -0.0000489573550833  0.3613931601542412  0.1161286230744061
  1.0000716299492463  0.8613991292283024  0.1110107136294858
  0.4998283778890987  0.3578646231541394  0.1106923388589515
  0.5000311507509471  0.8617556975872344  0.1057434910028183
  0.2542609954859733  0.3628209377799728  0.6136341781205150
  0.2499020762014185  0.8612919827490805  0.6108435439595356
  0.7472668400163752  0.3656601365605057  0.6120694169035532
  0.7505672159923082  0.8638091666822436  0.6107296549669591
  0.2498526964845917  0.1114172655020909  0.6107292953492850
  0.2476222815266621  0.6114070281870234  0.6115911844068996
  0.7512045680239361  0.1142056256644227  0.6110952675454221
  0.7527431484520196  0.6139502369635291  0.6131584893295007
  0.1382696867185887  0.2382922896578916  0.6089429055889920
  0.1354487668880396  0.7368169375993702  0.6070514020490552
  0.6380469042173357  0.2407192625941298  0.6081083616084526
  0.6404318670026792  0.7354674642896570  0.6026253287193548
  0.3629757664222347  0.2382786726715428  0.6084798109895200
  0.3596982611886146  0.7330222312077973  0.6023274704783468
  0.8624788979024702  0.2406113459623463  0.6078847480945573
  0.8646664368713893  0.7389289244283593  0.6075054582660661
  0.1389476774000814  0.4851077425882396  0.6181630443677758
  0.1365745596026537  0.9864183884730692  0.6143773216753811
  0.6356320682990777  0.4952990334382224  0.6597716254047457
  0.6387335013743217  0.9890540756818897  0.6134542313572149
  0.3649433080518436  0.4931670996363149  0.6604583226280938
  0.3618980561152644  0.9865782929666534  0.6136120944181102
  0.8620176255397364  0.4874954487544701  0.6180955997318398
  0.8639407846351093  0.9887207482752784  0.6147223923147268
  0.4990092509148085  0.1027016178164705  0.8634338284468249
  0.4998492892034331  0.5938812333286541  0.8698448510825796
  0.9998583143451339  0.1005215901507995  0.8661244670150404
  0.0002492763433752  0.5994727951588177  0.8659769581816319
  0.5008441578809191  0.3767097070716890  0.8666878547305517
  0.4997194286487678  0.8773674277462020  0.8680371099465102
  0.0001064006521948  0.3738544608247349  0.8666542036136193
  0.9994837487617125  0.8740326292676880  0.8667463919565711
  0.4984694220000355  0.3457898811914663  0.3392850253591960
  0.5002593532879254  0.8514545586143977  0.3551034515329787
 -0.0009296480444508  0.3509939117383311  0.3588244926950110
  1.0003380444738741  0.8497623755175603  0.3558295064325199
  0.4997612375571149  0.1224680711158009  0.3574556382039022
  0.5010447321528418  0.6286482111454453  0.3462942486384814
 -0.0012271900676764  0.1256434626300412  0.3581616313692750
  1.0001708235616189  0.6237119964017740  0.3582539792954673
  0.3858586988220501  0.4843430639557468  0.0869532151324004
  0.3856088579393187  0.9856297159615796  0.1068476316514577
  0.8869844685421824  0.4865818661748977  0.1095098941693462
  0.8866516437819141  0.9867565939098584  0.1078730715594853
  0.1130826394045174  0.9868171261072710  0.1078226312995734
  0.1138253543096054  0.4860686585674223  0.1097765220304573
  0.6130664783999509  0.9876187336021882  0.1067953840680134
  0.6163997597265516  0.4871792084906700  0.0852070471068933
  0.3848601483573585  0.2336349647020558  0.1126956783458097
  0.3876872282188207  0.7351847226115339  0.1132766527069915
  0.8864433175764834  0.2370562220596724  0.1168723597688209
  0.8873356637511089  0.7361898605731688  0.1151098064036434
  0.1124749247752149  0.2368839731816808  0.1173978333939602
  0.1135037199626309  0.7362709405291242  0.1153248660190867
  0.6117993667199483  0.2366738285302601  0.1115901656926381
  0.6138086341322465  0.7373358303372199  0.1130928513732180
  0.2499359989834835  0.3520751619607718  0.3705696220877983
  0.2497024638632589  0.8488131558912226  0.3647489844518766
  0.7481851483740147  0.3536019442560612  0.3691193784564744
  0.7512460295529915  0.8501742354135285  0.3649390287957873
  0.2485732164249608  0.1251348442580471  0.3670388293702153
  0.2494693089023100  0.6215145683941773  0.3677247240245519
  0.7493453017866650  0.1263690738145712  0.3657428289712615
  0.7512729430154002  0.6226850320322882  0.3678217127942571
  0.2490528027905896  0.0990285268218245  0.8549957123966156
  0.2514040011347941  0.5968359332407618  0.8683394334685185
  0.7500843176515158  0.1002518534168439  0.8551770237866865
  0.7491874187729279  0.5978998842865146  0.8675958710962037
  0.2523828482597155  0.3741021467591333  0.8644739981003159
  0.2479971284330539  0.8729394062336615  0.8543697913326689
  0.7480437966163797  0.3750523266123682  0.8639119766319010
  0.7510369668292735  0.8743320277659553  0.8542009835693655
 
             NaN             NaN             NaN
             NaN             NaN             NaN
             NaN             NaN             NaN
             NaN             NaN             NaN
             NaN             NaN             NaN
             NaN             NaN             NaN
             NaN             NaN             NaN
             NaN             NaN             NaN
             NaN             NaN             NaN
             NaN             NaN             NaN
             NaN             NaN             NaN
             NaN             NaN             NaN
             NaN             NaN             NaN
             NaN             NaN             NaN
             NaN             NaN             NaN
             NaN             NaN             NaN
             NaN             NaN             NaN
             NaN             NaN             NaN
             NaN             NaN             NaN
             NaN             NaN             NaN
             NaN             NaN             NaN
             NaN             NaN             NaN
             NaN             NaN             NaN
             NaN             NaN             NaN
             NaN             NaN             NaN
             NaN             NaN             NaN
             NaN             NaN             NaN
             NaN             NaN             NaN
             NaN             NaN             NaN
             NaN             NaN             NaN
             NaN             NaN             NaN
             NaN             NaN             NaN
             NaN             NaN             NaN
             NaN             NaN             NaN
             NaN             NaN             NaN
             NaN             NaN             NaN
             NaN             NaN             NaN
             NaN             NaN             NaN
             NaN             NaN             NaN
             NaN             NaN             NaN
             NaN             NaN             NaN
             NaN             NaN             NaN
             NaN             NaN             NaN
             NaN             NaN             NaN
             NaN             NaN             NaN
             NaN             NaN             NaN
             NaN             NaN             NaN
             NaN             NaN             NaN
             NaN             NaN             NaN
             NaN             NaN             NaN
             NaN             NaN             NaN
             NaN             NaN             NaN
             NaN             NaN             NaN
             NaN             NaN             NaN
             NaN             NaN             NaN
             NaN             NaN             NaN
             NaN             NaN             NaN
             NaN             NaN             NaN
             NaN             NaN             NaN
             NaN             NaN             NaN
             NaN             NaN             NaN
             NaN             NaN             NaN
             NaN             NaN             NaN
             NaN             NaN             NaN
             NaN             NaN             NaN
             NaN             NaN             NaN
             NaN             NaN             NaN
             NaN             NaN             NaN
             NaN             NaN             NaN
             NaN             NaN             NaN
             NaN             NaN             NaN
             NaN             NaN             NaN
             NaN             NaN             NaN
             NaN             NaN             NaN
             NaN             NaN             NaN
             NaN             NaN             NaN
             NaN             NaN             NaN
             NaN             NaN             NaN
             NaN             NaN             NaN
             NaN             NaN             NaN
             NaN             NaN             NaN
             NaN             NaN             NaN
             NaN             NaN             NaN
             NaN             NaN             NaN
             NaN             NaN             NaN
             NaN             NaN             NaN
             NaN             NaN             NaN
             NaN             NaN             NaN
             NaN             NaN             NaN
             NaN             NaN             NaN
             NaN             NaN             NaN
             NaN             NaN             NaN
             NaN             NaN             NaN
             NaN             NaN             NaN
             NaN             NaN             NaN
             NaN             NaN             NaN
             NaN             NaN             NaN
             NaN             NaN             NaN
             NaN             NaN             NaN
             NaN             NaN             NaN
             NaN             NaN             NaN
             NaN             NaN             NaN
             NaN             NaN             NaN
             NaN             NaN             NaN
             NaN             NaN             NaN
             NaN             NaN             NaN
             NaN             NaN             NaN
             NaN             NaN             NaN
             NaN             NaN             NaN
             NaN             NaN             NaN
             NaN             NaN             NaN
