Li15 Fe16 P16 O64                       
   1.00000000000000     
    10.2418089999999999    0.0000970000000000    0.0237740000000000
    -0.0002110000000000   11.9645930000000007   -0.0001240000000000
     0.0102850000000000   -0.0004260000000000    9.3726610000000008
   Li   Fe   P    O 
    15    16    16    64
Direct
  0.5535636006252412  0.3763537889817729  0.7075013336182120
  0.5008633078152402  0.9997824929557532  0.2502663934702309
  0.4990670360661627  0.0088807264529258  0.7537425504496557
  0.4992034705522058  0.5021533795649842  0.2517809989302472
  0.0008080699993948  0.2495292254348950  0.4960992973523781
  0.9974734110363541  0.2465435690935661  0.0004289772302888
  0.9989537238337431  0.7491611616513032  0.5012241461006814
  0.9986540222152671  0.7511601466542204  0.0021812833977620
  0.4995437117341744  0.2477907013140923  0.2518183158224948
  0.5005887686633639  0.7503305968982072  0.2501851040746372
  0.4987796749965326  0.7409331537255347  0.7539425130474579
  0.0006574899485814  0.5005722291621933  0.4964903303904311
  0.9971459093033460  0.5035426285142840  0.0008776335365311
  0.9990955265416340  0.0008522018571792  0.5008597503582739
  0.9988440082064156  0.9988753815101915  0.0017677569822654
  0.7798457529720780  0.1233524606129184  0.2670858098323294
  0.7790118822986059  0.1261185756132516  0.7630812394168260
  0.7783898991331721  0.6262944518942599  0.2670104695974990
  0.7789553018606828  0.6238948504855572  0.7631612202511977
  0.2813379975187837  0.1245135539192364  0.4852134809754551
  0.2825922625343308  0.1243920025318718  0.9839467601931726
  0.2812283666640630  0.6254996598704677  0.4854750111872737
  0.2814918880950531  0.6253427519325179  0.9856404889055023
  0.2169716034034556  0.3749612951672226  0.2301830045905019
  0.2239344661361775  0.3750197936340867  0.7473456433145963
  0.2190675907149029  0.8750231291031390  0.2361469127115495
  0.2192618508647919  0.8750300801533617  0.7359152754851571
  0.7194584748103625  0.3749168477038539  0.0162380477929695
  0.7237024781344442  0.3749393529665338  0.5022296392549103
  0.7185556179621055  0.8750013371789868  0.0145872578456467
  0.7172173737791034  0.8750005301226798  0.5186039393983254
  0.5960252199957212  0.1235500632590618  0.0430391882627597
  0.5903442779636964  0.1310972118185411  0.5444131679349673
  0.5956238829504499  0.6263742315893300  0.0429447734396897
  0.5901222408040371  0.6189105331923793  0.5445027696089568
  0.0930634125492953  0.1242329627760325  0.2072324206408473
  0.0936435876413780  0.1280706021100695  0.7102465885459920
  0.0924520964590834  0.6257539571403212  0.2084064051691516
  0.0935945431377747  0.6220344999043502  0.7108578456236390
  0.3958132139672393  0.3750289208289564  0.4550256863618852
  0.4046283005474514  0.3750822167613513  0.9609092571441991
  0.4057389674788278  0.8750019140949864  0.4576529712911576
  0.4073918157247240  0.8747840526738023  0.9567946151646640
  0.9090565100112447  0.3750384385685094  0.2875158317866546
  0.9095330741751829  0.3750445346513987  0.7877696523848136
  0.9062482436141723  0.8748581460955369  0.2945029948367192
  0.9072268931807053  0.8750204300283319  0.7934891974744890
  0.5954894071908431  0.1311346972327564  0.3813782517492686
  0.6020828399309369  0.1186146775205341  0.8828055277225439
  0.5949388570817807  0.6188116612360948  0.3814487733121809
  0.6018153326521442  0.6313186665215054  0.8827317003542826
  0.0947908758154211  0.1255701334453157  0.3695384876791042
  0.0939071675168857  0.1263833237512047  0.8719866529576050
  0.0944566546637116  0.6243861438899795  0.3706834719001895
  0.0935269408935112  0.6236898255673865  0.8726176815855785
  0.4022313740137857  0.3749825614782940  0.1228415883752932
  0.3833123834180667  0.3750927679981456  0.6173312929929728
  0.4050737917322731  0.8750231561998104  0.1188711818239804
  0.4015374338119976  0.8750040580002642  0.6193000543209886
  0.9081529989457144  0.3751034051513689  0.1255543849527814
  0.9081013002577071  0.3750714154321261  0.6261407166476449
  0.9047401933511848  0.8749448914916875  0.1323637878097924
  0.9052642431239394  0.8749772177348953  0.6312614233335023
  0.9543697574452854  0.1239201379204023  0.1454072762286369
  0.9567871460352196  0.1279677546431847  0.6443497796363815
  0.9538514055774479  0.6260484922499188  0.1464394485711123
  0.9567879771330083  0.6221190378216663  0.6448061622694060
  0.4561373517780180  0.1265476203949046  0.1037231995726142
  0.4517452920108159  0.1236272851058192  0.6016097375458188
  0.4558561374467546  0.6234310758767734  0.1039191769347560
  0.4515824182077942  0.6264118962816131  0.6018305278751142
  0.0461800943043738  0.3751161119856386  0.3522756928352452
  0.0507469692445627  0.3750522078025471  0.8487432694446658
  0.0447752629886746  0.8748460419782662  0.3571412402384884
  0.0461842167423941  0.8749927946686580  0.8552798675537884
  0.5370434104097898  0.3750236307158290  0.4015295134361939
  0.5431872640369184  0.3751687474316733  0.9040856033556666
  0.5452562880922484  0.8749935578965204  0.3966637687469997
  0.5454787121738913  0.8748215104092694  0.8936713409348344
  0.6639453887734590  0.0214823407130338  0.1152049032074307
  0.6671693499840560  0.0298634327451458  0.6079271365488957
  0.6675945141134851  0.5238275760578732  0.1083890052333272
  0.6602764772559745  0.5143688563057985  0.6086127561552600
  0.1637918996324418  0.2260260158095980  0.1391442785742408
  0.1647069764005117  0.2337028886620302  0.6481613478419170
  0.1642537959006225  0.7276026059864009  0.1424589567863603
  0.1674515359163334  0.7223195842657587  0.6436707923120062
  0.3281049575061365  0.2724523340165588  0.3874799497801004
  0.3244481965457822  0.2770959173662134  0.8937821392512546
  0.3346888121268691  0.7732433209890111  0.3896247245433440
  0.3349312078630197  0.7726907302664413  0.8914491948745800
  0.8367405964128835  0.4766603120749385  0.3542558265669030
  0.8400388738923322  0.4765761539970338  0.8566126054261017
  0.8350790694623261  0.9768157824034914  0.3617061085964065
  0.8365284230240014  0.9774298029296118  0.8594997305818491
  0.3280572221849776  0.4775850813906660  0.3875009553722941
  0.3242281495072796  0.4730571029726969  0.8941447388654676
  0.3347305274883443  0.9767387991272573  0.3895423933929756
  0.3350644753675624  0.9767967788190124  0.8908872927070135
  0.8370707102480959  0.2732150989285394  0.3540737684951621
  0.8401450400740256  0.2734670961777411  0.8565833625363998
  0.8347883076106232  0.7730626320244683  0.3616453085290017
  0.8364150780882253  0.7726792563842163  0.8595727629308532
  0.6680239046397168  0.2260305339763151  0.1085473714099444
  0.6605759555130405  0.2355793371198460  0.6085732271783231
  0.6636408948132873  0.7284074328650521  0.1151402673641403
  0.6671346552910493  0.7200490871964433  0.6078754884779187
  0.1647282637024805  0.0222803132968245  0.1414902410277446
  0.1674761457716133  0.0277610159810693  0.6430840075672924
  0.1632666921303114  0.5240267449273476  0.1400268218199144
  0.1647375793158630  0.5164746347728800  0.6486670215087450
 
             NaN             NaN             NaN
             NaN             NaN             NaN
             NaN             NaN             NaN
             NaN             NaN             NaN
             NaN             NaN             NaN
             NaN             NaN             NaN
             NaN             NaN             NaN
             NaN             NaN             NaN
             NaN             NaN             NaN
             NaN             NaN             NaN
             NaN             NaN             NaN
             NaN             NaN             NaN
             NaN             NaN             NaN
             NaN             NaN             NaN
             NaN             NaN             NaN
             NaN             NaN             NaN
             NaN             NaN             NaN
             NaN             NaN             NaN
             NaN             NaN             NaN
             NaN             NaN             NaN
             NaN             NaN             NaN
             NaN             NaN             NaN
             NaN             NaN             NaN
             NaN             NaN             NaN
             NaN             NaN             NaN
             NaN             NaN             NaN
             NaN             NaN             NaN
             NaN             NaN             NaN
             NaN             NaN             NaN
             NaN             NaN             NaN
             NaN             NaN             NaN
             NaN             NaN             NaN
             NaN             NaN             NaN
             NaN             NaN             NaN
             NaN             NaN             NaN
             NaN             NaN             NaN
             NaN             NaN             NaN
             NaN             NaN             NaN
             NaN             NaN             NaN
             NaN             NaN             NaN
             NaN             NaN             NaN
             NaN             NaN             NaN
             NaN             NaN             NaN
             NaN             NaN             NaN
             NaN             NaN             NaN
             NaN             NaN             NaN
             NaN             NaN             NaN
             NaN             NaN             NaN
             NaN             NaN             NaN
             NaN             NaN             NaN
             NaN             NaN             NaN
             NaN             NaN             NaN
             NaN             NaN             NaN
             NaN             NaN             NaN
             NaN             NaN             NaN
             NaN             NaN             NaN
             NaN             NaN             NaN
             NaN             NaN             NaN
             NaN             NaN             NaN
             NaN             NaN             NaN
             NaN             NaN             NaN
             NaN             NaN             NaN
             NaN             NaN             NaN
             NaN             NaN             NaN
             NaN             NaN             NaN
             NaN             NaN             NaN
             NaN             NaN             NaN
             NaN             NaN             NaN
             NaN             NaN             NaN
             NaN             NaN             NaN
             NaN             NaN             NaN
             NaN             NaN             NaN
             NaN             NaN             NaN
             NaN             NaN             NaN
             NaN             NaN             NaN
             NaN             NaN             NaN
             NaN             NaN             NaN
             NaN             NaN             NaN
             NaN             NaN             NaN
             NaN             NaN             NaN
             NaN             NaN             NaN
             NaN             NaN             NaN
             NaN             NaN             NaN
             NaN             NaN             NaN
             NaN             NaN             NaN
             NaN             NaN             NaN
             NaN             NaN             NaN
             NaN             NaN             NaN
             NaN             NaN             NaN
             NaN             NaN             NaN
             NaN             NaN             NaN
             NaN             NaN             NaN
             NaN             NaN             NaN
             NaN             NaN             NaN
             NaN             NaN             NaN
             NaN             NaN             NaN
             NaN             NaN             NaN
             NaN             NaN             NaN
             NaN             NaN             NaN
             NaN             NaN             NaN
             NaN             NaN             NaN
             NaN             NaN             NaN
             NaN             NaN             NaN
             NaN             NaN             NaN
             NaN             NaN             NaN
             NaN             NaN             NaN
             NaN             NaN             NaN
             NaN             NaN             NaN
             NaN             NaN             NaN
             NaN             NaN             NaN
             NaN             NaN             NaN
