Li47 P16 O64
1.0
10.437572 0.000854 -0.006587
0.000984 12.151003 -0.004192
-0.006202 -0.003365 9.797896
Li P O
47 16 64
direct
0.457169 0.355891 0.097935 Li
0.663810 0.250761 0.603494 Li
0.664452 0.750418 0.097621 Li
0.664170 0.752163 0.598504 Li
0.164766 0.498525 0.151810 Li
0.163635 0.499534 0.652112 Li
0.163840 0.995357 0.154334 Li
0.164172 0.998478 0.651914 Li
0.335968 0.000720 0.402633 Li
0.336352 0.000847 0.901917 Li
0.335465 0.501385 0.401967 Li
0.336479 0.500118 0.903008 Li
0.833365 0.249310 0.345868 Li
0.836314 0.249282 0.851157 Li
0.835840 0.749042 0.347870 Li
0.835942 0.749140 0.847891 Li
0.335113 0.249399 0.402700 Li
0.336331 0.248641 0.901353 Li
0.336196 0.749217 0.401723 Li
0.336175 0.749234 0.902390 Li
0.836293 0.001151 0.348366 Li
0.835965 0.001263 0.847631 Li
0.834628 0.501189 0.347836 Li
0.836091 0.500438 0.848125 Li
0.664270 0.494518 0.095845 Li
0.664513 0.502746 0.598374 Li
0.666170 1.001132 0.099560 Li
0.663698 1.000415 0.597752 Li
0.164174 0.251316 0.151210 Li
0.163332 0.250621 0.652429 Li
0.164436 0.749846 0.151686 Li
0.163867 0.750875 0.652537 Li
0.921817 0.375823 0.147083 Li
0.923474 0.375007 0.648920 Li
0.923580 0.874444 0.148889 Li
0.923388 0.875256 0.648758 Li
0.419280 0.375975 0.602868 Li
0.425212 0.874358 0.101438 Li
0.424116 0.875585 0.600983 Li
0.076660 0.124537 0.351476 Li
0.077408 0.124652 0.850948 Li
0.075788 0.624632 0.350759 Li
0.076271 0.624610 0.851508 Li
0.576517 0.126639 0.395877 Li
0.578467 0.128880 0.906343 Li
0.576244 0.626071 0.399655 Li
0.576505 0.624652 0.898884 Li
0.914680 0.124233 0.095357 P
0.912191 0.125162 0.595093 P
0.911508 0.624982 0.095211 P
0.911843 0.625285 0.595348 P
0.409542 0.123236 0.154669 P
0.411827 0.124796 0.654876 P
0.412656 0.624229 0.154483 P
0.411173 0.626272 0.654922 P
0.087536 0.375230 0.404611 P
0.088421 0.375071 0.904696 P
0.088023 0.874281 0.405039 P
0.088223 0.874541 0.904692 P
0.586905 0.376685 0.349125 P
0.587335 0.375197 0.839841 P
0.588803 0.875391 0.345170 P
0.588684 0.875633 0.845667 P
0.843756 0.021475 0.147613 O
0.841461 0.021763 0.646524 O
0.840718 0.521893 0.146849 O
0.841732 0.521909 0.647411 O
0.339419 0.225724 0.100665 O
0.340357 0.228154 0.603946 O
0.342606 0.728336 0.103472 O
0.341100 0.730092 0.603810 O
0.157201 0.271497 0.352306 O
0.158482 0.271415 0.852983 O
0.158443 0.770936 0.352965 O
0.158473 0.770905 0.853296 O
0.657900 0.480009 0.401365 O
0.658238 0.477047 0.895309 O
0.658636 0.979239 0.396550 O
0.659305 0.978660 0.897946 O
0.158208 0.478491 0.353035 O
0.158878 0.478455 0.852898 O
0.158508 0.977852 0.354105 O
0.158834 0.977856 0.853240 O
0.657597 0.273305 0.400191 O
0.658005 0.269454 0.878097 O
0.659056 0.772083 0.397681 O
0.658530 0.771470 0.896392 O
0.852277 0.229139 0.150008 O
0.842817 0.228791 0.647219 O
0.841698 0.728756 0.146834 O
0.841485 0.728851 0.646831 O
0.338437 0.018975 0.104950 O
0.341377 0.021197 0.603179 O
0.341386 0.521625 0.102315 O
0.340282 0.523358 0.602492 O
0.546549 0.119144 0.101415 O
0.549776 0.125570 0.600606 O
0.551363 0.624044 0.102045 O
0.549961 0.627015 0.602902 O
0.054746 0.121986 0.145667 O
0.051197 0.124357 0.647157 O
0.050471 0.624566 0.147306 O
0.050697 0.625280 0.647533 O
0.448361 0.375490 0.402653 O
0.449057 0.373916 0.892215 O
0.449775 0.875155 0.396819 O
0.449871 0.875294 0.898038 O
0.948466 0.375745 0.353252 O
0.949603 0.375249 0.852391 O
0.949293 0.874635 0.352497 O
0.949422 0.874915 0.852220 O
0.585890 0.379453 0.193421 O
0.585833 0.380512 0.682460 O
0.590260 0.874750 0.187875 O
0.589049 0.876193 0.688260 O
0.088951 0.375236 0.061935 O
0.089181 0.374976 0.561985 O
0.088544 0.873874 0.062053 O
0.088502 0.874187 0.562314 O
0.408743 0.125362 0.312021 O
0.412274 0.124427 0.812060 O
0.411862 0.624617 0.311920 O
0.410847 0.625198 0.812267 O
0.911222 0.125382 0.437739 O
0.912485 0.124287 0.938165 O
0.910886 0.625032 0.437994 O
0.910723 0.624930 0.937812 O
