Li48 P16 O64                            
   1.00000000000000     
    10.5828383857886532    0.0000003621415611   -0.0126361977057005
     0.0000007447216338   12.4105849955075627    0.0000006599061139
    -0.0119440699007567    0.0000005662925119   10.0183249088253987
   Li   P    O 
    47    16    64
Direct
  0.6534013402351690  0.2538875095608411  0.0978876676464435
  0.6661817517018639  0.2496845876998804  0.5983996406825400
  0.6627019033783140  0.7500606750058206  0.0988159063709397
  0.6639693437184512  0.7505168900348513  0.5994430615576405
  0.1644973439504608  0.4976327406297079  0.1496082735510565
  0.1653394924403322  0.4984114397860664  0.6514258527955169
  0.1642780349447246  0.9984358699514033  0.1509794661884606
  0.1647946361243468  0.9988141739485572  0.6515576370553215
  0.3375598766138513  0.0008743945474210  0.3994918242842459
  0.3370133038423641  0.0007585531366008  0.9035887345998204
  0.3403219278339686  0.4983553309622389  0.3952551096701034
  0.3388093240608352  0.4962110095021864  0.9089655807549524
  0.8355961067267107  0.2490156633690576  0.3485476133217264
  0.8336808294312914  0.2491230149844881  0.8506780193050067
  0.8370763473545998  0.7484499330804634  0.3493704427864146
  0.8368373148702734  0.7487682213210878  0.8490675486956627
  0.3403213603852010  0.2516444700150161  0.3952548383465692
  0.3388084819259932  0.2537888276039048  0.9089658215250780
  0.3375600807467639  0.7491254785091411  0.3994918520247588
  0.3370137296146429  0.7492412324815089  0.9035887675321196
  0.8370761505855164  0.0015502932015103  0.3493711666529344
  0.8368377587689375  0.0012310322174221  0.8490680049952647
  0.8355962148851119  0.5009844879119835  0.3485474957253955
  0.8336800290188241  0.5008772037229362  0.8506771997458777
  0.6534017581843934  0.4961118978711246  0.0978882564266722
  0.6661808872439126  0.5003151742837793  0.5983984245793188
  0.6627018060094660  0.9999396822252971  0.0988159984239617
  0.6639690134085424  0.9994826676112085  0.5994439078309536
  0.1644966237475926  0.2523671676311880  0.1496087038714778
  0.1653391310197141  0.2515887311050826  0.6514254259031820
  0.1642781024212759  0.7515643490719567  0.1509796150910429
  0.1647947015519724  0.7511857925682265  0.6515580343852960
  0.9212831748226252  0.3749998060126342  0.1483207099180228
  0.9243929121222569  0.3750002935768592  0.6497263164327984
  0.9242850146115988  0.8750000876045329  0.1495653159462914
  0.9259844155201631  0.8750001869920501  0.6490379979523447
  0.4299627200785241  0.3749997392396176  0.6060690778785006
  0.4294441041328683  0.8750002586352645  0.1023586090778816
  0.4265118399144089  0.8749999642178927  0.6007446462765245
  0.0756190508506840  0.1260267084477408  0.3505146566173311
  0.0755821612393991  0.1262322137771024  0.8526542026337030
  0.0756191943186646  0.6239735278864400  0.3505141487396894
  0.0755823091179442  0.6237673314335340  0.8526552547064901
  0.5739805212278482  0.1268440846308741  0.3994363954958802
  0.5715702085131915  0.1264107225792662  0.8991719105262939
  0.5739804495877689  0.6231563350357578  0.3994360637398053
  0.5715705059626712  0.6235892725128397  0.8991729010348221
  0.9100800276371057  0.1247423228461183  0.0972505786150695
  0.9131753709120658  0.1243725468664438  0.5973981463780184
  0.9100799808776699  0.6252575691022922  0.0972505666528031
  0.9131756409533517  0.6256274900127656  0.5973981342686858
  0.4081699756941236  0.1201153408196989  0.1519071357296069
  0.4108292806995926  0.1244494919565000  0.6531975292810351
  0.4081701708261600  0.6298849496955153  0.1519070783759663
  0.4108295141678454  0.6255504556656157  0.6531973620865235
  0.0886294513622470  0.3750002657949494  0.4030344250491326
  0.0861338270886760  0.3749999302898620  0.9030215501204155
  0.0886136695393186  0.8749999704053020  0.4037151732122696
  0.0882406856377815  0.8749999128859055  0.9039183811942401
  0.5933042017200761  0.3750000295677542  0.3496096521178909
  0.5873263612969214  0.3749999538948505  0.8400049731944348
  0.5906686151993157  0.8750001633749204  0.3476630222447194
  0.5896440375717220  0.8749998306508919  0.8456793432708292
  0.8407028914276927  0.0213877563614474  0.1481261497511312
  0.8429853586088168  0.0213540513912099  0.6478775659905257
  0.8390141608157122  0.5231386753419979  0.1475898784481664
  0.8435876424421893  0.5234916486607341  0.6498501754901268
  0.3303828446463618  0.2144499177989451  0.0962986783148446
  0.3419002264568894  0.2267899083238197  0.5996652383892107
  0.3439729531520138  0.7379820544269892  0.1069841126966042
  0.3417177443115472  0.7289068870307995  0.6010724670974235
  0.1586181729782745  0.2722825129577837  0.3521378239079128
  0.1560961408368572  0.2724293016073179  0.8517784409752526
  0.1581095139059494  0.7721812397095352  0.3524969096491360
  0.1584804560200846  0.7722580332030045  0.8532467468661642
  0.6615257525669305  0.4786025085348315  0.4042732084679365
  0.6546596456642135  0.4777026364996763  0.8970678620923291
  0.6600403609776746  0.9779903195765798  0.3995307054200175
  0.6592741434247242  0.9778780817282470  0.8973394016980589
  0.1586182974605562  0.4777179145296738  0.3521375540785275
  0.1560962907756051  0.4775704312328889  0.8517782156311358
  0.1581095115812675  0.9778187303980936  0.3524968857861089
  0.1584803967827027  0.9777417398643011  0.8532462644535247
  0.6615262546896661  0.2713985404465584  0.4042756842384315
  0.6546597615542087  0.2722973184963811  0.8970675250165295
  0.6600405575668434  0.7720099788550175  0.3995304979883372
  0.6592739776872709  0.7721216886623258  0.8973402351635783
  0.8390141823198722  0.2268613953718113  0.1475894819378185
  0.8435880874674830  0.2265084339572185  0.6498509283579651
  0.8407029104409786  0.7286122811248711  0.1481259517225017
  0.8429854398339901  0.7286460484087378  0.6478774121657375
  0.3439725854766304  0.0120183123530588  0.1069841496297702
  0.3417176222539768  0.0210930473921073  0.6010723961650219
  0.3303831830573492  0.5355503962132352  0.0962981539152387
  0.3419004535665126  0.5232100620045275  0.5996653875718290
  0.5468512468704151  0.1226513775228699  0.0990113739118479
  0.5501288040036486  0.1238805205226653  0.6029794165745368
  0.5468514071973756  0.6273489560291702  0.0990114164693052
  0.5501289417019057  0.6261193595689873  0.6029788287794691
  0.0485092620322034  0.1246539943130263  0.1499972402937773
  0.0519388119708139  0.1239537157463480  0.6491886573968600
  0.0485093707484981  0.6253459255060277  0.1499968191701538
  0.0519386078726176  0.6260460979322323  0.6491897272574471
  0.4547358594449850  0.3750000446502438  0.4020559291765822
  0.4452261345004377  0.3749998006799888  0.8714278086572256
  0.4519713260179752  0.8749999845066680  0.3988502300653634
  0.4509377524250814  0.8749998100069190  0.8961578129074349
  0.9499188087602937  0.3750002692681066  0.3505755069060754
  0.9471516323686832  0.3750001253560785  0.8508210596668390
  0.9496733101182697  0.8750001007924502  0.3520311832399345
  0.9499028576382912  0.8749999297172257  0.8505753836560446
  0.6023010931128411  0.3749989432341409  0.1966357494717585
  0.6025446960594807  0.3750001426218709  0.6845524321384128
  0.5932981806992762  0.8750002667385003  0.1918318769885423
  0.5914294946074059  0.8749997166317491  0.6896381127121257
  0.0853482326762361  0.3749998534607415  0.0588960830227632
  0.0887282720611052  0.3750003038000000  0.5591831984131531
  0.0873321902987073  0.8750000497832505  0.0597567943134452
  0.0897363888150315  0.8749999303233763  0.5597750508080190
  0.4108834193053671  0.1237603122504861  0.3084283158311857
  0.4082005633354030  0.1242495759508354  0.8089658883514138
  0.4108832162910984  0.6262395587521495  0.3084281343768111
  0.4082012943526973  0.6257503664424816  0.8089658722571229
  0.9119832411836571  0.1249485611449786  0.4413847580138269
  0.9101901523642242  0.1245090524274906  0.9410777267190110
  0.9119839005460336  0.6250516495943074  0.4413847273931409
  0.9101899099190838  0.6254906002970927  0.9410776448897548
 
  0.00000000E+00  0.00000000E+00  0.00000000E+00
  0.00000000E+00  0.00000000E+00  0.00000000E+00
  0.00000000E+00  0.00000000E+00  0.00000000E+00
  0.00000000E+00  0.00000000E+00  0.00000000E+00
  0.00000000E+00  0.00000000E+00  0.00000000E+00
  0.00000000E+00  0.00000000E+00  0.00000000E+00
  0.00000000E+00  0.00000000E+00  0.00000000E+00
  0.00000000E+00  0.00000000E+00  0.00000000E+00
  0.00000000E+00  0.00000000E+00  0.00000000E+00
  0.00000000E+00  0.00000000E+00  0.00000000E+00
  0.00000000E+00  0.00000000E+00  0.00000000E+00
  0.00000000E+00  0.00000000E+00  0.00000000E+00
  0.00000000E+00  0.00000000E+00  0.00000000E+00
  0.00000000E+00  0.00000000E+00  0.00000000E+00
  0.00000000E+00  0.00000000E+00  0.00000000E+00
  0.00000000E+00  0.00000000E+00  0.00000000E+00
  0.00000000E+00  0.00000000E+00  0.00000000E+00
  0.00000000E+00  0.00000000E+00  0.00000000E+00
  0.00000000E+00  0.00000000E+00  0.00000000E+00
  0.00000000E+00  0.00000000E+00  0.00000000E+00
  0.00000000E+00  0.00000000E+00  0.00000000E+00
  0.00000000E+00  0.00000000E+00  0.00000000E+00
  0.00000000E+00  0.00000000E+00  0.00000000E+00
  0.00000000E+00  0.00000000E+00  0.00000000E+00
  0.00000000E+00  0.00000000E+00  0.00000000E+00
  0.00000000E+00  0.00000000E+00  0.00000000E+00
  0.00000000E+00  0.00000000E+00  0.00000000E+00
  0.00000000E+00  0.00000000E+00  0.00000000E+00
  0.00000000E+00  0.00000000E+00  0.00000000E+00
  0.00000000E+00  0.00000000E+00  0.00000000E+00
  0.00000000E+00  0.00000000E+00  0.00000000E+00
  0.00000000E+00  0.00000000E+00  0.00000000E+00
  0.00000000E+00  0.00000000E+00  0.00000000E+00
  0.00000000E+00  0.00000000E+00  0.00000000E+00
  0.00000000E+00  0.00000000E+00  0.00000000E+00
  0.00000000E+00  0.00000000E+00  0.00000000E+00
  0.00000000E+00  0.00000000E+00  0.00000000E+00
  0.00000000E+00  0.00000000E+00  0.00000000E+00
  0.00000000E+00  0.00000000E+00  0.00000000E+00
  0.00000000E+00  0.00000000E+00  0.00000000E+00
  0.00000000E+00  0.00000000E+00  0.00000000E+00
  0.00000000E+00  0.00000000E+00  0.00000000E+00
  0.00000000E+00  0.00000000E+00  0.00000000E+00
  0.00000000E+00  0.00000000E+00  0.00000000E+00
  0.00000000E+00  0.00000000E+00  0.00000000E+00
  0.00000000E+00  0.00000000E+00  0.00000000E+00
  0.00000000E+00  0.00000000E+00  0.00000000E+00
  0.00000000E+00  0.00000000E+00  0.00000000E+00
  0.00000000E+00  0.00000000E+00  0.00000000E+00
  0.00000000E+00  0.00000000E+00  0.00000000E+00
  0.00000000E+00  0.00000000E+00  0.00000000E+00
  0.00000000E+00  0.00000000E+00  0.00000000E+00
  0.00000000E+00  0.00000000E+00  0.00000000E+00
  0.00000000E+00  0.00000000E+00  0.00000000E+00
  0.00000000E+00  0.00000000E+00  0.00000000E+00
  0.00000000E+00  0.00000000E+00  0.00000000E+00
  0.00000000E+00  0.00000000E+00  0.00000000E+00
  0.00000000E+00  0.00000000E+00  0.00000000E+00
  0.00000000E+00  0.00000000E+00  0.00000000E+00
  0.00000000E+00  0.00000000E+00  0.00000000E+00
  0.00000000E+00  0.00000000E+00  0.00000000E+00
  0.00000000E+00  0.00000000E+00  0.00000000E+00
  0.00000000E+00  0.00000000E+00  0.00000000E+00
  0.00000000E+00  0.00000000E+00  0.00000000E+00
  0.00000000E+00  0.00000000E+00  0.00000000E+00
  0.00000000E+00  0.00000000E+00  0.00000000E+00
  0.00000000E+00  0.00000000E+00  0.00000000E+00
  0.00000000E+00  0.00000000E+00  0.00000000E+00
  0.00000000E+00  0.00000000E+00  0.00000000E+00
  0.00000000E+00  0.00000000E+00  0.00000000E+00
  0.00000000E+00  0.00000000E+00  0.00000000E+00
  0.00000000E+00  0.00000000E+00  0.00000000E+00
  0.00000000E+00  0.00000000E+00  0.00000000E+00
  0.00000000E+00  0.00000000E+00  0.00000000E+00
  0.00000000E+00  0.00000000E+00  0.00000000E+00
  0.00000000E+00  0.00000000E+00  0.00000000E+00
  0.00000000E+00  0.00000000E+00  0.00000000E+00
  0.00000000E+00  0.00000000E+00  0.00000000E+00
  0.00000000E+00  0.00000000E+00  0.00000000E+00
  0.00000000E+00  0.00000000E+00  0.00000000E+00
  0.00000000E+00  0.00000000E+00  0.00000000E+00
  0.00000000E+00  0.00000000E+00  0.00000000E+00
  0.00000000E+00  0.00000000E+00  0.00000000E+00
  0.00000000E+00  0.00000000E+00  0.00000000E+00
  0.00000000E+00  0.00000000E+00  0.00000000E+00
  0.00000000E+00  0.00000000E+00  0.00000000E+00
  0.00000000E+00  0.00000000E+00  0.00000000E+00
  0.00000000E+00  0.00000000E+00  0.00000000E+00
  0.00000000E+00  0.00000000E+00  0.00000000E+00
  0.00000000E+00  0.00000000E+00  0.00000000E+00
  0.00000000E+00  0.00000000E+00  0.00000000E+00
  0.00000000E+00  0.00000000E+00  0.00000000E+00
  0.00000000E+00  0.00000000E+00  0.00000000E+00
  0.00000000E+00  0.00000000E+00  0.00000000E+00
  0.00000000E+00  0.00000000E+00  0.00000000E+00
  0.00000000E+00  0.00000000E+00  0.00000000E+00
  0.00000000E+00  0.00000000E+00  0.00000000E+00
  0.00000000E+00  0.00000000E+00  0.00000000E+00
  0.00000000E+00  0.00000000E+00  0.00000000E+00
  0.00000000E+00  0.00000000E+00  0.00000000E+00
  0.00000000E+00  0.00000000E+00  0.00000000E+00
  0.00000000E+00  0.00000000E+00  0.00000000E+00
  0.00000000E+00  0.00000000E+00  0.00000000E+00
  0.00000000E+00  0.00000000E+00  0.00000000E+00
  0.00000000E+00  0.00000000E+00  0.00000000E+00
  0.00000000E+00  0.00000000E+00  0.00000000E+00
  0.00000000E+00  0.00000000E+00  0.00000000E+00
  0.00000000E+00  0.00000000E+00  0.00000000E+00
  0.00000000E+00  0.00000000E+00  0.00000000E+00
  0.00000000E+00  0.00000000E+00  0.00000000E+00
  0.00000000E+00  0.00000000E+00  0.00000000E+00
  0.00000000E+00  0.00000000E+00  0.00000000E+00
  0.00000000E+00  0.00000000E+00  0.00000000E+00
  0.00000000E+00  0.00000000E+00  0.00000000E+00
  0.00000000E+00  0.00000000E+00  0.00000000E+00
  0.00000000E+00  0.00000000E+00  0.00000000E+00
  0.00000000E+00  0.00000000E+00  0.00000000E+00
  0.00000000E+00  0.00000000E+00  0.00000000E+00
  0.00000000E+00  0.00000000E+00  0.00000000E+00
  0.00000000E+00  0.00000000E+00  0.00000000E+00
  0.00000000E+00  0.00000000E+00  0.00000000E+00
  0.00000000E+00  0.00000000E+00  0.00000000E+00
  0.00000000E+00  0.00000000E+00  0.00000000E+00
  0.00000000E+00  0.00000000E+00  0.00000000E+00
  0.00000000E+00  0.00000000E+00  0.00000000E+00
  0.00000000E+00  0.00000000E+00  0.00000000E+00
  0.00000000E+00  0.00000000E+00  0.00000000E+00
