Mg15 Mn32 O64
1.0
11.433412 -0.000558 0.003600
-0.000320 11.417404 0.000244
-0.001174 -0.000031 9.239707
Mg Mn O
15 32 64
direct
0.499324 0.743613 0.751511 Mg
0.999853 0.250447 0.747046 Mg
0.999651 0.749706 0.747081 Mg
0.499647 0.256122 0.751832 Mg
0.998879 0.500053 0.499697 Mg
0.000300 0.000060 0.502849 Mg
0.500137 0.000060 0.498059 Mg
0.251396 0.000057 0.250348 Mg
0.250448 0.500061 0.253354 Mg
0.752034 0.000081 0.250468 Mg
0.746521 0.500024 0.254935 Mg
0.247422 0.248679 0.999389 Mg
0.247530 0.751379 0.999288 Mg
0.752734 0.248238 0.998905 Mg
0.752874 0.751626 0.999130 Mg
0.124919 0.248222 0.375920 Mn
0.124911 0.751861 0.375890 Mn
0.624314 0.252500 0.374418 Mn
0.624299 0.747594 0.374363 Mn
0.375252 0.252437 0.373118 Mn
0.375217 0.747583 0.373256 Mn
0.874752 0.248030 0.375925 Mn
0.874747 0.752102 0.375796 Mn
0.127121 0.000062 0.873385 Mn
0.122522 0.499996 0.875579 Mn
0.626292 0.999490 0.872003 Mn
0.627461 0.500023 0.880049 Mn
0.377290 0.999977 0.872451 Mn
0.371590 0.500004 0.879848 Mn
0.877062 0.999975 0.872509 Mn
0.874926 0.500078 0.875014 Mn
0.001869 0.124706 0.124804 Mn
0.997911 0.624777 0.127106 Mn
0.501979 0.124779 0.122766 Mn
0.499689 0.626414 0.126339 Mn
0.997860 0.375245 0.127115 Mn
0.001993 0.875314 0.124854 Mn
0.499591 0.373681 0.126303 Mn
0.501962 0.875254 0.122880 Mn
0.251434 0.376908 0.625367 Mn
0.252288 0.874352 0.624574 Mn
0.747452 0.376661 0.625914 Mn
0.747696 0.874551 0.624609 Mn
0.252379 0.125503 0.624644 Mn
0.250605 0.622448 0.625511 Mn
0.747700 0.125483 0.624706 Mn
0.747255 0.623611 0.625651 Mn
0.138579 0.249078 0.620658 O
0.138250 0.750792 0.620639 O
0.634328 0.250576 0.619181 O
0.634152 0.749551 0.619032 O
0.364978 0.250993 0.619226 O
0.364430 0.748522 0.619239 O
0.860893 0.249295 0.621075 O
0.860832 0.750853 0.620858 O
0.139261 -0.000002 0.628421 O
0.135093 0.499580 0.629144 O
0.635889 0.999996 0.628144 O
0.640327 0.500068 0.649861 O
0.364361 0.999900 0.627967 O
0.358126 0.499934 0.649811 O
0.861224 0.000031 0.628179 O
0.862772 0.500213 0.629234 O
0.001698 0.112964 0.876979 O
0.998727 0.613364 0.878999 O
0.501663 0.113366 0.876620 O
0.499453 0.614255 0.905401 O
0.998665 0.386740 0.879013 O
0.001745 0.887123 0.877026 O
0.499432 0.385739 0.905432 O
0.501423 0.886211 0.876558 O
0.999510 0.361124 0.372505 O
0.000009 0.864589 0.371586 O
0.499732 0.361470 0.328610 O
0.499903 0.860619 0.370312 O
0.999967 0.135565 0.371671 O
0.999488 0.638983 0.372475 O
0.499937 0.139437 0.370220 O
0.499741 0.638607 0.328621 O
0.389525 0.000010 0.121828 O
0.389518 0.500056 0.124379 O
0.888902 0.999963 0.120777 O
0.884687 0.500053 0.124925 O
0.115180 0.000116 0.120473 O
0.110866 0.500015 0.124924 O
0.614450 -0.000001 0.121572 O
0.609124 0.500035 0.124243 O
0.388906 0.250918 0.121055 O
0.388975 0.749101 0.121046 O
0.887279 0.248468 0.129640 O
0.887441 0.751568 0.129710 O
0.112303 0.250404 0.129448 O
0.112463 0.749670 0.129460 O
0.611897 0.252287 0.121267 O
0.612001 0.747850 0.121374 O
0.249409 0.361873 0.377811 O
0.251692 0.862712 0.378068 O
0.749897 0.361746 0.378746 O
0.748132 0.862906 0.378496 O
0.251678 0.137390 0.378029 O
0.249317 0.638187 0.377808 O
0.748139 0.137222 0.378558 O
0.749873 0.638384 0.378605 O
0.252057 0.112644 0.870543 O
0.247822 0.612510 0.876936 O
0.751006 0.112203 0.870199 O
0.750386 0.612930 0.876617 O
0.247837 0.387502 0.877013 O
0.251981 0.887469 0.870554 O
0.750353 0.387122 0.876584 O
0.751224 0.887322 0.870067 O
