Li47 P16 O64
1.0
10.633289 -0.003324 0.008302
-0.003845 12.332719 0.005062
0.007792 0.004057 10.033936
Li P O
47 16 64
direct
0.423999 0.373117 0.101833 Li
0.663811 0.249011 0.100775 Li
0.663152 0.250410 0.599271 Li
0.664069 0.749994 0.099213 Li
0.663283 0.750878 0.598456 Li
0.163343 0.492361 0.153314 Li
0.162178 0.501455 0.651522 Li
0.165627 0.003788 0.148419 Li
0.162811 0.001623 0.650548 Li
0.337015 0.002411 0.399695 Li
0.336734 0.002096 0.901841 Li
0.335528 0.499571 0.400334 Li
0.333546 0.500228 0.899930 Li
0.837483 0.248017 0.349673 Li
0.836551 0.249647 0.849606 Li
0.837426 0.749573 0.348370 Li
0.837103 0.749160 0.849584 Li
0.334742 0.248808 0.394501 Li
0.331370 0.249222 0.906591 Li
0.336282 0.749052 0.400582 Li
0.336225 0.748936 0.900961 Li
0.837728 0.001463 0.346932 Li
0.836774 0.001182 0.849014 Li
0.838016 0.499358 0.348605 Li
0.837023 0.500663 0.850228 Li
0.664707 0.497976 0.099102 Li
0.663241 0.499408 0.599077 Li
0.663135 0.995756 0.097863 Li
0.663768 0.998978 0.599301 Li
0.161738 0.253381 0.647148 Li
0.163412 0.750502 0.151484 Li
0.163158 0.752111 0.650351 Li
0.935186 0.366590 0.152625 Li
0.923316 0.376071 0.650383 Li
0.927405 0.876348 0.148552 Li
0.926853 0.876151 0.648608 Li
0.425561 0.373992 0.601216 Li
0.425875 0.875945 0.101111 Li
0.425309 0.875874 0.600595 Li
0.077201 0.132735 0.338759 Li
0.073978 0.129559 0.857023 Li
0.074242 0.623264 0.350980 Li
0.073880 0.624636 0.851056 Li
0.574439 0.124764 0.397625 Li
0.573426 0.125296 0.901784 Li
0.573884 0.624263 0.398560 Li
0.573075 0.624001 0.899281 Li
0.908604 0.121360 0.097308 P
0.911004 0.124694 0.596700 P
0.911603 0.624497 0.098058 P
0.910118 0.626800 0.596623 P
0.415910 0.125197 0.151772 P
0.411448 0.125471 0.653625 P
0.410938 0.624685 0.152978 P
0.410843 0.625153 0.652743 P
0.088451 0.374322 0.409236 P
0.086805 0.377905 0.900752 P
0.090173 0.875707 0.402374 P
0.089816 0.875284 0.903040 P
0.589400 0.375069 0.347103 P
0.587995 0.375536 0.846613 P
0.589018 0.874083 0.347124 P
0.588437 0.874162 0.845748 P
0.835104 0.017897 0.145139 O
0.841057 0.020865 0.647791 O
0.841024 0.521744 0.149382 O
0.839071 0.524548 0.648864 O
0.355252 0.229022 0.097687 O
0.342644 0.228765 0.602382 O
0.341641 0.728406 0.102011 O
0.341045 0.728572 0.601726 O
0.158888 0.269548 0.373076 O
0.157356 0.274804 0.849211 O
0.159026 0.771123 0.352748 O
0.159621 0.772063 0.851022 O
0.659317 0.478483 0.398427 O
0.658530 0.478764 0.897703 O
0.659359 0.977083 0.398023 O
0.658566 0.977284 0.895866 O
0.158745 0.476896 0.354102 O
0.157833 0.480747 0.846227 O
0.161272 0.977776 0.350809 O
0.159193 0.978859 0.851968 O
0.659107 0.271882 0.398706 O
0.657272 0.272277 0.898656 O
0.658862 0.770681 0.398257 O
0.658338 0.770835 0.897208 O
0.839463 0.224891 0.150395 O
0.839347 0.227378 0.647258 O
0.841591 0.728499 0.148142 O
0.840476 0.730661 0.646880 O
0.344608 0.021788 0.100853 O
0.341369 0.022085 0.602280 O
0.340982 0.521793 0.101935 O
0.341309 0.522045 0.601273 O
0.555945 0.119573 0.103882 O
0.549554 0.124367 0.601111 O
0.549069 0.624606 0.100955 O
0.548810 0.625323 0.600515 O
0.043722 0.116341 0.149352 O
0.047690 0.125566 0.651347 O
0.049140 0.625064 0.150720 O
0.047687 0.627866 0.648880 O
0.451576 0.375343 0.399329 O
0.449843 0.376880 0.896770 O
0.451254 0.874480 0.399930 O
0.450675 0.874254 0.898369 O
0.951408 0.373635 0.353159 O
0.949277 0.376084 0.844918 O
0.952258 0.875380 0.350165 O
0.951814 0.874816 0.851025 O
0.590224 0.375142 0.191545 O
0.590142 0.375268 0.690650 O
0.588606 0.872779 0.191542 O
0.588398 0.873887 0.690009 O
0.083365 0.383415 0.053410 O
0.083357 0.382295 0.564901 O
0.090860 0.874424 0.058571 O
0.089808 0.876128 0.558367 O
0.413270 0.124269 0.308101 O
0.411084 0.125129 0.809326 O
0.410586 0.624821 0.308850 O
0.410423 0.625209 0.808469 O
0.911541 0.124154 0.441155 O
0.906970 0.124581 0.940953 O
0.910131 0.625542 0.440893 O
0.911175 0.625117 0.942096 O
