Li17 Co18 O36                           
   1.00000000000000     
     8.1836880000000001   -0.0000540000000000    2.4234360000000001
     3.7329740000000000    7.2826959999999996    2.4234300000000002
     0.0233090000000000    0.0142540000000000    9.9385080000000006
   Li   Co   O 
    17    18    36
Direct
  0.3018100221981416  0.4679524821510726  0.5128499263513004
  0.3330382557315542  0.3328033155632389  0.0018448012851501
  0.3323416079016768  0.6672339514738134  0.0006417665129794
  0.3328160983684637  1.0004148890804656  1.0009234357405112
  0.3311163736121564  1.0000415358733141  0.5007855273145541
  0.6666032443918712  0.3331227084646625  0.0008808472169139
  0.6684753664037675  0.3336013383549358  0.5010603295821705
  0.6656342731798255  0.6676149090341025  1.0010722187347005
  0.6445917346904401  0.6667411917503780  0.5013599056696608
  0.6660074565357103  0.9995087241959977  0.0017376685874600
  0.6461120502320994  1.0195402734787835  0.5014447439373838
 -0.0001746560617602  0.3327050852234005  1.0009985619578952
  0.0117362058626722  0.3336555465016111  0.4998141236869278
 -0.0012840289842407  0.6674494457168582  0.0011965239786042
 -0.0283241344281895  0.6834816618196823  0.4990897810268252
 -0.0004557794497362  1.0008356024759284 -0.0004318961285666
  0.0136504963883639  0.9848949348229270  0.5000650520706872
  0.1638044875959553  0.1695587859210845  0.2472351923891935
  0.1692816551046424  0.1663701347727481  0.7504356305347623
  0.1632961983278410  0.5024999093843677  0.2464109481282978
  0.1674278527596858  0.4988187857296017  0.7569576693242404
  0.1631965852643377  0.8380599753250559  0.2466940712918325
  0.1689488937664352  0.8317128043382915  0.7503031023716454
  0.4958534521198003  0.1694532984834320  0.2511962567067233
  0.5018949501302047  0.1634544991963231  0.7552588634703922
  0.4968792453104794  0.5031047273979227  0.2483037332270877
  0.5019230915183682  0.4993618554765148  0.7549814175643494
  0.4959909162254846  0.8346925418918958  0.2511104077742227
  0.5007630098196397  0.8319014139642996  0.7547003023385912
  0.8299719838239843  0.1692825178387630  0.2497509074786484
  0.8355495949852405  0.1657696271351358  0.7505282756828451
  0.8305482806999592  0.5017448123021211  0.2490841989120067
  0.8348269575513568  0.4997678071170485  0.7519007311739133
  0.8293589076021022  0.8356252749387979  0.2504024823054078
  0.8343430315602295  0.8319012041459537  0.7525945103477302
  0.2490463789623123  0.2564309255060351  0.3536611714893075
  0.2544163113605950  0.2507335730627484  0.8631058933551927
  0.2465455900735553  0.5964544646277706  0.3456628848675256
  0.2542580869752608  0.5875295995638978  0.8632880722317157
  0.2490184472141627  0.9274204731535378  0.3528277794181979
  0.2529168316006049  0.9206526887052608  0.8603053251636197
  0.5843872751898084  0.2580511367162811  0.3572318214360221
  0.5911457842614822  0.2507178422849549  0.8625982149683771
  0.5869358960004515  0.5869444076530770  0.3552450273282945
  0.5898679352882944  0.5844901771767828  0.8631324389802453
  0.5825976980663862  0.9222285892258411  0.3602693990898016
  0.5886879063632219  0.9181415624991612  0.8638789643134799
  0.9185222907860059  0.2556272701146535  0.3569036260502728
  0.9226009271525111  0.2528241536923158  0.8586307327537585
  0.9181129797251639  0.5883708023494875  0.3575691276469175
  0.9197797027628750  0.5864036665481354  0.8619844042175433
  0.9177652070156914  0.9228208469190212  0.3578789603254736
  0.9223045461866086  0.9199098993295319  0.8590672808786973
  0.0755194792004914  0.0834144500032412  0.1383275723634494
  0.0823597071499362  0.0788906793327199  0.6408882852120614
  0.0765369945483184  0.4160316627107888  0.1376575119971218
  0.0823001196630916  0.4155477448588230  0.6437223502393203
  0.0740562665516925  0.7507424629550856  0.1386940929589124
  0.0788832001782173  0.7423602142455518  0.6463209378322082
  0.4116054692506577  0.0810839356658342  0.1411969594474755
  0.4156894752356918  0.0747508016674560  0.6481546191509885
  0.4111684125802823  0.4140821878983749  0.1396177854884036
  0.4184275100367288  0.4071237647969222  0.6551619917112154
  0.4109608253074047  0.7495735114439238  0.1393102214641838
  0.4157573716278546  0.7454368568225389  0.6487613719809232
  0.7426236565199544  0.0815107056109010  0.1423114452179716
  0.7467352897064161  0.0784101056126987  0.6437193952293276
  0.7441781222953056  0.4143978926369037  0.1407715543561535
  0.7469488847110085  0.4131756638527172  0.6433865707261459
  0.7429095468027103  0.7486716317927233  0.1420365154639413
  0.7452102889398007  0.7462935834722525  0.6450714594272541
 
             NaN             NaN             NaN
             NaN             NaN             NaN
             NaN             NaN             NaN
             NaN             NaN             NaN
             NaN             NaN             NaN
             NaN             NaN             NaN
             NaN             NaN             NaN
             NaN             NaN             NaN
             NaN             NaN             NaN
             NaN             NaN             NaN
             NaN             NaN             NaN
             NaN             NaN             NaN
             NaN             NaN             NaN
             NaN             NaN             NaN
             NaN             NaN             NaN
             NaN             NaN             NaN
             NaN             NaN             NaN
             NaN             NaN             NaN
             NaN             NaN             NaN
             NaN             NaN             NaN
             NaN             NaN             NaN
             NaN             NaN             NaN
             NaN             NaN             NaN
             NaN             NaN             NaN
             NaN             NaN             NaN
             NaN             NaN             NaN
             NaN             NaN             NaN
             NaN             NaN             NaN
             NaN             NaN             NaN
             NaN             NaN             NaN
             NaN             NaN             NaN
             NaN             NaN             NaN
             NaN             NaN             NaN
             NaN             NaN             NaN
             NaN             NaN             NaN
             NaN             NaN             NaN
             NaN             NaN             NaN
             NaN             NaN             NaN
             NaN             NaN             NaN
             NaN             NaN             NaN
             NaN             NaN             NaN
             NaN             NaN             NaN
             NaN             NaN             NaN
             NaN             NaN             NaN
             NaN             NaN             NaN
             NaN             NaN             NaN
             NaN             NaN             NaN
             NaN             NaN             NaN
             NaN             NaN             NaN
             NaN             NaN             NaN
             NaN             NaN             NaN
             NaN             NaN             NaN
             NaN             NaN             NaN
             NaN             NaN             NaN
             NaN             NaN             NaN
             NaN             NaN             NaN
             NaN             NaN             NaN
             NaN             NaN             NaN
             NaN             NaN             NaN
             NaN             NaN             NaN
             NaN             NaN             NaN
             NaN             NaN             NaN
             NaN             NaN             NaN
             NaN             NaN             NaN
             NaN             NaN             NaN
             NaN             NaN             NaN
             NaN             NaN             NaN
             NaN             NaN             NaN
             NaN             NaN             NaN
             NaN             NaN             NaN
             NaN             NaN             NaN
