Li7 Mn16 O32                            
   1.00000000000000     
     8.2213360000000009   -0.0163520000000000    0.0301150000000000
    -0.0150460000000000    8.6163760000000007   -0.0668250000000000
     0.0254120000000000   -0.0692920000000000    8.2567950000000003
   Li   Mn   O 
     7    16    32
Direct
  0.1863985429188403  0.5537861266520915  0.6844661105304564
  0.8722540729564077  0.8775889462270279  0.8768461129441377
  0.1297666950234936  0.1189618571412699  0.1204312557606317
  0.8760247922454190  0.3791557155711560  0.3734960533972146
  0.3717474290573383  0.8819926583197151  0.3819384511761633
  0.6263838217458588  0.1228075615238501  0.6234154355749919
  0.6235995286372730  0.6216590195238987  0.1252091038003901
  0.4997469008905803  0.2425323125035704  0.2535691263207151
  0.2514835435151839  0.4987447649579987  0.2464593193009557
  0.2471219661591950  0.2518156596015034  0.5017001287780257
  0.5029350701722582  0.4912106306304322  0.5010257337078142
  0.4987449672250260  0.7437131010976969  0.7456270731262744
  0.7470597907175345  0.4997453096765181  0.7509203982080319
  0.7567297888817467  0.7417889993016699  0.4955060180204832
  0.2512274861250687  0.0024911496156447  0.7495982717226681
  0.2514476813213193  0.7497076236587895  0.9986966126395190
  0.5030768125210041  0.9940241025656288  0.0027772628281291
  0.7508972690391111  0.9998194840798840  0.2527105850886552
  0.7440981014530198  0.2559951461703075  0.0048042072640289
  0.0016784479201935  0.2579724682372848  0.7519681932478178
 -0.0014465467649037  0.5081755681542550  0.9993511532996726
  0.0017639550252278  0.7538678612414393  0.2495047483854823
  0.9984365819791119  0.0039749630367724  0.4998367344283638
  0.7325079105054222  0.9989233030031306  0.0181753276770284
  0.0144577769617976  0.7346186370112684  0.0085100003893643
  0.0126346803205988  0.0368963188420955  0.7533339325331739
  0.7381413491897526  0.7273858358281478  0.7338935965813165
  0.2644208018913222  0.9758838865943088  0.9828951576129227
  0.9908113742131817  0.2818932430765581  0.9884478745776110
  0.9882229235706318  0.9739293770391013  0.2473936575115478
  0.2652054723542269  0.2441460932883573  0.2700620608318630
  0.7323245310075954  0.4899076052293833  0.5207430729106264
  0.0138050953396219  0.2502859599294278  0.5173967391179262
  0.0142221354843194  0.5226980556888697  0.2332951594611926
  0.7325260818811341  0.2564871363605398  0.2350389044777489
  0.2666036162599712  0.4771958467695472  0.4852719738373687
  0.9943680522625528  0.7619767602857161  0.4768451801502993
  0.9830322699182553  0.4862248440579107  0.7638470693582577
  0.2688206879349322  0.7415255028234318  0.7664067976672239
  0.2344228066948468  0.0266787648591674  0.5156294156945149
  0.5095713883071126  0.7177003647057877  0.5103074356701833
  0.5158574058384544  0.0248092652158536  0.2660689647931948
  0.2365072434329251  0.7557333526918113  0.2294054610478379
  0.7711560262462872  0.9980211605269095  0.4876213858051455
  0.4853858374535715  0.2664882011478174  0.4926414109614117
  0.4859756816100359  0.9637607071086173  0.7378917074468618
  0.7596405009710211  0.2729557059105477  0.7671264663950602
  0.2333061585152279  0.5258656654965806  0.0104203649101259
  0.5070368193856567  0.2226021832733462  0.0254267474798265
  0.5147779151008203  0.5159780400720754  0.7355477584094169
  0.2283298463008033  0.2650549919109761  0.7309035770392656
  0.7668539812269157  0.5084249345975312  0.9803749176352866
  0.4868916178583845  0.7588956466200567  0.9818994358054995
  0.4881036307290839  0.4751838980919411  0.2647534166727107
  0.7691230160520320  0.7421759566318602  0.2656669242117463
 
             NaN             NaN             NaN
             NaN             NaN             NaN
             NaN             NaN             NaN
             NaN             NaN             NaN
             NaN             NaN             NaN
             NaN             NaN             NaN
             NaN             NaN             NaN
             NaN             NaN             NaN
             NaN             NaN             NaN
             NaN             NaN             NaN
             NaN             NaN             NaN
             NaN             NaN             NaN
             NaN             NaN             NaN
             NaN             NaN             NaN
             NaN             NaN             NaN
             NaN             NaN             NaN
             NaN             NaN             NaN
             NaN             NaN             NaN
             NaN             NaN             NaN
             NaN             NaN             NaN
             NaN             NaN             NaN
             NaN             NaN             NaN
             NaN             NaN             NaN
             NaN             NaN             NaN
             NaN             NaN             NaN
             NaN             NaN             NaN
             NaN             NaN             NaN
             NaN             NaN             NaN
             NaN             NaN             NaN
             NaN             NaN             NaN
             NaN             NaN             NaN
             NaN             NaN             NaN
             NaN             NaN             NaN
             NaN             NaN             NaN
             NaN             NaN             NaN
             NaN             NaN             NaN
             NaN             NaN             NaN
             NaN             NaN             NaN
             NaN             NaN             NaN
             NaN             NaN             NaN
             NaN             NaN             NaN
             NaN             NaN             NaN
             NaN             NaN             NaN
             NaN             NaN             NaN
             NaN             NaN             NaN
             NaN             NaN             NaN
             NaN             NaN             NaN
             NaN             NaN             NaN
             NaN             NaN             NaN
             NaN             NaN             NaN
             NaN             NaN             NaN
             NaN             NaN             NaN
             NaN             NaN             NaN
             NaN             NaN             NaN
             NaN             NaN             NaN
