Li7 Mn16 O32
1.0
8.221336 -0.016352 0.030115
-0.015046 8.616376 -0.066825
0.025412 -0.069292 8.256795
Li Mn O
7 16 32
direct
0.189650 0.557977 0.685478 Li
0.871408 0.878076 0.876096 Li
0.130631 0.118193 0.121674 Li
0.874101 0.380190 0.372870 Li
0.370860 0.883082 0.380115 Li
0.626387 0.122256 0.623649 Li
0.624819 0.620776 0.125784 Li
0.499815 0.244393 0.253332 Mn
0.251050 0.498757 0.247465 Mn
0.247352 0.253846 0.502754 Mn
0.499801 0.492312 0.502296 Mn
0.495329 0.742011 0.745876 Mn
0.748243 0.500163 0.750233 Mn
0.754777 0.743272 0.496049 Mn
0.250866 0.002278 0.749341 Mn
0.251217 0.747975 0.997002 Mn
0.502654 0.993719 0.001906 Mn
0.750289 -0.000468 0.252420 Mn
0.745570 0.255253 0.004357 Mn
0.003563 0.259959 0.750902 Mn
0.000203 0.508198 0.996993 Mn
0.001997 0.752480 0.249284 Mn
0.998346 0.004869 0.499903 Mn
0.732557 -0.000590 0.017540 O
0.014112 0.734573 0.008372 O
0.010956 0.036483 0.749664 O
0.736629 0.727876 0.732692 O
0.263941 0.975023 0.982866 O
0.992244 0.282308 0.987461 O
0.988192 0.973911 0.250944 O
0.265589 0.244556 0.270394 O
0.730283 0.491941 0.518979 O
0.014750 0.253996 0.517541 O
0.013149 0.522930 0.232195 O
0.732981 0.255218 0.234955 O
0.264274 0.478466 0.485226 O
0.996238 0.757761 0.478045 O
-0.015168 0.487759 0.761993 O
0.266175 0.742072 0.765144 O
0.235282 0.027399 0.515416 O
0.505716 0.717945 0.510931 O
0.514762 0.025112 0.260961 O
0.235750 0.755624 0.228973 O
0.769114 0.995790 0.487506 O
0.485233 0.267002 0.492886 O
0.486639 0.963746 0.742054 O
0.761594 0.273404 0.766726 O
0.234935 0.524459 0.012471 O
0.507676 0.228482 0.024468 O
0.514486 0.514926 0.736477 O
0.230705 0.259237 0.732606 O
0.768959 0.508899 0.980764 O
0.485285 0.754185 0.981190 O
0.488278 0.475514 0.265870 O
0.769013 0.742976 0.266644 O
