Li47 P16 O64                            
   1.00000000000000     
    10.4346049999999995   -0.0003960000000000   -0.0149880000000000
    -0.0004560000000000   12.2459369999999996   -0.0007370000000000
    -0.0141780000000000   -0.0005920000000000    9.8312449999999991
   Li   P    O 
    47    16    64
Direct
  0.6246610196831088  0.2608830585893501  0.0891535444473140
  0.6658030602287933  0.2505071294469237  0.5969269511196014
  0.6635291661536564  0.7509044135875540  0.0977052730420034
  0.6643270700441918  0.7514168138546453  0.5984594870369279
  0.1652138195001383  0.4970549098235331  0.1515744339617185
  0.1650029848909246  0.4986060859526427  0.6525537659992443
  0.1628233198538786  0.9975968005076744  0.1524218140436022
  0.1646331321385625  0.9988401629732607  0.6524803826389352
  0.3362413946419788  0.0004300398608666  0.4015521283129020
  0.3359857744692236  0.0006988260550202  0.9046343966846244
  0.3387215752992609  0.4994154897037925  0.3976359645965831
  0.3376393140881548  0.4968823222535886  0.9107489470310599
  0.8334183555118155  0.2492077743652525  0.3443779491859976
  0.8324264878748989  0.2495531317805124  0.8522901022581331
  0.8364427511081662  0.7485178149103900  0.3477592102291348
  0.8364409468002348  0.7487434751211308  0.8475589693959212
  0.3388578284509129  0.2517678818023051  0.3979334802568020
  0.3372691621850069  0.2534798645095891  0.9087181183967706
  0.3368668918310747  0.7493803532214101  0.4006341405650298
  0.3362483256098428  0.7491558593010412  0.9054227961094693
  0.8366008886014343  0.0020329257830636  0.3476689044239558
  0.8369069291841515  0.0012354898593122  0.8477915708362529
  0.8348129674745709  0.5009041898857433  0.3478955034279629
  0.8341238241559250  0.5009089226852111  0.8492252662012258
  0.6562753237026540  0.4985228641459159  0.0972562186517370
  0.6658687742048199  0.5022089297975414  0.5994517392120541
  0.6641249204392268  0.0014448082515979  0.0988133514770665
  0.6641859988782646  0.9998963801760341  0.5978267602233560
  0.1644876150738785  0.2525984691771018  0.1509829949942921
  0.1645170197617465  0.2513158329094147  0.6525456206021465
  0.1646769692653718  0.7509910606519117  0.1519947131370122
  0.1648436908700244  0.7513897826868641  0.6526401492972352
  0.9184876650635230  0.3745301186864325  0.1474662534213196
  0.9219672428942401  0.3746251216138937  0.6493739035370042
  0.9223943868123166  0.8753647612995886  0.1491167475344315
  0.9237762358166699  0.8752480530623380  0.6486037559673220
  0.4254330103228107  0.3757699475983124  0.6066166171663206
  0.4275992027840607  0.8750856502895165  0.1017593348317049
  0.4245759300085892  0.8751475296965121  0.6007587431681886
  0.0766717027931904  0.1260903743765339  0.3496219142516327
  0.0770888883721507  0.1257925299650531  0.8527621227393449
  0.0771560338383963  0.6239749615079994  0.3503594151931361
  0.0776984386976872  0.6239569200692431  0.8522943187685276
  0.5757379381092860  0.1275389757148429  0.3982365052174340
  0.5751438642366973  0.1238594704198286  0.8968911570699274
  0.5760286189143796  0.6244106454225647  0.4006728581669154
  0.5733848699285500  0.6245056717832153  0.8992821162739558
  0.9110281609929505  0.1255891752955229  0.0953709765666869
  0.9127454136256593  0.1248387148163840  0.5956126756358736
  0.9110980709950336  0.6252892460379699  0.0953959132959330
  0.9134551957112205  0.6257094479708816  0.5955439395106014
  0.4065466161278706  0.1196116526652886  0.1539009815690234
  0.4111317787796775  0.1246227823084947  0.6548486195775346
  0.4094810287776676  0.6293999927897714  0.1542548962141143
  0.4107257745343948  0.6262425142679275  0.6551721428510254
  0.0873280600677157  0.3750795605851763  0.4047003230099562
  0.0858268273072159  0.3750357613176372  0.9046574525708646
  0.0876504922027627  0.8748088761188936  0.4050559778981148
  0.0876250827469333  0.8746364065804505  0.9049377547883977
  0.5903687354634689  0.3772643578842084  0.3499585211992197
  0.5855258890373948  0.3759933892456589  0.8377373627933955
  0.5897565611650385  0.8755726988428506  0.3457747585124675
  0.5891629900309753  0.8750466764629788  0.8449163519078100
  0.8419587938069272  0.0218632754919627  0.1471219280795047
  0.8427653519667894  0.0214168716773221  0.6462430228848959
  0.8394626509788311  0.5232785637632736  0.1462838349261603
  0.8438201197871912  0.5235299053386536  0.6487372134660531
  0.3315734292079440  0.2159235041927318  0.0982761949781908
  0.3413027690564692  0.2268189188108989  0.6014310606071706
  0.3441010434665475  0.7370938245940438  0.1084036550747953
  0.3417142406179496  0.7297893247483747  0.6027518261570333
  0.1575003983282963  0.2723254634259214  0.3533346204848969
  0.1557910522835427  0.2723046948420852  0.8529393475754967
  0.1574321970552524  0.7719467730042852  0.3535222606430267
  0.1581448021635523  0.7718828951928695  0.8539055907566755
  0.6604353002739421  0.4800580124485587  0.4049484116807597
  0.6545771136948183  0.4781404048252683  0.8949450849362360
  0.6591768871442281  0.9787931694282513  0.3979046001280731
  0.6595623839016856  0.9777165132809447  0.8968887293984453
  0.1576050481593585  0.4779390193612729  0.3537232362223839
  0.1560730122913231  0.4776435464147299  0.8529450482081836
  0.1572278520273030  0.9777968050475812  0.3537587413684503
  0.1579749632908818  0.9774672049555448  0.8538930105254490
  0.6596679965514078  0.2729704452661131  0.4016639712524794
  0.6520871527235851  0.2724053921680522  0.8943196183429365
  0.6596454638456402  0.7726538857898340  0.3981520226685884
  0.6589708947338976  0.7718738737343379  0.8962053960623798
  0.8407302107685660  0.2278399003352862  0.1457453386087378
  0.8428182858916818  0.2267449496664807  0.6492313855866697
  0.8416353561442960  0.7288106343858090  0.1465169743951692
  0.8430223140780755  0.7288103221147049  0.6463336851635000
  0.3411862179305514  0.0122238090018547  0.1082098676610255
  0.3420657452112300  0.0209651162966393  0.6026396982304263
  0.3322252349607017  0.5341859458265241  0.0993067186400549
  0.3413819802179780  0.5240989372641476  0.6009795131154303
  0.5453561488234994  0.1212528863189365  0.0999876684041279
  0.5507073575936206  0.1245411740982245  0.6042443353830169
  0.5483998336262564  0.6280851538706351  0.1008523672522494
  0.5505590547721572  0.6271313101859597  0.6054565294625130
  0.0505878193747689  0.1244377998759314  0.1470469146678118
  0.0519654579707573  0.1241452297834801  0.6473352243137582
  0.0498796339918379  0.6249875885995464  0.1481334637268172
  0.0525707418554723  0.6262145476962598  0.6473297127036967
  0.4522961625870986  0.3760946509646683  0.4043359277429301
  0.4437555470295002  0.3758320145593618  0.8721205178368718
  0.4507977229949570  0.8751907655524835  0.3972056533967873
  0.4502714439442942  0.8751727751778119  0.8960782579762477
  0.9482395578028596  0.3752532595405927  0.3523872042761563
  0.9464963436799515  0.3751129581316003  0.8522577038816916
  0.9483936320128179  0.8748985550779419  0.3532154865125443
  0.9489608389452826  0.8747252898441968  0.8514218757979148
  0.5955256549768192  0.3800523163860111  0.1957338761373428
  0.5991180117040049  0.3761100185724771  0.6814603606471543
  0.5925728694702606  0.8757051927123818  0.1889970605201191
  0.5905518066943620  0.8755112252960662  0.6879116640819174
  0.0851244636777937  0.3751439708151214  0.0614191138518693
  0.0879855455718550  0.3749891888062373  0.5618558151576980
  0.0869414959381015  0.8742763690313466  0.0617110796499591
  0.0889953899671701  0.8748144227048881  0.5620601277622842
  0.4098317404228570  0.1232502250924472  0.3113351457165850
  0.4088068738628460  0.1243225220915121  0.8116338845497686
  0.4120494588739508  0.6265549691820027  0.3117844961268244
  0.4078709755481883  0.6258822788946028  0.8119211559305709
  0.9111211446888743  0.1258046065872712  0.4386004293163281
  0.9106087626459130  0.1243865419770844  0.9380752147195248
  0.9118916296066777  0.6250590685946937  0.4385743791274002
  0.9108628575400490  0.6254755157392484  0.9382689932552094
 
             NaN             NaN             NaN
             NaN             NaN             NaN
             NaN             NaN             NaN
             NaN             NaN             NaN
             NaN             NaN             NaN
             NaN             NaN             NaN
             NaN             NaN             NaN
             NaN             NaN             NaN
             NaN             NaN             NaN
             NaN             NaN             NaN
             NaN             NaN             NaN
             NaN             NaN             NaN
             NaN             NaN             NaN
             NaN             NaN             NaN
             NaN             NaN             NaN
             NaN             NaN             NaN
             NaN             NaN             NaN
             NaN             NaN             NaN
             NaN             NaN             NaN
             NaN             NaN             NaN
             NaN             NaN             NaN
             NaN             NaN             NaN
             NaN             NaN             NaN
             NaN             NaN             NaN
             NaN             NaN             NaN
             NaN             NaN             NaN
             NaN             NaN             NaN
             NaN             NaN             NaN
             NaN             NaN             NaN
             NaN             NaN             NaN
             NaN             NaN             NaN
             NaN             NaN             NaN
             NaN             NaN             NaN
             NaN             NaN             NaN
             NaN             NaN             NaN
             NaN             NaN             NaN
             NaN             NaN             NaN
             NaN             NaN             NaN
             NaN             NaN             NaN
             NaN             NaN             NaN
             NaN             NaN             NaN
             NaN             NaN             NaN
             NaN             NaN             NaN
             NaN             NaN             NaN
             NaN             NaN             NaN
             NaN             NaN             NaN
             NaN             NaN             NaN
             NaN             NaN             NaN
             NaN             NaN             NaN
             NaN             NaN             NaN
             NaN             NaN             NaN
             NaN             NaN             NaN
             NaN             NaN             NaN
             NaN             NaN             NaN
             NaN             NaN             NaN
             NaN             NaN             NaN
             NaN             NaN             NaN
             NaN             NaN             NaN
             NaN             NaN             NaN
             NaN             NaN             NaN
             NaN             NaN             NaN
             NaN             NaN             NaN
             NaN             NaN             NaN
             NaN             NaN             NaN
             NaN             NaN             NaN
             NaN             NaN             NaN
             NaN             NaN             NaN
             NaN             NaN             NaN
             NaN             NaN             NaN
             NaN             NaN             NaN
             NaN             NaN             NaN
             NaN             NaN             NaN
             NaN             NaN             NaN
             NaN             NaN             NaN
             NaN             NaN             NaN
             NaN             NaN             NaN
             NaN             NaN             NaN
             NaN             NaN             NaN
             NaN             NaN             NaN
             NaN             NaN             NaN
             NaN             NaN             NaN
             NaN             NaN             NaN
             NaN             NaN             NaN
             NaN             NaN             NaN
             NaN             NaN             NaN
             NaN             NaN             NaN
             NaN             NaN             NaN
             NaN             NaN             NaN
             NaN             NaN             NaN
             NaN             NaN             NaN
             NaN             NaN             NaN
             NaN             NaN             NaN
             NaN             NaN             NaN
             NaN             NaN             NaN
             NaN             NaN             NaN
             NaN             NaN             NaN
             NaN             NaN             NaN
             NaN             NaN             NaN
             NaN             NaN             NaN
             NaN             NaN             NaN
             NaN             NaN             NaN
             NaN             NaN             NaN
             NaN             NaN             NaN
             NaN             NaN             NaN
             NaN             NaN             NaN
             NaN             NaN             NaN
             NaN             NaN             NaN
             NaN             NaN             NaN
             NaN             NaN             NaN
             NaN             NaN             NaN
             NaN             NaN             NaN
             NaN             NaN             NaN
             NaN             NaN             NaN
             NaN             NaN             NaN
             NaN             NaN             NaN
             NaN             NaN             NaN
             NaN             NaN             NaN
             NaN             NaN             NaN
             NaN             NaN             NaN
             NaN             NaN             NaN
             NaN             NaN             NaN
             NaN             NaN             NaN
             NaN             NaN             NaN
             NaN             NaN             NaN
             NaN             NaN             NaN
             NaN             NaN             NaN
             NaN             NaN             NaN
