Li47 P16 O64
1.0
10.434605 -0.000396 -0.014988
-0.000456 12.245937 -0.000737
-0.014178 -0.000592 9.831245
Li P O
47 16 64
direct
0.626816 0.267768 0.097335 Li
0.666089 0.249644 0.598368 Li
0.663358 0.750094 0.097541 Li
0.664255 0.750813 0.598458 Li
0.164868 0.497378 0.151179 Li
0.165166 0.498493 0.652371 Li
0.164368 0.998280 0.152092 Li
0.165126 0.998680 0.652517 Li
0.336919 0.000815 0.400633 Li
0.336541 0.001034 0.905068 Li
0.339396 0.498556 0.397652 Li
0.338137 0.496550 0.908734 Li
0.834790 0.249051 0.346542 Li
0.833415 0.249085 0.849937 Li
0.836472 0.748420 0.347872 Li
0.836366 0.748769 0.847529 Li
0.339323 0.251485 0.397754 Li
0.338101 0.253112 0.908637 Li
0.336977 0.749222 0.400556 Li
0.336493 0.749094 0.904853 Li
0.836570 0.001716 0.347773 Li
0.836429 0.001393 0.847611 Li
0.835002 0.500893 0.347281 Li
0.833470 0.500699 0.849287 Li
0.655750 0.496055 0.097059 Li
0.666133 0.500982 0.597757 Li
0.663631 1.000362 0.097971 Li
0.664211 0.999686 0.598378 Li
0.164736 0.252290 0.150969 Li
0.165141 0.251483 0.652384 Li
0.164509 0.751179 0.151897 Li
0.165051 0.751293 0.652600 Li
0.919076 0.374817 0.147826 Li
0.921923 0.374914 0.649255 Li
0.922384 0.875097 0.149189 Li
0.923880 0.875101 0.648586 Li
0.426839 0.375121 0.606934 Li
0.427871 0.875112 0.101600 Li
0.424567 0.875153 0.600506 Li
0.077550 0.125862 0.350190 Li
0.077636 0.125847 0.852420 Li
0.077484 0.624051 0.350517 Li
0.077530 0.624004 0.852276 Li
0.576214 0.127005 0.398747 Li
0.574191 0.126894 0.900915 Li
0.576193 0.623525 0.399571 Li
0.573830 0.623764 0.899282 Li
0.911374 0.124889 0.095408 P
0.913593 0.124499 0.595404 P
0.910818 0.625104 0.095327 P
0.913493 0.625578 0.595449 P
0.409111 0.120776 0.154060 P
0.411302 0.124517 0.654797 P
0.409505 0.628714 0.153972 P
0.411158 0.625669 0.654789 P
0.087756 0.375061 0.404612 P
0.085972 0.375009 0.904583 P
0.087901 0.874902 0.404960 P
0.087707 0.874887 0.905043 P
0.591621 0.375317 0.348802 P
0.586990 0.374908 0.838772 P
0.589923 0.875040 0.345797 P
0.589014 0.875111 0.844852 P
0.841721 0.021443 0.146683 O
0.843251 0.021338 0.646212 O
0.839393 0.522982 0.146066 O
0.843683 0.523432 0.648422 O
0.332645 0.216616 0.098522 O
0.341736 0.226814 0.601161 O
0.343992 0.736131 0.107655 O
0.342017 0.729217 0.602420 O
0.157936 0.272261 0.353412 O
0.156163 0.272358 0.852970 O
0.157635 0.771991 0.353420 O
0.158110 0.772035 0.854029 O
0.660824 0.478927 0.403152 O
0.654605 0.477667 0.896178 O
0.659469 0.978133 0.398082 O
0.659087 0.977980 0.896626 O
0.158096 0.477869 0.353557 O
0.156193 0.477686 0.852989 O
0.157644 0.977787 0.353566 O
0.158196 0.977661 0.854041 O
0.660831 0.271786 0.402956 O
0.654626 0.271894 0.893814 O
0.659509 0.771999 0.398250 O
0.658864 0.771941 0.896336 O
0.841068 0.227127 0.146495 O
0.843890 0.226671 0.648357 O
0.841351 0.728568 0.146573 O
0.843210 0.728740 0.646264 O
0.343225 0.013385 0.108016 O
0.342084 0.020986 0.602333 O
0.332906 0.532919 0.098700 O
0.341704 0.523433 0.600877 O
0.547873 0.121900 0.101411 O
0.550828 0.124150 0.604311 O
0.548522 0.627059 0.101118 O
0.550835 0.626288 0.604697 O
0.050464 0.124348 0.147677 O
0.052725 0.123955 0.647339 O
0.049669 0.624972 0.148093 O
0.052616 0.625986 0.647340 O
0.453160 0.375117 0.402570 O
0.444770 0.374845 0.871813 O
0.450842 0.874987 0.396947 O
0.450063 0.875031 0.895908 O
0.948761 0.375227 0.351963 O
0.946700 0.375054 0.852142 O
0.948631 0.874907 0.353140 O
0.948996 0.874936 0.851633 O
0.598358 0.375911 0.194673 O
0.600449 0.375907 0.682405 O
0.592839 0.874901 0.189008 O
0.590521 0.875175 0.687833 O
0.085326 0.375036 0.061397 O
0.088024 0.375026 0.561744 O
0.087203 0.874732 0.061859 O
0.089188 0.874872 0.561991 O
0.410812 0.124017 0.311570 O
0.408680 0.124379 0.811572 O
0.411411 0.625952 0.311432 O
0.408393 0.625557 0.811583 O
0.912212 0.125086 0.438417 O
0.910977 0.124481 0.938220 O
0.912084 0.624973 0.438461 O
0.910666 0.625377 0.938195 O
