Li17 Co18 O36                           
   1.00000000000000     
     8.1836880000000001   -0.0000540000000000    2.4234360000000001
     3.7329740000000000    7.2826959999999996    2.4234300000000002
     0.0233090000000000    0.0142540000000000    9.9385080000000006
   Li   Co   O 
    17    18    36
Direct
  0.2945122314787872  0.5141082464281626  0.5159130594489583
  0.3334336991415826  0.3322518120807517  0.0019796975584592
  0.3325550812790313  0.6667960097875208  0.0005307930745761
  0.3325925608148235  1.0000709434943453  1.0011480562501005
  0.3312145285036567  1.0007853384959622  0.5006909649914896
  0.6666939156956022  0.3328771273593663  0.0006898382377744
  0.6680481902176622  0.3321882935082338  0.5009885530932805
  0.6656559416490482  0.6671596289501730  1.0011181568044671
  0.6451625869276552  0.6662664293009748  0.5013923552979194
  0.6661982895861313  0.9991751488381216  0.0016825245281543
  0.6446733107638102  1.0208551044336707  0.5012750013704917
 -0.0003634562706671  0.3321080935481338  1.0012533961595795
  0.0135055175545733  0.3337147589944718  0.4999814338447344
 -0.0013172197286150  0.6673543026270560  0.0012026132417105
 -0.0324254651236429  0.6832660247508373  0.4984348336982735
 -0.0003220032593624  1.0005616386699678 -0.0006502793266770
  0.0127939297064463  0.9860539386948485  0.4998277669194784
  0.1638807032481145  0.1688868049083308  0.2470353687329813
  0.1695155650118869  0.1658153025516795  0.7503413186635697
  0.1633051490282708  0.5015666119910290  0.2459811095018133
  0.1676088377660122  0.4965657656804245  0.7584397351977180
  0.1632608137413083  0.8375629398528931  0.2459670590787469
  0.1695273411282864  0.8307792413039480  0.7502273454451528
  0.4960419056362013  0.1688873413915090  0.2510886450339695
  0.5023997993142498  0.1620456608421976  0.7555230866538852
  0.4971371617780238  0.5019918534009880  0.2478973299869089
  0.5023234478533313  0.4982394933178002  0.7555821368725969
  0.4959551234352345  0.8341502075339852  0.2510695678826202
  0.5009455364174206  0.8311170228344128  0.7547141294520719
  0.8303416789510805  0.1686732882322538  0.2492820517372641
  0.8359566700399894  0.1650163738247847  0.7503647596275674
  0.8303595716712763  0.5011588017395794  0.2492587212351051
  0.8349551600634345  0.4990509081325465  0.7522898583898183
  0.8293660481205113  0.8351776820063344  0.2501749172998189
  0.8349809780133951  0.8308656914975068  0.7521822695201100
  0.2490822893130195  0.2556880673031815  0.3529234105496950
  0.2547523139603433  0.2492236373953624  0.8637690424511998
  0.2466557222508145  0.5952409819182197  0.3439166374050785
  0.2545564862462884  0.5867081800867149  0.8637217800581228
  0.2490142196386400  0.9264178391247762  0.3528712951429617
  0.2530695363184677  0.9198338042742152  0.8601440415529632
  0.5858761534871813  0.2569665484200198  0.3559726892789185
  0.5918076180510963  0.2495814668030405  0.8627911883571577
  0.5858754685521534  0.5863018368396834  0.3558904994036042
  0.5896495210781724  0.5840503208485125  0.8635893284332805
  0.5826460447391560  0.9217828937890503  0.3603041644088710
  0.5897559580484552  0.9170232470999253  0.8635076664015279
  0.9186411170321997  0.2549330752449359  0.3567703507858442
  0.9227494278873323  0.2519887597630028  0.8587126517478731
  0.9181023247130999  0.5878112000338165  0.3575161595892441
  0.9196546108647898  0.5859785911647905  0.8623396319993200
  0.9180698791933606  0.9221933639011307  0.3575481359340464
  0.9227905805306508  0.9190753129225762  0.8585778297329233
  0.0759632261729037  0.0828538755714324  0.1378379881396224
  0.0827587432319144  0.0782667925485656  0.6407007467337376
  0.0761225183887180  0.4154972009303844  0.1378074947649393
  0.0813981138031566  0.4152046090971159  0.6450969865399607
  0.0739093355966236  0.7502727055137114  0.1382646586273686
  0.0814120036864900  0.7395847560407793  0.6449644678270119
  0.4118018191029056  0.0803305207230946  0.1411327071159868
  0.4159892999783149  0.0735009043370196  0.6486394980110551
  0.4113902879323328  0.4132432611595590  0.1392140335789873
  0.4192723870120922  0.4047010113267626  0.6564632904173419
  0.4111618609517336  0.7490289430668963  0.1390771104489470
  0.4160974927528519  0.7443675436136232  0.6486343292657448
  0.7428274425690068  0.0809014674448205  0.1420027876097736
  0.7471469159903616  0.0776253060900327  0.6434619199765781
  0.7443652188454402  0.4140155971013020  0.1406590591418083
  0.7471164821879146  0.4125822678919779  0.6435965810119253
  0.7427464072722560  0.7480997076366358  0.1421868251870836
  0.7452567554227180  0.7454430944315856  0.6451430769008034
 
             NaN             NaN             NaN
             NaN             NaN             NaN
             NaN             NaN             NaN
             NaN             NaN             NaN
             NaN             NaN             NaN
             NaN             NaN             NaN
             NaN             NaN             NaN
             NaN             NaN             NaN
             NaN             NaN             NaN
             NaN             NaN             NaN
             NaN             NaN             NaN
             NaN             NaN             NaN
             NaN             NaN             NaN
             NaN             NaN             NaN
             NaN             NaN             NaN
             NaN             NaN             NaN
             NaN             NaN             NaN
             NaN             NaN             NaN
             NaN             NaN             NaN
             NaN             NaN             NaN
             NaN             NaN             NaN
             NaN             NaN             NaN
             NaN             NaN             NaN
             NaN             NaN             NaN
             NaN             NaN             NaN
             NaN             NaN             NaN
             NaN             NaN             NaN
             NaN             NaN             NaN
             NaN             NaN             NaN
             NaN             NaN             NaN
             NaN             NaN             NaN
             NaN             NaN             NaN
             NaN             NaN             NaN
             NaN             NaN             NaN
             NaN             NaN             NaN
             NaN             NaN             NaN
             NaN             NaN             NaN
             NaN             NaN             NaN
             NaN             NaN             NaN
             NaN             NaN             NaN
             NaN             NaN             NaN
             NaN             NaN             NaN
             NaN             NaN             NaN
             NaN             NaN             NaN
             NaN             NaN             NaN
             NaN             NaN             NaN
             NaN             NaN             NaN
             NaN             NaN             NaN
             NaN             NaN             NaN
             NaN             NaN             NaN
             NaN             NaN             NaN
             NaN             NaN             NaN
             NaN             NaN             NaN
             NaN             NaN             NaN
             NaN             NaN             NaN
             NaN             NaN             NaN
             NaN             NaN             NaN
             NaN             NaN             NaN
             NaN             NaN             NaN
             NaN             NaN             NaN
             NaN             NaN             NaN
             NaN             NaN             NaN
             NaN             NaN             NaN
             NaN             NaN             NaN
             NaN             NaN             NaN
             NaN             NaN             NaN
             NaN             NaN             NaN
             NaN             NaN             NaN
             NaN             NaN             NaN
             NaN             NaN             NaN
             NaN             NaN             NaN
