Li17 Co18 O36
1.0
8.183688 -0.000054 2.423436
3.732974 7.282696 2.423430
0.023309 0.014254 9.938508
Li Co O
17 18 36
direct
0.206510 0.539840 0.570680 Li
0.332466 0.333682 0.000070 Li
0.333335 0.666663 0.000002 Li
0.334199 0.999643 0.999940 Li
0.333324 0.987847 0.500019 Li
0.666387 0.333612 0.000001 Li
0.654535 0.345466 0.499997 Li
0.666317 0.667531 0.999936 Li
0.654500 0.666668 0.500004 Li
0.666091 0.999454 0.000178 Li
0.666414 0.999756 0.501242 Li
0.000546 0.333909 0.999827 Li
0.000245 0.333587 0.498753 Li
0.000357 0.665798 0.000066 Li
0.012154 0.666678 0.499976 Li
0.000263 0.999738 0.000000 Li
0.012097 0.987905 0.499998 Li
0.166910 0.167505 0.247917 Co
0.166849 0.166679 0.749650 Co
0.166927 0.500266 0.247926 Co
0.167223 0.500532 0.749323 Co
0.167259 0.832805 0.250673 Co
0.167195 0.832743 0.749324 Co
0.499814 0.166655 0.250343 Co
0.499768 0.165812 0.752088 Co
0.499472 0.500586 0.250671 Co
0.499416 0.500528 0.749326 Co
0.499467 0.832777 0.250673 Co
0.499735 0.833073 0.752074 Co
0.833314 0.166647 0.250308 Co
0.833355 0.166687 0.749692 Co
0.834184 0.500234 0.247911 Co
0.833346 0.500184 0.749657 Co
0.833323 0.833149 0.250350 Co
0.832493 0.833091 0.752083 Co
0.253257 0.254571 0.356451 O
0.252766 0.253579 0.858938 O
0.252668 0.585996 0.353726 O
0.253788 0.587136 0.858316 O
0.252653 0.925517 0.353729 O
0.252674 0.920952 0.859107 O
0.586643 0.254201 0.358823 O
0.587648 0.253709 0.859092 O
0.592193 0.585968 0.353711 O
0.587565 0.586034 0.859100 O
0.586634 0.919980 0.358797 O
0.586082 0.919418 0.862598 O
0.921204 0.254543 0.356489 O
0.920544 0.253860 0.857606 O
0.921246 0.586557 0.356452 O
0.920294 0.586075 0.858937 O
0.920877 0.920000 0.358831 O
0.920410 0.920994 0.859084 O
0.079007 0.079586 0.140923 O
0.080001 0.079130 0.641160 O
0.080581 0.413916 0.137413 O
0.080019 0.413366 0.641194 O
0.079052 0.747322 0.140903 O
0.074484 0.747347 0.646264 O
0.413922 0.079697 0.141074 O
0.413441 0.078760 0.643540 O
0.413961 0.412439 0.140909 O
0.414033 0.407807 0.646282 O
0.412863 0.746208 0.141696 O
0.414005 0.747332 0.646265 O
0.746140 0.079454 0.142400 O
0.745462 0.078798 0.643504 O
0.746285 0.412354 0.140917 O
0.745805 0.413359 0.641170 O
0.746416 0.747231 0.141069 O
0.745435 0.746742 0.643542 O
