Mg15 Mn32 O64
1.0
11.500230 -0.000009 0.001004
-0.000027 11.515942 -0.000001
0.000329 0.000000 9.169816
Mg Mn O
15 32 64
direct
0.499937 0.502039 0.504437 Mg
0.500407 0.250002 0.750242 Mg
1.000304 0.249997 0.752307 Mg
0.999527 0.749996 0.748310 Mg
0.499937 -0.002037 0.504438 Mg
0.000032 0.000256 0.500496 Mg
1.000030 0.499742 0.500494 Mg
0.248768 1.002464 0.249485 Mg
0.248763 0.497537 0.249482 Mg
0.751348 0.002570 0.248902 Mg
0.751345 0.497429 0.248903 Mg
0.251261 0.250003 -0.002416 Mg
0.254662 0.750003 0.001134 Mg
0.750210 0.249996 -0.001282 Mg
0.744077 0.749998 0.000007 Mg
0.127311 0.250000 0.374949 Mn
0.123843 0.750000 0.372012 Mn
0.627192 0.250000 0.376190 Mn
0.625537 0.750000 0.375503 Mn
0.377109 0.250001 0.377893 Mn
0.373617 0.750004 0.375623 Mn
0.877630 0.250000 0.375139 Mn
0.874143 0.750000 0.371391 Mn
0.124926 -0.001912 0.874325 Mn
0.124924 0.501911 0.874324 Mn
0.622021 -0.000449 0.875272 Mn
0.622019 0.500449 0.875272 Mn
0.375865 -0.001666 0.876743 Mn
0.375862 0.501681 0.876732 Mn
0.872971 -0.000571 0.874984 Mn
0.872964 0.500564 0.874985 Mn
0.001376 0.125019 0.123658 Mn
0.999496 0.625579 0.121366 Mn
0.500186 0.126157 0.126242 Mn
0.499755 0.622303 0.128147 Mn
1.001366 0.374972 0.123639 Mn
-0.000500 0.874416 0.121365 Mn
0.500183 0.373848 0.126244 Mn
0.499757 0.877698 0.128145 Mn
0.249037 0.375076 0.626739 Mn
0.251892 0.874484 0.623507 Mn
0.751594 0.375006 0.625720 Mn
0.747820 0.874545 0.623562 Mn
0.249037 0.124925 0.626740 Mn
0.251891 0.625517 0.623500 Mn
0.751595 0.124993 0.625720 Mn
0.747819 0.625455 0.623561 Mn
0.136344 0.250000 0.621529 O
0.138355 0.750000 0.618755 O
0.638626 0.249999 0.621594 O
0.638092 0.750000 0.580273 O
0.362225 0.250001 0.622459 O
0.361455 0.750002 0.580351 O
0.864705 0.250000 0.621059 O
0.860898 0.749999 0.618780 O
0.137135 0.501307 0.628886 O
0.137136 0.998693 0.628888 O
0.637933 0.499681 0.628666 O
0.637934 0.000319 0.628665 O
0.362008 0.500070 0.629089 O
0.362009 -0.000068 0.629090 O
0.862812 0.501337 0.628866 O
0.862813 -0.001337 0.628865 O
0.498957 0.114794 0.880894 O
0.499359 0.608339 0.897943 O
-0.000364 0.111850 0.879232 O
0.998727 0.613533 0.878149 O
0.498950 0.385214 0.880892 O
0.499356 0.891668 0.897944 O
0.999632 0.388147 0.879228 O
-0.001270 0.886461 0.878145 O
0.501703 0.363358 0.374330 O
0.499587 0.859697 0.373501 O
1.002139 0.363300 0.370292 O
0.999094 0.862710 0.370343 O
0.501702 0.136643 0.374329 O
0.499586 0.640306 0.373501 O
1.002139 0.136698 0.370294 O
0.999093 0.637289 0.370343 O
0.386932 0.498733 0.126119 O
0.386935 1.001268 0.126119 O
0.887544 0.499951 0.120105 O
0.887549 1.000045 0.120107 O
0.112979 -0.000901 0.119983 O
0.112972 0.500893 0.119981 O
0.612825 1.001227 0.125945 O
0.612822 0.498776 0.125948 O
0.386977 0.250000 0.130771 O
0.385147 0.750001 0.153797 O
0.888185 0.249996 0.128354 O
0.885511 0.749998 0.126803 O
0.114576 0.249998 0.128423 O
0.112951 0.749997 0.127018 O
0.614020 0.250003 0.130722 O
0.614107 0.750001 0.153642 O
0.251354 0.362957 0.380640 O
0.251479 0.861350 0.371932 O
0.752554 0.362833 0.380004 O
0.747151 0.861509 0.371637 O
0.251353 0.137043 0.380641 O
0.251480 0.638653 0.371931 O
0.752553 0.137167 0.380004 O
0.747149 0.638491 0.371637 O
0.248957 0.111518 0.870817 O
0.249794 0.615475 0.868981 O
0.749598 0.112587 0.870452 O
0.748252 0.614420 0.868972 O
0.248956 0.388487 0.870816 O
0.249798 0.884531 0.868982 O
0.749592 0.387406 0.870453 O
0.748251 0.885575 0.868968 O
