Mg7 Sc16 Se32                           
   1.00000000000000     
    11.1295830000000002   -0.0000070000000000   -0.0000130000000000
    -0.0000070000000000   11.1295819999999992   -0.0000170000000000
    -0.0000130000000000   -0.0000160000000000   11.1297359999999994
   Mg   Sc   Se
     7    16    32
Direct
  0.5000318389803566  0.5000320988600346  0.5000313972191835
  0.6242033939784435  0.1272142321123971  0.1272133550007333
  0.1272150805229925  0.6242072010570776  0.1272139959606427
  0.1272127480698841  0.1272150852603112  0.6242084759860995
  0.3757891551692411  0.8727879769399856  0.8727900634875718
  0.8727878025613820  0.3757930017308282  0.8727899662254877
  0.8727901848631582  0.8727902893744478  0.3757945519711749
  0.9937480346537593  0.7500329888780645  0.7500353876566426
  0.7500233935701226  0.9937556600582662  0.7500287713780588
  0.7500366612665795  0.7500341736739063  0.9937386649527173
  0.9999981073026762  0.9999963805029921  0.9999978055673656
  0.0062520171723218  0.2499838126942030  0.2499789008377333
  0.2499797371101584  0.0062425852077583  0.2499760679107181
  0.2499760311177802  0.2499748905252567  0.0062528012548282
  0.7472929847379717  0.5000108673514515  0.2527166955577853
  0.7472866806705213  0.2527126372211274  0.5000023907634058
  0.0000075603598361  0.5000006347450822  0.5000030311899575
  0.2527236614832545  0.5000012633094696  0.7472829875938941
  0.2527238909602483  0.7472886274759876  0.4999980830948700
  0.5000259277258227  0.7472726040271914  0.2527033183670246
  0.5000011719198663  0.0000064770468136  0.4999993251928579
  0.5000107318385257  0.2527043361640450  0.7472752445537322
  0.5000008660054710  0.5000000641262060  0.0000070181125281
  0.7567149239124025  0.9936555310641777  0.9936573611955402
  0.9936520379096435  0.7567200387550896  0.9936608584272866
  0.9936529267042324  0.9936548795355493  0.7567158146451128
  0.7558749819049733  0.7558736520839809  0.7558852925677760
  0.2432697746538118  0.0063428284221587  0.0063396210471906
  0.0063380241266844  0.2432751846566870  0.0063422585948573
  0.0063400947959145  0.0063409983578706  0.2432784434912047
  0.2441220629649919  0.2441261303437469  0.2441166733533123
  0.7512609393848768  0.4949541283293104  0.4949522997724015
  0.9918295599878233  0.2578371004939673  0.4936176560395757
  0.9918325395026906  0.4936152806384873  0.2578377305558809
  0.7603415981362954  0.2567321502811296  0.2567287182706482
  0.2487570205668220  0.5050466402925406  0.5050501259379544
  0.0081658905698364  0.7421571508718990  0.5063803268247804
  0.0081668478100872  0.5063795570597284  0.7421590577912480
  0.2396510360958020  0.7432687150967094  0.7432745495340154
  0.2578319394511134  0.9918322828099129  0.4936171968129300
  0.4949532450416595  0.7512597873409574  0.4949501937962579
  0.4936130287099764  0.9918300926682232  0.2578367159267061
  0.2567318994217048  0.7603445504427830  0.2567298519027698
  0.7421538514848283  0.0081670961967259  0.5063793324167605
  0.5050437399479698  0.2487567697540573  0.5050496673959292
  0.5063753773462826  0.0081651067146215  0.7421577201018260
  0.7432668470698441  0.2396514649287153  0.7432764441283238
  0.2578407525997066  0.4936178607082545  0.9918348217716537
  0.4936121305163071  0.2578413069964767  0.9918358121161357
  0.4949519033722596  0.4949518320251962  0.7512645267939195
  0.2567280740906673  0.2567298061842528  0.7603464854348914
  0.7421536832260480  0.5063828973755791  0.0081633398396544
  0.5063780940068930  0.7421546889508227  0.0081631340465905
  0.5050494050541874  0.5050475077179500  0.2487511222215605
  0.7432749639765179  0.7432739538832202  0.2396544074493397
 
             NaN             NaN             NaN
             NaN             NaN             NaN
             NaN             NaN             NaN
             NaN             NaN             NaN
             NaN             NaN             NaN
             NaN             NaN             NaN
             NaN             NaN             NaN
             NaN             NaN             NaN
             NaN             NaN             NaN
             NaN             NaN             NaN
             NaN             NaN             NaN
             NaN             NaN             NaN
             NaN             NaN             NaN
             NaN             NaN             NaN
             NaN             NaN             NaN
             NaN             NaN             NaN
             NaN             NaN             NaN
             NaN             NaN             NaN
             NaN             NaN             NaN
             NaN             NaN             NaN
             NaN             NaN             NaN
             NaN             NaN             NaN
             NaN             NaN             NaN
             NaN             NaN             NaN
             NaN             NaN             NaN
             NaN             NaN             NaN
             NaN             NaN             NaN
             NaN             NaN             NaN
             NaN             NaN             NaN
             NaN             NaN             NaN
             NaN             NaN             NaN
             NaN             NaN             NaN
             NaN             NaN             NaN
             NaN             NaN             NaN
             NaN             NaN             NaN
             NaN             NaN             NaN
             NaN             NaN             NaN
             NaN             NaN             NaN
             NaN             NaN             NaN
             NaN             NaN             NaN
             NaN             NaN             NaN
             NaN             NaN             NaN
             NaN             NaN             NaN
             NaN             NaN             NaN
             NaN             NaN             NaN
             NaN             NaN             NaN
             NaN             NaN             NaN
             NaN             NaN             NaN
             NaN             NaN             NaN
             NaN             NaN             NaN
             NaN             NaN             NaN
             NaN             NaN             NaN
             NaN             NaN             NaN
             NaN             NaN             NaN
             NaN             NaN             NaN
