Mg7 Sc16 Se32
1.0
11.129583 -0.000007 -0.000013
-0.000007 11.129582 -0.000017
-0.000013 -0.000016 11.129736
Mg Sc Se
7 16 32
direct
0.500025 0.500027 0.500024 Mg
0.623877 0.126126 0.126124 Mg
0.126127 0.623875 0.126124 Mg
0.126127 0.126126 0.623876 Mg
0.376151 0.873850 0.873851 Mg
0.873851 0.376150 0.873852 Mg
0.873852 0.873852 0.376149 Mg
0.996839 0.749904 0.749906 Sc
0.749905 0.996839 0.749904 Sc
0.749905 0.749903 0.996837 Sc
0.999997 0.999994 0.999992 Sc
0.003165 0.250103 0.250102 Sc
0.250106 0.003162 0.250102 Sc
0.250107 0.250102 0.003163 Sc
0.746738 0.499999 0.253260 Sc
0.746736 0.253260 0.499999 Sc
0.000007 0.499996 0.499998 Sc
0.253262 0.499998 0.746735 Sc
0.253262 0.746736 0.500000 Sc
0.500002 0.746736 0.253258 Sc
0.500000 0.000008 0.499998 Sc
0.500000 0.253260 0.746735 Sc
0.500000 0.499997 0.000007 Sc
0.757118 0.993343 0.993344 Se
0.993341 0.757120 0.993345 Se
0.993342 0.993343 0.757117 Se
0.756015 0.756016 0.756018 Se
0.242852 0.006644 0.006640 Se
0.006643 0.242854 0.006641 Se
0.006642 0.006643 0.242854 Se
0.243963 0.243963 0.243961 Se
0.757499 0.493907 0.493904 Se
0.991861 0.256733 0.492805 Se
0.991862 0.492802 0.256730 Se
0.758601 0.256734 0.256734 Se
0.242463 0.506121 0.506120 Se
0.008146 0.743275 0.507227 Se
0.008146 0.507225 0.743275 Se
0.241351 0.743270 0.743283 Se
0.256731 0.991863 0.492803 Se
0.493907 0.757498 0.493905 Se
0.492800 0.991863 0.256731 Se
0.256733 0.758602 0.256733 Se
0.743272 0.008148 0.507225 Se
0.506117 0.242462 0.506124 Se
0.507224 0.008146 0.743275 Se
0.743268 0.241351 0.743283 Se
0.256732 0.492802 0.991862 Se
0.492800 0.256733 0.991864 Se
0.493907 0.493907 0.757501 Se
0.256732 0.256733 0.758603 Se
0.743271 0.507227 0.008143 Se
0.507225 0.743273 0.008146 Se
0.506121 0.506120 0.242457 Se
0.743275 0.743275 0.241351 Se
