Mg7 Sc16 Se32
1.0
11.127833 -0.000014 -0.000025
-0.000014 11.127839 -0.000042
-0.000025 0.000003 11.128016
Mg Sc Se
7 16 32
direct
0.377301 0.377304 0.377296 Mg
0.625003 0.125002 0.125001 Mg
0.125004 0.625002 0.125001 Mg
0.125003 0.125001 0.625000 Mg
0.377302 0.872700 0.872701 Mg
0.872701 0.377301 0.872703 Mg
0.872703 0.872703 0.377299 Mg
0.993738 0.749746 0.749746 Sc
0.749748 0.993736 0.749747 Sc
0.749749 0.749745 0.993734 Sc
1.000053 1.000049 1.000049 Sc
0.000054 0.249951 0.249950 Sc
0.249955 0.000050 0.249951 Sc
0.249955 0.249951 0.000049 Sc
0.749751 0.500253 0.256265 Sc
0.749747 0.256266 0.500253 Sc
-0.006262 0.500250 0.500249 Sc
0.256265 0.500252 0.749747 Sc
0.256265 0.749747 0.500254 Sc
0.500256 0.749748 0.256265 Sc
0.500253 -0.006262 0.500250 Sc
0.500253 0.256263 0.749749 Sc
0.500254 0.500251 -0.006263 Sc
0.757661 0.993264 0.993263 Se
0.993262 0.757662 0.993266 Se
0.993264 0.993264 0.757659 Se
0.755456 0.755454 0.755459 Se
0.243436 0.006562 0.006559 Se
0.006560 0.243437 0.006560 Se
0.006561 0.006563 0.243439 Se
0.243437 0.243439 0.243441 Se
0.755456 0.494546 0.494539 Se
0.993264 0.256734 0.492340 Se
0.993265 0.492336 0.256730 Se
0.757660 0.256736 0.256737 Se
0.240436 0.506730 0.506721 Se
0.009569 0.743273 0.506723 Se
0.009567 0.506722 0.743271 Se
0.240433 0.743265 0.743285 Se
0.256732 0.993266 0.492338 Se
0.494549 0.755453 0.494540 Se
0.492335 0.993267 0.256731 Se
0.256735 0.757663 0.256736 Se
0.743270 0.009571 0.506721 Se
0.506720 0.240436 0.506729 Se
0.506720 0.009566 0.743271 Se
0.743264 0.240433 0.743285 Se
0.256731 0.492336 0.993267 Se
0.492334 0.256734 0.993270 Se
0.494547 0.494547 0.755460 Se
0.256732 0.256734 0.757663 Se
0.743270 0.506724 0.009567 Se
0.506723 0.743272 0.009569 Se
0.506727 0.506728 0.240434 Se
0.743275 0.743274 0.240431 Se
