Mg7 Sc16 Se32                           
   1.00000000000000     
    11.3332110000000004    0.0000000000000000    0.0000000000000000
     0.0000000000000000   11.3332029999999992    0.0000000000000000
     0.0000000000000000    0.0000000000000000   11.3331839999999993
   Mg   Sc   Se
     7    16    32
Direct
  0.5606893345521095  0.5606890538445451  0.5606887891227517
  0.6229014184339631  0.1276931498212554  0.1276932412712444
  0.1276931406897788  0.6229014496959971  0.1276932238306643
  0.1276931658163127  0.1276932026769132  0.6229014123122032
  0.3743587881869455  0.8733337363379124  0.8733338576142581
  0.8733338592350015  0.3743589482562884  0.8733338545463993
  0.8733336223607412  0.8733335981110922  0.3743587609583571
  0.9944699977989140  0.7518951162421111  0.7518952214739278
  0.7518952147545448  0.9944700103642005  0.7518949945264936
  0.7518951411012017  0.7518949723206390  0.9944696545388005
  1.0001466525788576  1.0001464449586348  1.0001466608577005
  0.0059215366339441  0.2492672693211352  0.2492673468138611
  0.2492672403267060  0.0059215531207162  0.2492673215699888
  0.2492672484441993  0.2492673846321486  0.0059215071098271
  0.7462960851853587  0.4999367336039607  0.2477128247715180
  0.7462960670035527  0.2477128976316485  0.4999365491413529
  0.0095077564261414  0.5005933176038967  0.5005935707304415
  0.2477127691929499  0.4999365470087005  0.7462961432118033
  0.2477130183943683  0.7462956636193183  0.4999364926348554
  0.4999368986911515  0.7462959749774744  0.2477129434991126
  0.5005935255935797  0.0095077245335990  0.5005933901508497
  0.4999365610378494  0.2477129516741109  0.7462961181467871
  0.5005936320546147  0.5005935764704679  0.0095080251038371
  0.7579956025821002  0.9936976496947822  0.9936977913326849
  0.9936972955304363  0.7579956455549578  0.9936975693410425
  0.9936974084392276  0.9936976018667080  0.7579953182773009
  0.7590344353468104  0.7590344809067685  0.7590334207134983
  0.2416653716716938  0.0066079149933040  0.0066077714251558
  0.0066080357336280  0.2416655280081371  0.0066077033009842
  0.0066080434646173  0.0066078950809948  0.2416659141206603
  0.2399867818702015  0.2399868529759908  0.2399873947472044
  0.7609118411493724  0.4892164505265700  0.4892169147369017
  0.9913394470243463  0.2585770345316863  0.4920883648607606
  0.9913395960076123  0.4920880059706918  0.2585767345582048
  0.7601654999124769  0.2571515721329338  0.2571513506566280
  0.2444781464271684  0.5098463984299293  0.5098461598250601
  0.0061725826350683  0.7424289335924780  0.5086015299791300
  0.0061727352520957  0.5086020554472380  0.7424291587111814
  0.2394823481355292  0.7427463147453099  0.7427464628164347
  0.2585771595462683  0.9913396246048238  0.4920884339089092
  0.4892163390133309  0.7609117788976637  0.4892169019334793
  0.4920878747395580  0.9913396884725575  0.2585768164870632
  0.2571518035810064  0.7601653840968623  0.2571513074148057
  0.7424286429830274  0.0061725818374344  0.5086016803116149
  0.5098464600201078  0.2444783305373570  0.5098461291974669
  0.5086020887863557  0.0061725760489083  0.7424291993397600
  0.7427460908299038  0.2394825190823425  0.7427464977151088
  0.2585773511322851  0.4920880319887291  0.9913401458886878
  0.4920879817949321  0.2585770718309057  0.9913400298237633
  0.4892165139574233  0.4892164378286860  0.7609115357793081
  0.2571519032209673  0.2571516220625871  0.7601651407790480
  0.7424288333578936  0.5086019924589172  0.0061721542652942
  0.5086020762725395  0.7424288996543877  0.0061721520587921
  0.5098466264111700  0.5098463973271684  0.2444788054973334
  0.7427461928359183  0.7427462463620265  0.2394824249708577
 
             NaN             NaN             NaN
             NaN             NaN             NaN
             NaN             NaN             NaN
             NaN             NaN             NaN
             NaN             NaN             NaN
             NaN             NaN             NaN
             NaN             NaN             NaN
             NaN             NaN             NaN
             NaN             NaN             NaN
             NaN             NaN             NaN
             NaN             NaN             NaN
             NaN             NaN             NaN
             NaN             NaN             NaN
             NaN             NaN             NaN
             NaN             NaN             NaN
             NaN             NaN             NaN
             NaN             NaN             NaN
             NaN             NaN             NaN
             NaN             NaN             NaN
             NaN             NaN             NaN
             NaN             NaN             NaN
             NaN             NaN             NaN
             NaN             NaN             NaN
             NaN             NaN             NaN
             NaN             NaN             NaN
             NaN             NaN             NaN
             NaN             NaN             NaN
             NaN             NaN             NaN
             NaN             NaN             NaN
             NaN             NaN             NaN
             NaN             NaN             NaN
             NaN             NaN             NaN
             NaN             NaN             NaN
             NaN             NaN             NaN
             NaN             NaN             NaN
             NaN             NaN             NaN
             NaN             NaN             NaN
             NaN             NaN             NaN
             NaN             NaN             NaN
             NaN             NaN             NaN
             NaN             NaN             NaN
             NaN             NaN             NaN
             NaN             NaN             NaN
             NaN             NaN             NaN
             NaN             NaN             NaN
             NaN             NaN             NaN
             NaN             NaN             NaN
             NaN             NaN             NaN
             NaN             NaN             NaN
             NaN             NaN             NaN
             NaN             NaN             NaN
             NaN             NaN             NaN
             NaN             NaN             NaN
             NaN             NaN             NaN
             NaN             NaN             NaN
