Mg7 Sc16 Se32
1.0
11.333211 0.000000 -0.000000
0.000000 11.333203 -0.000000
-0.000000 -0.000000 11.333184
Mg Sc Se
7 16 32
direct
0.561216 0.561216 0.561216 Mg
0.623070 0.126930 0.126930 Mg
0.126930 0.623070 0.126930 Mg
0.126930 0.126930 0.623070 Mg
0.375646 0.874355 0.874354 Mg
0.874355 0.375646 0.874354 Mg
0.874354 0.874354 0.375646 Mg
0.998391 0.750061 0.750061 Sc
0.750061 0.998391 0.750061 Sc
0.750061 0.750061 0.998391 Sc
0.999968 0.999968 0.999968 Sc
0.004656 0.249909 0.249909 Sc
0.249909 0.004656 0.249909 Sc
0.249909 0.249909 0.004656 Sc
0.745372 0.500063 0.251485 Sc
0.745372 0.251485 0.500063 Sc
0.003080 0.500063 0.500063 Sc
0.251485 0.500063 0.745372 Sc
0.251485 0.745372 0.500063 Sc
0.500063 0.745372 0.251485 Sc
0.500063 0.003080 0.500063 Sc
0.500063 0.251485 0.745372 Sc
0.500063 0.500063 0.003080 Sc
0.757913 0.992562 0.992562 Se
0.992562 0.757913 0.992562 Se
0.992562 0.992562 0.757913 Se
0.758139 0.758139 0.758139 Se
0.241506 0.007038 0.007038 Se
0.007038 0.241506 0.007038 Se
0.007038 0.007038 0.241506 Se
0.240785 0.240785 0.240784 Se
0.759668 0.491719 0.491719 Se
0.991033 0.257580 0.491945 Se
0.991033 0.491945 0.257580 Se
0.759442 0.257580 0.257580 Se
0.240268 0.509256 0.509257 Se
0.007555 0.742921 0.508535 Se
0.007555 0.508535 0.742921 Se
0.240989 0.742921 0.742921 Se
0.257580 0.991033 0.491945 Se
0.491719 0.759668 0.491719 Se
0.491945 0.991033 0.257580 Se
0.257580 0.759442 0.257580 Se
0.742921 0.007555 0.508535 Se
0.509256 0.240267 0.509257 Se
0.508535 0.007555 0.742921 Se
0.742921 0.240989 0.742921 Se
0.257580 0.491945 0.991033 Se
0.491945 0.257580 0.991033 Se
0.491719 0.491719 0.759668 Se
0.257580 0.257580 0.759442 Se
0.742921 0.508535 0.007555 Se
0.508535 0.742921 0.007555 Se
0.509256 0.509256 0.240267 Se
0.742921 0.742921 0.240989 Se
