Na47 P16 S64                            
   1.00000000000000     
    14.0093329999999998   -0.0072690000000000   -0.0000630000000000
    -0.0073370000000000   14.0199189999999998   -0.0000110000000000
    -0.0000390000000000   -0.0000500000000000   14.4101160000000004
   Na   P    S 
    47    16    64
Direct
  0.5849830827786917  0.7510655553537404  0.7380897678896119
  0.9998088116229695  0.2508920451892394  0.2039943244196536
  0.9993537042866691  0.2501764568956304  0.7033951586710643
  0.9988197553331517  0.7510258244200685  0.2095959716372846
  0.9808326460665029  0.7529511791356143  0.7147679561518316
  0.5001383445936014  0.2491137171668996  0.2050241446882950
  0.5007536464496667  0.2502809978019300  0.7045360836513623
  0.5009164880072632  0.7491385865351248  0.2112234323852533
  0.2486472367995916  0.9992738841702931  0.2935002529019570
  0.2487506526864323  0.9989005793887387  0.7932167347717609
  0.2517983029273623  0.5004950068442966  0.2969282952346788
  0.2502111143196188  0.5021484444351501  0.7962309111482782
  0.7482562283731937  0.9988096323312803  0.2932358241113064
  0.7477103968623453  0.9800113508242063  0.7873334694271463
  0.7512221222546529  0.5014747842381269  0.2896857201713416
  0.7552005380867968  0.5197636252258846  0.7845982210381237
  0.2530174295429219  0.9992982631296599  0.0432187546297769
  0.2428633944092269  0.9987890239890191  0.5436962153748155
  0.2467828878700971  0.5000399938980138  0.0470414283288321
  0.2565068381075122  0.5042304025700020  0.5485444246139366
  0.7524444188109811  0.0002572211233627  0.0413745359986635
  0.7445708489025975  0.9987480130341666  0.5410297025452948
  0.7463749761163285  0.5003769449946134  0.0378291973514990
  0.7582670268588885  0.4990481540767675  0.5371332966222937
  0.9997647587132477  0.2480837979374257  0.4536151208054662
  0.9980149327023824  0.2537074557227399  0.9523498694733306
  0.0003127550622040  0.7478175440297292  0.4616107732498094
  0.9998688709986894  0.7542226001417376  0.9600714516360824
  0.5002802679086997  0.2520371264913166  0.4546717025630826
  0.5017131506149397  0.2464006460564434  0.9531709477416541
  0.5000783082667084  0.7519858677903954  0.4694631426216844
  0.4984953325052359  0.7449067752844201  0.9625284219658070
  0.9913242937668869  0.9965042934542296  0.5015406678811232
  0.0034100971118676  0.0097472430898975  0.0006451935308434
  0.0122408333746407  0.4962803251175103  0.4991018251639545
  0.9960204492502456  0.5024970107500906  0.9980794853285104
  0.4891113816304653  0.0031085805085311  0.4985958670905717
  0.5060961695756063  0.9962220635023371  0.9988511319616293
  0.5063040688904792  0.5042731362845458  0.5021084046392019
  0.4924356458704580  0.4910324601830993  0.0028020510188114
  0.2493291227618215  0.2510344984581749  0.2499061728245238
  0.2492592915442273  0.2521499448704603  0.7499862151518641
  0.2505258367110414  0.7485508676183557  0.2506749287529573
  0.2773841745092653  0.7488149156728170  0.7483379218353292
  0.7507080055897006  0.2490207437269376  0.2491498010294180
  0.7509119811613942  0.2477676343170856  0.7509114149426139
  0.7491601278226554  0.7514946434818484  0.2492537004736448
  0.9993120815877958  0.0013619436460672  0.2494979827993333
  0.9991609042592628  0.0033400783770645  0.7519676366217354
  0.0015647623112969  0.4997092432315569  0.2497752228918060
  0.0029891266435200  0.4987534266743552  0.7478524215306805
  0.4989706385230051  0.0000955984800797  0.2499384499519621
  0.4973380652571251  0.0012616133756822  0.7481614993744046
  0.5001685946778167  0.4988762392475508  0.2503953382243864
  0.5002731133378688  0.4975890129158032  0.7528131080050784
  0.2498352767735454  0.2502716773552720  0.0001806100563684
  0.2498153803868206  0.2507998802180325  0.4995245796916947
  0.2501939670717448  0.7489596251226729  0.0013790776179832
  0.2495078261252957  0.7516627667164286  0.4989437813280801
  0.7500348063805333  0.2494197325542231  0.9998613595865606
  0.7501562869444243  0.2493240564775761  0.4988073449977719
  0.7492858449202231  0.7490464735125073  0.0019967032561468
  0.7515999195979433  0.7492699052636098  0.4951896619148002
  0.1552210874581306  0.1743179655439420  0.0821567301569601
  0.1547163632886850  0.1755910773240075  0.5811644533501195
  0.1535002558495719  0.6761215877889128  0.0835589683113440
  0.1567188226494238  0.6770177199385330  0.5832374552776827
  0.6553595339585172  0.1737749727391389  0.0825658637723024
  0.6541948857711333  0.1757098213144275  0.5805922941622157
  0.6549030605848642  0.6739352310046982  0.0852145811678895
  0.6580329336296273  0.6690851440161651  0.5738042572415765
  0.3451959859365417  0.3251993785692022  0.0823664219831812
  0.3454407204048238  0.3255429997396746  0.5811115652616650
  0.3454935087063760  0.8239000392205682  0.0835725593022190
  0.3441392130389715  0.8290839593478054  0.5782473310708767
  0.8442187905957397  0.3263252428700767  0.0820165328861435
  0.8459737205844817  0.3235213004746740  0.5805046827153646
  0.8429589789974514  0.8268258276209082  0.0839470275057010
  0.8453495039778147  0.8268067601141595  0.5752989906148187
  0.1745922751423024  0.3460460389964481  0.4178898184883479
  0.1745216397169500  0.3459487603192457  0.9194362529352702
  0.1718412255796409  0.8432146656681638  0.4148666097779454
  0.1776292284589971  0.8429278023538274  0.9169380780090677
  0.6766140862091277  0.3448805591493098  0.4160781946040899
  0.6757224737131580  0.3436637993046787  0.9173538514388468
  0.6729811904160812  0.8432518878453408  0.4146441151135960
  0.6705724235051633  0.8432580476657918  0.9215528988165715
  0.3245770259742073  0.1557121012156060  0.4171616354680268
  0.3245081802822725  0.1556574920393743  0.9177840249307891
  0.3266221378761998  0.6564784966223556  0.4178437845362097
  0.3253894785484874  0.6513648407514552  0.9222943549358860
  0.8243798768897221  0.1531203612007204  0.4171674537779495
  0.8251491278604703  0.1537871797204176  0.9190202418223095
  0.8281822990646290  0.6570224722615308  0.4110134005889350
  0.8274253512364993  0.6547287953700547  0.9234719888155354
  0.0962890611557015  0.4239088056767599  0.1679849518632608
  0.1018612469647735  0.4220936937598552  0.6710847190065223
  0.0938770460019924  0.9265813008681434  0.1666075158448734
  0.0903383848292236  0.9247938531375226  0.6693339849400175
  0.5943575312318288  0.4236247153702095  0.1674971383542996
  0.5963622520421339  0.4258531173335101  0.6692560599483386
  0.5944549153317240  0.9250368676935210  0.1687538819666372
  0.5885027873521125  0.9295600323939723  0.6596717141018829
  0.4048233263646210  0.0750510703272269  0.1668240992011008
  0.3993772278317849  0.0779749574804640  0.6707770968828228
  0.4045109821182749  0.5740848320903069  0.1689659078916250
  0.4110072361559318  0.5804250481003876  0.6727485879071367
  0.9043482814870103  0.0772278736257945  0.1681149969940421
  0.9011069362222770  0.0753534509537417  0.6704557316135649
  0.9072398341818939  0.5742799127971807  0.1670759927285914
  0.9129839820551737  0.5718933107040840  0.6597728103139673
  0.0750345668603885  0.0954881182861840  0.3321197205737008
  0.0773121414422420  0.1012089775426830  0.8286015057293170
  0.0770870861667277  0.5946552428973320  0.3315516140536943
  0.0736915400008229  0.5946731413174930  0.8320115378695405
  0.5736211198256953  0.0953901636806691  0.3322660672657776
  0.5772712111420191  0.0936586934114203  0.8289413065634292
  0.5752274203397931  0.5935185583226001  0.3320510741961300
  0.5750413248434825  0.5831296362296001  0.8447611989275359
  0.4252560328676935  0.4038770114365704  0.3327220490315881
  0.4214446287867020  0.3993406380751026  0.8284266667574798
  0.4234397828783827  0.9054778121842091  0.3318589212870791
  0.4262868433506029  0.9052505659022785  0.8319823680409755
  0.9259225129914768  0.4051817926603505  0.3320815883809445
  0.9226364040264414  0.4057595634358933  0.8278358403937247
  0.9245092148916925  0.9061666788322214  0.3310701339994964
  0.9278233550225750  0.9119460194151969  0.8401580952038685
 
             NaN             NaN             NaN
             NaN             NaN             NaN
             NaN             NaN             NaN
             NaN             NaN             NaN
             NaN             NaN             NaN
             NaN             NaN             NaN
             NaN             NaN             NaN
             NaN             NaN             NaN
             NaN             NaN             NaN
             NaN             NaN             NaN
             NaN             NaN             NaN
             NaN             NaN             NaN
             NaN             NaN             NaN
             NaN             NaN             NaN
             NaN             NaN             NaN
             NaN             NaN             NaN
             NaN             NaN             NaN
             NaN             NaN             NaN
             NaN             NaN             NaN
             NaN             NaN             NaN
             NaN             NaN             NaN
             NaN             NaN             NaN
             NaN             NaN             NaN
             NaN             NaN             NaN
             NaN             NaN             NaN
             NaN             NaN             NaN
             NaN             NaN             NaN
             NaN             NaN             NaN
             NaN             NaN             NaN
             NaN             NaN             NaN
             NaN             NaN             NaN
             NaN             NaN             NaN
             NaN             NaN             NaN
             NaN             NaN             NaN
             NaN             NaN             NaN
             NaN             NaN             NaN
             NaN             NaN             NaN
             NaN             NaN             NaN
             NaN             NaN             NaN
             NaN             NaN             NaN
             NaN             NaN             NaN
             NaN             NaN             NaN
             NaN             NaN             NaN
             NaN             NaN             NaN
             NaN             NaN             NaN
             NaN             NaN             NaN
             NaN             NaN             NaN
             NaN             NaN             NaN
             NaN             NaN             NaN
             NaN             NaN             NaN
             NaN             NaN             NaN
             NaN             NaN             NaN
             NaN             NaN             NaN
             NaN             NaN             NaN
             NaN             NaN             NaN
             NaN             NaN             NaN
             NaN             NaN             NaN
             NaN             NaN             NaN
             NaN             NaN             NaN
             NaN             NaN             NaN
             NaN             NaN             NaN
             NaN             NaN             NaN
             NaN             NaN             NaN
             NaN             NaN             NaN
             NaN             NaN             NaN
             NaN             NaN             NaN
             NaN             NaN             NaN
             NaN             NaN             NaN
             NaN             NaN             NaN
             NaN             NaN             NaN
             NaN             NaN             NaN
             NaN             NaN             NaN
             NaN             NaN             NaN
             NaN             NaN             NaN
             NaN             NaN             NaN
             NaN             NaN             NaN
             NaN             NaN             NaN
             NaN             NaN             NaN
             NaN             NaN             NaN
             NaN             NaN             NaN
             NaN             NaN             NaN
             NaN             NaN             NaN
             NaN             NaN             NaN
             NaN             NaN             NaN
             NaN             NaN             NaN
             NaN             NaN             NaN
             NaN             NaN             NaN
             NaN             NaN             NaN
             NaN             NaN             NaN
             NaN             NaN             NaN
             NaN             NaN             NaN
             NaN             NaN             NaN
             NaN             NaN             NaN
             NaN             NaN             NaN
             NaN             NaN             NaN
             NaN             NaN             NaN
             NaN             NaN             NaN
             NaN             NaN             NaN
             NaN             NaN             NaN
             NaN             NaN             NaN
             NaN             NaN             NaN
             NaN             NaN             NaN
             NaN             NaN             NaN
             NaN             NaN             NaN
             NaN             NaN             NaN
             NaN             NaN             NaN
             NaN             NaN             NaN
             NaN             NaN             NaN
             NaN             NaN             NaN
             NaN             NaN             NaN
             NaN             NaN             NaN
             NaN             NaN             NaN
             NaN             NaN             NaN
             NaN             NaN             NaN
             NaN             NaN             NaN
             NaN             NaN             NaN
             NaN             NaN             NaN
             NaN             NaN             NaN
             NaN             NaN             NaN
             NaN             NaN             NaN
             NaN             NaN             NaN
             NaN             NaN             NaN
             NaN             NaN             NaN
             NaN             NaN             NaN
             NaN             NaN             NaN
             NaN             NaN             NaN
             NaN             NaN             NaN
