Li47 P16 O64                            
   1.00000000000000     
    10.4153350000000007    0.0003400000000000   -0.0066670000000000
     0.0003910000000000   12.1852210000000003   -0.0017920000000000
    -0.0063080000000000   -0.0014380000000000    9.7934310000000000
   Li   P    O 
    47    16    64
Direct
  0.5436675968573522  0.2773511290743473  0.0666287951322909
  0.6657308285148598  0.2492949255275713  0.5998089562969576
  0.6648107659897214  0.7509497711030649  0.0973494786787446
  0.6649691902010321  0.7512412990572049  0.5987304754230577
  0.1639738821772292  0.4977420472344315  0.1524668483230741
  0.1645717119721311  0.4990075639333732  0.6525659770534086
  0.1640755406136438  0.9950646205420721  0.1546589285489897
  0.1642283861388071  0.9986147969405336  0.6525579088373545
  0.3355663218044965  0.9993487167851012  0.4032883085641111
  0.3358651127786913  0.0007534015532283  0.9026470122936043
  0.3365729906388512  0.5008940988030113  0.4001875374766205
  0.3373450187156160  0.4973314450169474  0.9087675293861750
  0.8344691212580029  0.2495841062510392  0.3464008008420177
  0.8325857120924218  0.2502889972128218  0.8547011404339445
  0.8363333573185014  0.7488357032893210  0.3483553819556408
  0.8365734136351735  0.7488761759812700  0.8477025742963308
  0.3371418865742023  0.2493091213326686  0.3990118656297388
  0.3338632921930301  0.2518880268535084  0.9039934204512033
  0.3361006814723768  0.7499203649583738  0.4021452533523918
  0.3365458174508253  0.7500217111289441  0.9027795096791188
  0.8367264868615928  0.0017591926558576  0.3497638805159449
  0.8373176975745218  0.0009582284617744  0.8469536710934584
  0.8355294113419082  0.5020668092978512  0.3474679043344114
  0.8359804747396286  0.5019354274791273  0.8484244032701642
  0.6606178125912043  0.4979364149375333  0.0954067749431442
  0.6662473556125365  0.5021225443982946  0.5997304763393476
  0.6666866144276878  0.0012213214736478  0.0995083653900338
  0.6648059842910672  0.9991412980798066  0.5974220262617771
  0.1697405295065232  0.2534726271192511  0.1498744016089678
  0.1640365747943544  0.2507912832694872  0.6524428118691367
  0.1635688616596273  0.7512190366720911  0.1522646750683686
  0.1646444503296942  0.7512853324161692  0.6531017301414993
  0.9205984477356858  0.3768937873707065  0.1463373286474959
  0.9226988344303055  0.3744957100452029  0.6505096867564062
  0.9224948278408305  0.8749014756564583  0.1499180833432802
  0.9234132740207566  0.8749855144100510  0.6484287761214360
  0.4219656111339307  0.3755722456675823  0.6062319184759319
  0.4280254255883605  0.8761431175217279  0.1000827760436314
  0.4246786729842463  0.8749810937788487  0.6016627212273709
  0.0775192157576903  0.1252439931910731  0.3519075081219303
  0.0772573273012410  0.1253865514758926  0.8512278437669890
  0.0771665046856202  0.6248499881521989  0.3511939054224247
  0.0780195594877758  0.6245827383303567  0.8523350612949874
  0.5765864682992653  0.1251575272775391  0.3963790760597493
  0.5804550038171161  0.1219666437371702  0.8978658443844785
  0.5768197029995364  0.6258903438941933  0.4011248894914021
  0.5749593585839693  0.6251190356986626  0.8974205481874027
  0.9150688681237806  0.1249253335595863  0.0958026189465367
  0.9125442803677276  0.1252244145785326  0.5958976288597708
  0.9114281471853718  0.6256165342379587  0.0954591827185396
  0.9133896286255697  0.6253303462196061  0.5955241593781123
  0.4086514991035647  0.1179762832224485  0.1544828467187331
  0.4120333660959856  0.1247435515176361  0.6550292358984479
  0.4113449015045048  0.6291129805862522  0.1546775317836691
  0.4111592442854936  0.6256584173350923  0.6552788720033675
  0.0878090756349138  0.3752398903309744  0.4046758263807593
  0.0868172955094667  0.3752661487214791  0.9049707942101777
  0.0876600051268857  0.8746787522758582  0.4054438762200686
  0.0877316972951361  0.8749567739071448  0.9050179880319856
  0.5894942879600287  0.3768540626636070  0.3505192948678795
  0.5876510940911953  0.3763797529916809  0.8382601214789954
  0.5894099932296275  0.8750417316577966  0.3456169054960973
  0.5898469558563927  0.8746461486075860  0.8450770590440599
  0.8443758636324414  0.0227254681393765  0.1492249606782212
  0.8424343284868889  0.0213829337211941  0.6463155986771451
  0.8395177458774464  0.5230221776051184  0.1465491119303835
  0.8435800930048799  0.5222568838895035  0.6480132383700637
  0.3422990714299524  0.2206090279583721  0.0982684598925193
  0.3417759801064194  0.2277815340078906  0.6020783060693653
  0.3442188045193647  0.7356544496622971  0.1071774903398370
  0.3416551632587501  0.7292954149261422  0.6031048425742931
  0.1576019667308354  0.2718718071575925  0.3522171464319604
  0.1564010476508053  0.2717469405704231  0.8528083623662482
  0.1580419508859055  0.7717138983467023  0.3530778743333838
  0.1587157141725345  0.7716831066494100  0.8543239968986460
  0.6595720996745597  0.4798357628883047  0.4031958729218461
  0.6570026928988479  0.4793020090914987  0.8928658658996504
  0.6592894242554677  0.9785621735256262  0.3974648478788611
  0.6614307812266327  0.9769867206217386  0.8975453878661768
  0.1584178361410915  0.4783361670045289  0.3535510435372201
  0.1575558622171942  0.4780034228071157  0.8526937312210503
  0.1575659356615543  0.9782225362249577  0.3543323034773728
  0.1581846838173326  0.9781826165371118  0.8536715282419183
  0.6585035277871558  0.2726075027385900  0.4010246461409739
  0.6530591016160641  0.2722928011214953  0.8942556974291979
  0.6594104748727996  0.7717529979868507  0.3980440801327628
  0.6588072683739412  0.7705823750840459  0.8962588178658879
  0.8529231857559273  0.2298380793346661  0.1505332703413289
  0.8423565797656227  0.2276425242054892  0.6499903456866555
  0.8416963281369868  0.7292594207213728  0.1470239968582473
  0.8427095110496199  0.7285578011178412  0.6468887603253657
  0.3388640599901330  0.0136870219786403  0.1060867310605945
  0.3419594576815581  0.0211132235010389  0.6037191892651004
  0.3327725382451020  0.5334598692490741  0.0989103247394648
  0.3416089006941503  0.5226835285016087  0.6015753042546690
  0.5472603159159319  0.1194541028096395  0.1010134119398186
  0.5512645846121593  0.1246569801481405  0.6028402439232489
  0.5496901699979989  0.6263372020587996  0.1008585589737234
  0.5509815034163488  0.6262596493330079  0.6049218993209368
  0.0556763792336119  0.1233935336799303  0.1453136211288569
  0.0520170445214065  0.1245393895107637  0.6472976427656607
  0.0503304689130322  0.6248525448358769  0.1484172592792027
  0.0526254170655551  0.6256468934959800  0.6473808637195103
  0.4502949593038007  0.3756569949874757  0.4019942520934908
  0.4476521638807492  0.3745748826677499  0.8847660572335151
  0.4502086843626994  0.8748463894688934  0.3973430063191998
  0.4506066501724229  0.8755795372280918  0.8965956511594863
  0.9484082253613262  0.3758053415817286  0.3528671129290227
  0.9472073990512464  0.3755521665838930  0.8537310120827487
  0.9483483592668753  0.8749162101189846  0.3536959652226772
  0.9489737338558053  0.8748746324088978  0.8516724641475550
  0.5917981185377539  0.3787837985692198  0.1945976817434932
  0.5936519168455441  0.3763372227708007  0.6812616521507814
  0.5918009265058563  0.8750623697458354  0.1882507311419168
  0.5907178862809126  0.8753372989217750  0.6876758770486338
  0.0877676805714366  0.3753175783663681  0.0621718827495711
  0.0887504945690390  0.3746253884048491  0.5621023590167376
  0.0869481299458341  0.8746034445448513  0.0623668508302479
  0.0890807680214389  0.8744665333066945  0.5627970760845071
  0.4089785221851657  0.1217850144958483  0.3120629248296012
  0.4112464909043605  0.1253139790943493  0.8123965983945939
  0.4124313368198413  0.6260137511827539  0.3121005800504951
  0.4086610222832165  0.6249402836232253  0.8125644752780977
  0.9111547869425878  0.1265128373531864  0.4384112918389951
  0.9113801176281813  0.1246115058394479  0.9386338687065179
  0.9119424660781498  0.6250306069081379  0.4380684749390125
  0.9115064691858757  0.6256710757098523  0.9380195496936408
 
             NaN             NaN             NaN
             NaN             NaN             NaN
             NaN             NaN             NaN
             NaN             NaN             NaN
             NaN             NaN             NaN
             NaN             NaN             NaN
             NaN             NaN             NaN
             NaN             NaN             NaN
             NaN             NaN             NaN
             NaN             NaN             NaN
             NaN             NaN             NaN
             NaN             NaN             NaN
             NaN             NaN             NaN
             NaN             NaN             NaN
             NaN             NaN             NaN
             NaN             NaN             NaN
             NaN             NaN             NaN
             NaN             NaN             NaN
             NaN             NaN             NaN
             NaN             NaN             NaN
             NaN             NaN             NaN
             NaN             NaN             NaN
             NaN             NaN             NaN
             NaN             NaN             NaN
             NaN             NaN             NaN
             NaN             NaN             NaN
             NaN             NaN             NaN
             NaN             NaN             NaN
             NaN             NaN             NaN
             NaN             NaN             NaN
             NaN             NaN             NaN
             NaN             NaN             NaN
             NaN             NaN             NaN
             NaN             NaN             NaN
             NaN             NaN             NaN
             NaN             NaN             NaN
             NaN             NaN             NaN
             NaN             NaN             NaN
             NaN             NaN             NaN
             NaN             NaN             NaN
             NaN             NaN             NaN
             NaN             NaN             NaN
             NaN             NaN             NaN
             NaN             NaN             NaN
             NaN             NaN             NaN
             NaN             NaN             NaN
             NaN             NaN             NaN
             NaN             NaN             NaN
             NaN             NaN             NaN
             NaN             NaN             NaN
             NaN             NaN             NaN
             NaN             NaN             NaN
             NaN             NaN             NaN
             NaN             NaN             NaN
             NaN             NaN             NaN
             NaN             NaN             NaN
             NaN             NaN             NaN
             NaN             NaN             NaN
             NaN             NaN             NaN
             NaN             NaN             NaN
             NaN             NaN             NaN
             NaN             NaN             NaN
             NaN             NaN             NaN
             NaN             NaN             NaN
             NaN             NaN             NaN
             NaN             NaN             NaN
             NaN             NaN             NaN
             NaN             NaN             NaN
             NaN             NaN             NaN
             NaN             NaN             NaN
             NaN             NaN             NaN
             NaN             NaN             NaN
             NaN             NaN             NaN
             NaN             NaN             NaN
             NaN             NaN             NaN
             NaN             NaN             NaN
             NaN             NaN             NaN
             NaN             NaN             NaN
             NaN             NaN             NaN
             NaN             NaN             NaN
             NaN             NaN             NaN
             NaN             NaN             NaN
             NaN             NaN             NaN
             NaN             NaN             NaN
             NaN             NaN             NaN
             NaN             NaN             NaN
             NaN             NaN             NaN
             NaN             NaN             NaN
             NaN             NaN             NaN
             NaN             NaN             NaN
             NaN             NaN             NaN
             NaN             NaN             NaN
             NaN             NaN             NaN
             NaN             NaN             NaN
             NaN             NaN             NaN
             NaN             NaN             NaN
             NaN             NaN             NaN
             NaN             NaN             NaN
             NaN             NaN             NaN
             NaN             NaN             NaN
             NaN             NaN             NaN
             NaN             NaN             NaN
             NaN             NaN             NaN
             NaN             NaN             NaN
             NaN             NaN             NaN
             NaN             NaN             NaN
             NaN             NaN             NaN
             NaN             NaN             NaN
             NaN             NaN             NaN
             NaN             NaN             NaN
             NaN             NaN             NaN
             NaN             NaN             NaN
             NaN             NaN             NaN
             NaN             NaN             NaN
             NaN             NaN             NaN
             NaN             NaN             NaN
             NaN             NaN             NaN
             NaN             NaN             NaN
             NaN             NaN             NaN
             NaN             NaN             NaN
             NaN             NaN             NaN
             NaN             NaN             NaN
             NaN             NaN             NaN
             NaN             NaN             NaN
             NaN             NaN             NaN
             NaN             NaN             NaN
             NaN             NaN             NaN
