Li47 P16 O64                            
   1.00000000000000     
    10.4153350000000007    0.0003400000000000   -0.0066670000000000
     0.0003910000000000   12.1852210000000003   -0.0017920000000000
    -0.0063080000000000   -0.0014380000000000    9.7934310000000000
   Li   P    O 
    47    16    64
Direct
  0.5330099230530432  0.2822983022473718  0.0669312535759141
  0.6653986463112369  0.2497114525690995  0.6006302360204115
  0.6646685450470639  0.7512684331289510  0.0973770910847444
  0.6649041213268752  0.7517145041044913  0.5987257925108611
  0.1640742259931147  0.4976182282400062  0.1522214108901484
  0.1645182850919032  0.4991583421896463  0.6526050735376375
  0.1641462616216896  0.9949896339323946  0.1547056397076852
  0.1642456668209943  0.9984392428273903  0.6524651913991860
  0.3355630332964028  0.9993070909048318  0.4034517196241795
  0.3360764477639093  0.0005312916638050  0.9025324191589966
  0.3362934695539280  0.5009543877427187  0.4000548572633547
  0.3378774430108917  0.4968471088372888  0.9086101834278343
  0.8341834590850659  0.2495911522164946  0.3465878398744838
  0.8333288639562459  0.2502457671415506  0.8537101293136792
  0.8363326319161659  0.7489114441502788  0.3482680937633447
  0.8365356158305212  0.7489880360700177  0.8477131430893404
  0.3367307490997991  0.2494175953625011  0.3994368477574610
  0.3330360836166662  0.2510808826110885  0.9031673151225543
  0.3360816615059635  0.7498859928506906  0.4021770583632743
  0.3364834248927310  0.7497661665078644  0.9025059501274320
  0.8364793297120297  0.0016461038126122  0.3495001555788568
  0.8368232559673521  0.0010923744720721  0.8471183317075550
  0.8352186729253495  0.5021387635075952  0.3476925763939167
  0.8358563288289811  0.5018109760892429  0.8484101621189118
  0.6609210044241975  0.4981570618756438  0.0951775889978077
  0.6657371475867275  0.5026381699993304  0.6001135945263945
  0.6655232823966597  0.0022843145742910  0.0997469824093559
  0.6645962932713343  0.9997112798229538  0.5974159641459472
  0.1684373292401986  0.2532309496680363  0.1502462089362352
  0.1636492893641477  0.2507612360816946  0.6522577583515794
  0.1635342318651150  0.7510602441940265  0.1521888236135646
  0.1643600899357735  0.7512527397649107  0.6531464152562766
  0.9204459141020214  0.3770485188217966  0.1463710230258917
  0.9227498148392173  0.3748118344997798  0.6501476198352046
  0.9223057256936602  0.8749913470501545  0.1496678410512588
  0.9232862163301572  0.8751169505978974  0.6485460886013361
  0.4212645213215837  0.3757859312312067  0.6055129103099511
  0.4277495055588958  0.8756489028370744  0.1000026866981312
  0.4247605490492646  0.8751066113506510  0.6018813631782010
  0.0774545265667815  0.1249331354651655  0.3521384805370605
  0.0771755999811764  0.1251472037601307  0.8509935007551812
  0.0769622775617416  0.6247633780697699  0.3510242258295065
  0.0778361248255531  0.6244193891661505  0.8524960208298504
  0.5762610972300384  0.1257820332233697  0.3962387697181302
  0.5803218162691347  0.1233844688015673  0.8994154043142865
  0.5766485981415849  0.6263655992122417  0.4010551546928575
  0.5751372937157417  0.6253425078953945  0.8973769716256719
  0.9147042153118484  0.1248323082314820  0.0957352050400745
  0.9125475101725833  0.1252096314024949  0.5956728318772750
  0.9113324994398452  0.6256114319391770  0.0954440953234622
  0.9131804795181164  0.6253952610716021  0.5955930451212099
  0.4080099600451757  0.1182521063662975  0.1546295771104283
  0.4118879525933911  0.1248278776347005  0.6550446211158627
  0.4114942361285295  0.6287604083443910  0.1545641160363061
  0.4110418053665753  0.6258484156175321  0.6552697147989313
  0.0876138801347062  0.3752818067531845  0.4047037771675703
  0.0869000223071879  0.3752583581598390  0.9048031268640430
  0.0876737047853078  0.8745316782931173  0.4053736846287192
  0.0877348230901415  0.8748846053621382  0.9049882253029827
  0.5891542621621743  0.3774571358549260  0.3507711638323014
  0.5878760364891007  0.3761014602257551  0.8383051673995170
  0.5892716372013461  0.8753703481790864  0.3456201440490971
  0.5896984868903925  0.8750625521008613  0.8451593761333138
  0.8435574206319636  0.0227912085432957  0.1488792863138361
  0.8422564655891611  0.0215918686067987  0.6465259007953933
  0.8395011352756350  0.5230437656774057  0.1467060576623069
  0.8432271663514304  0.5223775577470886  0.6480551204198319
  0.3407056446310552  0.2206431415381347  0.0985012963620198
  0.3413094486686675  0.2278567752599831  0.6025109376479342
  0.3438368861982239  0.7350034764662231  0.1067801822513078
  0.3413921060603530  0.7295565717070799  0.6035483063846231
  0.1571786706744183  0.2717392626752830  0.3524389027996243
  0.1561608372855456  0.2716012025273922  0.8525389494892607
  0.1580225499551019  0.7715368283874224  0.3530949262334875
  0.1584949061205464  0.7715601379182008  0.8542295024420772
  0.6592460688816913  0.4803397604533590  0.4036872485973723
  0.6570132015373717  0.4791414036122992  0.8928798160505084
  0.6589801986390235  0.9790192449466665  0.3973673125276817
  0.6606509491679119  0.9776615803592036  0.8979031783678990
  0.1582358571346751  0.4782668240648872  0.3532926438330142
  0.1580506587364903  0.4778602090255574  0.8527146898736023
  0.1577523232153865  0.9780246811491436  0.3543703260558370
  0.1582995802342118  0.9780493781055429  0.8536050285095520
  0.6583834267594701  0.2731851571081058  0.4009696745337875
  0.6542542419587679  0.2720146607029953  0.8922356307853619
  0.6595726471299582  0.7721972745029213  0.3979155885580271
  0.6590040757250814  0.7711304750998382  0.8962941406568177
  0.8530018020463928  0.2299323772121605  0.1505469650606551
  0.8426693242792281  0.2279236520857935  0.6493047876299468
  0.8416692959207924  0.7292846220382619  0.1470270001625341
  0.8426017900158334  0.7287003519610400  0.6469201231942854
  0.3390582245350324  0.0136697640989496  0.1059978303279373
  0.3419010426329119  0.0211629237590742  0.6037241153526669
  0.3335732869601893  0.5325022437972018  0.0991982218448345
  0.3413630032422978  0.5229899028654427  0.6013982270836676
  0.5465060368256420  0.1214393956476642  0.1011967134876971
  0.5509449880744647  0.1250808208497066  0.6024200524678071
  0.5498416051686623  0.6265302125703471  0.1007247570919361
  0.5507574232606175  0.6268434735520142  0.6046875865153581
  0.0551487610550351  0.1230267180896736  0.1457108868881218
  0.0520350903135062  0.1243732338839913  0.6470354330865065
  0.0503101136724982  0.6247985486352496  0.1481657756984312
  0.0523576102598299  0.6255768851695312  0.6476178315860417
  0.4499700544453563  0.3757984669439438  0.4023507212882587
  0.4485214105848377  0.3732476788457057  0.8875980001810234
  0.4501594106211281  0.8748575649150236  0.3975645088638934
  0.4503935506884250  0.8753452052337034  0.8964410592317278
  0.9481714282587989  0.3758409162141160  0.3530328609797360
  0.9474315531578859  0.3758046512403755  0.8532324196669698
  0.9484217328808199  0.8749600446290786  0.3533486187111823
  0.9488952676539015  0.8750098094363477  0.8517586541999272
  0.5912908799927442  0.3798083354708904  0.1948613738315963
  0.5918196060178309  0.3771213289696907  0.6812507480449171
  0.5914401840066678  0.8754937949213798  0.1882339153901153
  0.5908223887359891  0.8758660388432332  0.6877448970071210
  0.0875590671087361  0.3752151573473925  0.0620059403443803
  0.0887856904842188  0.3748591347703387  0.5621197327379382
  0.0870020493974794  0.8745794966807529  0.0623460110963310
  0.0888605186927241  0.8743365476708891  0.5627216615183286
  0.4081910516278711  0.1219515560882241  0.3121885336025708
  0.4113197044481742  0.1251656408193121  0.8124163062049065
  0.4124542528093625  0.6260162945579276  0.3120181272939975
  0.4088706865644079  0.6246101418456470  0.8125583908333501
  0.9110803781011018  0.1261676087579673  0.4381964297127495
  0.9114129602983797  0.1246489834852540  0.9385798031269209
  0.9118800354116767  0.6250953144462509  0.4381418818487777
  0.9112204606404382  0.6255866772997243  0.9380038224494003
 
             NaN             NaN             NaN
             NaN             NaN             NaN
             NaN             NaN             NaN
             NaN             NaN             NaN
             NaN             NaN             NaN
             NaN             NaN             NaN
             NaN             NaN             NaN
             NaN             NaN             NaN
             NaN             NaN             NaN
             NaN             NaN             NaN
             NaN             NaN             NaN
             NaN             NaN             NaN
             NaN             NaN             NaN
             NaN             NaN             NaN
             NaN             NaN             NaN
             NaN             NaN             NaN
             NaN             NaN             NaN
             NaN             NaN             NaN
             NaN             NaN             NaN
             NaN             NaN             NaN
             NaN             NaN             NaN
             NaN             NaN             NaN
             NaN             NaN             NaN
             NaN             NaN             NaN
             NaN             NaN             NaN
             NaN             NaN             NaN
             NaN             NaN             NaN
             NaN             NaN             NaN
             NaN             NaN             NaN
             NaN             NaN             NaN
             NaN             NaN             NaN
             NaN             NaN             NaN
             NaN             NaN             NaN
             NaN             NaN             NaN
             NaN             NaN             NaN
             NaN             NaN             NaN
             NaN             NaN             NaN
             NaN             NaN             NaN
             NaN             NaN             NaN
             NaN             NaN             NaN
             NaN             NaN             NaN
             NaN             NaN             NaN
             NaN             NaN             NaN
             NaN             NaN             NaN
             NaN             NaN             NaN
             NaN             NaN             NaN
             NaN             NaN             NaN
             NaN             NaN             NaN
             NaN             NaN             NaN
             NaN             NaN             NaN
             NaN             NaN             NaN
             NaN             NaN             NaN
             NaN             NaN             NaN
             NaN             NaN             NaN
             NaN             NaN             NaN
             NaN             NaN             NaN
             NaN             NaN             NaN
             NaN             NaN             NaN
             NaN             NaN             NaN
             NaN             NaN             NaN
             NaN             NaN             NaN
             NaN             NaN             NaN
             NaN             NaN             NaN
             NaN             NaN             NaN
             NaN             NaN             NaN
             NaN             NaN             NaN
             NaN             NaN             NaN
             NaN             NaN             NaN
             NaN             NaN             NaN
             NaN             NaN             NaN
             NaN             NaN             NaN
             NaN             NaN             NaN
             NaN             NaN             NaN
             NaN             NaN             NaN
             NaN             NaN             NaN
             NaN             NaN             NaN
             NaN             NaN             NaN
             NaN             NaN             NaN
             NaN             NaN             NaN
             NaN             NaN             NaN
             NaN             NaN             NaN
             NaN             NaN             NaN
             NaN             NaN             NaN
             NaN             NaN             NaN
             NaN             NaN             NaN
             NaN             NaN             NaN
             NaN             NaN             NaN
             NaN             NaN             NaN
             NaN             NaN             NaN
             NaN             NaN             NaN
             NaN             NaN             NaN
             NaN             NaN             NaN
             NaN             NaN             NaN
             NaN             NaN             NaN
             NaN             NaN             NaN
             NaN             NaN             NaN
             NaN             NaN             NaN
             NaN             NaN             NaN
             NaN             NaN             NaN
             NaN             NaN             NaN
             NaN             NaN             NaN
             NaN             NaN             NaN
             NaN             NaN             NaN
             NaN             NaN             NaN
             NaN             NaN             NaN
             NaN             NaN             NaN
             NaN             NaN             NaN
             NaN             NaN             NaN
             NaN             NaN             NaN
             NaN             NaN             NaN
             NaN             NaN             NaN
             NaN             NaN             NaN
             NaN             NaN             NaN
             NaN             NaN             NaN
             NaN             NaN             NaN
             NaN             NaN             NaN
             NaN             NaN             NaN
             NaN             NaN             NaN
             NaN             NaN             NaN
             NaN             NaN             NaN
             NaN             NaN             NaN
             NaN             NaN             NaN
             NaN             NaN             NaN
             NaN             NaN             NaN
             NaN             NaN             NaN
             NaN             NaN             NaN
             NaN             NaN             NaN
