Mg1 Ti16 S32                            
   1.00000000000000     
     9.8251869999999997   -0.0006170000000000    0.0002890000000000
    -0.0001030000000000    9.8251000000000008   -0.0002580000000000
     0.0002070000000000   -0.0002490000000000    9.8252950000000006
   Mg   Ti   S 
     1    16    32
Direct
  0.3476794881756203  0.4023351455863859  0.8451033699231744
  0.2497705458506784  0.7606179453337315  0.0080470105263923
  0.5015583826483747  0.9975780560171555 -0.0009036932715947
  0.7524176293152850  0.2483344434397697 -0.0007715362285954
  0.9893362021090212  0.5001925609393773  0.0080074272223076
  0.5018639062352178  0.2481088401822018  0.2514600917677527
  0.2466110475665303  0.5033535258185747  0.2680658657890034
  0.2483121915111568  0.2400989097479392  0.4869586418490055
  0.5099043419851260  0.5016442632595142  0.4869091952363723
  0.5097078232073720  0.7618980274058592  0.7465903010551792
  0.7698000057909959  0.5042450317207620  0.7438332228935592
  0.7521317759088488  0.7528445137985438  0.4944906403561876
  0.2457242111806200  0.9802021473787704  0.7438135679451402
  0.7509166521782162  0.9990358497263834  0.2473175643799182
  0.9881017452029781  0.2402769128802286  0.7465922961858504
  0.9974915012559128  0.7524989939148320  0.2492041202903907
  0.9971465168284087  0.9978162193612395  0.4944454802617061
  0.7458819486776187  0.0041120448713835 -0.0014614726365019
  0.0032674644178202  0.7467573218721730  0.0028791931303531
 -0.0002148416473842 -0.0039211089205446  0.7433680455582085
  0.7539281744809899  0.7502331928405088  0.7433673018332532
  0.2514935193906554  0.9991959416500080  0.9924570125752464
  0.9952121567065702  0.2517531372065324  0.9952691404573996
  0.9960426653729010  0.9981781369048864  0.2486646098767435
  0.2517839298257175  0.2550895344409953  0.2487865592908044
  0.7537806001965388  0.5039420799938937  0.4977842326612499
  0.0023865591374207  0.2444953084741532  0.5001397193839978
  0.0003690878596015  0.5035670195060740  0.2516053937343615
  0.7462845253485096  0.2481077325015906  0.2435679415533389
  0.2583573584727238  0.4916731319914074  0.5053851536413283
  0.9974557447058385  0.7525610319134376  0.4946054758501213
  1.0071537889989544  0.4913991742164025  0.7561524091473542
  0.2586180522328215  0.7428499446227351  0.7561318990430986
  0.2460846238092014 -0.0037475850605657  0.4977769913548793
  0.5055239785388315  0.7476466077205856  0.5001419049611838
  0.5018870321266772  0.0037293768955601  0.2435480835435465
  0.2464353138980512  0.7496230569365928  0.2515953625511405
  0.7516602566204017  0.9983744468427855  0.4927533679350523
  0.4977654084577106  0.2522594173797784  0.4936133313444756
  0.4943883805665236  0.9999580140229405  0.7490688775326659
  0.7500697598421205  0.2556165663070892  0.7490877305900142
  0.2388749746985981  0.5111248418382209  0.0201979489982243
  0.5008016856687946  0.2492299032496921 -0.0008943911159113
  0.5221584067686621  0.5120807014434307  0.7365125106659550
  0.2379307037653853  0.2278573852670756  0.7365150596340411
  0.7508295354487173  0.4984995814786626  0.9924656744196306
  0.4982601345610164  0.7548203673841860  0.9952649843079524
  0.4949002244284776  0.4982211533782452  0.2487868083654359
  0.7518233198836249  0.7539573581529743  0.2486610737700951
 
             NaN             NaN             NaN
             NaN             NaN             NaN
             NaN             NaN             NaN
             NaN             NaN             NaN
             NaN             NaN             NaN
             NaN             NaN             NaN
             NaN             NaN             NaN
             NaN             NaN             NaN
             NaN             NaN             NaN
             NaN             NaN             NaN
             NaN             NaN             NaN
             NaN             NaN             NaN
             NaN             NaN             NaN
             NaN             NaN             NaN
             NaN             NaN             NaN
             NaN             NaN             NaN
             NaN             NaN             NaN
             NaN             NaN             NaN
             NaN             NaN             NaN
             NaN             NaN             NaN
             NaN             NaN             NaN
             NaN             NaN             NaN
             NaN             NaN             NaN
             NaN             NaN             NaN
             NaN             NaN             NaN
             NaN             NaN             NaN
             NaN             NaN             NaN
             NaN             NaN             NaN
             NaN             NaN             NaN
             NaN             NaN             NaN
             NaN             NaN             NaN
             NaN             NaN             NaN
             NaN             NaN             NaN
             NaN             NaN             NaN
             NaN             NaN             NaN
             NaN             NaN             NaN
             NaN             NaN             NaN
             NaN             NaN             NaN
             NaN             NaN             NaN
             NaN             NaN             NaN
             NaN             NaN             NaN
             NaN             NaN             NaN
             NaN             NaN             NaN
             NaN             NaN             NaN
             NaN             NaN             NaN
             NaN             NaN             NaN
             NaN             NaN             NaN
             NaN             NaN             NaN
             NaN             NaN             NaN
