Mg1 Ti16 S32
1.0
9.825187 -0.000617 0.000289
-0.000103 9.825100 -0.000258
0.000207 -0.000249 9.825295
Mg Ti S
1 16 32
direct
0.343746 0.406258 0.749832 Mg
0.249003 0.755582 0.006809 Ti
0.501551 -0.003172 0.005238 Ti
0.753148 0.248423 0.005260 Ti
0.994398 0.500964 0.006786 Ti
0.501643 0.248352 0.249897 Ti
0.248988 0.501003 0.249923 Ti
0.246465 0.244152 0.490842 Ti
0.505800 0.503481 0.490829 Ti
0.505709 0.755759 0.750067 Ti
0.753422 0.503405 0.750038 Ti
0.751237 0.751930 0.497533 Ti
0.246594 -0.003426 0.750042 Ti
0.750990 -0.000997 0.250130 Ti
0.994235 0.244289 0.750069 Ti
0.998266 0.751719 0.250212 Ti
0.998020 0.998712 0.497526 Ti
0.747473 0.002541 0.003555 S
0.002666 0.747351 0.003887 S
0.001760 1.001037 0.747575 S
0.748971 0.748248 0.747561 S
0.252680 -0.001545 0.997116 S
0.997281 0.252820 0.997132 S
0.997301 0.997567 0.252310 S
0.252690 0.252794 0.249900 S
0.749029 0.503374 0.502978 S
0.001773 0.246248 0.502997 S
0.002674 0.502716 0.249300 S
0.747498 0.247272 0.248764 S
0.254251 0.495756 0.495510 S
0.997201 0.752807 0.497022 S
0.997200 0.495774 0.754119 S
0.254231 0.752806 0.754112 S
0.246634 1.000978 0.502977 S
0.503766 0.748241 0.502999 S
0.502738 0.002511 0.248772 S
0.247283 0.747338 0.249295 S
0.752442 0.997571 0.497106 S
0.496297 0.253709 0.495573 S
0.496278 -0.001600 0.753553 S
0.751613 0.253728 0.753545 S
0.245686 0.504333 0.004008 S
0.503843 0.246182 0.003725 S
0.504665 0.504803 0.745047 S
0.245204 0.245342 0.745032 S
0.751573 0.497338 0.997117 S
0.497196 0.752739 0.997131 S
0.497215 0.497324 0.249913 S
0.752437 0.752697 0.252295 S
