Li47 P16 O64                            
   1.00000000000000     
    10.4702319999999993   -0.0027720000000000   -0.0116260000000000
    -0.0031900000000000   12.1922300000000003   -0.0051520000000000
    -0.0109540000000000   -0.0041420000000000    9.8398079999999997
   Li   P    O 
    47    16    64
Direct
  0.4556828244622988  0.3430035422719570  0.0890194543870460
  0.6634511885397167  0.2525500464711624  0.6025251099031239
  0.6644467501868804  0.7505764180191090  0.0969715549974978
  0.6643062011804044  0.7520580699307280  0.5987552620368235
  0.1659031030609479  0.4978330068736528  0.1519446712480582
  0.1646726957787221  0.4991972408119915  0.6518726169672018
  0.1635461038451275  0.9950717313418928  0.1535640525057209
  0.1646099545188893  0.9985380141525441  0.6521036302949272
  0.3361653687162803  0.0003409378667346  0.4022585581138861
  0.3372834718283139  0.0004827704823268  0.9038800992655007
  0.3378719597814816  0.5000838765043114  0.3986340958683935
  0.3384286249759374  0.4978474539065481  0.9070147679315093
  0.8324249160133211  0.2492500494097511  0.3425007386445240
  0.8353042896576004  0.2488188639706365  0.8542257455392581
  0.8360604198495388  0.7486979984906316  0.3477552383690331
  0.8364525909429333  0.7489031876496679  0.8478270160626717
  0.3365263467121733  0.2496688524799696  0.4012420931027770
  0.3349351702954224  0.2476359945174990  0.9001042283316059
  0.3369458681047356  0.7492729640987380  0.4015384201685528
  0.3368669196052316  0.7488188877273804  0.9036133442993028
  0.8366867044088784  0.0022232178958497  0.3470976644791496
  0.8367393241282113  0.0019529004589022  0.8485246706842963
  0.8339617824307521  0.5004536022514235  0.3482799193398018
  0.8354568957271651  0.5001981920373171  0.8487749680707591
  0.6631607158923615  0.4946931334822972  0.0961817056639514
  0.6636021058050380  0.5018238429958302  0.5986412134818628
  0.6665519846879686  0.0036447014398930  0.1004351811157783
  0.6638567973852912  0.0013814914827421  0.5976084846451883
  0.1642487453961395  0.2498945050471124  0.1503097396116438
  0.1635577729602088  0.2503224259291603  0.6515752554914834
  0.1652968434388347  0.7501688290870885  0.1520726915583394
  0.1642505840945705  0.7509054953231942  0.6528781650907192
  0.9211267261017242  0.3736331811008046  0.1475802763841108
  0.9239499292467517  0.3745021594142885  0.6490846386867826
  0.9239251770415327  0.8757017211909845  0.1492067514346507
  0.9238276453238902  0.8757025044773020  0.6489798973685615
  0.4217695459295192  0.3757507969352142  0.5993357448605268
  0.4267425901812908  0.8750457844255813  0.1008833332322361
  0.4252069186904773  0.8756489038411354  0.6009636348787756
  0.0759392729004492  0.1252043738802192  0.3479384553426097
  0.0767809424545246  0.1242925707425194  0.8523306902827636
  0.0761785988674344  0.6240598045734624  0.3505847618282628
  0.0771160971324257  0.6239296936862093  0.8516858643839962
  0.5765189702071499  0.1290296903887944  0.3937456972614727
  0.5798043725777695  0.1302776101636735  0.9092071001944949
  0.5762960774698708  0.6250452113563646  0.4000828326901055
  0.5754730743181086  0.6235435272121611  0.8988155688304837
  0.9162964270711174  0.1250318506651910  0.0958906011153819
  0.9126449455244721  0.1253739205048779  0.5952551546490925
  0.9121908394582625  0.6250659524337630  0.0953386230073843
  0.9123563307423830  0.6251699456923588  0.5953637050103009
  0.4092250478256449  0.1196555561210828  0.1544750667728344
  0.4121191236059232  0.1244736444513027  0.6548439899316157
  0.4122702167430203  0.6255225243620478  0.1542744739585482
  0.4111092766081992  0.6260633824396373  0.6549184261668087
  0.0875870938998016  0.3755124145034931  0.4046976125596707
  0.0881400326319886  0.3752019320769414  0.9046118388547024
  0.0878472756641200  0.8742326058551432  0.4053279246860886
  0.0884521027918806  0.8740269764916374  0.9047771888590368
  0.5888636839006506  0.3773398910087549  0.3496654831743580
  0.5888647617139693  0.3739569194778337  0.8392171805148869
  0.5895575165176362  0.8754093811038364  0.3452564731671484
  0.5895272630162205  0.8756074328516625  0.8453538690617478
  0.8452803857296848  0.0216286607957576  0.1475690069002938
  0.8422228112640220  0.0219088399178704  0.6462565607418417
  0.8414916379427124  0.5225482547470960  0.1466625886291494
  0.8424779495707956  0.5225180521426566  0.6477377262866658
  0.3387749572285775  0.2219952550910069  0.0997865424869096
  0.3403591573437946  0.2272953473480529  0.6042306416128359
  0.3435731554276771  0.7309644730621626  0.1050104293821446
  0.3412396795507477  0.7300647571558155  0.6040886867650678
  0.1573328547891251  0.2722107624450508  0.3524221948411508
  0.1578072700129928  0.2716864668181415  0.8523588613778066
  0.1580770254447308  0.7709996101137220  0.3536295919676493
  0.1585956054084723  0.7706286182840031  0.8533152523610075
  0.6585973279632588  0.4806750389541175  0.4043465337125020
  0.6580810077928069  0.4771218717931534  0.8945726826539473
  0.6590915989374226  0.9790169941139605  0.3967654383077054
  0.6603499787781855  0.9778480392004323  0.8979391878792075
  0.1584878682819928  0.4785598481523586  0.3535823033038769
  0.1592478034690114  0.4779155843561395  0.8527758658410045
  0.1580421191985878  0.9772771335245478  0.3547251965856884
  0.1592102915086070  0.9767722593931824  0.8533631253333791
  0.6589895343909249  0.2743910253655699  0.4027055474467424
  0.6591583177400209  0.2697538582888497  0.8782942868733508
  0.6596796850888809  0.7724164134184358  0.3980552813722490
  0.6590151466154867  0.7712675689739409  0.8953569953251727
  0.8549087955621923  0.2285834415640672  0.1501017677124862
  0.8439499852449778  0.2282736498981344  0.6476414630261697
  0.8425212600844870  0.7287643560017830  0.1464705065715057
  0.8423701037237687  0.7286778942842957  0.6466193120423119
  0.3370988251763531  0.0154723318627953  0.1061460269961202
  0.3418475360703644  0.0208622572235187  0.6032431274672806
  0.3396091701448202  0.5248416001686212  0.1020782147615649
  0.3406870388014538  0.5239075775127588  0.6011081929592773
  0.5450847202546993  0.1181546189017268  0.1025058295933892
  0.5493489374310397  0.1253158927547978  0.6005660362101353
  0.5504683905655946  0.6257436435552515  0.1012268495748154
  0.5495026057811322  0.6277472852655661  0.6039716728651127
  0.0570746001640176  0.1197352694318642  0.1439507009904784
  0.0514355274491261  0.1238230592169165  0.6474996357237592
  0.0506954633360794  0.6248671754706732  0.1475317960387547
  0.0509950988572481  0.6253241220451611  0.6476578576522025
  0.4500374980140088  0.3751721034473207  0.4033218068327717
  0.4512427852760790  0.3719655134944851  0.8954546222397308
  0.4510270193164931  0.8749897844147209  0.3972240684271636
  0.4510780588866779  0.8748526540617250  0.8971885346824168
  0.9491884946289495  0.3766885978771955  0.3540535458971700
  0.9501161804928596  0.3757718005535780  0.8521470690084068
  0.9495173402035051  0.8742629002668481  0.3532119154670018
  0.9502584210271836  0.8744307310670978  0.8513698235241673
  0.5896299693355848  0.3817684142778869  0.1959080601893432
  0.5843541557187403  0.3812061206869908  0.6825832179702022
  0.5915581308548143  0.8747961435799992  0.1887408879945215
  0.5901123419844730  0.8764020740698736  0.6884052742495941
  0.0890323583320813  0.3751433628976706  0.0611154816472221
  0.0897709288332019  0.3750963972982352  0.5617366810613776
  0.0880929313447876  0.8727674019475230  0.0612139827382647
  0.0886231889729514  0.8739117987990750  0.5622001572479249
  0.4072856838600160  0.1236010671994811  0.3116844964969261
  0.4123434501424987  0.1236952324804548  0.8115756259828348
  0.4126085448411109  0.6259517426574789  0.3113946667716675
  0.4096370277753631  0.6244766011769035  0.8117082291487999
  0.9119029466329245  0.1254585477094853  0.4383771633730257
  0.9134956105992914  0.1236798147570867  0.9386107211174403
  0.9114737721101295  0.6250715866574775  0.4386930971736338
  0.9115650250764453  0.6251329516135049  0.9383228788584158
 
             NaN             NaN             NaN
             NaN             NaN             NaN
             NaN             NaN             NaN
             NaN             NaN             NaN
             NaN             NaN             NaN
             NaN             NaN             NaN
             NaN             NaN             NaN
             NaN             NaN             NaN
             NaN             NaN             NaN
             NaN             NaN             NaN
             NaN             NaN             NaN
             NaN             NaN             NaN
             NaN             NaN             NaN
             NaN             NaN             NaN
             NaN             NaN             NaN
             NaN             NaN             NaN
             NaN             NaN             NaN
             NaN             NaN             NaN
             NaN             NaN             NaN
             NaN             NaN             NaN
             NaN             NaN             NaN
             NaN             NaN             NaN
             NaN             NaN             NaN
             NaN             NaN             NaN
             NaN             NaN             NaN
             NaN             NaN             NaN
             NaN             NaN             NaN
             NaN             NaN             NaN
             NaN             NaN             NaN
             NaN             NaN             NaN
             NaN             NaN             NaN
             NaN             NaN             NaN
             NaN             NaN             NaN
             NaN             NaN             NaN
             NaN             NaN             NaN
             NaN             NaN             NaN
             NaN             NaN             NaN
             NaN             NaN             NaN
             NaN             NaN             NaN
             NaN             NaN             NaN
             NaN             NaN             NaN
             NaN             NaN             NaN
             NaN             NaN             NaN
             NaN             NaN             NaN
             NaN             NaN             NaN
             NaN             NaN             NaN
             NaN             NaN             NaN
             NaN             NaN             NaN
             NaN             NaN             NaN
             NaN             NaN             NaN
             NaN             NaN             NaN
             NaN             NaN             NaN
             NaN             NaN             NaN
             NaN             NaN             NaN
             NaN             NaN             NaN
             NaN             NaN             NaN
             NaN             NaN             NaN
             NaN             NaN             NaN
             NaN             NaN             NaN
             NaN             NaN             NaN
             NaN             NaN             NaN
             NaN             NaN             NaN
             NaN             NaN             NaN
             NaN             NaN             NaN
             NaN             NaN             NaN
             NaN             NaN             NaN
             NaN             NaN             NaN
             NaN             NaN             NaN
             NaN             NaN             NaN
             NaN             NaN             NaN
             NaN             NaN             NaN
             NaN             NaN             NaN
             NaN             NaN             NaN
             NaN             NaN             NaN
             NaN             NaN             NaN
             NaN             NaN             NaN
             NaN             NaN             NaN
             NaN             NaN             NaN
             NaN             NaN             NaN
             NaN             NaN             NaN
             NaN             NaN             NaN
             NaN             NaN             NaN
             NaN             NaN             NaN
             NaN             NaN             NaN
             NaN             NaN             NaN
             NaN             NaN             NaN
             NaN             NaN             NaN
             NaN             NaN             NaN
             NaN             NaN             NaN
             NaN             NaN             NaN
             NaN             NaN             NaN
             NaN             NaN             NaN
             NaN             NaN             NaN
             NaN             NaN             NaN
             NaN             NaN             NaN
             NaN             NaN             NaN
             NaN             NaN             NaN
             NaN             NaN             NaN
             NaN             NaN             NaN
             NaN             NaN             NaN
             NaN             NaN             NaN
             NaN             NaN             NaN
             NaN             NaN             NaN
             NaN             NaN             NaN
             NaN             NaN             NaN
             NaN             NaN             NaN
             NaN             NaN             NaN
             NaN             NaN             NaN
             NaN             NaN             NaN
             NaN             NaN             NaN
             NaN             NaN             NaN
             NaN             NaN             NaN
             NaN             NaN             NaN
             NaN             NaN             NaN
             NaN             NaN             NaN
             NaN             NaN             NaN
             NaN             NaN             NaN
             NaN             NaN             NaN
             NaN             NaN             NaN
             NaN             NaN             NaN
             NaN             NaN             NaN
             NaN             NaN             NaN
             NaN             NaN             NaN
             NaN             NaN             NaN
             NaN             NaN             NaN
             NaN             NaN             NaN
             NaN             NaN             NaN
