Li7 Mn16 O32                            
   1.00000000000000     
     8.7308640000000004   -0.0092240000000000    0.0079200000000000
    -0.0086880000000000    8.2138629999999999   -0.0341820000000000
     0.0099090000000000   -0.0307480000000000    8.2138130000000000
   Li   Mn   O 
     7    16    32
Direct
  0.2318542198145138  0.5164628897742792  0.7335380087965233
  0.3616926576369494  0.8735227009938088  0.3764779319206571
  0.8664607066252272  0.8705855343132258  0.8708452318381005
  0.1386374168674444  0.1259754882723529  0.1240255933453453
  0.8664601724918767  0.3791543976703522  0.3794151373107857
  0.6337764772705579  0.1249979277762511  0.6243841100491692
  0.6337759668310472  0.6256166269291561  0.1250029187668351
  0.5054778015017370  0.2526215465607555  0.2489336953099429
  0.2499634531921478  0.4994039815192021  0.2476928453235373
  0.2502669927232939  0.2480646116134637  0.4974213824599292
  0.5001182742040050  0.5012592534700294  0.4985949065706204
  0.5001166917971781  0.7514057274940743  0.7487407874842057
  0.7450622774788241  0.4989051559891700  0.7510946899716372
  0.7517576239383269  0.7491656856932750  0.5008355954825119
  0.2499637467442038  0.0023061293117697  0.7505947224201603
  0.2502660037725343  0.7525793934354856  0.0019350383649458
  0.5054770242512334  0.0010678988101233  0.9973789495210730
  0.7527043080909078  0.9993309608447486  0.2506700612539902
  0.7504027695549367  0.2487389603104056  0.0012603911434116
  0.9943792758825432  0.2463317853244196  0.7487840320184805
  0.9943796466987989  0.5012164657984862  0.0036689833281594
  0.9998906615664465  0.7506498845575860  0.2517000263818612
  0.9998914013574893  0.9983011622147278  0.4993497738099412
  0.7314992377727245  0.0133944812560141  0.0111351090511896
  0.9951339899642793  0.7334775107533734  0.0146038236324019
  0.9959993358544534  0.0124308415352427  0.7344703377947274
  0.7242875767645400  0.7363486338999635  0.7384138141020923
  0.2809456869138858  0.9940668193081681  0.9873907216731461
  0.9771215866980724  0.2582006012102215  0.9917997097337831
  0.0041022880368157  0.9862119315375528  0.2637874463031280
  0.2809457785213051  0.2626096865986348  0.2559343372930476
  0.7242876869449618  0.5115873217216398  0.5136514713397242
  0.9951343009972512  0.2353962003384539  0.5165218272140132
  0.9959991209149549  0.5155303587573229  0.2375703070292912
  0.7314998176862880  0.2388658968169423  0.2366053799869675
  0.2784538185644117  0.4829721207956736  0.4881007341605251
  0.9998762125931593  0.7683236785510160  0.4816787612530087
  0.9994859010275121  0.4792462154053528  0.7707528696536481
  0.2784528929922383  0.7619006488736871  0.7670264403226841
  0.2244729622460336  0.0125589722947543  0.5125573918326973
  0.4987463490842476  0.7367890879792145  0.5132105171100904
  0.5013809412753029  0.0173827762519608  0.2326190565500777
  0.2244726689067538  0.7374418321259854  0.2374423029047389
  0.7755841036140545  0.9882813713768707  0.4874263426916534
  0.5039866030646361  0.2642715836385224  0.4813823262882977
  0.5039122841015650  0.9868826061036542  0.7636354958151553
  0.7680888959080380  0.2601103475408651  0.7660300429451882
  0.2146258147146623  0.5132114459606505  0.0096157510953263
  0.5285015437466983  0.2383048432387754  0.0116947349608681
  0.4917631594442108  0.5194521650331709  0.7305496858135890
  0.2146260014069085  0.2403839532639488  0.7367893358677444
  0.7680885882202152  0.4839692132128396  0.9898895081404618
  0.5039828956064303  0.7686179981881184  0.9857304568594298
  0.5039123904279134  0.4863642040212278  0.2631170652917512
  0.7755841345532902  0.7625739373061912  0.2617192945388278
 
             NaN             NaN             NaN
             NaN             NaN             NaN
             NaN             NaN             NaN
             NaN             NaN             NaN
             NaN             NaN             NaN
             NaN             NaN             NaN
             NaN             NaN             NaN
             NaN             NaN             NaN
             NaN             NaN             NaN
             NaN             NaN             NaN
             NaN             NaN             NaN
             NaN             NaN             NaN
             NaN             NaN             NaN
             NaN             NaN             NaN
             NaN             NaN             NaN
             NaN             NaN             NaN
             NaN             NaN             NaN
             NaN             NaN             NaN
             NaN             NaN             NaN
             NaN             NaN             NaN
             NaN             NaN             NaN
             NaN             NaN             NaN
             NaN             NaN             NaN
             NaN             NaN             NaN
             NaN             NaN             NaN
             NaN             NaN             NaN
             NaN             NaN             NaN
             NaN             NaN             NaN
             NaN             NaN             NaN
             NaN             NaN             NaN
             NaN             NaN             NaN
             NaN             NaN             NaN
             NaN             NaN             NaN
             NaN             NaN             NaN
             NaN             NaN             NaN
             NaN             NaN             NaN
             NaN             NaN             NaN
             NaN             NaN             NaN
             NaN             NaN             NaN
             NaN             NaN             NaN
             NaN             NaN             NaN
             NaN             NaN             NaN
             NaN             NaN             NaN
             NaN             NaN             NaN
             NaN             NaN             NaN
             NaN             NaN             NaN
             NaN             NaN             NaN
             NaN             NaN             NaN
             NaN             NaN             NaN
             NaN             NaN             NaN
             NaN             NaN             NaN
             NaN             NaN             NaN
             NaN             NaN             NaN
             NaN             NaN             NaN
             NaN             NaN             NaN
