Li7 Mn16 O32                            
   1.00000000000000     
     8.7308640000000004   -0.0092240000000000    0.0079200000000000
    -0.0086880000000000    8.2138629999999999   -0.0341820000000000
     0.0099090000000000   -0.0307480000000000    8.2138130000000000
   Li   Mn   O 
     7    16    32
Direct
  0.2316447063682575  0.5163955589813021  0.7336053554901171
  0.3618176348706028  0.8734019430837003  0.3765982656221825
  0.8664734442295564  0.8706426755368403  0.8710141276460545
  0.1385067706374799  0.1260208239517792  0.1239798916438790
  0.8664729206054010  0.3789857519448546  0.3793581585128759
  0.6337741365104299  0.1249613451673260  0.6243855295059078
  0.6337731560795435  0.6256154942599903  0.1250391900282136
  0.5059058341174417  0.2530387616468474  0.2487822704029173
  0.2499963322430281  0.4993790124793830  0.2477598164708254
  0.2504078853713821  0.2480793854933644  0.4975803922479701
  0.5003903281697244  0.5012012502342793  0.4986799044394227
  0.5003908955382834  0.7513199326877565  0.7487971916593209
  0.7451675694492110  0.4985541095419671  0.7514450306701269
  0.7518573196258421  0.7492121807821344  0.5007891679387440
  0.2499967872861380  0.0022402967757919  0.7506206880681832
  0.2504065968985101  0.7524201330408887  1.0019207989869638
  0.5059039687279748  1.0012169860097617  0.9969621173954445
  0.7526979557020025  0.9997164632748401  0.2502833235141129
  0.7502455864827328  0.2488510066770244  0.0011488520766442
  0.9939174902834742  0.2458523343344185  0.7492474150002612
  0.9939167691482251  0.5007521850864286  0.0041481744139462
 -0.0002024643278070  0.7507050564222297  0.2516200686219668
 -0.0002011282148923  0.9983804873299339  0.4992946290835373
  0.7320038837562082  0.0141835504183463  0.0106633825005260
  0.9947087350287026  0.7330951128968896  0.0146115634732900
  0.9959360066899545  0.0121391770563852  0.7344213568901796
  0.7245179986373440  0.7362456651963919  0.7384884053320937
  0.2813344711739006  0.9940759182189047  0.9874622937747773
  0.9764657261158323  0.2575368619249551  0.9924635172675077
  0.0040831345899253  0.9863196430715513  0.2636796781375289
  0.2813354986451024  0.2625388559119104  0.2559250570596172
  0.7245183921477614  0.5115129256705552  0.5137534089425169
  0.9947088837897716  0.2353880718410113  0.5169042870118026
  0.9959347285750435  0.5155794085885060  0.2378618879193984
  0.7320044042686772  0.2393373515460760  0.2358166759312507
  0.2786482653229887  0.4829079695444721  0.4882658151820154
 -0.0001176451415721  0.7684575148817221  0.4815441979934132
  0.9986665344101390  0.4789294964031082  0.7710699709777751
  0.2786466072346070  0.7617358964774026  0.7670912985794230
  0.2244190412475334  0.0126265959592145  0.5126210256634949
  0.4989987428883741  0.7366689904942681  0.5133311416019923
  0.5020371060030558  0.0175785865468230  0.2324225339310968
  0.2244153903344159  0.7373773783593497  0.2373756438834397
  0.7755673327688622  0.9884032135673843  0.4872409253153365
  0.5045014416435363  0.2642466903419191  0.4811498841278670
  0.5039715353583889  0.9867319666896343  0.7634407360044336
  0.7674217636797308  0.2597598445634380  0.7667043709757148
  0.2141964568000414  0.5129535385046959  0.0096944675817291
  0.5294469184577285  0.2387126110228340  0.0112873693485706
  0.4920437220596220  0.5192816767695644  0.7307197563781763
  0.2141969534022218  0.2403057634842179  0.7370474592711311
  0.7674216875852103  0.4832947636083902  0.9902404559565713
  0.5045002535623211  0.7688509989461623  0.9857567706063063
  0.5039717484068068  0.4865590560657508  0.2632683111540011
  0.7755667999943344  0.7627598592074351  0.2615984011390491
 
             NaN             NaN             NaN
             NaN             NaN             NaN
             NaN             NaN             NaN
             NaN             NaN             NaN
             NaN             NaN             NaN
             NaN             NaN             NaN
             NaN             NaN             NaN
             NaN             NaN             NaN
             NaN             NaN             NaN
             NaN             NaN             NaN
             NaN             NaN             NaN
             NaN             NaN             NaN
             NaN             NaN             NaN
             NaN             NaN             NaN
             NaN             NaN             NaN
             NaN             NaN             NaN
             NaN             NaN             NaN
             NaN             NaN             NaN
             NaN             NaN             NaN
             NaN             NaN             NaN
             NaN             NaN             NaN
             NaN             NaN             NaN
             NaN             NaN             NaN
             NaN             NaN             NaN
             NaN             NaN             NaN
             NaN             NaN             NaN
             NaN             NaN             NaN
             NaN             NaN             NaN
             NaN             NaN             NaN
             NaN             NaN             NaN
             NaN             NaN             NaN
             NaN             NaN             NaN
             NaN             NaN             NaN
             NaN             NaN             NaN
             NaN             NaN             NaN
             NaN             NaN             NaN
             NaN             NaN             NaN
             NaN             NaN             NaN
             NaN             NaN             NaN
             NaN             NaN             NaN
             NaN             NaN             NaN
             NaN             NaN             NaN
             NaN             NaN             NaN
             NaN             NaN             NaN
             NaN             NaN             NaN
             NaN             NaN             NaN
             NaN             NaN             NaN
             NaN             NaN             NaN
             NaN             NaN             NaN
             NaN             NaN             NaN
             NaN             NaN             NaN
             NaN             NaN             NaN
             NaN             NaN             NaN
             NaN             NaN             NaN
             NaN             NaN             NaN
