Mg7 Sc16 Se32                           
   1.00000000000000     
    11.3332200000000007    0.0000000000000000    0.0000000000000000
     0.0000000000000000   11.3332139999999999    0.0000000000000000
     0.0000000000000000    0.0000000000000000   11.3332049999999995
   Mg   Sc   Se
     7    16    32
Direct
  0.4693786947567560  0.4693787466919109  0.4693788390776035
  0.6243940479745268  0.1260823477354833  0.1260823522018127
  0.1260823426634016  0.6243940493315877  0.1260823523962564
  0.1260823510763850  0.1260823543484005  0.6243940470987981
  0.3760917175424406  0.8732955626691640  0.8732955563966339
  0.8732955488719601  0.3760917224807898  0.8732955588340005
  0.8732955462581216  0.8732955564013299  0.3760917620905619
  0.9939443820171708  0.7508668291592162  0.7508669369993001
  0.7508668046381419  0.9939444446062520  0.7508668177118558
  0.7508671299587875  0.7508671136921090  0.9939441657983940
  0.0000932165518092  0.0000932299626243  0.0000932116062004
  0.0057353153262596  0.2488715209164433  0.2488714847357169
  0.2488714802408778  0.0057352147874572  0.2488714862351711
  0.2488714706178739  0.2488714394350453  0.0057351574275425
  0.7499992383142770  0.4999730386349363  0.2535318203800672
  0.7499991624112355  0.2535317127650977  0.4999730037844286
  0.9959970873369380  0.4994766158148296  0.4994766312609135
  0.2535318241993608  0.4999730276424718  0.7499992861803889
  0.2535318263284133  0.7499992200125150  0.4999729863405896
  0.4999729553234424  0.7499992293764988  0.2535318535953433
  0.4994765862941042  0.9959970500133876  0.4994765612711365
  0.4999730489979703  0.2535317970582582  0.7499992728454249
  0.4994765775659195  0.4994765250649814  0.9959970156877387
  0.7581141699167064  0.9932281886770520  0.9932282578826610
  0.9932281406284283  0.7581141267691718  0.9932282638565000
  0.9932281415043170  0.9932281855950692  0.7581140634794498
  0.7600880666267189  0.7600880237968358  0.7600878746381374
  0.2422038576619329  0.0066791038885515  0.0066790335767596
  0.0066791476781917  0.2422039104129722  0.0066790456873054
  0.0066791366080919  0.0066790919953161  0.2422039747859806
  0.2398009034585991  0.2398009704055442  0.2398010555352720
  0.7557056408623991  0.4908620135468580  0.4908620761890213
  0.9919934506583302  0.2578275499287434  0.4919934435279136
  0.9919934692524681  0.4919933838381904  0.2578274805896780
  0.7587462835804766  0.2572601562088074  0.2572600959627115
  0.2443280200582887  0.5080128612161472  0.5080127891111815
  0.0090813518809422  0.7416216979521746  0.5079284566427101
  0.0090813476873181  0.5079285191244333  0.7416217706593177
  0.2407281437413481  0.7425270514562543  0.7425271207141743
  0.2578275908915068  0.9919935093873061  0.4919934526051679
  0.4908619436305465  0.7557055982350103  0.4908620821730497
  0.4919933399283249  0.9919935127156032  0.2578274833984039
  0.2572602010336700  0.7587462450098188  0.2572600865904022
  0.7416216360980198  0.0090813122162395  0.5079284753039893
  0.5080129130828553  0.2443280154360710  0.5080128048239820
  0.5079285744762269  0.0090813070799567  0.7416217672156706
  0.7425269958904598  0.2407281604964968  0.7425271157600644
  0.2578276041459917  0.4919933781132909  0.9919935798590455
  0.4919933281371563  0.2578275627067258  0.9919935789374899
  0.4908619785043147  0.4908620048850226  0.7557055276445861
  0.2572601980307381  0.2572601573646361  0.7587461901282249
  0.7416216318708954  0.5079284899558884  0.0090812725572552
  0.5079285306886889  0.7416216782829528  0.0090812545328104
  0.5080129202030984  0.5080128786756952  0.2443280266216590
  0.7425269997679677  0.7425270570116488  0.2407283150532055
 
             NaN             NaN             NaN
             NaN             NaN             NaN
             NaN             NaN             NaN
             NaN             NaN             NaN
             NaN             NaN             NaN
             NaN             NaN             NaN
             NaN             NaN             NaN
             NaN             NaN             NaN
             NaN             NaN             NaN
             NaN             NaN             NaN
             NaN             NaN             NaN
             NaN             NaN             NaN
             NaN             NaN             NaN
             NaN             NaN             NaN
             NaN             NaN             NaN
             NaN             NaN             NaN
             NaN             NaN             NaN
             NaN             NaN             NaN
             NaN             NaN             NaN
             NaN             NaN             NaN
             NaN             NaN             NaN
             NaN             NaN             NaN
             NaN             NaN             NaN
             NaN             NaN             NaN
             NaN             NaN             NaN
             NaN             NaN             NaN
             NaN             NaN             NaN
             NaN             NaN             NaN
             NaN             NaN             NaN
             NaN             NaN             NaN
             NaN             NaN             NaN
             NaN             NaN             NaN
             NaN             NaN             NaN
             NaN             NaN             NaN
             NaN             NaN             NaN
             NaN             NaN             NaN
             NaN             NaN             NaN
             NaN             NaN             NaN
             NaN             NaN             NaN
             NaN             NaN             NaN
             NaN             NaN             NaN
             NaN             NaN             NaN
             NaN             NaN             NaN
             NaN             NaN             NaN
             NaN             NaN             NaN
             NaN             NaN             NaN
             NaN             NaN             NaN
             NaN             NaN             NaN
             NaN             NaN             NaN
             NaN             NaN             NaN
             NaN             NaN             NaN
             NaN             NaN             NaN
             NaN             NaN             NaN
             NaN             NaN             NaN
             NaN             NaN             NaN
