Na15 V32 O64
1.0
9.248499 -0.022017 0.004963
-0.028191 11.840274 0.063165
0.005133 0.057963 10.802610
Na V O
15 32 64
direct
0.748967 0.332720 0.153185 Na
0.741113 0.061889 0.152721 Na
0.745833 0.791994 0.153627 Na
0.241801 0.062784 0.345065 Na
0.246176 0.313306 0.354257 Na
0.243937 0.562221 0.344729 Na
0.244543 0.812025 0.353645 Na
0.256481 0.189056 0.844952 Na
0.255778 0.440397 0.855407 Na
0.257622 0.689715 0.843459 Na
0.252683 0.940122 0.850514 Na
0.757682 0.187624 0.654410 Na
0.755104 0.436197 0.646601 Na
0.756981 0.687462 0.654052 Na
0.754690 0.935363 0.645435 Na
0.582697 0.065012 0.893736 V
0.579708 0.314227 0.898866 V
0.585307 0.564944 0.898088 V
0.580931 0.816500 0.894967 V
0.080964 0.061023 0.601611 V
0.081579 0.311495 0.606415 V
0.082448 0.560993 0.602081 V
0.081512 0.811524 0.604840 V
0.419127 0.184311 0.102200 V
0.418008 0.438956 0.111293 V
0.417669 0.691603 0.099835 V
0.417667 0.938459 0.103556 V
0.919979 0.187851 0.397819 V
0.918661 0.438280 0.393828 V
0.919049 0.685585 0.397864 V
0.917323 0.936846 0.392422 V
0.562933 0.065424 0.389945 V
0.566528 0.312455 0.387611 V
0.566466 0.562993 0.384845 V
0.566807 0.812172 0.387549 V
0.060619 0.060812 0.112811 V
0.071953 0.308357 0.111422 V
0.053937 0.567520 0.112886 V
0.065906 0.811161 0.110973 V
0.436979 0.187886 0.614025 V
0.433306 0.436708 0.612468 V
0.438945 0.685965 0.612463 V
0.431469 0.936405 0.611043 V
0.937750 0.186552 0.887032 V
0.934607 0.439737 0.888877 V
0.938252 0.686598 0.884930 V
0.930741 0.939042 0.887456 V
0.793060 0.070253 0.848638 O
0.790861 0.309332 0.852463 O
0.795137 0.569062 0.849236 O
0.790353 0.809115 0.846600 O
0.291279 0.068489 0.651676 O
0.293615 0.306996 0.650704 O
0.292848 0.567868 0.652161 O
0.293803 0.807019 0.648601 O
0.210107 0.178982 0.149492 O
0.218174 0.436994 0.149633 O
0.205787 0.679104 0.147377 O
0.205149 0.942026 0.150677 O
0.708414 0.179678 0.351454 O
0.706380 0.439603 0.353618 O
0.709179 0.680189 0.354389 O
0.704113 0.940715 0.348803 O
0.886243 0.067322 0.518079 O
0.886739 0.308598 0.519069 O
0.887211 0.566701 0.520576 O
0.886245 0.808127 0.518264 O
0.386990 0.067590 0.978875 O
0.383713 0.309276 0.984735 O
0.387996 0.567762 0.986603 O
0.381497 0.811614 0.977772 O
0.113921 0.181540 0.481102 O
0.115304 0.440207 0.481254 O
0.114435 0.680969 0.481335 O
0.114120 0.940544 0.479625 O
0.612924 0.194915 0.019690 O
0.604445 0.434134 0.022589 O
0.608621 0.697902 0.014630 O
0.613351 0.935502 0.019116 O
0.977605 0.065156 0.279909 O
0.980492 0.302883 0.284491 O
0.984493 0.565384 0.283336 O
0.978325 0.802254 0.283434 O
0.480068 0.070208 0.217384 O
0.474086 0.310527 0.216657 O
0.472018 0.562658 0.218029 O
0.473179 0.802903 0.215065 O
0.021250 0.184218 0.719462 O
0.022417 0.446046 0.715997 O
0.022612 0.684668 0.718582 O
0.020812 0.946507 0.714458 O
0.521410 0.192299 0.780923 O
0.521620 0.431195 0.787310 O
0.522138 0.690082 0.780075 O
0.520828 0.931776 0.783110 O
0.576971 0.065781 0.572916 O
0.575129 0.307204 0.572289 O
0.577940 0.565417 0.571507 O
0.574690 0.808032 0.570810 O
0.076827 0.066505 0.929348 O
0.075483 0.308509 0.925572 O
0.079114 0.569072 0.928682 O
0.072923 0.810138 0.924717 O
0.421662 0.183612 0.430216 O
0.426489 0.442428 0.427664 O
0.423889 0.682790 0.428526 O
0.425422 0.943786 0.424773 O
0.923833 0.182724 0.070379 O
0.935384 0.440254 0.074310 O
0.922052 0.683973 0.067947 O
0.923450 0.940112 0.073219 O
