ALGO = Fast
EDIFF = 1e-05
EDIFFG = -0.05
ENCUT = 500
FDSTEP = 0.005
IBRION = 3
ICHARG = 2
ILBFGSMEM = 20
IMAGES = 7
INVCURV = 0.01
IOPT = 1
ISIF = 2
ISMEAR = 0
ISPIN = 2
ISYM = 0
LAUTOSCALE = True
LCHARG = False
LCLIMB = False
LGLOBAL = True
LLINEOPT = False
LORBIT = 11
LPLANE = True
LREAL = False
LWAVE = False
MAGMOM = 7*0.6 16*5 32*0.6
MAXMOVE = 0.2
NELECT = 414
NELM = 100
NELMIN = 4
NPAR = 4
NSIM = 4
NSW = 200
POTIM = 0.0
PREC = High
SIGMA = 0.05
SPRING = -5.0
