Mg7 Sc16 Se32
1.0
11.130896 -0.000001 -0.000004
-0.000001 11.130889 0.000002
-0.000004 -0.000031 11.131027
Mg Sc Se
7 16 32
direct
0.592069 0.592070 0.592070 Mg
0.623032 0.126969 0.126967 Mg
0.126969 0.623031 0.126966 Mg
0.126969 0.126969 0.623034 Mg
0.375288 0.874713 0.874713 Mg
0.874713 0.375287 0.874713 Mg
0.874714 0.874713 0.375287 Mg
0.999165 0.750022 0.750025 Sc
0.750023 0.999165 0.750022 Sc
0.750023 0.750020 0.999164 Sc
0.999955 0.999953 0.999950 Sc
0.005499 0.250218 0.250215 Sc
0.250220 0.005497 0.250216 Sc
0.250221 0.250216 0.005499 Sc
0.744478 0.499809 0.251005 Sc
0.744477 0.251006 0.499809 Sc
0.004709 0.499806 0.499809 Sc
0.251010 0.499809 0.744477 Sc
0.251009 0.744478 0.499809 Sc
0.499810 0.744477 0.251004 Sc
0.499810 0.004710 0.499810 Sc
0.499810 0.251007 0.744475 Sc
0.499810 0.499807 0.004711 Sc
0.756711 0.993402 0.993404 Se
0.993400 0.756714 0.993405 Se
0.993400 0.993403 0.756711 Se
0.756435 0.756438 0.756437 Se
0.242414 0.006706 0.006700 Se
0.006704 0.242416 0.006702 Se
0.006703 0.006703 0.242415 Se
0.244358 0.244356 0.244350 Se
0.759031 0.493428 0.493428 Se
0.990809 0.256733 0.493153 Se
0.990810 0.493151 0.256731 Se
0.759306 0.256732 0.256732 Se
0.243983 0.505664 0.505670 Se
0.007079 0.743276 0.507604 Se
0.007080 0.507603 0.743278 Se
0.242039 0.743273 0.743281 Se
0.256730 0.990810 0.493152 Se
0.493426 0.759031 0.493428 Se
0.493149 0.990810 0.256731 Se
0.256730 0.759306 0.256732 Se
0.743274 0.007080 0.507603 Se
0.505665 0.243981 0.505671 Se
0.507602 0.007081 0.743277 Se
0.743271 0.242040 0.743281 Se
0.256732 0.493151 0.990808 Se
0.493150 0.256733 0.990810 Se
0.493426 0.493427 0.759032 Se
0.256732 0.256733 0.759308 Se
0.743272 0.507604 0.007076 Se
0.507602 0.743274 0.007078 Se
0.505666 0.505664 0.243974 Se
0.743275 0.743276 0.242041 Se
