Li48 P16 O64                            
   1.00000000000000     
    10.5542742224877220   -0.0001053881140279   -0.0052490284665254
    -0.0001232430155556   12.3615848167495823   -0.0000636624933335
    -0.0049671712780541   -0.0000512748761111    9.9769809573513584
   Li   P    O 
    47    16    64
Direct
  0.6568832793840498  0.2523340919111524  0.0977278966242742
  0.6668497853821773  0.2485296290701355  0.5993850378426802
  0.6642165779606866  0.7509699460917236  0.0985484976075417
  0.6647569738517850  0.7510822432339126  0.5993081462564381
  0.1631770938026996  0.4973097499510560  0.1507975743282679
  0.1642701399797047  0.4988491790138485  0.6513240641967882
  0.1625533813976210  0.9982514601862673  0.1516671648681064
  0.1642168655498434  0.9987195508926172  0.6515559947265080
  0.3364770359366842  0.0004404887853869  0.4004736281058020
  0.3363738085323210  0.0003710716285578  0.9009792096908550
  0.3378987771726967  0.4995327059494458  0.3978987308048451
  0.3374635882810872  0.4973560320530481  0.9064959073539469
  0.8373594246115346  0.2485566524689650  0.3489617329558775
  0.8355151534829952  0.2487529060044339  0.8499946840700675
  0.8370937176946015  0.7487761886639138  0.3495958750408540
  0.8370356467993250  0.7489755504850131  0.8490539958344987
  0.3378963056220972  0.2504712579746065  0.3979063309773483
  0.3374654470460586  0.2526535256651930  0.9064589393330299
  0.3364823910065762  0.7495531557706607  0.4004639392247481
  0.3363757920891360  0.7496249231274050  0.9010009091309349
  0.8370930634371565  0.0012238490387736  0.3495947975880282
  0.8370354951152700  0.0010265009065561  0.8490548810866660
  0.8373594901171227  0.5014453950832621  0.3489623117856706
  0.8355143193447616  0.5012467514444988  0.8499949287812588
  0.6568744366919839  0.4976701201186693  0.0977274811893911
  0.6668512484866824  0.5014684671934411  0.5993862993746112
  0.6642253521992437  0.9990260113290342  0.0985476436202236
  0.6647580487608604  0.9989176338677279  0.5993081195356603
  0.1631370892297795  0.2527034284035495  0.1508114920991270
  0.1642702876344739  0.2511506652176813  0.6513227412164175
  0.1625722197755523  0.7517431315832512  0.1516610446996736
  0.1642163037435292  0.7512807672376558  0.6515565395748331
  0.9216794760391058  0.3749997458682719  0.1484211217407670
  0.9246934111421550  0.3750005562925575  0.6491608598046967
  0.9240546827244330  0.8749990797676406  0.1494956324748939
  0.9257174849588428  0.8749995824595392  0.6489633880244309
  0.4255595654560379  0.3749989947461596  0.6097161759240224
  0.4296120118065169  0.8749792516749891  0.1001421522815799
  0.4259764367144837  0.8749998276324905  0.6009414666321383
  0.0755959391899756  0.1254151967498668  0.3512822773755199
  0.0755786561680952  0.1255103797310732  0.8525679980319344
  0.0755969832218857  0.6245858092761759  0.3512811815909611
  0.0755825869762333  0.6244902172211042  0.8525684832352958
  0.5748986088322043  0.1248963250573511  0.3997512352127257
  0.5731300379732170  0.1249227188054931  0.8975846431594041
  0.5748964003817462  0.6251032684990778  0.3997436512644804
  0.5731316276243177  0.6250772726561467  0.8975944140668756
  0.9101966414850252  0.1249921256076687  0.0970809330617070
  0.9129634424155809  0.1244487482646057  0.5972526263985976
  0.9101978951632642  0.6250080836835410  0.0970811287353614
  0.9129632856372106  0.6255514383637057  0.5972532969726859
  0.4095949065468044  0.1205162746712878  0.1525339426641584
  0.4111621106828455  0.1248004838356683  0.6534396749908461
  0.4095676227595694  0.6294749219550662  0.1525116900701613
  0.4111620955654357  0.6251989805086697  0.6534415288629857
  0.0887548875739126  0.3750010456485159  0.4034745402593215
  0.0866197226059733  0.3750013745994519  0.9034596998507021
  0.0885550418466832  0.8750000635783379  0.4038966929884276
  0.0882217334846298  0.8749999989228818  0.9042144400111564
  0.5926056181669773  0.3749992955335076  0.3498174676112443
  0.5884710111373845  0.3750002183630329  0.8406406467773799
  0.5898009436568493  0.8750000851446329  0.3471739092498294
  0.5894444990850927  0.8749995330958192  0.8455536031845569
  0.8407565003294274  0.0214108453869932  0.1482893542680705
  0.8425639100980212  0.0212976934776770  0.6481500378904622
  0.8387587972126347  0.5224423992750427  0.1478735867341894
  0.8431174019825379  0.5228072501061130  0.6496641298616312
  0.3311744002307808  0.2153612475477368  0.0955744957274532
  0.3422113502747496  0.2279200041778073  0.6003225248486004
  0.3433416497317935  0.7362913080443493  0.1060383331123505
  0.3417019561260768  0.7284707108745678  0.6012509652474241
  0.1589171138129491  0.2719457769446166  0.3521727373147462
  0.1569458131737015  0.2720407747183145  0.8522650097956079
  0.1583836488691546  0.7718400806253135  0.3523335543783303
  0.1587243015932376  0.7719066452300904  0.8533138392078599
  0.6607416191057003  0.4787677244560146  0.4030231032069571
  0.6551453841903491  0.4780326799490995  0.8970608153690280
  0.6594469023000449  0.9782733012315784  0.3989584282742261
  0.6590457603107519  0.9782002238091845  0.8974995714386588
  0.1589182415334485  0.4780544596479331  0.3521699011404392
  0.1569465553887646  0.4779575799099642  0.8522623368170237
  0.1583850061293846  0.9781596111502747  0.3523334976119717
  0.1587283510905811  0.9780945148679805  0.8533164884771333
  0.6607390427412466  0.2712318367245689  0.4030221009113854
  0.6551437859054782  0.2719647052839925  0.8970613586007474
  0.6594481945161997  0.7717262091029117  0.3989581371566575
  0.6590460394986951  0.7718003512534272  0.8974982262790545
  0.8387607330232966  0.2275573134675303  0.1478729663607362
  0.8431179863566306  0.2271930483833389  0.6496640010262914
  0.8407573766649922  0.7285899404977743  0.1482887982111808
  0.8425649487959253  0.7287025600149978  0.6481488990294851
  0.3433206285423956  0.0137274993802805  0.1060273231043946
  0.3416999958396357  0.0215285301572923  0.6012503745426138
  0.3311883978449393  0.5346402510840967  0.0955966868466709
  0.3422103572232179  0.5220784831733201  0.6003214697161209
  0.5479070604460264  0.1233562008709674  0.0990918049054802
  0.5507435708801661  0.1244596352156491  0.6028089153678723
  0.5479011544118992  0.6266479523936582  0.0990887125514486
  0.5507441844922444  0.6255412378780593  0.6028089654376652
  0.0489507333441594  0.1252569362671625  0.1496978795610067
  0.0519813418049227  0.1242755983994185  0.6489643882015894
  0.0489494066640749  0.6247426691853323  0.1496978725693302
  0.0519807633950288  0.6257258332476847  0.6489639033010812
  0.4531410917676790  0.3749989342138290  0.3999774831933158
  0.4453257581556322  0.3749956103121817  0.8723471072628496
  0.4507248710167092  0.8749991513469447  0.3984457524742649
  0.4502517517364346  0.8749994284317316  0.8964203055285228
  0.9496968184315173  0.3749994351900566  0.3512694583171233
  0.9475847924474079  0.3749990587871581  0.8509900221617628
  0.9494281904551949  0.8750002190512994  0.3522383838740864
  0.9496532237239155  0.8750009970573434  0.8511111296401539
  0.5997621110742993  0.3749983397193926  0.1953078740522610
  0.6004771733699559  0.3749992802117243  0.6843710911719079
  0.5919714690374847  0.8749998383115105  0.1906862140389646
  0.5909168321582230  0.8749983515859335  0.6891271236793338
  0.0857389983809444  0.3750003895262378  0.0598040380296232
  0.0892928705890750  0.3750009110035003  0.5600337301791320
  0.0876485158471559  0.8749999484303020  0.0606034105863269
  0.0899288797707025  0.8749993195303494  0.5604003480092500
  0.4111222434785727  0.1245340406887111  0.3089294273033302
  0.4088720942072951  0.1248457239327432  0.8097142296391803
  0.4111147499624643  0.6254687015626321  0.3089260381815323
  0.4088727267712131  0.6251547225051306  0.8097142796282863
  0.9116072177712368  0.1249920380706018  0.4407554470788418
  0.9100981462963702  0.1248691628727844  0.9404991992177010
  0.9116072513829462  0.6250088419400499  0.4407558339664513
  0.9100979491496812  0.6251320037399207  0.9404995363490202
 
  0.00000000E+00  0.00000000E+00  0.00000000E+00
  0.00000000E+00  0.00000000E+00  0.00000000E+00
  0.00000000E+00  0.00000000E+00  0.00000000E+00
  0.00000000E+00  0.00000000E+00  0.00000000E+00
  0.00000000E+00  0.00000000E+00  0.00000000E+00
  0.00000000E+00  0.00000000E+00  0.00000000E+00
  0.00000000E+00  0.00000000E+00  0.00000000E+00
  0.00000000E+00  0.00000000E+00  0.00000000E+00
  0.00000000E+00  0.00000000E+00  0.00000000E+00
  0.00000000E+00  0.00000000E+00  0.00000000E+00
  0.00000000E+00  0.00000000E+00  0.00000000E+00
  0.00000000E+00  0.00000000E+00  0.00000000E+00
  0.00000000E+00  0.00000000E+00  0.00000000E+00
  0.00000000E+00  0.00000000E+00  0.00000000E+00
  0.00000000E+00  0.00000000E+00  0.00000000E+00
  0.00000000E+00  0.00000000E+00  0.00000000E+00
  0.00000000E+00  0.00000000E+00  0.00000000E+00
  0.00000000E+00  0.00000000E+00  0.00000000E+00
  0.00000000E+00  0.00000000E+00  0.00000000E+00
  0.00000000E+00  0.00000000E+00  0.00000000E+00
  0.00000000E+00  0.00000000E+00  0.00000000E+00
  0.00000000E+00  0.00000000E+00  0.00000000E+00
  0.00000000E+00  0.00000000E+00  0.00000000E+00
  0.00000000E+00  0.00000000E+00  0.00000000E+00
  0.00000000E+00  0.00000000E+00  0.00000000E+00
  0.00000000E+00  0.00000000E+00  0.00000000E+00
  0.00000000E+00  0.00000000E+00  0.00000000E+00
  0.00000000E+00  0.00000000E+00  0.00000000E+00
  0.00000000E+00  0.00000000E+00  0.00000000E+00
  0.00000000E+00  0.00000000E+00  0.00000000E+00
  0.00000000E+00  0.00000000E+00  0.00000000E+00
  0.00000000E+00  0.00000000E+00  0.00000000E+00
  0.00000000E+00  0.00000000E+00  0.00000000E+00
  0.00000000E+00  0.00000000E+00  0.00000000E+00
  0.00000000E+00  0.00000000E+00  0.00000000E+00
  0.00000000E+00  0.00000000E+00  0.00000000E+00
  0.00000000E+00  0.00000000E+00  0.00000000E+00
  0.00000000E+00  0.00000000E+00  0.00000000E+00
  0.00000000E+00  0.00000000E+00  0.00000000E+00
  0.00000000E+00  0.00000000E+00  0.00000000E+00
  0.00000000E+00  0.00000000E+00  0.00000000E+00
  0.00000000E+00  0.00000000E+00  0.00000000E+00
  0.00000000E+00  0.00000000E+00  0.00000000E+00
  0.00000000E+00  0.00000000E+00  0.00000000E+00
  0.00000000E+00  0.00000000E+00  0.00000000E+00
  0.00000000E+00  0.00000000E+00  0.00000000E+00
  0.00000000E+00  0.00000000E+00  0.00000000E+00
  0.00000000E+00  0.00000000E+00  0.00000000E+00
  0.00000000E+00  0.00000000E+00  0.00000000E+00
  0.00000000E+00  0.00000000E+00  0.00000000E+00
  0.00000000E+00  0.00000000E+00  0.00000000E+00
  0.00000000E+00  0.00000000E+00  0.00000000E+00
  0.00000000E+00  0.00000000E+00  0.00000000E+00
  0.00000000E+00  0.00000000E+00  0.00000000E+00
  0.00000000E+00  0.00000000E+00  0.00000000E+00
  0.00000000E+00  0.00000000E+00  0.00000000E+00
  0.00000000E+00  0.00000000E+00  0.00000000E+00
  0.00000000E+00  0.00000000E+00  0.00000000E+00
  0.00000000E+00  0.00000000E+00  0.00000000E+00
  0.00000000E+00  0.00000000E+00  0.00000000E+00
  0.00000000E+00  0.00000000E+00  0.00000000E+00
  0.00000000E+00  0.00000000E+00  0.00000000E+00
  0.00000000E+00  0.00000000E+00  0.00000000E+00
  0.00000000E+00  0.00000000E+00  0.00000000E+00
  0.00000000E+00  0.00000000E+00  0.00000000E+00
  0.00000000E+00  0.00000000E+00  0.00000000E+00
  0.00000000E+00  0.00000000E+00  0.00000000E+00
  0.00000000E+00  0.00000000E+00  0.00000000E+00
  0.00000000E+00  0.00000000E+00  0.00000000E+00
  0.00000000E+00  0.00000000E+00  0.00000000E+00
  0.00000000E+00  0.00000000E+00  0.00000000E+00
  0.00000000E+00  0.00000000E+00  0.00000000E+00
  0.00000000E+00  0.00000000E+00  0.00000000E+00
  0.00000000E+00  0.00000000E+00  0.00000000E+00
  0.00000000E+00  0.00000000E+00  0.00000000E+00
  0.00000000E+00  0.00000000E+00  0.00000000E+00
  0.00000000E+00  0.00000000E+00  0.00000000E+00
  0.00000000E+00  0.00000000E+00  0.00000000E+00
  0.00000000E+00  0.00000000E+00  0.00000000E+00
  0.00000000E+00  0.00000000E+00  0.00000000E+00
  0.00000000E+00  0.00000000E+00  0.00000000E+00
  0.00000000E+00  0.00000000E+00  0.00000000E+00
  0.00000000E+00  0.00000000E+00  0.00000000E+00
  0.00000000E+00  0.00000000E+00  0.00000000E+00
  0.00000000E+00  0.00000000E+00  0.00000000E+00
  0.00000000E+00  0.00000000E+00  0.00000000E+00
  0.00000000E+00  0.00000000E+00  0.00000000E+00
  0.00000000E+00  0.00000000E+00  0.00000000E+00
  0.00000000E+00  0.00000000E+00  0.00000000E+00
  0.00000000E+00  0.00000000E+00  0.00000000E+00
  0.00000000E+00  0.00000000E+00  0.00000000E+00
  0.00000000E+00  0.00000000E+00  0.00000000E+00
  0.00000000E+00  0.00000000E+00  0.00000000E+00
  0.00000000E+00  0.00000000E+00  0.00000000E+00
  0.00000000E+00  0.00000000E+00  0.00000000E+00
  0.00000000E+00  0.00000000E+00  0.00000000E+00
  0.00000000E+00  0.00000000E+00  0.00000000E+00
  0.00000000E+00  0.00000000E+00  0.00000000E+00
  0.00000000E+00  0.00000000E+00  0.00000000E+00
  0.00000000E+00  0.00000000E+00  0.00000000E+00
  0.00000000E+00  0.00000000E+00  0.00000000E+00
  0.00000000E+00  0.00000000E+00  0.00000000E+00
  0.00000000E+00  0.00000000E+00  0.00000000E+00
  0.00000000E+00  0.00000000E+00  0.00000000E+00
  0.00000000E+00  0.00000000E+00  0.00000000E+00
  0.00000000E+00  0.00000000E+00  0.00000000E+00
  0.00000000E+00  0.00000000E+00  0.00000000E+00
  0.00000000E+00  0.00000000E+00  0.00000000E+00
  0.00000000E+00  0.00000000E+00  0.00000000E+00
  0.00000000E+00  0.00000000E+00  0.00000000E+00
  0.00000000E+00  0.00000000E+00  0.00000000E+00
  0.00000000E+00  0.00000000E+00  0.00000000E+00
  0.00000000E+00  0.00000000E+00  0.00000000E+00
  0.00000000E+00  0.00000000E+00  0.00000000E+00
  0.00000000E+00  0.00000000E+00  0.00000000E+00
  0.00000000E+00  0.00000000E+00  0.00000000E+00
  0.00000000E+00  0.00000000E+00  0.00000000E+00
  0.00000000E+00  0.00000000E+00  0.00000000E+00
  0.00000000E+00  0.00000000E+00  0.00000000E+00
  0.00000000E+00  0.00000000E+00  0.00000000E+00
  0.00000000E+00  0.00000000E+00  0.00000000E+00
  0.00000000E+00  0.00000000E+00  0.00000000E+00
  0.00000000E+00  0.00000000E+00  0.00000000E+00
  0.00000000E+00  0.00000000E+00  0.00000000E+00
  0.00000000E+00  0.00000000E+00  0.00000000E+00
  0.00000000E+00  0.00000000E+00  0.00000000E+00
  0.00000000E+00  0.00000000E+00  0.00000000E+00
