Li47 P16 O64                            
   1.00000000000000     
    10.6132139999999993   -0.0021190000000000   -0.0101030000000000
    -0.0024500000000000   12.3638969999999997   -0.0031620000000000
    -0.0095100000000000   -0.0025280000000000   10.0275739999999995
   Li   P    O 
    47    16    64
Direct
  0.5005680301468265  0.3025547456123860  0.0763250047490886
  0.6635768782199224  0.2525167458073441  0.6010016000692742
  0.6631284137601769  0.7513121490745376  0.0988610723379345
  0.6637225121933750  0.7520052070797723  0.5996163724878936
  0.1649643440333964  0.4977242234982476  0.1505199631955032
  0.1645668525398337  0.4990280410331441  0.6510085452053979
  0.1631549241748646  0.9948550763410183  0.1521872435396868
  0.1636358703899942  0.9988627564105452  0.6512302461640329
  0.3362973185091817  0.0002085587329740  0.4021765281602238
  0.3372113383058505  0.0002108977674597  0.9017689816315816
  0.3388919574156887  0.4999741236928795  0.3952762474025646
  0.3395907863241982  0.4963621220100935  0.9105031564223225
  0.8329600374235475  0.2490911687417983  0.3438132673699362
  0.8352428585392028  0.2490183419353661  0.8568041627874782
  0.8367125429921929  0.7487819382507098  0.3491276914949157
  0.8367925946541915  0.7489219996418309  0.8493863247050031
  0.3377386865313202  0.2505635713631936  0.3981355317025352
  0.3329865645356031  0.2492813490985923  0.8986399161805370
  0.3373438144916923  0.7491890073634143  0.3999539009880661
  0.3370819001883017  0.7490828022754941  0.9033122630776041
  0.8372614929879900  0.0022475006225092  0.3485672368427954
  0.8375787822308420  0.0019503270584161  0.8503817664940398
  0.8350293975121380  0.5006832331459881  0.3499529425118576
  0.8361671632840589  0.5007249031977011  0.8501005576308640
  0.6594314718693194  0.4961401484988358  0.0983141423583920
  0.6634426942546577  0.5018852143482204  0.5997851239223054
  0.6657991539199384  0.0054494411969598  0.1018330091472732
  0.6636609934562724  0.0008409430108650  0.5991417459731170
  0.1647453810586179  0.2512094518185637  0.1492818929676579
  0.1629188124553774  0.2505745125585427  0.6501730958805948
  0.1647760393726303  0.7505931391176363  0.1509163545402639
  0.1638866333092678  0.7510734457661097  0.6517203454770171
  0.9219581665493972  0.3735770351907040  0.1476798621797186
  0.9253205522499411  0.3740694119945305  0.6491859174795136
  0.9251047331180107  0.8757147693882171  0.1491669082527396
  0.9255017753345245  0.8756098881501846  0.6492671209509659
  0.4250220702248653  0.3763960821380030  0.5985443037229993
  0.4289850204109980  0.8756661524806909  0.1015535445653320
  0.4268365268586455  0.8752402119683106  0.6015865479709781
  0.0740469538638782  0.1257544324158636  0.3481681464690162
  0.0740054971898626  0.1247969193576550  0.8525320620560134
  0.0743966683418881  0.6238857065839624  0.3504703719749185
  0.0756068973595252  0.6238965471614751  0.8522816230194049
  0.5746050471259166  0.1289027773868962  0.3959280256336022
  0.5784697938310643  0.1279765765383499  0.9034342066163201
  0.5738875183322040  0.6245759197424990  0.3997641701230956
  0.5728541711872478  0.6241464991036645  0.8990721890133828
  0.9161886680607397  0.1251225810382648  0.0984294081593002
  0.9117846048540609  0.1251815320229094  0.5970785933841823
  0.9108177885041315  0.6253338527754584  0.0973214587505143
  0.9120361452717078  0.6254231936983358  0.5974385153983561
  0.4067503756959079  0.1181841005517899  0.1526772159791100
  0.4111031433471938  0.1247387491576459  0.6535977449227693
  0.4095909797610752  0.6291519511924291  0.1520519083525219
  0.4102752705265634  0.6260439596606708  0.6538547160314050
  0.0883186888058306  0.3755273388781285  0.4033560117542881
  0.0878065422987713  0.3751132657882253  0.9028223398063163
  0.0883759309708607  0.8742899765793601  0.4044689931893981
  0.0886582700296762  0.8741555052612985  0.9032551573581311
  0.5898190478417356  0.3773865343131209  0.3504042819016086
  0.5895469258487162  0.3746076583796923  0.8400887658460635
  0.5902358012880384  0.8759628142982891  0.3474108788465017
  0.5902404814617697  0.8757323804005129  0.8468223047139449
  0.8447634791552605  0.0219793594904510  0.1495436440167991
  0.8417898067435224  0.0218513095520956  0.6480792897898091
  0.8400300575400139  0.5229512026209637  0.1480704727197847
  0.8424148521178503  0.5227043977032720  0.6492689588097764
  0.3372266816774633  0.2199290784824219  0.0976936305351138
  0.3401918630281632  0.2273183916790895  0.6023523303896922
  0.3441636546411482  0.7367753867231015  0.1061942026986530
  0.3408861037215878  0.7298558244378330  0.6031472664318760
  0.1578539774446388  0.2724015266818336  0.3515621614575306
  0.1566358523800809  0.2716489111431913  0.8508549974279580
  0.1582061065446854  0.7712546199069990  0.3532162272430657
  0.1589285090269385  0.7711713467748686  0.8523663066346044
  0.6593514975500635  0.4805202060298112  0.4050407810393359
  0.6582042624180126  0.4778757630667464  0.8942115856308228
  0.6595624164515099  0.9793149110040505  0.3989518544837833
  0.6605183209066985  0.9782189747941671  0.8988668860104074
  0.1588815047760812  0.4784131865089217  0.3525220768504977
  0.1587940003872326  0.4774377746597200  0.8512111414879416
  0.1583686603785895  0.9772721929976538  0.3540075293657132
  0.1590328535784826  0.9770866896940164  0.8525122640600798
  0.6593304727631255  0.2740913388327429  0.4029935606345479
  0.6586143181847695  0.2705598156512070  0.8842435796539689
  0.6600454781828873  0.7727961732758617  0.3988892150286242
  0.6595212078068493  0.7719910856469963  0.8971839652216363
  0.8548148602333965  0.2284621101405299  0.1525118786647047
  0.8426988491047240  0.2278892337629226  0.6492677238505119
  0.8412594777502598  0.7289690751044505  0.1478348048219512
  0.8418920449769823  0.7286280177815082  0.6481785259347532
  0.3380540944758937  0.0134775009987180  0.1053236817165170
  0.3413235480673415  0.0210895018165445  0.6025562267647606
  0.3325342369244341  0.5331373345170402  0.0982181763003915
  0.3405998924053469  0.5238940238237083  0.5999443845010848
  0.5429160146585282  0.1223241225600108  0.0986166558529913
  0.5487299379409576  0.1251918152416310  0.6005566580497548
  0.5476173130082550  0.6270918055205307  0.0984702391779379
  0.5487611207222954  0.6276443086420854  0.6028182029134145
  0.0566364737313275  0.1198168258378598  0.1458977945278825
  0.0502086697252471  0.1240958138306719  0.6492430007427157
  0.0488790429111430  0.6252475335553562  0.1499222415337677
  0.0502762994032467  0.6256968035543083  0.6496102768325005
  0.4516789440830828  0.3755087194078182  0.4041348370031757
  0.4528191352994370  0.3707796981493928  0.8965660386851647
  0.4520632366789136  0.8752386533069998  0.3994589358558981
  0.4519223607570997  0.8753796789644983  0.8978966602449556
  0.9499353175187770  0.3766532895173370  0.3527937441312355
  0.9495525456026097  0.3756952576953543  0.8507155652303166
  0.9502030694158402  0.8744644645562465  0.3522060610898762
  0.9507866688385843  0.8745650099594512  0.8499527815220453
  0.5915572578152228  0.3813985911950944  0.1975741079301152
  0.5868629185353373  0.3796734531331474  0.6845939430112855
  0.5920172678478662  0.8765161454477601  0.1917123580776951
  0.5908580549327110  0.8762296993873939  0.6908302411462118
  0.0881325257544357  0.3750448022890240  0.0583322360054335
  0.0898671880240388  0.3750700793785866  0.5594466965214443
  0.0877125345342843  0.8730735618088151  0.0588511538108466
  0.0888073893266710  0.8742904221268003  0.5603490088341196
  0.4074853769590960  0.1223903414661869  0.3087584521150148
  0.4108596418865327  0.1243192760071491  0.8093913217432120
  0.4120514138365804  0.6266895830211804  0.3084454044651420
  0.4088936871081735  0.6244895908104429  0.8096179704556768
  0.9112476347761265  0.1253372503271402  0.4413015955811362
  0.9127445869570656  0.1240121327229745  0.9419835349727845
  0.9113859358477403  0.6253068210018881  0.4416120684391576
  0.9111213008490460  0.6254027494680400  0.9412896926145936
 
             NaN             NaN             NaN
             NaN             NaN             NaN
             NaN             NaN             NaN
             NaN             NaN             NaN
             NaN             NaN             NaN
             NaN             NaN             NaN
             NaN             NaN             NaN
             NaN             NaN             NaN
             NaN             NaN             NaN
             NaN             NaN             NaN
             NaN             NaN             NaN
             NaN             NaN             NaN
             NaN             NaN             NaN
             NaN             NaN             NaN
             NaN             NaN             NaN
             NaN             NaN             NaN
             NaN             NaN             NaN
             NaN             NaN             NaN
             NaN             NaN             NaN
             NaN             NaN             NaN
             NaN             NaN             NaN
             NaN             NaN             NaN
             NaN             NaN             NaN
             NaN             NaN             NaN
             NaN             NaN             NaN
             NaN             NaN             NaN
             NaN             NaN             NaN
             NaN             NaN             NaN
             NaN             NaN             NaN
             NaN             NaN             NaN
             NaN             NaN             NaN
             NaN             NaN             NaN
             NaN             NaN             NaN
             NaN             NaN             NaN
             NaN             NaN             NaN
             NaN             NaN             NaN
             NaN             NaN             NaN
             NaN             NaN             NaN
             NaN             NaN             NaN
             NaN             NaN             NaN
             NaN             NaN             NaN
             NaN             NaN             NaN
             NaN             NaN             NaN
             NaN             NaN             NaN
             NaN             NaN             NaN
             NaN             NaN             NaN
             NaN             NaN             NaN
             NaN             NaN             NaN
             NaN             NaN             NaN
             NaN             NaN             NaN
             NaN             NaN             NaN
             NaN             NaN             NaN
             NaN             NaN             NaN
             NaN             NaN             NaN
             NaN             NaN             NaN
             NaN             NaN             NaN
             NaN             NaN             NaN
             NaN             NaN             NaN
             NaN             NaN             NaN
             NaN             NaN             NaN
             NaN             NaN             NaN
             NaN             NaN             NaN
             NaN             NaN             NaN
             NaN             NaN             NaN
             NaN             NaN             NaN
             NaN             NaN             NaN
             NaN             NaN             NaN
             NaN             NaN             NaN
             NaN             NaN             NaN
             NaN             NaN             NaN
             NaN             NaN             NaN
             NaN             NaN             NaN
             NaN             NaN             NaN
             NaN             NaN             NaN
             NaN             NaN             NaN
             NaN             NaN             NaN
             NaN             NaN             NaN
             NaN             NaN             NaN
             NaN             NaN             NaN
             NaN             NaN             NaN
             NaN             NaN             NaN
             NaN             NaN             NaN
             NaN             NaN             NaN
             NaN             NaN             NaN
             NaN             NaN             NaN
             NaN             NaN             NaN
             NaN             NaN             NaN
             NaN             NaN             NaN
             NaN             NaN             NaN
             NaN             NaN             NaN
             NaN             NaN             NaN
             NaN             NaN             NaN
             NaN             NaN             NaN
             NaN             NaN             NaN
             NaN             NaN             NaN
             NaN             NaN             NaN
             NaN             NaN             NaN
             NaN             NaN             NaN
             NaN             NaN             NaN
             NaN             NaN             NaN
             NaN             NaN             NaN
             NaN             NaN             NaN
             NaN             NaN             NaN
             NaN             NaN             NaN
             NaN             NaN             NaN
             NaN             NaN             NaN
             NaN             NaN             NaN
             NaN             NaN             NaN
             NaN             NaN             NaN
             NaN             NaN             NaN
             NaN             NaN             NaN
             NaN             NaN             NaN
             NaN             NaN             NaN
             NaN             NaN             NaN
             NaN             NaN             NaN
             NaN             NaN             NaN
             NaN             NaN             NaN
             NaN             NaN             NaN
             NaN             NaN             NaN
             NaN             NaN             NaN
             NaN             NaN             NaN
             NaN             NaN             NaN
             NaN             NaN             NaN
             NaN             NaN             NaN
             NaN             NaN             NaN
             NaN             NaN             NaN
             NaN             NaN             NaN
