Na15 V32 O64                            
   1.00000000000000     
     9.2521249999999995   -0.0084500000000000    0.0025040000000000
    -0.0108880000000000   11.8407610000000005    0.0380730000000000
     0.0023310000000000    0.0352890000000000   10.7983809999999991
   Na   V    O 
    15    32    64
Direct
  0.7479705001344167  0.3383078129180325  0.1516873712459329
  0.7342291466984212  0.0705778541418391  0.1518804910376530
  0.7419391952967935  0.8008861911148052  0.1531457178487550
  0.2380360553779942  0.0687042828685543  0.3428941499622544
  0.2408780315160997  0.3201716122302354  0.3589861801113420
  0.2401114634143740  0.5676801865749579  0.3415628435596328
  0.2358163947004208  0.8179356855831497  0.3568368152766514
  0.2522216677167555  0.1968575068629458  0.8447312867398369
  0.2511788034171665  0.4489902163767451  0.8561750719912510
  0.2521038745129995  0.6980580561143728  0.8428817195201059
  0.2466253241284294  0.9483077026647594  0.8485889112730635
  0.7528050395073198  0.1945240190043162  0.6535304977945571
  0.7485646822263750  0.4433297914145392  0.6482905773364339
  0.7510429034587167  0.6936793144225604  0.6530995358583387
  0.7499600908405776  0.9427985212355408  0.6435382027484199
  0.5759089171042634  0.0733926830709827  0.8939222126651687
  0.5729750949943596  0.3218014518357576  0.9000247937386623
  0.5795563274032877  0.5727534068803156  0.8989489012532071
  0.5755897642892167  0.8255524817618213  0.8932134273084815
  0.0751210630108438  0.0681590712443262  0.5994325091135229
  0.0764486552497405  0.3182024009357522  0.6083979438600642
  0.0764235475884244  0.5660895970165590  0.6016402071674073
  0.0764415633879492  0.8180936251441350  0.6049820989370119
  0.4094528451606493  0.1942957718281029  0.1041685003772061
  0.4143326594766657  0.4478589664352359  0.1115748278954729
  0.4134108337465324  0.6999081104741249  0.0992007864682713
  0.4129277005687281  0.9459820913246175  0.1025392431945557
  0.9147638919757319  0.1954826722062527  0.3959837648986860
  0.9114423829892965  0.4438516107763399  0.3956635761547492
  0.9148747437949777  0.6897499808620248  0.3983003684370224
  0.9128487470648248  0.9431474279772895  0.3896173098769665
  0.5602127437860379  0.0707131523120950  0.3866196430059509
  0.5624599245279019  0.3178137795451673  0.3872053322569861
  0.5617503133412018  0.5691822235478361  0.3840979519674710
  0.5589125290969998  0.8120920776849251  0.3892095047900084
  0.0539806548114544  0.0655526945136424  0.1124676895992616
  0.0718163107764803  0.3173276307323655  0.1108782692488715
  0.0474127845993284  0.5774850497978212  0.1093439744070105
  0.0595707273984893  0.8189841149118434  0.1114893433662865
  0.4323315621295276  0.1950839253703545  0.6128452141960961
  0.4275173989378613  0.4434700677745531  0.6119105988068830
  0.4323404519755088  0.6913857211646637  0.6141716791981606
  0.4262710480228974  0.9436556713341547  0.6097053117472369
  0.9333370823562015  0.1932512222265175  0.8873854143600109
  0.9289043606014749  0.4479665487875927  0.8888430728186454
  0.9318670589101772  0.6945642645643071  0.8822865390729298
  0.9249900196678387  0.9475846224776697  0.8861678537929040
  0.7869284059282666  0.0789424440549903  0.8497051866509399
  0.7863686160326494  0.3177257919993854  0.8545953860828861
  0.7883465413425695  0.5772697969489159  0.8493559327138548
  0.7844626309124110  0.8181709396523827  0.8440324896013766
  0.2861941838957680  0.0749545171794559  0.6494615199836427
  0.2883440473320612  0.3137316487061815  0.6512611535833557
  0.2863146169866199  0.5742964219466397  0.6531450899216960
  0.2884801403840581  0.8142162197789360  0.6485458664342327
  0.2102101892569813  0.1829616858717793  0.1491667088867515
  0.2157497289589670  0.4435433627765108  0.1511795502497880
  0.1987393282024924  0.6843179507087080  0.1480542041172214
  0.1997586694241902  0.9518343824417448  0.1493271522286340
  0.7065058051383338  0.1874729447398785  0.3492199955760628
  0.7021536929530759  0.4418956203418754  0.3517477164658477
  0.7026253428081072  0.7004975714224402  0.3537771612290550
  0.6965154847826494  0.9459566903167562  0.3493445538569279
  0.8801237209551518  0.0736897577664473  0.5160633000707759
  0.8827452507627132  0.3152551711469846  0.5200179128992864
  0.8793511592202564  0.5705795262664497  0.5230734725213489
  0.8831152761841732  0.8121660196407798  0.5153388276036385
  0.3827016710355370  0.0744726021093732  0.9789819863803177
  0.3777956077961916  0.3200255180939449  0.9845593144255685
  0.3824749258771906  0.5765278186817900  0.9875730311898339
  0.3754132891348731  0.8204955634660704  0.9763493039297200
  0.1092403710286386  0.1868807939279114  0.4814365570560378
  0.1103691072978902  0.4478881252663026  0.4812212206859920
  0.1091260345080544  0.6849364147504299  0.4814530960125078
  0.1085160089846572  0.9479166114240962  0.4784844400277875
  0.6060757489541764  0.2028147181144849  0.0214250999753383
  0.5999496064875998  0.4420065161273560  0.0238527569389523
  0.6029817090833212  0.7068316096089341  0.0141125866903449
  0.6087512738933842  0.9425213769228403  0.0183951761241782
  0.9716325577155608  0.0725284560436414  0.2784916206205651
  0.9807100563865251  0.3100294959410791  0.2848108977641461
  0.9749258904647746  0.5764052088942937  0.2869113637399374
  0.9748400364764541  0.8135045816235934  0.2809193523335473
  0.4785011744039840  0.0735317861559903  0.2163019575128350
  0.4706890524144340  0.3176928294626667  0.2138091744665341
  0.4672340055297038  0.5703276821911150  0.2166817089766623
  0.4666753293240423  0.8096092433339488  0.2164629920586265
  0.0159333124766343  0.1892638388657868  0.7196839614345193
  0.0160940499183665  0.4544113747824405  0.7173488558440471
  0.0159579169994743  0.6907163570932987  0.7169243222481578
  0.0140462383009803  0.9554961956375861  0.7134602647746752
  0.5161026687311359  0.2001490391714267  0.7806900769492738
  0.5161724360746701  0.4394353056863118  0.7885132146005093
  0.5158806934162875  0.6977625076116690  0.7802570328637398
  0.5159672686053498  0.9405412559489428  0.7807997897873519
  0.5708294284395754  0.0722230042986737  0.5704241521999504
  0.5708138502044049  0.3129469112002283  0.5723402952857882
  0.5706619831703562  0.5734236021337786  0.5734934106521850
  0.5710987613167251  0.8147455130381729  0.5691714394117103
  0.0730716316288222  0.0730071572027981  0.9291211975610159
  0.0700471727680985  0.3168982550831482  0.9249948580649257
  0.0748316561247666  0.5777870206603516  0.9267248982352716
  0.0656851327813395  0.8176681045439871  0.9231085241455869
  0.4175020914414217  0.1885811813687329  0.4273687411170556
  0.4206191780446642  0.4444620911769620  0.4292899368083365
  0.4155645455644764  0.6954960567300756  0.4292190307723519
  0.4228324186446650  0.9429308953366111  0.4223006281820602
  0.9228509206485817  0.1901282182273275  0.0710634432886439
  0.9330373301520452  0.4505032877983883  0.0760590993403515
  0.9142491385370107  0.6916187856149192  0.0660321385606937
  0.9163719390576011  0.9488576776328256  0.0719846803840407
 
             NaN             NaN             NaN
             NaN             NaN             NaN
             NaN             NaN             NaN
             NaN             NaN             NaN
             NaN             NaN             NaN
             NaN             NaN             NaN
             NaN             NaN             NaN
             NaN             NaN             NaN
             NaN             NaN             NaN
             NaN             NaN             NaN
             NaN             NaN             NaN
             NaN             NaN             NaN
             NaN             NaN             NaN
             NaN             NaN             NaN
             NaN             NaN             NaN
             NaN             NaN             NaN
             NaN             NaN             NaN
             NaN             NaN             NaN
             NaN             NaN             NaN
             NaN             NaN             NaN
             NaN             NaN             NaN
             NaN             NaN             NaN
             NaN             NaN             NaN
             NaN             NaN             NaN
             NaN             NaN             NaN
             NaN             NaN             NaN
             NaN             NaN             NaN
             NaN             NaN             NaN
             NaN             NaN             NaN
             NaN             NaN             NaN
             NaN             NaN             NaN
             NaN             NaN             NaN
             NaN             NaN             NaN
             NaN             NaN             NaN
             NaN             NaN             NaN
             NaN             NaN             NaN
             NaN             NaN             NaN
             NaN             NaN             NaN
             NaN             NaN             NaN
             NaN             NaN             NaN
             NaN             NaN             NaN
             NaN             NaN             NaN
             NaN             NaN             NaN
             NaN             NaN             NaN
             NaN             NaN             NaN
             NaN             NaN             NaN
             NaN             NaN             NaN
             NaN             NaN             NaN
             NaN             NaN             NaN
             NaN             NaN             NaN
             NaN             NaN             NaN
             NaN             NaN             NaN
             NaN             NaN             NaN
             NaN             NaN             NaN
             NaN             NaN             NaN
             NaN             NaN             NaN
             NaN             NaN             NaN
             NaN             NaN             NaN
             NaN             NaN             NaN
             NaN             NaN             NaN
             NaN             NaN             NaN
             NaN             NaN             NaN
             NaN             NaN             NaN
             NaN             NaN             NaN
             NaN             NaN             NaN
             NaN             NaN             NaN
             NaN             NaN             NaN
             NaN             NaN             NaN
             NaN             NaN             NaN
             NaN             NaN             NaN
             NaN             NaN             NaN
             NaN             NaN             NaN
             NaN             NaN             NaN
             NaN             NaN             NaN
             NaN             NaN             NaN
             NaN             NaN             NaN
             NaN             NaN             NaN
             NaN             NaN             NaN
             NaN             NaN             NaN
             NaN             NaN             NaN
             NaN             NaN             NaN
             NaN             NaN             NaN
             NaN             NaN             NaN
             NaN             NaN             NaN
             NaN             NaN             NaN
             NaN             NaN             NaN
             NaN             NaN             NaN
             NaN             NaN             NaN
             NaN             NaN             NaN
             NaN             NaN             NaN
             NaN             NaN             NaN
             NaN             NaN             NaN
             NaN             NaN             NaN
             NaN             NaN             NaN
             NaN             NaN             NaN
             NaN             NaN             NaN
             NaN             NaN             NaN
             NaN             NaN             NaN
             NaN             NaN             NaN
             NaN             NaN             NaN
             NaN             NaN             NaN
             NaN             NaN             NaN
             NaN             NaN             NaN
             NaN             NaN             NaN
             NaN             NaN             NaN
             NaN             NaN             NaN
             NaN             NaN             NaN
             NaN             NaN             NaN
             NaN             NaN             NaN
             NaN             NaN             NaN
             NaN             NaN             NaN
