Na15 V32 O64
1.0
9.252125 -0.008450 0.002504
-0.010888 11.840761 0.038073
0.002331 0.035289 10.798381
Na V O
15 32 64
direct
0.748637 0.411219 0.153039 Na
0.742799 0.069353 0.152623 Na
0.744551 0.799870 0.153428 Na
0.242579 0.063591 0.347739 Na
0.245079 0.313731 0.350189 Na
0.244114 0.562965 0.347406 Na
0.244000 0.812640 0.350072 Na
0.256212 0.188003 0.845333 Na
0.255991 0.438788 0.854092 Na
0.257137 0.688555 0.845347 Na
0.253453 0.938735 0.851032 Na
0.757103 0.187457 0.652967 Na
0.755587 0.436923 0.648852 Na
0.757942 0.687045 0.652801 Na
0.755686 0.936707 0.647950 Na
0.582027 0.062272 0.895350 V
0.581187 0.312725 0.896359 V
0.584126 0.564212 0.898859 V
0.582175 0.813759 0.896066 V
0.081455 0.062009 0.602855 V
0.081783 0.312589 0.604384 V
0.082206 0.561486 0.603412 V
0.080408 0.813528 0.602915 V
0.417698 0.185274 0.101794 V
0.417505 0.437859 0.109595 V
0.417987 0.689563 0.101114 V
0.417775 0.937942 0.105080 V
0.918148 0.189082 0.396881 V
0.919010 0.437865 0.395216 V
0.919049 0.687101 0.396045 V
0.917547 0.938514 0.393454 V
0.563745 0.064468 0.389458 V
0.566141 0.313139 0.386203 V
0.566480 0.563256 0.385695 V
0.565647 0.811453 0.387294 V
0.062966 0.061327 0.112136 V
0.065373 0.310365 0.111702 V
0.059226 0.565726 0.112899 V
0.064387 0.811958 0.111715 V
0.436009 0.187695 0.614104 V
0.435437 0.438194 0.612544 V
0.438059 0.686257 0.613089 V
0.433722 0.934991 0.611154 V
0.937673 0.187590 0.886847 V
0.934115 0.438301 0.887841 V
0.938527 0.687290 0.885885 V
0.931239 0.937906 0.887448 V
0.791920 0.067958 0.847650 O
0.792195 0.307028 0.849737 O
0.794237 0.567390 0.848076 O
0.791754 0.807140 0.847061 O
0.293362 0.065841 0.649489 O
0.294863 0.309000 0.650052 O
0.293788 0.562725 0.651384 O
0.294624 0.812078 0.649931 O
0.208414 0.184785 0.149973 O
0.213636 0.435432 0.149272 O
0.206782 0.685007 0.149420 O
0.205695 0.938438 0.150520 O
0.706595 0.184735 0.353794 O
0.706803 0.437787 0.353629 O
0.708444 0.685799 0.353576 O
0.705356 0.938366 0.349700 O
0.886177 0.064648 0.518709 O
0.886374 0.312251 0.520373 O
0.887572 0.563598 0.519745 O
0.886369 0.812457 0.518503 O
0.385220 0.066061 0.979279 O
0.385468 0.307615 0.983587 O
0.386072 0.567093 0.984380 O
0.384201 0.809322 0.979930 O
0.113304 0.186918 0.481370 O
0.115141 0.438530 0.480200 O
0.114517 0.686771 0.482308 O
0.113797 0.939169 0.478570 O
0.611375 0.188441 0.016622 O
0.606583 0.437820 0.018748 O
0.611119 0.691922 0.018025 O
0.613680 0.937286 0.019586 O
0.976771 0.062939 0.281050 O
0.980483 0.309753 0.284506 O
0.981696 0.563439 0.283042 O
0.977789 0.808821 0.282089 O
0.477859 0.070819 0.217428 O
0.473708 0.309984 0.218546 O
0.473311 0.565404 0.217616 O
0.475919 0.805360 0.217220 O
0.022698 0.186091 0.718983 O
0.023914 0.438879 0.716010 O
0.023218 0.686545 0.718179 O
0.022272 0.939640 0.714937 O
0.519454 0.188890 0.778453 O
0.522057 0.433704 0.784762 O
0.521686 0.685997 0.782301 O
0.520427 0.935458 0.783779 O
0.574848 0.062483 0.573466 O
0.574797 0.310497 0.572249 O
0.577937 0.563049 0.571716 O
0.576709 0.810858 0.571917 O
0.075325 0.066360 0.927612 O
0.076513 0.308250 0.926797 O
0.077193 0.568394 0.927407 O
0.075094 0.809376 0.926442 O
0.421846 0.186633 0.432481 O
0.425613 0.439552 0.427841 O
0.423985 0.686318 0.429176 O
0.424749 0.939373 0.426195 O
0.924098 0.185730 0.070143 O
0.932178 0.437629 0.072436 O
0.922720 0.686838 0.069261 O
0.923838 0.937496 0.072246 O
