Li17 Co18 O36                           
   1.00000000000000     
     8.2841280000000008    0.6244760000000000    1.3124760000000000
     3.4955189999999998    7.5348269999999999    1.3177479999999999
     1.2355900000000000    0.8593620000000000    9.7491289999999999
   Li   Co   O 
    17    18    36
Direct
  0.3060639813172857  0.5588734371663643  0.5106956531262072
  0.3337028574265425  0.3319240557288304  0.0018366866091247
  0.3325910281064848  0.6667486324062630  1.0005129917225419
  0.3326936223514352  0.9996191235650026  1.0011395840597463
  0.3327213955758806  1.0015023396311806  0.5010089638216495
  0.6673614658993202  0.3321309733789239  1.0009692305385043
  0.6666156282617993  0.3316308721773789  0.5015317681461443
  0.6660640393681108  0.6667938586429877  1.0011785348965967
  0.6508554571703100  0.6659211941383847  0.5009761237558077
  0.6667388579258998  0.9994125954443289  0.0020822132008012
  0.6502860010082113  0.0162932163311168  0.5019697694705714
 -0.0008554898738176  0.3323716568432240  1.0009015677657203
  0.0127287859793084  0.3338625038142061  0.5004255672478743
 -0.0013878783743264  0.6674562979743360  0.0009212755452804
 -0.0208875508730645  0.6749591956458720  0.4989221211228330
  0.9993616055846005  1.0008834634151544  0.9994035714559343
  0.0107823837777070  0.9895604078591115  0.5000081094482685
  0.1623813904541368  0.1684047697274527  0.2476710624686635
  0.1699296666860970  0.1655450962556771  0.7501349930221638
  0.1612475519859276  0.5001605030521279  0.2466966952813232
  0.1689900285476878  0.4949846784750458  0.7561339620597041
  0.1609898020945475  0.8367028141207518  0.2460381259441573
  0.1700622261038474  0.8300183896986755  0.7501354000056691
  0.4947599786548153  0.1675753780181366  0.2517238704975606
  0.5024052090018519  0.1620284426415426  0.7553428522370041
  0.4948443104640743  0.5005660958108807  0.2479276115967317
  0.5022651689831817  0.4979012645424099  0.7555141921498530
  0.4939408989495957  0.8338375800211686  0.2506164675829831
  0.5013801147871041  0.8297792018004504  0.7543173845807131
  0.8295061109397271  0.1689732068051931  0.2501140456109084
  0.8358995189650138  0.1649183394891398  0.7499473185477384
  0.8286137838550351  0.5008398141055623  0.2492383747825519
  0.8349900401538655  0.4986867002257156  0.7519111267151875
  0.8279600998183763  0.8349096682480167  0.2506648096417908
  0.8356975479452382  0.8311034796755562  0.7525145019865827
  0.2478017989591548  0.2541887295635213  0.3542786490962352
  0.2550629039899888  0.2488004425744523  0.8639120832279626
  0.2443227842046038  0.5924961456316732  0.3468668865438057
  0.2547297915444908  0.5852510867291739  0.8636807997189877
  0.2475452479496101  0.9243609884184770  0.3545769667959457
  0.2535368756505517  0.9186288031362120  0.8608089108113280
  0.5851980592180611  0.2555026795819736  0.3566256113905077
  0.5914979474114365  0.2492246820978290  0.8634502506927266
  0.5821759815766198  0.5856969253306911  0.3576494883876928
  0.5894106100551310  0.5834649866293372  0.8645296360424155
  0.5814668117824984  0.9204873812978802  0.3607464118924876
  0.5902083612284026  0.9159962245976788  0.8638248956534625
  0.9172634080327212  0.2547402220105729  0.3585411760749340
  0.9227346352204318  0.2513693663626193  0.8594526372754802
  0.9159632120252670  0.5872348691610968  0.3584928615246460
  0.9212932633926146  0.5848334219353732  0.8623984483082022
  0.9164896383078055  0.9216219883799155  0.3587970645747514
  0.9232195833924126  0.9185601627585330  0.8597717344089111
  0.0751291691232333  0.0828547916124363  0.1374825172403891
  0.0831396096529746  0.0779951036997039  0.6404357793806312
  0.0744153478336963  0.4150188245500753  0.1375271484734218
  0.0800997376284684  0.4142046957579098  0.6448931451959359
  0.0727723911377334  0.7494363793324071  0.1379307161267340
  0.0832944805628052  0.7396298024772766  0.6427318699701399
  0.4102972485776157  0.0802075203974881  0.1405487431852312
  0.4168265075865644  0.0728682221716591  0.6479770980641578
  0.4095159068295056  0.4124196338894359  0.1389331384551239
  0.4195482701714102  0.4043282594836221  0.6539928247936573
  0.4090587374426344  0.7484304348109345  0.1385071672619439
  0.4165217708157329  0.7437465245785687  0.6466353576914813
  0.7419999335707074  0.0812063001320471  0.1418312902962649
  0.7476135678761949  0.0776036204495928  0.6428392471253188
  0.7425143733413331  0.4143395234657463  0.1399434979208214
  0.7471900740391452  0.4125801239964070  0.6427494596213028
  0.7413750082230631  0.7481977782324666  0.1412910387859513
  0.7465892369152547  0.7456490235943178  0.6439381408554250
 
             NaN             NaN             NaN
             NaN             NaN             NaN
             NaN             NaN             NaN
             NaN             NaN             NaN
             NaN             NaN             NaN
             NaN             NaN             NaN
             NaN             NaN             NaN
             NaN             NaN             NaN
             NaN             NaN             NaN
             NaN             NaN             NaN
             NaN             NaN             NaN
             NaN             NaN             NaN
             NaN             NaN             NaN
             NaN             NaN             NaN
             NaN             NaN             NaN
             NaN             NaN             NaN
             NaN             NaN             NaN
             NaN             NaN             NaN
             NaN             NaN             NaN
             NaN             NaN             NaN
             NaN             NaN             NaN
             NaN             NaN             NaN
             NaN             NaN             NaN
             NaN             NaN             NaN
             NaN             NaN             NaN
             NaN             NaN             NaN
             NaN             NaN             NaN
             NaN             NaN             NaN
             NaN             NaN             NaN
             NaN             NaN             NaN
             NaN             NaN             NaN
             NaN             NaN             NaN
             NaN             NaN             NaN
             NaN             NaN             NaN
             NaN             NaN             NaN
             NaN             NaN             NaN
             NaN             NaN             NaN
             NaN             NaN             NaN
             NaN             NaN             NaN
             NaN             NaN             NaN
             NaN             NaN             NaN
             NaN             NaN             NaN
             NaN             NaN             NaN
             NaN             NaN             NaN
             NaN             NaN             NaN
             NaN             NaN             NaN
             NaN             NaN             NaN
             NaN             NaN             NaN
             NaN             NaN             NaN
             NaN             NaN             NaN
             NaN             NaN             NaN
             NaN             NaN             NaN
             NaN             NaN             NaN
             NaN             NaN             NaN
             NaN             NaN             NaN
             NaN             NaN             NaN
             NaN             NaN             NaN
             NaN             NaN             NaN
             NaN             NaN             NaN
             NaN             NaN             NaN
             NaN             NaN             NaN
             NaN             NaN             NaN
             NaN             NaN             NaN
             NaN             NaN             NaN
             NaN             NaN             NaN
             NaN             NaN             NaN
             NaN             NaN             NaN
             NaN             NaN             NaN
             NaN             NaN             NaN
             NaN             NaN             NaN
             NaN             NaN             NaN
