Li17 Co18 O36
1.0
8.284128 0.624476 1.312476
3.495519 7.534827 1.317748
1.235590 0.859362 9.749129
Li Co O
17 18 36
direct
0.238132 0.568527 0.552706 Li
0.332960 0.333437 0.000158 Li
0.333205 0.666481 -0.000049 Li
0.333387 0.999603 0.999895 Li
0.333037 0.994715 0.499418 Li
0.666551 0.333241 0.999800 Li
0.655647 0.341144 0.500029 Li
0.666239 0.666808 0.999880 Li
0.658051 0.666380 0.499912 Li
0.666569 0.999566 0.000353 Li
0.663430 1.002493 0.500802 Li
0.000106 0.333383 0.999662 Li
0.002841 0.333500 0.498821 Li
0.000091 0.666223 0.000168 Li
0.011060 0.663847 0.500575 Li
-0.000066 -0.000065 0.999894 Li
0.008088 0.992148 0.499393 Li
0.167270 0.166193 0.247439 Co
0.166606 0.168571 0.749923 Co
0.167298 0.498894 0.249427 Co
0.167110 0.501584 0.750068 Co
0.167203 0.832035 0.250592 Co
0.166595 0.834213 0.749343 Co
0.500090 0.165794 0.250092 Co
0.499625 0.167292 0.751829 Co
0.499455 0.499380 0.250774 Co
0.499382 0.501182 0.749650 Co
0.499419 0.831447 0.250127 Co
0.499395 0.834116 0.751705 Co
0.834032 0.165825 0.249703 Co
0.833406 0.168006 0.749086 Co
0.834113 0.498800 0.248138 Co
0.833235 0.501349 0.750597 Co
0.833957 0.831575 0.250316 Co
0.832381 0.834746 0.751682 Co
0.253487 0.252146 0.357094 O
0.252739 0.254585 0.860364 O
0.252846 0.586104 0.355669 O
0.253406 0.588038 0.859728 O
0.252977 0.922844 0.355634 O
0.252254 0.921505 0.859928 O
0.588126 0.252392 0.358466 O
0.587549 0.254188 0.860091 O
0.590543 0.584691 0.355969 O
0.586670 0.586706 0.860632 O
0.586715 0.918551 0.359212 O
0.586046 0.920316 0.862486 O
0.921325 0.252772 0.357714 O
0.920054 0.254250 0.859195 O
0.920889 0.584877 0.358365 O
0.920078 0.587406 0.860457 O
0.920724 0.918989 0.359500 O
0.920114 0.921805 0.859831 O
0.079940 0.078882 0.138938 O
0.080263 0.081110 0.640047 O
0.080731 0.413406 0.137680 O
0.078889 0.415289 0.641901 O
0.079978 0.746007 0.140241 O
0.075994 0.748338 0.644002 O
0.414421 0.078729 0.139599 O
0.413387 0.079781 0.643064 O
0.413829 0.412213 0.140238 O
0.413691 0.410927 0.645154 O
0.412995 0.745453 0.140362 O
0.413515 0.748225 0.644016 O
0.746900 0.078639 0.140754 O
0.745546 0.080813 0.641455 O
0.746355 0.412183 0.139599 O
0.745985 0.414990 0.640523 O
0.746649 0.746082 0.140039 O
0.745757 0.747971 0.642293 O
