Na15 V32 O64                            
   1.00000000000000     
     9.1046840000000007    0.0007610000000000   -0.0030140000000000
     0.0017620000000000   11.4419360000000001    0.0000630000000000
    -0.0000190000000000    0.0010940000000000   10.6051620000000000
   Na   V    O 
    15    32    64
Direct
  0.7389839723967739  0.4656650321567994  0.1694032202984559
  0.7424902581971153  0.0763582886606713  0.1523966514147759
  0.7425186485741833  0.8010919316946996  0.1526559217142491
  0.2430071165819356  0.0620578800649341  0.3472519441787583
  0.2424631696395210  0.3130764110202122  0.3462231813776597
  0.2430788793448286  0.5612437823327880  0.3473568056938774
  0.2420226979976192  0.8125135742303726  0.3467236691131319
  0.2580339333690205  0.1872875628121307  0.8492954362775862
  0.2595855096032693  0.4375231352656996  0.8484937057834756
  0.2576958841952290  0.6881393588220845  0.8502317236400430
  0.2578839672924005  0.9373743307837330  0.8487771309796770
  0.7581254256876164  0.1864020591353679  0.6498089735635517
  0.7564839459848258  0.4373303654307108  0.6506462710796086
  0.7583457859473910  0.6867825222851138  0.6499502701766744
  0.7568590255498364  0.9375027160568123  0.6490187620458769
  0.5844632598614083  0.0611468721991812  0.8958300257696834
  0.5895935566928259  0.3108698461487052  0.8975271101656475
  0.5878625806994222  0.5643086470845944  0.8964491170720308
  0.5848543104037631  0.8125876703165247  0.8969702081386970
  0.0868548560914064  0.0614114478756917  0.6018575189447688
  0.0867549372224872  0.3106493546846707  0.6030542293508034
  0.0887854668207098  0.5634903725803753  0.6038967672571118
  0.0839199471748415  0.8120468957246203  0.6015657663925040
  0.4158355525411324  0.1890029570376015  0.1041130112473141
  0.4096816977226823  0.4379260632766986  0.1036731466430396
  0.4155367068689415  0.6858050349287055  0.1052767331434410
  0.4179191339049737  0.9382468702549929  0.1047110303844860
  0.9146768596919799  0.1864304318939958  0.3944414203470572
  0.9162717318155558  0.4360003093550162  0.4004419368408279
  0.9149157993338974  0.6864298789241445  0.3944675359075092
  0.9110726643110567  0.9377412286599380  0.3939584966725747
  0.5606937835858830  0.0653694714918132  0.3880427591846924
  0.5632805311718840  0.3107008593358103  0.3847883242534991
  0.5617511244187838  0.5647885133532711  0.3883539325185694
  0.5610891945113465  0.8102610937722048  0.3870523011202778
  0.0628109942601185  0.0584858332188531  0.1122025629303494
  0.0569210827091311  0.3081886961376838  0.1129107888606882
  0.0588705103575222  0.5652255537441420  0.1134497475125684
  0.0614751277647372  0.8162152892361405  0.1128647394990381
  0.4380269261780967  0.1893880853365317  0.6165652798769869
  0.4388036284511827  0.4346658706983533  0.6161930322244231
  0.4372107792819477  0.6892457373097614  0.6167392408929544
  0.4366829004053230  0.9346203494881777  0.6144101720224313
  0.9384912811615251  0.1859031111834639  0.8824016553072198
  0.9418066274081127  0.4374686953660714  0.8817525120860310
  0.9382317963578402  0.6885842876519419  0.8833372233691890
  0.9363598218944702  0.9377457984892601  0.8826964213424446
  0.7907757582954318  0.0625951491027905  0.8484231213820053
  0.7949176148428165  0.3132421979646196  0.8486862929862582
  0.7940002000214719  0.5616717093175865  0.8491398734859601
  0.7909483866124134  0.8117988743621254  0.8493922292373739
  0.2931926980134634  0.0620597267455238  0.6483311475956697
  0.2921605330627202  0.3110618331651196  0.6514525050011954
  0.2944309431419327  0.5627259287723234  0.6493202278650188
  0.2897788006612245  0.8119038839962798  0.6502545541300861
  0.2064270165657547  0.1902234084538392  0.1480335717406476
  0.2053144626777055  0.4378514145334478  0.1479587994137006
  0.2067419035438505  0.6845698111897747  0.1491995840381151
  0.2089074561342628  0.9371713262866308  0.1503160586430994
  0.7082229197509236  0.1852780269006047  0.3568240248706687
  0.7056855886400939  0.4370534839627851  0.3678074056760536
  0.7077990292549501  0.6886332602957594  0.3563628596618500
  0.7052640403081654  0.9376288466682112  0.3543605278379829
  0.8874914132789016  0.0621051660773588  0.5195151527138790
  0.8889967368784397  0.3116347079640320  0.5216787459316805
  0.8897615192515644  0.5617070227408192  0.5213467554213622
  0.8868558837652216  0.8117564212312516  0.5186930083156724
  0.3864751757234473  0.0622688550562458  0.9808669036692308
  0.3856728196476098  0.3120807082310151  0.9801736833049333
  0.3854974711060919  0.5630921456750499  0.9799241128156595
  0.3869995209314894  0.8128889711968910  0.9818851261502104
  0.1142325611779285  0.1865148486082191  0.4779692261150288
  0.1158179405896718  0.4369421748218798  0.4805170700265080
  0.1141184446145331  0.6871100385558151  0.4777707708119294
  0.1126020169431854  0.9369997773039600  0.4773498286636908
  0.6112393415021700  0.1870995511527838  0.0172622213901406
  0.6061575982205767  0.4371112282629710  0.0129271448108952
  0.6119221223359474  0.6868697593862194  0.0189839258586915
  0.6145803686536553  0.9375983101537173  0.0209700268102964
  0.9788574580965488  0.0621023442931730  0.2802250587429427
  0.9774307248193068  0.3140323990780729  0.2845178934067079
  0.9748272147459360  0.5598444914991134  0.2832808297835783
  0.9781512642963577  0.8118634562547200  0.2808942618618531
  0.4793737180304376  0.0639773387640403  0.2185731265764517
  0.4786502789120490  0.3138979237205604  0.2178054209155036
  0.4804851216430137  0.5602107418665838  0.2191937536417541
  0.4803939747987087  0.8114990122902199  0.2178959362399837
  0.0216981858287468  0.1861242145237441  0.7156760809414777
  0.0236731457152928  0.4375612500171755  0.7149449993005916
  0.0209097433452285  0.6875043911037793  0.7161458880621865
  0.0192627463480264  0.9372702787558538  0.7148626233624924
  0.5198141203221951  0.1880524735802780  0.7839057027097525
  0.5218286681404152  0.4366242854176861  0.7819891356838014
  0.5190174159523977  0.6876397327591448  0.7839291688950638
  0.5174756175299109  0.9364478862698178  0.7831185044587770
  0.5759123017683336  0.0626343492915922  0.5737655437163056
  0.5805587063297821  0.3099700272516799  0.5716765970667694
  0.5767791895136227  0.5641468016061424  0.5735213545278270
  0.5800528781337917  0.8115848703099218  0.5727718797569779
  0.0795292984590787  0.0610802903672933  0.9265299159332443
  0.0789913554134003  0.3112414360020495  0.9249115728849517
  0.0792596704208250  0.5633387161320513  0.9253428700774577
  0.0788185438452231  0.8135640434917377  0.9269001733196163
  0.4190162126300692  0.1882439754146219  0.4301412351123943
  0.4229630760514240  0.4367390305452474  0.4308466611726303
  0.4184579899413805  0.6885249132282993  0.4305013307578420
  0.4223103114475109  0.9367856160970689  0.4291002490558640
  0.9250951562265968  0.1867158979401111  0.0678886613388983
  0.9327457994097443  0.4370144864088061  0.0666019920114280
  0.9249093980418053  0.6870852670472374  0.0686818027436829
  0.9179308620022368  0.9374423340364828  0.0686507659688687
 
  0.00000000E+00  0.00000000E+00  0.00000000E+00
  0.00000000E+00  0.00000000E+00  0.00000000E+00
  0.00000000E+00  0.00000000E+00  0.00000000E+00
  0.00000000E+00  0.00000000E+00  0.00000000E+00
  0.00000000E+00  0.00000000E+00  0.00000000E+00
  0.00000000E+00  0.00000000E+00  0.00000000E+00
  0.00000000E+00  0.00000000E+00  0.00000000E+00
  0.00000000E+00  0.00000000E+00  0.00000000E+00
  0.00000000E+00  0.00000000E+00  0.00000000E+00
  0.00000000E+00  0.00000000E+00  0.00000000E+00
  0.00000000E+00  0.00000000E+00  0.00000000E+00
  0.00000000E+00  0.00000000E+00  0.00000000E+00
  0.00000000E+00  0.00000000E+00  0.00000000E+00
  0.00000000E+00  0.00000000E+00  0.00000000E+00
  0.00000000E+00  0.00000000E+00  0.00000000E+00
  0.00000000E+00  0.00000000E+00  0.00000000E+00
  0.00000000E+00  0.00000000E+00  0.00000000E+00
  0.00000000E+00  0.00000000E+00  0.00000000E+00
  0.00000000E+00  0.00000000E+00  0.00000000E+00
  0.00000000E+00  0.00000000E+00  0.00000000E+00
  0.00000000E+00  0.00000000E+00  0.00000000E+00
  0.00000000E+00  0.00000000E+00  0.00000000E+00
  0.00000000E+00  0.00000000E+00  0.00000000E+00
  0.00000000E+00  0.00000000E+00  0.00000000E+00
  0.00000000E+00  0.00000000E+00  0.00000000E+00
  0.00000000E+00  0.00000000E+00  0.00000000E+00
  0.00000000E+00  0.00000000E+00  0.00000000E+00
  0.00000000E+00  0.00000000E+00  0.00000000E+00
  0.00000000E+00  0.00000000E+00  0.00000000E+00
  0.00000000E+00  0.00000000E+00  0.00000000E+00
  0.00000000E+00  0.00000000E+00  0.00000000E+00
  0.00000000E+00  0.00000000E+00  0.00000000E+00
  0.00000000E+00  0.00000000E+00  0.00000000E+00
  0.00000000E+00  0.00000000E+00  0.00000000E+00
  0.00000000E+00  0.00000000E+00  0.00000000E+00
  0.00000000E+00  0.00000000E+00  0.00000000E+00
  0.00000000E+00  0.00000000E+00  0.00000000E+00
  0.00000000E+00  0.00000000E+00  0.00000000E+00
  0.00000000E+00  0.00000000E+00  0.00000000E+00
  0.00000000E+00  0.00000000E+00  0.00000000E+00
  0.00000000E+00  0.00000000E+00  0.00000000E+00
  0.00000000E+00  0.00000000E+00  0.00000000E+00
  0.00000000E+00  0.00000000E+00  0.00000000E+00
  0.00000000E+00  0.00000000E+00  0.00000000E+00
  0.00000000E+00  0.00000000E+00  0.00000000E+00
  0.00000000E+00  0.00000000E+00  0.00000000E+00
  0.00000000E+00  0.00000000E+00  0.00000000E+00
  0.00000000E+00  0.00000000E+00  0.00000000E+00
  0.00000000E+00  0.00000000E+00  0.00000000E+00
  0.00000000E+00  0.00000000E+00  0.00000000E+00
  0.00000000E+00  0.00000000E+00  0.00000000E+00
  0.00000000E+00  0.00000000E+00  0.00000000E+00
  0.00000000E+00  0.00000000E+00  0.00000000E+00
  0.00000000E+00  0.00000000E+00  0.00000000E+00
  0.00000000E+00  0.00000000E+00  0.00000000E+00
  0.00000000E+00  0.00000000E+00  0.00000000E+00
  0.00000000E+00  0.00000000E+00  0.00000000E+00
  0.00000000E+00  0.00000000E+00  0.00000000E+00
  0.00000000E+00  0.00000000E+00  0.00000000E+00
  0.00000000E+00  0.00000000E+00  0.00000000E+00
  0.00000000E+00  0.00000000E+00  0.00000000E+00
  0.00000000E+00  0.00000000E+00  0.00000000E+00
  0.00000000E+00  0.00000000E+00  0.00000000E+00
  0.00000000E+00  0.00000000E+00  0.00000000E+00
  0.00000000E+00  0.00000000E+00  0.00000000E+00
  0.00000000E+00  0.00000000E+00  0.00000000E+00
  0.00000000E+00  0.00000000E+00  0.00000000E+00
  0.00000000E+00  0.00000000E+00  0.00000000E+00
  0.00000000E+00  0.00000000E+00  0.00000000E+00
  0.00000000E+00  0.00000000E+00  0.00000000E+00
  0.00000000E+00  0.00000000E+00  0.00000000E+00
  0.00000000E+00  0.00000000E+00  0.00000000E+00
  0.00000000E+00  0.00000000E+00  0.00000000E+00
  0.00000000E+00  0.00000000E+00  0.00000000E+00
  0.00000000E+00  0.00000000E+00  0.00000000E+00
  0.00000000E+00  0.00000000E+00  0.00000000E+00
  0.00000000E+00  0.00000000E+00  0.00000000E+00
  0.00000000E+00  0.00000000E+00  0.00000000E+00
  0.00000000E+00  0.00000000E+00  0.00000000E+00
  0.00000000E+00  0.00000000E+00  0.00000000E+00
  0.00000000E+00  0.00000000E+00  0.00000000E+00
  0.00000000E+00  0.00000000E+00  0.00000000E+00
  0.00000000E+00  0.00000000E+00  0.00000000E+00
  0.00000000E+00  0.00000000E+00  0.00000000E+00
  0.00000000E+00  0.00000000E+00  0.00000000E+00
  0.00000000E+00  0.00000000E+00  0.00000000E+00
  0.00000000E+00  0.00000000E+00  0.00000000E+00
  0.00000000E+00  0.00000000E+00  0.00000000E+00
  0.00000000E+00  0.00000000E+00  0.00000000E+00
  0.00000000E+00  0.00000000E+00  0.00000000E+00
  0.00000000E+00  0.00000000E+00  0.00000000E+00
  0.00000000E+00  0.00000000E+00  0.00000000E+00
  0.00000000E+00  0.00000000E+00  0.00000000E+00
  0.00000000E+00  0.00000000E+00  0.00000000E+00
  0.00000000E+00  0.00000000E+00  0.00000000E+00
  0.00000000E+00  0.00000000E+00  0.00000000E+00
  0.00000000E+00  0.00000000E+00  0.00000000E+00
  0.00000000E+00  0.00000000E+00  0.00000000E+00
  0.00000000E+00  0.00000000E+00  0.00000000E+00
  0.00000000E+00  0.00000000E+00  0.00000000E+00
  0.00000000E+00  0.00000000E+00  0.00000000E+00
  0.00000000E+00  0.00000000E+00  0.00000000E+00
  0.00000000E+00  0.00000000E+00  0.00000000E+00
  0.00000000E+00  0.00000000E+00  0.00000000E+00
  0.00000000E+00  0.00000000E+00  0.00000000E+00
  0.00000000E+00  0.00000000E+00  0.00000000E+00
  0.00000000E+00  0.00000000E+00  0.00000000E+00
  0.00000000E+00  0.00000000E+00  0.00000000E+00
  0.00000000E+00  0.00000000E+00  0.00000000E+00
  0.00000000E+00  0.00000000E+00  0.00000000E+00
  0.00000000E+00  0.00000000E+00  0.00000000E+00
