Li48 P16 O64                            
   1.00000000000000     
    10.5795577892414965    0.0115643375189261    0.0021650774391138
     0.0134930713259524   12.3326749677592176    0.0037765380541918
     0.0019962130491590    0.0030208636893827   10.0017434597956125
   Li   P    O 
    46    16    64
Direct
  0.6597946879278731  0.2538788472086437  0.0982468495888170
  0.6656251328394154  0.2486581618084375  0.5988763866382983
  0.6640741857738476  0.7499659927053275  0.0993612963687220
  0.6638796554858699  0.7509519025624725  0.5984467082125789
  0.1676541368400519  0.4899439554672060  0.1538857712306860
  0.1645990217738759  0.5019399553111158  0.6512966126809108
  0.1638435459802651  0.9994117857601040  0.1504996489047739
  0.1636063769199226  0.9996258368249988  0.6516038068576580
  0.3363641650944745  0.0013814280570879  0.4016485735183187
  0.3358228638638565  0.0009983474165236  0.8994693260190036
  0.3391296090732442  0.4988217105759731  0.3977562715891864
  0.3366516160801455  0.4975589738943189  0.9072814545972436
  0.8370377434935697  0.2476075097990975  0.3504664971094835
  0.8349470004595720  0.2485382434833635  0.8489195291411209
  0.8372437534791711  0.7488854327112423  0.3492680223654521
  0.8369606212165623  0.7489155581062442  0.8492379093968316
  0.3384846156796216  0.2525307234415899  0.3919793556937073
  0.3338956994729895  0.2540649894317009  0.9055327164647387
  0.3365009216138219  0.7494053143942796  0.4003670693428176
  0.3364210232056541  0.7493544999639489  0.9017058423268449
  0.8371814137438973  0.0011354610155664  0.3496105874988310
  0.8369272621426572  0.0005956883408833  0.8481102279287115
  0.8368419325995738  0.5010056659101428  0.3482073140582735
  0.8339522981824095  0.5021403910856640  0.8498667308365188
  0.6571562246060914  0.4969504651256739  0.0988133307859610
  0.6658481516829032  0.5016501943705516  0.5985821515498551
  0.6647579349758681  0.9948560072133998  0.0950566946676956
  0.6645160043446995  0.9982224347918631  0.5994996275261977
  0.1629986423538411  0.2508765869790981  0.6450895190139825
  0.1630394819461738  0.7501465840492746  0.1516260434275927
  0.1641985133145283  0.7520037683386722  0.6509501848538669
  0.9269666147384314  0.3706511028073323  0.1521275342564577
  0.9200147115001087  0.3764629216458006  0.6490529885843176
  0.9255884626038959  0.8739520173454006  0.1490494600984881
  0.9264233648868162  0.8752993836344887  0.6488219707982809
  0.4267782685185951  0.3750640167548821  0.6060463891956445
  0.4284077082427710  0.8756052164131142  0.1005190195544214
  0.4255217629681914  0.8750579972999385  0.6005443015981761
  0.0774589087396213  0.1294661483523142  0.3431710137866275
  0.0748958624852385  0.1263881717560666  0.8556995817759246
  0.0756636236348426  0.6234260889741990  0.3506098926209402
  0.0750405141471961  0.6252657054249542  0.8518764801364991
  0.5759556002300705  0.1251613981227401  0.4015561395431441
  0.5735079275829456  0.1248219795986559  0.8952002830546251
  0.5744098414237435  0.6243350552793736  0.3990458617636707
  0.5720407790580515  0.6246622203650533  0.8986921097642705
  0.9082744901482370  0.1226934915224793  0.0971180846788048
  0.9125572445082558  0.1241785555955862  0.5972253486184238
  0.9110357341097945  0.6235691456495105  0.0977262818270113
  0.9118991333817129  0.6267211241851106  0.5969712177194073
  0.4140409135836521  0.1217807900762577  0.1527960958945467
  0.4108851309902812  0.1252293176250274  0.6538615244325454
  0.4093304009515749  0.6296282200272436  0.1525907723474651
  0.4109665648707198  0.6254646743923185  0.6532217629494491
  0.0879847963586060  0.3746684788441681  0.4088405415996586
  0.0844248386881577  0.3769430111071765  0.9006024414141190
  0.0893409008461952  0.8751625400376909  0.4028535395686046
  0.0887963620400974  0.8748025758734035  0.9041021558280269
  0.5933199595298775  0.3747587021565419  0.3498689312099705
  0.5880795196512184  0.3750460609627447  0.8414557596553669
  0.5894937581099258  0.8750454709107336  0.3470525637020324
  0.5888643326700137  0.8745180628366517  0.8454354661883318
  0.8365219791263425  0.0192069723048697  0.1464868245159316
  0.8421510021280343  0.0208782746685650  0.6481273600086871
  0.8392815189088458  0.5212333484404897  0.1483757596172219
  0.8411153129633585  0.5247180751298335  0.6500938468357853
  0.3486415669785868  0.2236585395169188  0.0939814576181321
  0.3425567715601122  0.2288636962989521  0.6013100564963854
  0.3435805999044473  0.7371491560397899  0.1064253127673409
  0.3413007755287747  0.7290675396957296  0.6013644387538911
  0.1586909363749603  0.2683086328114664  0.3743021255339133
  0.1549351624371232  0.2729249512542271  0.8522537509283734
  0.1583430612679831  0.7709261655666945  0.3524606180774796
  0.1593619872109466  0.7717065346678830  0.8525594616794906
  0.6615559059843980  0.4785996116446089  0.4033301729133257
  0.6547637856068677  0.4778908135755966  0.8978381360913225
  0.6594553888100110  0.9780327273452334  0.3989722611514443
  0.6588361634776296  0.9779700155096261  0.8961396678523381
  0.1600437905938562  0.4753709805462454  0.3539634068684926
  0.1566030581949802  0.4786392226395257  0.8478749670591659
  0.1600231209989198  0.9776879167189833  0.3509035274699973
  0.1585804572381052  0.9783219302293951  0.8533120586663585
  0.6612474078290859  0.2706132158867069  0.4038761941749772
  0.6547221594653533  0.2714767504542803  0.8975961179278572
  0.6591021917678276  0.7712627565414334  0.3979581702411301
  0.6588174434403999  0.7713690872624177  0.8976628922190453
  0.8389753055728297  0.2258978941405693  0.1497605405818569
  0.8416186552288076  0.2271138045598714  0.6487352502452465
  0.8415748448602385  0.7278981001028891  0.1483522028041264
  0.8416741394963667  0.7305978038258767  0.6468092458318153
  0.3431636411235219  0.0190984443185668  0.1026756538728522
  0.3411206056223499  0.0220598970850756  0.6016978423872757
  0.3312804191296153  0.5350319665449229  0.0954231286251071
  0.3420852378270851  0.5223883788398105  0.6002002654097869
  0.5524211467935985  0.1222266117221769  0.0999926429017270
  0.5502823854179123  0.1240148444740669  0.6035315933740246
  0.5475931816920613  0.6266426615760231  0.0995058502922156
  0.5500210505596577  0.6258301358893711  0.6021008684195363
  0.0444895950277590  0.1171825828299051  0.1512209100845540
  0.0503017269964826  0.1247875998400448  0.6513337094287990
  0.0492709582039665  0.6230608596371223  0.1506686499819950
  0.0502669225920263  0.6274255590575315  0.6491514361278106
  0.4544842369126174  0.3751576477906563  0.4010251814732276
  0.4452901491785548  0.3745791542570281  0.8738192944481705
  0.4507768086059633  0.8754255221045883  0.3986476283953045
  0.4503917027795065  0.8753564149968380  0.8976638614088420
  0.9508567562259964  0.3734961522106702  0.3527451070150885
  0.9464315320066559  0.3754941112786090  0.8459240511661602
  0.9506853411117255  0.8754595332554443  0.3507342908749901
  0.9504070598616364  0.8746930154785352  0.8515173129829219
  0.6012857458636213  0.3745366598905229  0.1961023452464972
  0.5998462339797459  0.3752006593835447  0.6856769014986369
  0.5906894540528436  0.8751231337164006  0.1908113622458277
  0.5894588943063218  0.8743524582403006  0.6894674927618073
  0.0802417400238192  0.3813795785759804  0.0547051135050424
  0.0837226882705236  0.3810257196664301  0.5649804816673499
  0.0889441345475180  0.8742715709251823  0.0601000184121436
  0.0898714256949183  0.8759049579687719  0.5590440525404424
  0.4132700161817732  0.1240116015135761  0.3081103563349671
  0.4085377695034599  0.1250981163637598  0.8098267257781755
  0.4107375020045564  0.6254281739074080  0.3086984718208191
  0.4089807035271444  0.6251751721797502  0.8091951041486676
  0.9127392769837573  0.1241752119573245  0.4413238576038077
  0.9079091150833473  0.1246443346412393  0.9409119051556472
  0.9116426026291256  0.6249083318448524  0.4408298517093183
  0.9109054793583644  0.6244666469379027  0.9413632816093807
 
  0.00000000E+00  0.00000000E+00  0.00000000E+00
  0.00000000E+00  0.00000000E+00  0.00000000E+00
  0.00000000E+00  0.00000000E+00  0.00000000E+00
  0.00000000E+00  0.00000000E+00  0.00000000E+00
  0.00000000E+00  0.00000000E+00  0.00000000E+00
  0.00000000E+00  0.00000000E+00  0.00000000E+00
  0.00000000E+00  0.00000000E+00  0.00000000E+00
  0.00000000E+00  0.00000000E+00  0.00000000E+00
  0.00000000E+00  0.00000000E+00  0.00000000E+00
  0.00000000E+00  0.00000000E+00  0.00000000E+00
  0.00000000E+00  0.00000000E+00  0.00000000E+00
  0.00000000E+00  0.00000000E+00  0.00000000E+00
  0.00000000E+00  0.00000000E+00  0.00000000E+00
  0.00000000E+00  0.00000000E+00  0.00000000E+00
  0.00000000E+00  0.00000000E+00  0.00000000E+00
  0.00000000E+00  0.00000000E+00  0.00000000E+00
  0.00000000E+00  0.00000000E+00  0.00000000E+00
  0.00000000E+00  0.00000000E+00  0.00000000E+00
  0.00000000E+00  0.00000000E+00  0.00000000E+00
  0.00000000E+00  0.00000000E+00  0.00000000E+00
  0.00000000E+00  0.00000000E+00  0.00000000E+00
  0.00000000E+00  0.00000000E+00  0.00000000E+00
  0.00000000E+00  0.00000000E+00  0.00000000E+00
  0.00000000E+00  0.00000000E+00  0.00000000E+00
  0.00000000E+00  0.00000000E+00  0.00000000E+00
  0.00000000E+00  0.00000000E+00  0.00000000E+00
  0.00000000E+00  0.00000000E+00  0.00000000E+00
  0.00000000E+00  0.00000000E+00  0.00000000E+00
  0.00000000E+00  0.00000000E+00  0.00000000E+00
  0.00000000E+00  0.00000000E+00  0.00000000E+00
  0.00000000E+00  0.00000000E+00  0.00000000E+00
  0.00000000E+00  0.00000000E+00  0.00000000E+00
  0.00000000E+00  0.00000000E+00  0.00000000E+00
  0.00000000E+00  0.00000000E+00  0.00000000E+00
  0.00000000E+00  0.00000000E+00  0.00000000E+00
  0.00000000E+00  0.00000000E+00  0.00000000E+00
  0.00000000E+00  0.00000000E+00  0.00000000E+00
  0.00000000E+00  0.00000000E+00  0.00000000E+00
  0.00000000E+00  0.00000000E+00  0.00000000E+00
  0.00000000E+00  0.00000000E+00  0.00000000E+00
  0.00000000E+00  0.00000000E+00  0.00000000E+00
  0.00000000E+00  0.00000000E+00  0.00000000E+00
  0.00000000E+00  0.00000000E+00  0.00000000E+00
  0.00000000E+00  0.00000000E+00  0.00000000E+00
  0.00000000E+00  0.00000000E+00  0.00000000E+00
  0.00000000E+00  0.00000000E+00  0.00000000E+00
  0.00000000E+00  0.00000000E+00  0.00000000E+00
  0.00000000E+00  0.00000000E+00  0.00000000E+00
  0.00000000E+00  0.00000000E+00  0.00000000E+00
  0.00000000E+00  0.00000000E+00  0.00000000E+00
  0.00000000E+00  0.00000000E+00  0.00000000E+00
  0.00000000E+00  0.00000000E+00  0.00000000E+00
  0.00000000E+00  0.00000000E+00  0.00000000E+00
  0.00000000E+00  0.00000000E+00  0.00000000E+00
  0.00000000E+00  0.00000000E+00  0.00000000E+00
  0.00000000E+00  0.00000000E+00  0.00000000E+00
  0.00000000E+00  0.00000000E+00  0.00000000E+00
  0.00000000E+00  0.00000000E+00  0.00000000E+00
  0.00000000E+00  0.00000000E+00  0.00000000E+00
  0.00000000E+00  0.00000000E+00  0.00000000E+00
  0.00000000E+00  0.00000000E+00  0.00000000E+00
  0.00000000E+00  0.00000000E+00  0.00000000E+00
  0.00000000E+00  0.00000000E+00  0.00000000E+00
  0.00000000E+00  0.00000000E+00  0.00000000E+00
  0.00000000E+00  0.00000000E+00  0.00000000E+00
  0.00000000E+00  0.00000000E+00  0.00000000E+00
  0.00000000E+00  0.00000000E+00  0.00000000E+00
  0.00000000E+00  0.00000000E+00  0.00000000E+00
  0.00000000E+00  0.00000000E+00  0.00000000E+00
  0.00000000E+00  0.00000000E+00  0.00000000E+00
  0.00000000E+00  0.00000000E+00  0.00000000E+00
  0.00000000E+00  0.00000000E+00  0.00000000E+00
  0.00000000E+00  0.00000000E+00  0.00000000E+00
  0.00000000E+00  0.00000000E+00  0.00000000E+00
  0.00000000E+00  0.00000000E+00  0.00000000E+00
  0.00000000E+00  0.00000000E+00  0.00000000E+00
  0.00000000E+00  0.00000000E+00  0.00000000E+00
  0.00000000E+00  0.00000000E+00  0.00000000E+00
  0.00000000E+00  0.00000000E+00  0.00000000E+00
  0.00000000E+00  0.00000000E+00  0.00000000E+00
  0.00000000E+00  0.00000000E+00  0.00000000E+00
  0.00000000E+00  0.00000000E+00  0.00000000E+00
  0.00000000E+00  0.00000000E+00  0.00000000E+00
  0.00000000E+00  0.00000000E+00  0.00000000E+00
  0.00000000E+00  0.00000000E+00  0.00000000E+00
  0.00000000E+00  0.00000000E+00  0.00000000E+00
  0.00000000E+00  0.00000000E+00  0.00000000E+00
  0.00000000E+00  0.00000000E+00  0.00000000E+00
  0.00000000E+00  0.00000000E+00  0.00000000E+00
  0.00000000E+00  0.00000000E+00  0.00000000E+00
  0.00000000E+00  0.00000000E+00  0.00000000E+00
  0.00000000E+00  0.00000000E+00  0.00000000E+00
  0.00000000E+00  0.00000000E+00  0.00000000E+00
  0.00000000E+00  0.00000000E+00  0.00000000E+00
  0.00000000E+00  0.00000000E+00  0.00000000E+00
  0.00000000E+00  0.00000000E+00  0.00000000E+00
  0.00000000E+00  0.00000000E+00  0.00000000E+00
  0.00000000E+00  0.00000000E+00  0.00000000E+00
  0.00000000E+00  0.00000000E+00  0.00000000E+00
  0.00000000E+00  0.00000000E+00  0.00000000E+00
  0.00000000E+00  0.00000000E+00  0.00000000E+00
  0.00000000E+00  0.00000000E+00  0.00000000E+00
  0.00000000E+00  0.00000000E+00  0.00000000E+00
  0.00000000E+00  0.00000000E+00  0.00000000E+00
  0.00000000E+00  0.00000000E+00  0.00000000E+00
  0.00000000E+00  0.00000000E+00  0.00000000E+00
  0.00000000E+00  0.00000000E+00  0.00000000E+00
  0.00000000E+00  0.00000000E+00  0.00000000E+00
  0.00000000E+00  0.00000000E+00  0.00000000E+00
  0.00000000E+00  0.00000000E+00  0.00000000E+00
  0.00000000E+00  0.00000000E+00  0.00000000E+00
  0.00000000E+00  0.00000000E+00  0.00000000E+00
  0.00000000E+00  0.00000000E+00  0.00000000E+00
  0.00000000E+00  0.00000000E+00  0.00000000E+00
  0.00000000E+00  0.00000000E+00  0.00000000E+00
  0.00000000E+00  0.00000000E+00  0.00000000E+00
  0.00000000E+00  0.00000000E+00  0.00000000E+00
  0.00000000E+00  0.00000000E+00  0.00000000E+00
  0.00000000E+00  0.00000000E+00  0.00000000E+00
  0.00000000E+00  0.00000000E+00  0.00000000E+00
  0.00000000E+00  0.00000000E+00  0.00000000E+00
  0.00000000E+00  0.00000000E+00  0.00000000E+00
  0.00000000E+00  0.00000000E+00  0.00000000E+00
  0.00000000E+00  0.00000000E+00  0.00000000E+00
  0.00000000E+00  0.00000000E+00  0.00000000E+00
  0.00000000E+00  0.00000000E+00  0.00000000E+00
