Li46 P16 O64
1.0
10.579558 0.011564 0.002165
0.013493 12.332675 0.003777
0.001996 0.003021 10.001743
Li P O
46 16 64
direct
0.659795 0.253879 0.098247 Li
0.665625 0.248658 0.598876 Li
0.664074 0.749966 0.099361 Li
0.663880 0.750952 0.598447 Li
0.167654 0.489944 0.153886 Li
0.164599 0.501940 0.651297 Li
0.163844 0.999412 0.150500 Li
0.163606 0.999626 0.651604 Li
0.336364 0.001381 0.401649 Li
0.335823 0.000998 0.899469 Li
0.339130 0.498822 0.397756 Li
0.336652 0.497559 0.907281 Li
0.837038 0.247608 0.350466 Li
0.834947 0.248538 0.848920 Li
0.837244 0.748885 0.349268 Li
0.836961 0.748916 0.849238 Li
0.338485 0.252531 0.391979 Li
0.333896 0.254065 0.905533 Li
0.336501 0.749405 0.400367 Li
0.336421 0.749354 0.901706 Li
0.837181 0.001135 0.349611 Li
0.836927 0.000596 0.848110 Li
0.836842 0.501006 0.348207 Li
0.833952 0.502140 0.849867 Li
0.657156 0.496950 0.098813 Li
0.665848 0.501650 0.598582 Li
0.664758 0.994856 0.095057 Li
0.664516 0.998222 0.599500 Li
0.162999 0.250877 0.645090 Li
0.163039 0.750147 0.151626 Li
0.164199 0.752004 0.650950 Li
0.926967 0.370651 0.152128 Li
0.920015 0.376463 0.649053 Li
0.925588 0.873952 0.149049 Li
0.926423 0.875299 0.648822 Li
0.426778 0.375064 0.606046 Li
0.428408 0.875605 0.100519 Li
0.425522 0.875058 0.600544 Li
0.077459 0.129466 0.343171 Li
0.074896 0.126388 0.855700 Li
0.075664 0.623426 0.350610 Li
0.075041 0.625266 0.851876 Li
0.575956 0.125161 0.401556 Li
0.573508 0.124822 0.895200 Li
0.574410 0.624335 0.399046 Li
0.572041 0.624662 0.898692 Li
0.908274 0.122693 0.097118 P
0.912557 0.124179 0.597225 P
0.911036 0.623569 0.097726 P
0.911899 0.626721 0.596971 P
0.414041 0.121781 0.152796 P
0.410885 0.125229 0.653862 P
0.409330 0.629628 0.152591 P
0.410967 0.625465 0.653222 P
0.087985 0.374668 0.408841 P
0.084425 0.376943 0.900602 P
0.089341 0.875163 0.402854 P
0.088796 0.874803 0.904102 P
0.593320 0.374759 0.349869 P
0.588080 0.375046 0.841456 P
0.589494 0.875045 0.347053 P
0.588864 0.874518 0.845435 P
0.836522 0.019207 0.146487 O
0.842151 0.020878 0.648127 O
0.839282 0.521233 0.148376 O
0.841115 0.524718 0.650094 O
0.348642 0.223659 0.093981 O
0.342557 0.228864 0.601310 O
0.343581 0.737149 0.106425 O
0.341301 0.729068 0.601364 O
0.158691 0.268309 0.374302 O
0.154935 0.272925 0.852254 O
0.158343 0.770926 0.352461 O
0.159362 0.771707 0.852559 O
0.661556 0.478600 0.403330 O
0.654764 0.477891 0.897838 O
0.659455 0.978033 0.398972 O
0.658836 0.977970 0.896140 O
0.160044 0.475371 0.353963 O
0.156603 0.478639 0.847875 O
0.160023 0.977688 0.350904 O
0.158580 0.978322 0.853312 O
0.661247 0.270613 0.403876 O
0.654722 0.271477 0.897596 O
0.659102 0.771263 0.397958 O
0.658817 0.771369 0.897663 O
0.838975 0.225898 0.149761 O
0.841619 0.227114 0.648735 O
0.841575 0.727898 0.148352 O
0.841674 0.730598 0.646809 O
0.343164 0.019098 0.102676 O
0.341121 0.022060 0.601698 O
0.331280 0.535032 0.095423 O
0.342085 0.522388 0.600200 O
0.552421 0.122227 0.099993 O
0.550282 0.124015 0.603532 O
0.547593 0.626643 0.099506 O
0.550021 0.625830 0.602101 O
0.044490 0.117183 0.151221 O
0.050302 0.124788 0.651334 O
0.049271 0.623061 0.150669 O
0.050267 0.627426 0.649151 O
0.454484 0.375158 0.401025 O
0.445290 0.374579 0.873819 O
0.450777 0.875426 0.398648 O
0.450392 0.875356 0.897664 O
0.950857 0.373496 0.352745 O
0.946432 0.375494 0.845924 O
0.950685 0.875460 0.350734 O
0.950407 0.874693 0.851517 O
0.601286 0.374537 0.196102 O
0.599846 0.375201 0.685677 O
0.590689 0.875123 0.190811 O
0.589459 0.874352 0.689467 O
0.080242 0.381380 0.054705 O
0.083723 0.381026 0.564980 O
0.088944 0.874272 0.060100 O
0.089871 0.875905 0.559044 O
0.413270 0.124012 0.308110 O
0.408538 0.125098 0.809827 O
0.410738 0.625428 0.308698 O
0.408981 0.625175 0.809195 O
0.912739 0.124175 0.441324 O
0.907909 0.124644 0.940912 O
0.911643 0.624908 0.440830 O
0.910905 0.624467 0.941363 O
