Na15 V32 O64                            
   1.00000000000000     
     9.1027719999999999    0.0021270000000000   -0.0009080000000000
     0.0037460000000000   11.4398049999999998   -0.0002540000000000
     0.0003010000000000    0.0000540000000000   10.6095290000000002
   Na   V    O 
    15    32    64
Direct
  0.7413142337299722  0.3529596391255785  0.1607144724437826
  0.7421486224833276  0.0686894427233024  0.1523702633099148
  0.7422143352093021  0.7965457815108075  0.1533518377321999
  0.2427786142181287  0.0628529779601509  0.3479472532654970
  0.2419521656293842  0.3138416812617157  0.3469045619240649
  0.2432358922080075  0.5628441661634928  0.3464356798083820
  0.2421735804039590  0.8131862538472094  0.3474957326017141
  0.2577767052827463  0.1880116772164510  0.8497915623461133
  0.2592345286053297  0.4383734657221134  0.8483275998451559
  0.2580908205161181  0.6886264002406267  0.8495307003577575
  0.2576690303356547  0.9386665923497177  0.8496511916842754
  0.7580467869551566  0.1882752743998602  0.6505342060756353
  0.7573213867705170  0.4383398107788453  0.6505163451030678
  0.7581705675798698  0.6880689454728195  0.6503265441195251
  0.7572938148848289  0.9379499429906193  0.6495197993842023
  0.5852587878034891  0.0627293224266011  0.8965656411671072
  0.5863666367006359  0.3131577208151075  0.8963711421169854
  0.5896194625416908  0.5631109868908861  0.8992150645003155
  0.5844649609749228  0.8126790780971092  0.8964462702430811
  0.0848881332895026  0.0621497383691300  0.6028418314188676
  0.0870475595470899  0.3117061705907653  0.6028668860411892
  0.0880850999273696  0.5635878327331085  0.6031453186024190
  0.0856109645829101  0.8121606786308188  0.6026711849449443
  0.4165352958842511  0.1890442406054146  0.1044830896607938
  0.4108053185437855  0.4394505675343479  0.1042928176957074
  0.4136942532174874  0.6864727188654184  0.1046980455650677
  0.4175025327576888  0.9385566541803061  0.1048991175001430
  0.9147822126055873  0.1884100491057610  0.3955147887328873
  0.9151910930771088  0.4390214349360876  0.3968204259961179
  0.9145893033130682  0.6866742528721494  0.3947730507382414
  0.9128303893381721  0.9372994418430424  0.3946030753496843
  0.5616199198962817  0.0647867487397018  0.3879360409392904
  0.5605955651615879  0.3119752317024857  0.3876881244581138
  0.5649626436004397  0.5641173416944300  0.3821255112851920
  0.5603627077203083  0.8117160786940231  0.3875624961685303
  0.0610398238879195  0.0611736003322974  0.1135933924795922
  0.0613763318029828  0.3089922988605082  0.1122328548135123
  0.0553645021823000  0.5642509507541141  0.1127935296925500
  0.0624530844215907  0.8172803891160608  0.1126952854386945
  0.4373490433188250  0.1886688664947878  0.6169421519669470
  0.4392348885004779  0.4391425780484494  0.6143258443995494
  0.4392071996210158  0.6878296085517671  0.6155682688941525
  0.4368849129772274  0.9386553838379456  0.6162827406285830
  0.9378383811474793  0.1880285639951842  0.8831795753851953
  0.9403054954657940  0.4378773250333841  0.8823343557252329
  0.9385238208645855  0.6894293893236937  0.8833607541326951
  0.9367998038483358  0.9385465800017342  0.8834020302123938
  0.7909971454744880  0.0637019918699662  0.8493092697791271
  0.7927959658424141  0.3144223593681394  0.8493555719555218
  0.7943801024437661  0.5628429652054219  0.8493678354742237
  0.7912043560855726  0.8126594466815262  0.8494763203474300
  0.2913174183858442  0.0632848540361534  0.6500380922559039
  0.2929836448660127  0.3127361654649896  0.6497685837731848
  0.2940029645610714  0.5639633474438357  0.6496916873882007
  0.2922053272126666  0.8131820775378461  0.6492125135170661
  0.2073104012581629  0.1906311403885814  0.1492023909735376
  0.2050445763333149  0.4390435584501498  0.1473964827036505
  0.2056966689119534  0.6861365402704601  0.1472508895021388
  0.2085815886842932  0.9374082382297964  0.1501996182035599
  0.7072562265233789  0.1882808383470272  0.3545044456398350
  0.7069094042733464  0.4366115940076542  0.3599463304020868
  0.7081952239615127  0.6908994239560656  0.3567227494201010
  0.7061678287095269  0.9382039575599223  0.3543723925093762
  0.8868916281737250  0.0633161032618362  0.5193616996136227
  0.8887054188792852  0.3133572610101953  0.5203539039541912
  0.8887111061882016  0.5628156313552870  0.5208138595348150
  0.8878066582974957  0.8119706742869902  0.5194851639960166
  0.3870606968409839  0.0633729154343363  0.9813109385443143
  0.3859570033691668  0.3131207363043724  0.9806194406265368
  0.3854888314028536  0.5633181053377774  0.9795695508566223
  0.3863513450693185  0.8137058750144840  0.9813396226839866
  0.1139923002856220  0.1876016365065779  0.4785242300325712
  0.1150694865048604  0.4378790648387572  0.4798244013356291
  0.1144927552050450  0.6876650899128969  0.4785235161250374
  0.1127991691451634  0.9376167175901390  0.4784403594006941
  0.6133993714323547  0.1895409540156542  0.0198714188942872
  0.6086300818987170  0.4389800069724532  0.0169141914153500
  0.6102096482375606  0.6878277664614795  0.0179661296583275
  0.6141508075787787  0.9375045946491425  0.0207937490795021
  0.9783990871086332  0.0631907296675359  0.2812530467431164
  0.9769285294878884  0.3136915548179552  0.2825340286250647
  0.9800676498204888  0.5623916100210675  0.2847216895471264
  0.9790024505293671  0.8129634982104392  0.2815099203374012
  0.4795877902226074  0.0640792445674750  0.2188662415047875
  0.4797091981720507  0.3145570615857879  0.2179439699518602
  0.4745866583266743  0.5630222496537389  0.2192018417395203
  0.4793087181725268  0.8123999052099791  0.2178738111394578
  0.0205789333400052  0.1876673878992254  0.7162143828978664
  0.0228166673551435  0.4377155218253560  0.7150969272354161
  0.0214295757687671  0.6882093405312771  0.7161696743267660
  0.0192245190052045  0.9380054837832958  0.7157594062007490
  0.5187674126400037  0.1881520805565355  0.7844146649692741
  0.5219860308112314  0.4385613699451003  0.7823429433019279
  0.5208188152230108  0.6876221125145640  0.7837837105324311
  0.5180235384980618  0.9382605510446722  0.7840091165677031
  0.5780128668516298  0.0638182820260258  0.5736360221163996
  0.5788793988439053  0.3119730000692338  0.5730158594620552
  0.5795373113258552  0.5643854439342165  0.5701869276882593
  0.5782258015570366  0.8133321279651216  0.5734963270226281
  0.0783714091063333  0.0629657457948563  0.9280103833967649
  0.0795707097986054  0.3122273876642531  0.9257329991210473
  0.0782866919624973  0.5636056545491680  0.9253075372961255
  0.0793938010935063  0.8148336841007899  0.9267399579500288
  0.4192139123116588  0.1884772280623421  0.4306472581502074
  0.4226026295512818  0.4379105536342032  0.4294587709279776
  0.4207231087247577  0.6888215783424916  0.4296053394109495
  0.4219061460338165  0.9382222921298260  0.4301123021244481
  0.9210556814885557  0.1899504490429741  0.0693695121665398
  0.9295709523656872  0.4376227734187977  0.0683213539680717
  0.9270013366090087  0.6891744920896433  0.0687468662803475
  0.9182881957278645  0.9373792662981325  0.0694532235498135
 
             NaN             NaN             NaN
             NaN             NaN             NaN
             NaN             NaN             NaN
             NaN             NaN             NaN
             NaN             NaN             NaN
             NaN             NaN             NaN
             NaN             NaN             NaN
             NaN             NaN             NaN
             NaN             NaN             NaN
             NaN             NaN             NaN
             NaN             NaN             NaN
             NaN             NaN             NaN
             NaN             NaN             NaN
             NaN             NaN             NaN
             NaN             NaN             NaN
             NaN             NaN             NaN
             NaN             NaN             NaN
             NaN             NaN             NaN
             NaN             NaN             NaN
             NaN             NaN             NaN
             NaN             NaN             NaN
             NaN             NaN             NaN
             NaN             NaN             NaN
             NaN             NaN             NaN
             NaN             NaN             NaN
             NaN             NaN             NaN
             NaN             NaN             NaN
             NaN             NaN             NaN
             NaN             NaN             NaN
             NaN             NaN             NaN
             NaN             NaN             NaN
             NaN             NaN             NaN
             NaN             NaN             NaN
             NaN             NaN             NaN
             NaN             NaN             NaN
             NaN             NaN             NaN
             NaN             NaN             NaN
             NaN             NaN             NaN
             NaN             NaN             NaN
             NaN             NaN             NaN
             NaN             NaN             NaN
             NaN             NaN             NaN
             NaN             NaN             NaN
             NaN             NaN             NaN
             NaN             NaN             NaN
             NaN             NaN             NaN
             NaN             NaN             NaN
             NaN             NaN             NaN
             NaN             NaN             NaN
             NaN             NaN             NaN
             NaN             NaN             NaN
             NaN             NaN             NaN
             NaN             NaN             NaN
             NaN             NaN             NaN
             NaN             NaN             NaN
             NaN             NaN             NaN
             NaN             NaN             NaN
             NaN             NaN             NaN
             NaN             NaN             NaN
             NaN             NaN             NaN
             NaN             NaN             NaN
             NaN             NaN             NaN
             NaN             NaN             NaN
             NaN             NaN             NaN
             NaN             NaN             NaN
             NaN             NaN             NaN
             NaN             NaN             NaN
             NaN             NaN             NaN
             NaN             NaN             NaN
             NaN             NaN             NaN
             NaN             NaN             NaN
             NaN             NaN             NaN
             NaN             NaN             NaN
             NaN             NaN             NaN
             NaN             NaN             NaN
             NaN             NaN             NaN
             NaN             NaN             NaN
             NaN             NaN             NaN
             NaN             NaN             NaN
             NaN             NaN             NaN
             NaN             NaN             NaN
             NaN             NaN             NaN
             NaN             NaN             NaN
             NaN             NaN             NaN
             NaN             NaN             NaN
             NaN             NaN             NaN
             NaN             NaN             NaN
             NaN             NaN             NaN
             NaN             NaN             NaN
             NaN             NaN             NaN
             NaN             NaN             NaN
             NaN             NaN             NaN
             NaN             NaN             NaN
             NaN             NaN             NaN
             NaN             NaN             NaN
             NaN             NaN             NaN
             NaN             NaN             NaN
             NaN             NaN             NaN
             NaN             NaN             NaN
             NaN             NaN             NaN
             NaN             NaN             NaN
             NaN             NaN             NaN
             NaN             NaN             NaN
             NaN             NaN             NaN
             NaN             NaN             NaN
             NaN             NaN             NaN
             NaN             NaN             NaN
             NaN             NaN             NaN
             NaN             NaN             NaN
             NaN             NaN             NaN
             NaN             NaN             NaN
