Na15 V32 O64
1.0
9.102772 0.002127 -0.000908
0.003746 11.439805 -0.000254
0.000301 0.000054 10.609529
Na V O
15 32 64
direct
0.742388 0.357549 0.153536 Na
0.742290 0.065261 0.151804 Na
0.742248 0.796795 0.153061 Na
0.242727 0.062587 0.347858 Na
0.242597 0.312947 0.347912 Na
0.243529 0.562317 0.348167 Na
0.242231 0.812305 0.347888 Na
0.257212 0.187392 0.848830 Na
0.258049 0.437651 0.848409 Na
0.258084 0.687382 0.848848 Na
0.257268 0.937481 0.848937 Na
0.757353 0.187146 0.650812 Na
0.757439 0.437493 0.651249 Na
0.757559 0.687238 0.651103 Na
0.757095 0.937425 0.650136 Na
0.584667 0.062152 0.896119 V
0.585197 0.311930 0.896433 V
0.588983 0.562015 0.898744 V
0.584176 0.811647 0.896096 V
0.084897 0.061858 0.603353 V
0.085169 0.311775 0.603811 V
0.085359 0.561907 0.603651 V
0.085032 0.811783 0.603627 V
0.415482 0.188186 0.104254 V
0.414453 0.438755 0.103867 V
0.414544 0.685772 0.104779 V
0.416422 0.938048 0.104231 V
0.915116 0.188405 0.395691 V
0.914290 0.437564 0.395874 V
0.914452 0.687166 0.395557 V
0.914726 0.936589 0.394995 V
0.562331 0.062305 0.386748 V
0.562088 0.312097 0.386274 V
0.565137 0.562638 0.382491 V
0.561137 0.811745 0.386740 V
0.061099 0.061330 0.113425 V
0.062296 0.311357 0.113486 V
0.056530 0.563107 0.116099 V
0.063011 0.814241 0.112874 V
0.437147 0.188522 0.615066 V
0.438948 0.438250 0.614075 V
0.438602 0.687657 0.614073 V
0.436868 0.937907 0.615276 V
0.937390 0.188126 0.885080 V
0.938902 0.438611 0.885779 V
0.938610 0.688330 0.885774 V
0.936534 0.938437 0.884054 V
0.790961 0.062910 0.850064 O
0.792435 0.312909 0.850892 O
0.793630 0.562554 0.849908 O
0.791719 0.812437 0.850626 O
0.291675 0.062519 0.649271 O
0.292243 0.312524 0.648960 O
0.293236 0.562672 0.648467 O
0.291898 0.812511 0.648995 O
0.207653 0.188139 0.148841 O
0.206517 0.438228 0.147997 O
0.206853 0.686198 0.148209 O
0.208274 0.937756 0.149343 O
0.707505 0.187524 0.353417 O
0.707926 0.435449 0.356996 O
0.708092 0.689757 0.356139 O
0.707182 0.937041 0.353021 O
0.887090 0.062481 0.519112 O
0.887482 0.312267 0.520562 O
0.887398 0.562222 0.520364 O
0.887383 0.812158 0.520157 O
0.386671 0.062651 0.980289 O
0.385968 0.312298 0.980110 O
0.386306 0.562292 0.979369 O
0.386122 0.812593 0.980962 O
0.113734 0.187368 0.479415 O
0.113595 0.437018 0.479883 O
0.113561 0.687192 0.479661 O
0.113334 0.937023 0.479183 O
0.613044 0.188138 0.019995 O
0.610373 0.437208 0.017402 O
0.610608 0.686999 0.017984 O
0.613544 0.936674 0.020112 O
0.978978 0.062521 0.282157 O
0.979688 0.312763 0.282342 O
0.981549 0.562409 0.285427 O
0.979720 0.812291 0.281453 O
0.480065 0.062783 0.218130 O
0.479263 0.313148 0.217327 O
0.475551 0.562524 0.219074 O
0.479883 0.811992 0.217243 O
0.019892 0.187042 0.716926 O
0.021231 0.437204 0.717025 O
0.020833 0.687269 0.717115 O
0.019303 0.937438 0.716517 O
0.519103 0.187217 0.783019 O
0.521410 0.437432 0.782581 O
0.520980 0.687051 0.782781 O
0.518711 0.937209 0.783202 O
0.577930 0.062704 0.572346 O
0.579071 0.312072 0.572037 O
0.579047 0.563026 0.570245 O
0.578599 0.812982 0.572348 O
0.078340 0.062631 0.927880 O
0.079081 0.312241 0.927354 O
0.078845 0.563064 0.928056 O
0.079033 0.813781 0.927184 O
0.421016 0.187693 0.429206 O
0.422481 0.436944 0.428851 O
0.421514 0.688140 0.428805 O
0.421127 0.937299 0.429240 O
0.921685 0.188311 0.070426 O
0.926362 0.437499 0.069988 O
0.925372 0.687951 0.069912 O
0.919913 0.937227 0.069865 O
