Li15 Fe16 P16 O64                       
   1.00000000000000     
    10.4268070000000002    0.0015070000000000    0.0057210000000000
     0.0017560000000000   12.1423459999999999   -0.0013360000000000
     0.0036840000000000   -0.0012340000000000    9.5215689999999995
   Li   Fe   P    O 
    15    16    16    64
Direct
  0.5164034935927759  0.4648958681457014  0.7346208768129927
  0.4964076680777225  0.4969235256217174  0.2446239865418246
  0.4983920276123925  0.0043466481126499  0.2495826634918699
  0.4959052462789054  0.0126696984967489  0.7601773922313095
  1.0006859571596718  0.2512277202745484  0.5028369292302123
  0.0015263677354104  0.2509111457369188  0.0007569589754768
  0.0061772448433402  0.7448761762888346  0.4968392133312708
  0.0010917991034765  0.7474968369966188  0.9955312755730681
  0.4974878475663493  0.2510146650806327  0.2461836111645578
  0.4970656351800624  0.7465600234382069  0.2470661359981596
  0.4963069191433719  0.7432877497542824  0.7579313858202175
  0.0006291146188390  0.0034085011140240  0.9949253192518233
  0.0060689270795028  0.0050533913307162  0.4964342803657623
  0.0010266980396026  0.4984917299958538  0.0014050859067399
  1.0006021062794510  0.4972479884119646  0.5033614356003491
  0.7793194856626816  0.1263506623257371  0.2633783592664446
  0.7783484814398425  0.1267219179469958  0.7631634443797495
  0.7797244218188337  0.6223043185940633  0.2632246469818751
  0.7814337488366296  0.6240945441263338  0.7645884425297497
  0.2845057230436182  0.1257029242965490  0.4894993503500415
  0.2824932309489046  0.1266005032894629  0.9857993609822218
  0.2827561785105521  0.6233172141868564  0.4868851798210994
  0.2822988977325872  0.6229337767367229  0.9855201206665101
  0.2189123313991973  0.3748325195795745  0.2355504256442177
  0.2224548679096682  0.3736227987680962  0.7393291123570745
  0.2207724714829024  0.8749637004780835  0.2364757719246943
  0.2194930277762634  0.8745941902465795  0.7359243948294405
  0.7168894832651472  0.3735744213496829  0.0122590382787507
  0.7187607270596159  0.3710677246013873  0.5124713040942788
  0.7152853339955360  0.8751189247447356  0.0163968857312117
  0.7196354526609933  0.8746553701962763  0.5087828795145415
  0.5960564285222191  0.1221671992043529  0.0422354205793364
  0.5949769346321028  0.1212459452207782  0.5384392496526520
  0.5957807697597146  0.6254315586920391  0.0420518191107046
  0.5941724631027102  0.6261663390748357  0.5402899260941982
  0.0934829013484890  0.1231910235841574  0.2092596151394171
  0.0934095980132731  0.1236231135119512  0.7079222208232034
  0.0935376225188261  0.6264540164490628  0.2081877209037066
  0.0938176983739741  0.6252033220278355  0.7075579697497927
  0.4047695493289570  0.3759471899113697  0.4565017736017563
  0.4045074239665917  0.3741252041553978  0.9602387088261748
  0.4083559235058087  0.8738668426316795  0.4602069120638055
  0.4052866379200443  0.8744973107422741  0.9584845049133703
  0.9074176698631292  0.3750334787003388  0.2917961204710713
  0.9065151383219694  0.3749855210178099  0.7927731110586889
  0.9046682044529455  0.8743230406894874  0.2938862625582876
  0.8992376014522534  0.8750171190164657  0.7922540343757928
  0.5966451598339462  0.1221916068751670  0.3764330721344360
  0.6030118762653203  0.1146427987750346  0.8828948799737406
  0.5973524195953710  0.6247209871059751  0.3791928457281123
  0.6007366796742667  0.6291315395421416  0.8812944380447306
  0.0966414792411678  0.1219765954429470  0.3708770650052909
  0.0954676823203346  0.1226125557977156  0.8694131266990474
  0.0966928783354391  0.6272598350241588  0.3698044141997074
  0.0957273694340742  0.6268845527182554  0.8689623998175242
  0.4025400777942159  0.3749505253821361  0.1231060496194874
  0.3985049986872293  0.3805301508925603  0.6161299580918747
  0.4032401888883667  0.8742178431516573  0.1202027340602009
  0.4027341764713125  0.8732105700191520  0.6204261145776943
  0.9051833283859197  0.3756637884881741  0.1305141014240663
  0.9034691198896926  0.3745786461348612  0.6310220589408104
  0.9013007112522776  0.8744417017525261  0.1337672337971348
  0.8868264325992390  0.8739405902608839  0.6297037785745750
  0.9552074802668927  0.1212575289591639  0.1479539605707268
  0.9556636929165583  0.1220598173559282  0.6455248448006793
  0.9550750001905287  0.6279047755469709  0.1474080233409860
  0.9557602182553554  0.6267989737687653  0.6452749960456926
  0.4573821288977942  0.1240221631398098  0.1029466496164110
  0.4588271716698667  0.1171403266127953  0.5990620818746729
  0.4573735007644178  0.6251586888246067  0.1031432555557849
  0.4577448122446415  0.6289829999766049  0.6029178217100092
  0.0446311149779755  0.3756928158676236  0.3555007157486645
  0.0440638165764164  0.3756643594893476  0.8550815122515143
  0.0415472057656572  0.8743038597051170  0.3568449342405188
  0.0395603542628700  0.8745084787007451  0.8450751784626374
  0.5437534360477471  0.3745452340754628  0.3963994900685232
  0.5428435870022551  0.3763979947677667  0.9031276873643146
  0.5507301368585796  0.8731388286762835  0.4027795571144248
  0.5430223083011273  0.8736913527932811  0.8970560336479624
  0.6648607280221572  0.0213441884898620  0.1164141561146258
  0.6663601495579679  0.0146244902532545  0.6008375500060299
  0.6662907761110319  0.5233880176343743  0.1078419074327144
  0.6658006151364654  0.5250408963630105  0.6079767018385778
  0.1617008345734951  0.2259281644123647  0.1434325823083508
  0.1634359323619144  0.2255959846748783  0.6416588363475465
  0.1648663302211692  0.7278447613935215  0.1411857796146757
  0.1652238839508702  0.7265073861897550  0.6393299679407505
  0.3343942334461356  0.2735031507013601  0.3909291633731761
  0.3262101012101343  0.2754053237832824  0.8995604615890718
  0.3409625831733282  0.7724444217597856  0.3892833351114900
  0.3337051274170056  0.7730384981844687  0.8917484654239403
  0.8352388870857704  0.4760039553495484  0.3593268475987670
  0.8350607390816053  0.4768710585803781  0.8584743346058995
  0.8295337804886584  0.9734392414263547  0.3646760608561970
  0.8325578259943853  0.9773410544216340  0.8603502354883704
  0.3356368663648530  0.4776930339648376  0.3858078081237767
  0.3329857744533127  0.4762556931618943  0.8944915078994640
  0.3408796394737732  0.9753439989610324  0.3898795708366498
  0.3342528685797729  0.9762445891812138  0.8922138006751406
  0.8373155803242056  0.2726377434059820  0.3575060274963772
  0.8358286123092447  0.2736069236496582  0.8597852706051258
  0.8293541365970343  0.7750324195375541  0.3641850773920848
  0.8317213317733237  0.7731165663930142  0.8610542503976417
  0.6664275622577649  0.2247249606336787  0.1072184080916160
  0.6759042703855742  0.2176938930903943  0.6003370895443276
  0.6653936042409743  0.7266404345175751  0.1132707948013058
  0.6678555844742168  0.7304076339550419  0.6026681026532344
  0.1655026259846895  0.0222068922845768  0.1418516235003709
  0.1649680235114212  0.0220936838801004  0.6401523613595200
  0.1623781935771277  0.5241476557034227  0.1415666301703440
  0.1632770062960041  0.5228363568081491  0.6415301660033307
 
             NaN             NaN             NaN
             NaN             NaN             NaN
             NaN             NaN             NaN
             NaN             NaN             NaN
             NaN             NaN             NaN
             NaN             NaN             NaN
             NaN             NaN             NaN
             NaN             NaN             NaN
             NaN             NaN             NaN
             NaN             NaN             NaN
             NaN             NaN             NaN
             NaN             NaN             NaN
             NaN             NaN             NaN
             NaN             NaN             NaN
             NaN             NaN             NaN
             NaN             NaN             NaN
             NaN             NaN             NaN
             NaN             NaN             NaN
             NaN             NaN             NaN
             NaN             NaN             NaN
             NaN             NaN             NaN
             NaN             NaN             NaN
             NaN             NaN             NaN
             NaN             NaN             NaN
             NaN             NaN             NaN
             NaN             NaN             NaN
             NaN             NaN             NaN
             NaN             NaN             NaN
             NaN             NaN             NaN
             NaN             NaN             NaN
             NaN             NaN             NaN
             NaN             NaN             NaN
             NaN             NaN             NaN
             NaN             NaN             NaN
             NaN             NaN             NaN
             NaN             NaN             NaN
             NaN             NaN             NaN
             NaN             NaN             NaN
             NaN             NaN             NaN
             NaN             NaN             NaN
             NaN             NaN             NaN
             NaN             NaN             NaN
             NaN             NaN             NaN
             NaN             NaN             NaN
             NaN             NaN             NaN
             NaN             NaN             NaN
             NaN             NaN             NaN
             NaN             NaN             NaN
             NaN             NaN             NaN
             NaN             NaN             NaN
             NaN             NaN             NaN
             NaN             NaN             NaN
             NaN             NaN             NaN
             NaN             NaN             NaN
             NaN             NaN             NaN
             NaN             NaN             NaN
             NaN             NaN             NaN
             NaN             NaN             NaN
             NaN             NaN             NaN
             NaN             NaN             NaN
             NaN             NaN             NaN
             NaN             NaN             NaN
             NaN             NaN             NaN
             NaN             NaN             NaN
             NaN             NaN             NaN
             NaN             NaN             NaN
             NaN             NaN             NaN
             NaN             NaN             NaN
             NaN             NaN             NaN
             NaN             NaN             NaN
             NaN             NaN             NaN
             NaN             NaN             NaN
             NaN             NaN             NaN
             NaN             NaN             NaN
             NaN             NaN             NaN
             NaN             NaN             NaN
             NaN             NaN             NaN
             NaN             NaN             NaN
             NaN             NaN             NaN
             NaN             NaN             NaN
             NaN             NaN             NaN
             NaN             NaN             NaN
             NaN             NaN             NaN
             NaN             NaN             NaN
             NaN             NaN             NaN
             NaN             NaN             NaN
             NaN             NaN             NaN
             NaN             NaN             NaN
             NaN             NaN             NaN
             NaN             NaN             NaN
             NaN             NaN             NaN
             NaN             NaN             NaN
             NaN             NaN             NaN
             NaN             NaN             NaN
             NaN             NaN             NaN
             NaN             NaN             NaN
             NaN             NaN             NaN
             NaN             NaN             NaN
             NaN             NaN             NaN
             NaN             NaN             NaN
             NaN             NaN             NaN
             NaN             NaN             NaN
             NaN             NaN             NaN
             NaN             NaN             NaN
             NaN             NaN             NaN
             NaN             NaN             NaN
             NaN             NaN             NaN
             NaN             NaN             NaN
             NaN             NaN             NaN
             NaN             NaN             NaN
             NaN             NaN             NaN
