Li15 Fe16 P16 O64
1.0
10.426807 0.001507 0.005721
0.001756 12.142346 -0.001336
0.003684 -0.001234 9.521569
Li Fe P O
15 16 16 64
direct
0.499287 0.460646 0.745920 Li
0.496255 0.496885 0.244023 Li
0.498185 0.004534 0.249469 Li
0.495781 0.012528 0.760040 Li
0.999909 0.251381 0.502691 Li
0.000991 0.251316 0.001451 Li
0.006181 0.744861 0.496577 Li
0.000839 0.747496 0.995687 Li
0.498258 0.252325 0.246657 Li
0.496790 0.746450 0.247298 Li
0.497528 0.747493 0.755040 Li
0.001244 0.003547 0.995060 Li
0.006418 0.005180 0.496492 Li
0.000449 0.498275 0.001809 Li
0.999817 0.497578 0.503070 Li
0.779508 0.127045 0.262990 Fe
0.778984 0.126863 0.763341 Fe
0.779459 0.622249 0.262654 Fe
0.781471 0.623996 0.764381 Fe
0.284779 0.126773 0.489269 Fe
0.282656 0.127657 0.985631 Fe
0.283307 0.623731 0.487341 Fe
0.281730 0.623764 0.985944 Fe
0.219421 0.375276 0.236318 Fe
0.222816 0.374036 0.738734 Fe
0.220565 0.875181 0.236582 Fe
0.219364 0.874891 0.736065 Fe
0.716747 0.374175 0.010670 Fe
0.717513 0.373017 0.516022 Fe
0.715273 0.875468 0.015958 Fe
0.719685 0.875519 0.507756 Fe
0.595796 0.122943 0.042172 P
0.595299 0.121462 0.538500 P
0.595251 0.625549 0.041408 P
0.595413 0.628094 0.539848 P
0.094061 0.123621 0.209202 P
0.093874 0.123862 0.707948 P
0.093497 0.626419 0.208344 P
0.094077 0.625544 0.707617 P
0.405488 0.377486 0.458058 P
0.405966 0.375281 0.959026 P
0.408383 0.874479 0.459947 P
0.404936 0.875113 0.958666 P
0.906841 0.375053 0.292023 P
0.907287 0.375154 0.793003 P
0.904722 0.874528 0.293331 P
0.899197 0.875116 0.791751 P
0.596543 0.122364 0.376614 O
0.602382 0.116094 0.882559 O
0.596844 0.627199 0.378694 O
0.599419 0.628733 0.880469 O
0.097163 0.122316 0.370814 O
0.095975 0.122934 0.869451 O
0.096641 0.627323 0.369924 O
0.095901 0.627149 0.869029 O
0.402913 0.375729 0.121961 O
0.398709 0.382680 0.617382 O
0.402956 0.874682 0.120351 O
0.403364 0.873460 0.620307 O
0.904862 0.375509 0.130648 O
0.903665 0.374963 0.631274 O
0.901460 0.874669 0.133166 O
0.887345 0.874547 0.629182 O
0.955785 0.122204 0.147834 O
0.956089 0.122409 0.645627 O
0.955135 0.627747 0.147281 O
0.956130 0.627498 0.645285 O
0.457194 0.124326 0.103039 O
0.459165 0.118257 0.599878 O
0.457023 0.625603 0.102986 O
0.459129 0.628733 0.603937 O
0.044259 0.375572 0.355534 O
0.044957 0.375384 0.854953 O
0.041516 0.874389 0.356487 O
0.039365 0.874502 0.845126 O
0.544413 0.375652 0.397772 O
0.543686 0.378143 0.901423 O
0.550356 0.874403 0.401551 O
0.542711 0.874357 0.897120 O
0.665074 0.022095 0.115577 O
0.666044 0.014712 0.600909 O
0.665762 0.523632 0.107500 O
0.670756 0.529238 0.606144 O
0.162912 0.226192 0.143531 O
0.164041 0.225695 0.641585 O
0.164707 0.727939 0.141363 O
0.165892 0.726734 0.639466 O
0.335084 0.274959 0.392107 O
0.327995 0.276295 0.897892 O
0.340979 0.772867 0.389546 O
0.333309 0.773771 0.891874 O
0.835091 0.476337 0.359113 O
0.836493 0.477121 0.859182 O
0.829697 0.973827 0.363874 O
0.832327 0.977373 0.860034 O
0.336661 0.478894 0.385863 O
0.334215 0.477706 0.893396 O
0.340245 0.975900 0.390417 O
0.334179 0.976977 0.892315 O
0.836640 0.272887 0.358044 O
0.836492 0.273702 0.859849 O
0.829176 0.775318 0.363401 O
0.831361 0.773192 0.860192 O
0.665937 0.225546 0.107121 O
0.676199 0.217704 0.600856 O
0.665467 0.726774 0.111591 O
0.666010 0.733914 0.602507 O
0.165551 0.022424 0.141739 O
0.165262 0.022249 0.640241 O
0.162631 0.524216 0.141760 O
0.163455 0.523192 0.641569 O
