Mg7 Sc16 Se32
1.0
11.333223 -0.000000 0.000000
-0.000000 11.333218 -0.000000
0.000000 -0.000000 11.333212
Mg Sc Se
7 16 32
direct
0.438793 0.438793 0.438793 Mg
0.624357 0.125643 0.125643 Mg
0.125643 0.624357 0.125643 Mg
0.125643 0.125643 0.624357 Mg
0.376936 0.873064 0.873064 Mg
0.873064 0.376936 0.873064 Mg
0.873064 0.873064 0.376937 Mg
0.995290 0.750065 0.750066 Sc
0.750066 0.995290 0.750066 Sc
0.750066 0.750066 0.995290 Sc
1.000019 1.000019 1.000019 Sc
0.001582 0.249940 0.249940 Sc
0.249940 0.001582 0.249940 Sc
0.249940 0.249940 0.001582 Sc
0.748503 0.499976 0.254669 Sc
0.748503 0.254669 0.499975 Sc
-0.003147 0.499976 0.499975 Sc
0.254669 0.499976 0.748503 Sc
0.254669 0.748503 0.499975 Sc
0.499976 0.748503 0.254669 Sc
0.499975 -0.003147 0.499975 Sc
0.499975 0.254669 0.748503 Sc
0.499976 0.499976 -0.003147 Sc
0.758479 0.992946 0.992946 Se
0.992946 0.758479 0.992946 Se
0.992946 0.992946 0.758479 Se
0.759157 0.759157 0.759157 Se
0.242083 0.007432 0.007432 Se
0.007432 0.242083 0.007432 Se
0.007432 0.007432 0.242083 Se
0.241842 0.241842 0.241842 Se
0.759667 0.490796 0.490795 Se
0.992436 0.257102 0.491473 Se
0.992436 0.491473 0.257102 Se
0.758989 0.257102 0.257102 Se
0.240291 0.508281 0.508281 Se
0.008983 0.742445 0.508041 Se
0.008983 0.508041 0.742445 Se
0.240531 0.742445 0.742445 Se
0.257102 0.992436 0.491473 Se
0.490795 0.759667 0.490795 Se
0.491473 0.992436 0.257102 Se
0.257102 0.758989 0.257102 Se
0.742445 0.008983 0.508041 Se
0.508281 0.240291 0.508281 Se
0.508041 0.008983 0.742445 Se
0.742445 0.240531 0.742445 Se
0.257102 0.491473 0.992436 Se
0.491473 0.257102 0.992436 Se
0.490796 0.490795 0.759667 Se
0.257102 0.257102 0.758989 Se
0.742445 0.508041 0.008984 Se
0.508041 0.742445 0.008983 Se
0.508281 0.508281 0.240291 Se
0.742445 0.742445 0.240531 Se
