Na47 P16 S64                            
   1.00000000000000     
    13.6805310000000002   -0.0062030000000000    0.0000140000000000
    -0.0062450000000000   13.6911349999999992   -0.0002490000000000
    -0.0000800000000000    0.0001580000000000   14.0752450000000007
   Na   P    S 
    47    16    64
Direct
  0.5882825254193746  0.7544331708024544  0.7438936778111982
  0.9997235614605047  0.2504591449422943  0.2066379502513517
  0.9994818942246867  0.2504020239627561  0.7059276075486963
  0.9986108330280655  0.7507684697441844  0.2113829129377964
  0.9825795258354557  0.7525197265833931  0.7169889427038145
  0.5000844467918826  0.2494493091562239  0.2078278189536741
  0.5009845554866159  0.2500153344974220  0.7066770878445506
  0.5005166527717352  0.7495304721907070  0.2120669621190810
  0.2493543749283791  0.9995878579178827  0.2913889583390741
  0.2493470573840889  0.9977824344572164  0.7918816190605769
  0.2509837532217303  0.5005089387053262  0.2942206534598415
  0.2508527359945439  0.5020573594415415  0.7931745962740007
  0.7489668898400617  0.9989018245886282  0.2910545132031476
  0.7482530842924006  0.9836391939427744  0.7846836379655120
  0.7506027439398604  0.5009246711381481  0.2885774134449459
  0.7541179977014552  0.5172436543674727  0.7827323420260411
  0.2517757375386740  0.9992440076114768  0.0412697282396224
  0.2441263422932677  0.9996617194537701  0.5418923864862070
  0.2465577469371410  0.4998245792202472  0.0446501750788758
  0.2555505955152525  0.5040782414721320  0.5459931105760335
  0.7511271792821752 -0.0002212055724534  0.0386001850940870
  0.7464070701808077  0.9993337217858279  0.5385714630376899
  0.7462349895422720  0.4999185318387955  0.0362352621954473
  0.7565582700141218  0.4995679293802001  0.5361587962102685
  0.5004636885925678  0.2522234308674783  0.4573960073715433
  0.5011361462737451  0.2469662567344657  0.9558224725446463
  0.5006013456897074  0.7519764979888918  0.4706395069130806
  0.4982670333583593  0.7449368853916134  0.9644470669356965
  1.0000467253668821  0.2483107127784539  0.4559838827480576
  0.9984376345299141  0.2529652074759265  0.9553307801329105
  1.0002867083150955  0.7476533185965585  0.4641727672712757
  1.0000609164278813  0.7533937739733737  0.9611666124022081
  0.9945019885424558  0.9975560212897715  0.5014523066520928
  0.0034711155453235  0.0090533581606426  0.0007851422122474
  0.0100664075848804  0.4949583429972756  0.4989508569461135
  0.9967518475979753  0.5018924715781458  0.9982038395697459
  0.4889357060543646  0.0046124845970837  0.4978014253318392
  0.5037470180018200  0.9969156299038578  0.9978092490077829
  0.5047695216050350  0.5041950949508831  0.5025487755137749
  0.4904919596644817  0.4898630020503118  0.0031549363345890
  0.2494110932128077  0.2510002356111205  0.2500268656297829
  0.2497240503551805  0.2511667234230482  0.7499303198228162
  0.2505143107231237  0.7493892844985844  0.2507299229243451
  0.2757356863174749  0.7482818279181633  0.7489051446322508
  0.7507001880096154  0.2489585349517454  0.2490792972259997
  0.7506516917912983  0.2488737961347312  0.7501539055565274
  0.7487772735821440  0.7506629912026238  0.2484560403831023
  0.4999326211673121  0.4996947560142112  0.2505961353029210
  0.5006315077787006  0.4975110995070396  0.7532944732376831
  0.4996715687717810 -0.0001486388110429  0.2494586710246458
  0.4971253822593066  1.0008635372793835  0.7467668706530066
  0.0005597379836535  0.4998989456442738  0.2498854884047293
  0.0031458157649489  0.4990746852685156  0.7475394409024130
  0.9994657332434298  0.0005596682178224  0.2496298583729080
  0.9998542991539486  0.0030375758862631  0.7521939082740000
  0.2499474212102476  0.2501067012397262  0.0002399679325163
  0.2499444828558706  0.2509532013523822  0.4994636576111322
  0.2501012912680225  0.7486451831271771  0.0012671881643077
  0.2498420395590233  0.7522173398510040  0.4997899489812673
  0.7498758873249894  0.2492405600201508  0.9993700284518877
  0.7504482432201599  0.2497087881692004  0.4987572744435171
  0.7496039044229454  0.7486947567929900 -0.0003409371359099
  0.7516585844928182  0.7492643521766184  0.4974961838611240
  0.1537443501476630  0.1737972437754471  0.0833668785566310
  0.1530845518945515  0.1749264793711124  0.5817838367865535
  0.1520853533947126  0.6751075160340603  0.0846385329812993
  0.1558707505424958  0.6768465543658373  0.5854400911405656
  0.6537180279048699  0.1732619432060928  0.0831184123197665
  0.6533583468271021  0.1749641122469082  0.5816056615121062
  0.6536059076019455  0.6732205577524525  0.0841686377649484
  0.6566990433038786  0.6694682988670891  0.5780124737142951
  0.3467373502258507  0.3259431129677668  0.0834188990359296
  0.3467989690364239  0.3264914285761134  0.5821619943276273
  0.3465623605404934  0.8251239334322577  0.0841140622146256
  0.3461314441408403  0.8300725322956364  0.5797832792220980
  0.8457569381234319  0.3265909060030469  0.0824421946424315
  0.8476448694771097  0.3249005702452525  0.5813591941692451
  0.8444789114320322  0.8267920541819181  0.0831193049318896
  0.8467979348007540  0.8278034390829905  0.5785349631477431
  0.1740367082276828  0.3476847865423054  0.4167860207516556
  0.1740505931686603  0.3471587972330350  0.9183205673417030
  0.1711567888852973  0.8453277539799030  0.4149540197182854
  0.1766614464339734  0.8436445395191222  0.9154700783596689
  0.6755477348496784  0.3465050888124765  0.4152948302916586
  0.6745786184312262  0.3449974089474775  0.9160841694398594
  0.6730704086441316  0.8442215446287451  0.4146232105239778
  0.6705020756302944  0.8444274024762097  0.9182888738332855
  0.3257584121943103  0.1544592299259390  0.4162333712522894
  0.3255392194712079  0.1538001139135786  0.9172749295054136
  0.3268718144045717  0.6554558098940712  0.4173498240499954
  0.3261568640378609  0.6496391796400639  0.9214967190009983
  0.8255531772384146  0.1522187308115404  0.4160889075855431
  0.8256448902422833  0.1522294270080617  0.9173677107746017
  0.8282578705246963  0.6547920513881642  0.4125877918512114
  0.8281199965990902  0.6530987975607155  0.9197251921662623
  0.0968468710572035  0.4237453265267794  0.1669832968041189
  0.1028451638875799  0.4214578203518699  0.6693518281281813
  0.0953463822087579  0.9247166279879998  0.1659484517807968
  0.0928907654207878  0.9238390576375305  0.6689854192880582
  0.5954980321786906  0.4236211687163787  0.1667532490500444
  0.5983312695824327  0.4248976221548383  0.6687002976723734
  0.5963254680743094  0.9239359607274745  0.1669396228395267
  0.5897513280345967  0.9297612356697337  0.6566967525145949
  0.4039139798979523  0.0756963972692509  0.1657238870360981
  0.3975121046494632  0.0789472113846132  0.6693566379031602
  0.4026742301536640  0.5755088298948140  0.1683252519809188
  0.4102736228928109  0.5813333494600473  0.6719157652907010
  0.9028398809917845  0.0768267558407254  0.1671390933794325
  0.9011522074152705  0.0761643950414279  0.6691185323531254
  0.9048263059851914  0.5756355724016063  0.1664277955766580
  0.9112842725371082  0.5729562054986046  0.6590775989715008
  0.0759309405161370  0.0964837493423555  0.3328444346439234
  0.0786423580806696  0.1020705265522085  0.8302929116324291
  0.0767190818069409  0.5959888214322558  0.3331445303469650
  0.0753934470873785  0.5963426191972750  0.8322745162205000
  0.5752705070159043  0.0964590526349906  0.3327607661458357
  0.5771372895399948  0.0944903302445152  0.8294869439624227
  0.5760909253353781  0.5959432741045851  0.3330741978540409
  0.5755832268447264  0.5837087834693888  0.8469492357424835
  0.4244569593185226  0.4033936055046229  0.3341422735020845
  0.4207012473034019  0.3976605453657838  0.8293116226184134
  0.4235629756177879  0.9036380552267412  0.3323970933578688
  0.4260968041385149  0.9020592982158122  0.8308901998545912
  0.9243098102436963  0.4034130373753674  0.3326485769767709
  0.9226871833733651  0.4046845780804224  0.8291011343128084
  0.9238393127340481  0.9043208765176688  0.3326370025866133
  0.9267918480394257  0.9105680150469413  0.8407990663502936
 
             NaN             NaN             NaN
             NaN             NaN             NaN
             NaN             NaN             NaN
             NaN             NaN             NaN
             NaN             NaN             NaN
             NaN             NaN             NaN
             NaN             NaN             NaN
             NaN             NaN             NaN
             NaN             NaN             NaN
             NaN             NaN             NaN
             NaN             NaN             NaN
             NaN             NaN             NaN
             NaN             NaN             NaN
             NaN             NaN             NaN
             NaN             NaN             NaN
             NaN             NaN             NaN
             NaN             NaN             NaN
             NaN             NaN             NaN
             NaN             NaN             NaN
             NaN             NaN             NaN
             NaN             NaN             NaN
             NaN             NaN             NaN
             NaN             NaN             NaN
             NaN             NaN             NaN
             NaN             NaN             NaN
             NaN             NaN             NaN
             NaN             NaN             NaN
             NaN             NaN             NaN
             NaN             NaN             NaN
             NaN             NaN             NaN
             NaN             NaN             NaN
             NaN             NaN             NaN
             NaN             NaN             NaN
             NaN             NaN             NaN
             NaN             NaN             NaN
             NaN             NaN             NaN
             NaN             NaN             NaN
             NaN             NaN             NaN
             NaN             NaN             NaN
             NaN             NaN             NaN
             NaN             NaN             NaN
             NaN             NaN             NaN
             NaN             NaN             NaN
             NaN             NaN             NaN
             NaN             NaN             NaN
             NaN             NaN             NaN
             NaN             NaN             NaN
             NaN             NaN             NaN
             NaN             NaN             NaN
             NaN             NaN             NaN
             NaN             NaN             NaN
             NaN             NaN             NaN
             NaN             NaN             NaN
             NaN             NaN             NaN
             NaN             NaN             NaN
             NaN             NaN             NaN
             NaN             NaN             NaN
             NaN             NaN             NaN
             NaN             NaN             NaN
             NaN             NaN             NaN
             NaN             NaN             NaN
             NaN             NaN             NaN
             NaN             NaN             NaN
             NaN             NaN             NaN
             NaN             NaN             NaN
             NaN             NaN             NaN
             NaN             NaN             NaN
             NaN             NaN             NaN
             NaN             NaN             NaN
             NaN             NaN             NaN
             NaN             NaN             NaN
             NaN             NaN             NaN
             NaN             NaN             NaN
             NaN             NaN             NaN
             NaN             NaN             NaN
             NaN             NaN             NaN
             NaN             NaN             NaN
             NaN             NaN             NaN
             NaN             NaN             NaN
             NaN             NaN             NaN
             NaN             NaN             NaN
             NaN             NaN             NaN
             NaN             NaN             NaN
             NaN             NaN             NaN
             NaN             NaN             NaN
             NaN             NaN             NaN
             NaN             NaN             NaN
             NaN             NaN             NaN
             NaN             NaN             NaN
             NaN             NaN             NaN
             NaN             NaN             NaN
             NaN             NaN             NaN
             NaN             NaN             NaN
             NaN             NaN             NaN
             NaN             NaN             NaN
             NaN             NaN             NaN
             NaN             NaN             NaN
             NaN             NaN             NaN
             NaN             NaN             NaN
             NaN             NaN             NaN
             NaN             NaN             NaN
             NaN             NaN             NaN
             NaN             NaN             NaN
             NaN             NaN             NaN
             NaN             NaN             NaN
             NaN             NaN             NaN
             NaN             NaN             NaN
             NaN             NaN             NaN
             NaN             NaN             NaN
             NaN             NaN             NaN
             NaN             NaN             NaN
             NaN             NaN             NaN
             NaN             NaN             NaN
             NaN             NaN             NaN
             NaN             NaN             NaN
             NaN             NaN             NaN
             NaN             NaN             NaN
             NaN             NaN             NaN
             NaN             NaN             NaN
             NaN             NaN             NaN
             NaN             NaN             NaN
             NaN             NaN             NaN
             NaN             NaN             NaN
             NaN             NaN             NaN
             NaN             NaN             NaN
             NaN             NaN             NaN
             NaN             NaN             NaN
