Na15 V32 O64                            
   1.00000000000000     
     9.2521249999999995   -0.0084500000000000    0.0025040000000000
    -0.0108880000000000   11.8407610000000005    0.0380730000000000
     0.0023310000000000    0.0352890000000000   10.7983809999999991
   Na   V    O 
    15    32    64
Direct
  0.7104058308624823  0.3347526988276857  0.1506105916513658
  0.7020748881759946  0.0668223882455012  0.1475798792001163
  0.7060375856815689  0.7979250597261778  0.1515726341247778
  0.2051403129606028  0.0618468999819518  0.3423645725045225
  0.2083499083291414  0.3134169240602236  0.3539505950093775
  0.2082524599651038  0.5612292521726959  0.3438978638329950
  0.2008050760294510  0.8119684867814337  0.3479839845492478
  0.2195377750445228  0.1901580313790511  0.8441807743600254
  0.2165422268339228  0.4418616302847280  0.8507722519975183
  0.2177923382810297  0.6909036045447045  0.8418962481494955
  0.2148477070025465  0.9414401803660462  0.8485348917896161
  0.7194667167125295  0.1870632191159442  0.6519875702327506
  0.7142476744074738  0.4362669918475661  0.6449044438270206
  0.7180697166885901  0.6866213095064096  0.6512580674989515
  0.7168665032221238  0.9359844994290530  0.6410918775309995
  0.5422663054714932  0.0660890893565940  0.8924498406221800
  0.5391318294839657  0.3160873497903831  0.8965293516861538
  0.5468517626990942  0.5657052393904538  0.8953320295375112
  0.5420123822339380  0.8173624165557346  0.8924147561235420
  0.0428699524901662  0.0619453136989019  0.5984331603217723
  0.0429503272639358  0.3117967847326634  0.6048502369150025
  0.0418621182048490  0.5602860543266812  0.6005546723894073
  0.0451631068604754  0.8119587540955854  0.6028157823729863
  0.3768101830184652  0.1894639236908032  0.1023050451667669
  0.3783819833503867  0.4426771309332077  0.1067466306702387
  0.3792947834763042  0.6926503259571111  0.0971262279322291
  0.3809495165344590  0.9387298372866487  0.1016329137553948
  0.8822663296605664  0.1887817227474966  0.3941060326140123
  0.8775930136629916  0.4381170953065947  0.3924575676101913
  0.8825997997256467  0.6873156637577527  0.3966425346114569
  0.8800446172698755  0.9379319612269020  0.3882640919777287
  0.5276263926300585  0.0640292206764370  0.3841937332506782
  0.5292227842983295  0.3096401797521374  0.3846797889052027
  0.5294640596774676  0.5631540448378072  0.3808043591887363
  0.5232221568670187  0.8065508094775775  0.3872724387479398
  0.0219998602401076  0.0599647962035945  0.1094833826699563
  0.0349611776872615  0.3118300519047112  0.1097584341399366
  0.0139431476780121  0.5713878556755141  0.1087398015249424
  0.0250428629858856  0.8146933683715428  0.1086146266020939
  0.3991837696042996  0.1873363097246357  0.6108829531101921
  0.3934996199384463  0.4360205074254809  0.6074175561269801
  0.3990735760815743  0.6851218190429067  0.6119695753225836
  0.3940518166427873  0.9362544388407470  0.6085909249014514
  0.8993015630894410  0.1886171282130722  0.8851419224222222
  0.8953609019709508  0.4413159497680858  0.8869756376024170
  0.8981352584972420  0.6896016254318748  0.8815674143964669
  0.8918643710937901  0.9411518850749148  0.8830954549604894
  0.7537629017933647  0.0715975377656047  0.8471746528491665
  0.7527824899399531  0.3101172532027407  0.8515365263339002
  0.7559866159403316  0.5702141659442060  0.8465788248372644
  0.7510253840764419  0.8100224250548753  0.8429909626359386
  0.2535038784278050  0.0672061465472529  0.6481132062755489
  0.2547608295310129  0.3063755864446895  0.6478801822316557
  0.2527642705406421  0.5670659434122186  0.6495932253634381
  0.2557787805689013  0.8069837635768027  0.6476590208637698
  0.1772165521270149  0.1817015446708026  0.1468425729922944
  0.1786024648203119  0.4393576414780158  0.1480139887078721
  0.1647327829224546  0.6814393323846735  0.1438520544093920
  0.1665906042059878  0.9449520331853934  0.1471569100775982
  0.6742595822828805  0.1803900478482789  0.3468944270440142
  0.6684306453087205  0.4351272622486258  0.3487962682642540
  0.6692172895250708  0.7009065877077896  0.3519956496743316
  0.6634434303479332  0.9405429818679960  0.3496118906298696
  0.8484501431948592  0.0672393786704286  0.5150460893342400
  0.8486412732642071  0.3085368973240399  0.5171766784168028
  0.8466753616796762  0.5656039829976425  0.5192343402039732
  0.8504537985970319  0.8067775674121271  0.5147309318719963
  0.3493678598539191  0.0672459083229690  0.9789562813480206
  0.3444984607100139  0.3148755589471173  0.9807542964649956
  0.3481635981960746  0.5693859381806941  0.9818423783791506
  0.3429467343174357  0.8126711864190773  0.9747291894034137
  0.0764624849997443  0.1819647829660873  0.4790332419585843
  0.0758119648615265  0.4411108704875877  0.4791092685632694
  0.0760340065016072  0.6813553788635933  0.4793817221665505
  0.0760722618538132  0.9411468874233232  0.4766048655263033
  0.5718308282779186  0.1970568650326956  0.0189555155138774
  0.5666872601321892  0.4363937248376347  0.0200675946793444
  0.5696826339650477  0.6987533109756463  0.0129292178812314
  0.5758974605398119  0.9353314159559817  0.0169217440068155
  0.9408950874156161  0.0672258630252667  0.2764961228988420
  0.9453133104670280  0.3048935508892925  0.2821612744339057
  0.9420140025997116  0.5726439980646844  0.2846685762498214
  0.9415997359527373  0.8100649061725489  0.2785886099591057
  0.4450831599755759  0.0681120246015263  0.2142285598673219
  0.4375013729839267  0.3128105926441929  0.2110364730457395
  0.4311265107440594  0.5665834163755983  0.2134586038021644
  0.4338272716856899  0.8045595224765885  0.2149627843854128
 -0.0171561758825468  0.1843685599864867  0.7175508969458937
 -0.0166574024242911  0.4455438262262535  0.7155152407529953
 -0.0164550137411300  0.6850363905356949  0.7162441848492516
 -0.0182031364664226  0.9461497674099072  0.7110422123806156
  0.4820292735284124  0.1923798102637990  0.7789031906506585
  0.4846108615431767  0.4315860985327832  0.7833862449077799
  0.4830495021078891  0.6905025351335102  0.7780322555386647
  0.4827115030338899  0.9325467685442966  0.7799292240878133
  0.5379706095036730  0.0650105850953811  0.5687111761094942
  0.5373966750888471  0.3049271970893183  0.5696000694865236
  0.5365752817908668  0.5671304240452832  0.5698337890283570
  0.5383456683012655  0.8079796667505890  0.5679353363028133
  0.0387900034379426  0.0675696259711916  0.9261809298765208
  0.0370783120536299  0.3109601849771524  0.9241564295932879
  0.0397272115616862  0.5712505592243940  0.9265287124082927
  0.0338261864699024  0.8123895919356849  0.9215413056140502
  0.3837203437291924  0.1803555187760706  0.4252689685498525
  0.3880004400666395  0.4364722143927852  0.4255167533488720
  0.3814036557882866  0.6911447082203227  0.4271359187104136
  0.3900807564669451  0.9354195385808606  0.4206936404111871
  0.8885551349588968  0.1851915853205245  0.0688483457811953
  0.8971105415445030  0.4442584422661742  0.0743934512375564
  0.8815885769646578  0.6878703494028524  0.0650001767900395
  0.8826609347440079  0.9431275525265117  0.0691507381099229
 
             NaN             NaN             NaN
             NaN             NaN             NaN
             NaN             NaN             NaN
             NaN             NaN             NaN
             NaN             NaN             NaN
             NaN             NaN             NaN
             NaN             NaN             NaN
             NaN             NaN             NaN
             NaN             NaN             NaN
             NaN             NaN             NaN
             NaN             NaN             NaN
             NaN             NaN             NaN
             NaN             NaN             NaN
             NaN             NaN             NaN
             NaN             NaN             NaN
             NaN             NaN             NaN
             NaN             NaN             NaN
             NaN             NaN             NaN
             NaN             NaN             NaN
             NaN             NaN             NaN
             NaN             NaN             NaN
             NaN             NaN             NaN
             NaN             NaN             NaN
             NaN             NaN             NaN
             NaN             NaN             NaN
             NaN             NaN             NaN
             NaN             NaN             NaN
             NaN             NaN             NaN
             NaN             NaN             NaN
             NaN             NaN             NaN
             NaN             NaN             NaN
             NaN             NaN             NaN
             NaN             NaN             NaN
             NaN             NaN             NaN
             NaN             NaN             NaN
             NaN             NaN             NaN
             NaN             NaN             NaN
             NaN             NaN             NaN
             NaN             NaN             NaN
             NaN             NaN             NaN
             NaN             NaN             NaN
             NaN             NaN             NaN
             NaN             NaN             NaN
             NaN             NaN             NaN
             NaN             NaN             NaN
             NaN             NaN             NaN
             NaN             NaN             NaN
             NaN             NaN             NaN
             NaN             NaN             NaN
             NaN             NaN             NaN
             NaN             NaN             NaN
             NaN             NaN             NaN
             NaN             NaN             NaN
             NaN             NaN             NaN
             NaN             NaN             NaN
             NaN             NaN             NaN
             NaN             NaN             NaN
             NaN             NaN             NaN
             NaN             NaN             NaN
             NaN             NaN             NaN
             NaN             NaN             NaN
             NaN             NaN             NaN
             NaN             NaN             NaN
             NaN             NaN             NaN
             NaN             NaN             NaN
             NaN             NaN             NaN
             NaN             NaN             NaN
             NaN             NaN             NaN
             NaN             NaN             NaN
             NaN             NaN             NaN
             NaN             NaN             NaN
             NaN             NaN             NaN
             NaN             NaN             NaN
             NaN             NaN             NaN
             NaN             NaN             NaN
             NaN             NaN             NaN
             NaN             NaN             NaN
             NaN             NaN             NaN
             NaN             NaN             NaN
             NaN             NaN             NaN
             NaN             NaN             NaN
             NaN             NaN             NaN
             NaN             NaN             NaN
             NaN             NaN             NaN
             NaN             NaN             NaN
             NaN             NaN             NaN
             NaN             NaN             NaN
             NaN             NaN             NaN
             NaN             NaN             NaN
             NaN             NaN             NaN
             NaN             NaN             NaN
             NaN             NaN             NaN
             NaN             NaN             NaN
             NaN             NaN             NaN
             NaN             NaN             NaN
             NaN             NaN             NaN
             NaN             NaN             NaN
             NaN             NaN             NaN
             NaN             NaN             NaN
             NaN             NaN             NaN
             NaN             NaN             NaN
             NaN             NaN             NaN
             NaN             NaN             NaN
             NaN             NaN             NaN
             NaN             NaN             NaN
             NaN             NaN             NaN
             NaN             NaN             NaN
             NaN             NaN             NaN
             NaN             NaN             NaN
             NaN             NaN             NaN
             NaN             NaN             NaN
