Li48 P16 O64                            
   1.00000000000000     
    10.3983463832651974   -0.0000034427613024   -0.0067497435714542
    -0.0000045958708921   12.2113485378456215    0.0000175981346241
    -0.0063996175132041    0.0000091110357068    9.7894535370773781
   Li   P    O 
    47    16    64
Direct
  0.1638188229797223  0.2530061176985997  0.1519933013741633
  0.6575613196205742  0.2522343443813475  0.0969472332122233
  0.6673526529460779  0.2480049937897611  0.5985512482022584
  0.6647752972085597  0.7509635213046189  0.0974971852473481
  0.6648791337442977  0.7512537578285278  0.5983792012547803
  0.1638272154017192  0.4969822016994798  0.1519833512897317
  0.1643782004631431  0.4988350166976900  0.6523662886332017
  0.1627902257050484  0.9985595079632161  0.1523707128178431
  0.1647033721877136  0.9985744470131604  0.6525987464546060
  0.3360383888970035  0.0005314023243210  0.4014176911377546
  0.3359125415666660  0.0005936789254284  0.9026407486370482
  0.3373041697555944  0.4995547433746794  0.3999682880884061
  0.3370342001512233  0.4972042652774812  0.9069101673694179
  0.8370508911577783  0.2485463866622041  0.3475204185891709
  0.8348355603901555  0.2487546976798697  0.8489144847296189
  0.8366769997335632  0.7487434658297909  0.3483395380240408
  0.8365476938138598  0.7489651809266090  0.8475203072768299
  0.3373117211676964  0.2504428697427195  0.3999581443423711
  0.3370408215543841  0.2528082486862724  0.9069195380719196
  0.3360279574188366  0.7494488658265758  0.4014111726251385
  0.3359071378992356  0.7494120094912464  0.9026499241984692
  0.8366692573245389  0.0012487094484314  0.3483418353369823
  0.8365473412514743  0.0010366370093508  0.8475271551400397
  0.8370538427083279  0.5014546146837693  0.3475199921364073
  0.8348443065642849  0.5012551825308913  0.8489068878653264
  0.6575680565564703  0.4977745137244292  0.0969304434515618
  0.6673511317925415  0.5020017000171058  0.5985651140893411
  0.6647675218339421  0.9990307102300490  0.0974968399651592
  0.6648809242873941  0.9987397910693920  0.5983829711411224
  0.1643877059435194  0.2511675058758452  0.6523527659741156
  0.1627892348190817  0.7514461912487085  0.1523616641571566
  0.1647005750393385  0.7514333539106266  0.6526057229240727
  0.9197449216123982  0.3749995161462507  0.1481326629125662
  0.9221629005646286  0.3750002085123557  0.6489525110489541
  0.9220652292935528  0.8750022567985531  0.1493300317544871
  0.9237221699590389  0.8750030774868353  0.6483574107780723
  0.4232342708531559  0.3750014813178159  0.6122512690533776
  0.4275520983067870  0.8749917323381822  0.1000715561459409
  0.4237059661700405  0.8749943337652922  0.6007580322760496
  0.0777591620907820  0.1254417806626943  0.3511491264364965
  0.0775978302153617  0.1254313305890059  0.8522269570378378
  0.0777691237526399  0.6245538021371623  0.3511327521304792
  0.0776030187820465  0.6245814624232773  0.8522350627900891
  0.5771470477945899  0.1248337941503329  0.3999330590273569
  0.5750887686322820  0.1248231135110049  0.8978270230221552
  0.5771338493105667  0.6251570049090269  0.3999331723914384
  0.5750820112809740  0.6251850480438358  0.8978241570138259
  0.9108476934082714  0.1251306300269286  0.0954129753497503
  0.9135273327486333  0.1244065779262263  0.5954902780769581
  0.9108560888122665  0.6248696350669470  0.0953979550583568
  0.9135331573366182  0.6255968401481424  0.5954951475737777
  0.4107460913477211  0.1212407143541495  0.1544172928985940
  0.4115454843335373  0.1247022730997191  0.6548654443743377
  0.4107551593914808  0.6287619323546093  0.1544439234705113
  0.4115397168242723  0.6252967945217348  0.6548678075780914
  0.0880450022692748  0.3750006727458005  0.4047847952641775
  0.0860570884072165  0.3749994457605086  0.9047837998213540
  0.0880327186108491  0.8750012172224186  0.4048801678227857
  0.0876264937148453  0.8750120506150799  0.9051441839550990
  0.5913472879137609  0.3749959091151882  0.3496245464459983
  0.5879665208180661  0.3750067221072618  0.8389430671627895
  0.5890627644819479  0.8749932973950773  0.3455758991000043
  0.5886796930556117  0.8749987980419235  0.8448452709973728
  0.8413755160990016  0.0215489341793443  0.1471720352590810
  0.8428589163356520  0.0212063337136987  0.6465539938738334
  0.8389288005565141  0.5223316042638263  0.1464030015824792
  0.8435141880558710  0.5229450001745863  0.6484858031996462
  0.3330232536265251  0.2168302668127603  0.0973601671531972
  0.3422314812947226  0.2276815929962719  0.6014042514509297
  0.3434855471894784  0.7350683928660792  0.1070780150052381
  0.3420629596771307  0.7286187512809200  0.6022226756823641
  0.1585201730441625  0.2719487928611307  0.3533281831990824
  0.1566463559208353  0.2720558630701048  0.8532041270428231
  0.1580358741279099  0.7718409381436937  0.3529667912542239
  0.1584081221250028  0.7718950177154374  0.8541164742002055
  0.6604781383876903  0.4787515450628649  0.4018199642197391
  0.6544884916462573  0.4780309936714724  0.8962455628826088
  0.6589509430087944  0.9782176285425440  0.3977864298323492
  0.6586722857798093  0.9782176538784714  0.8967462913337523
  0.1585158359777204  0.4780461573415585  0.3533233106500094
  0.1566387146343401  0.4779512714643341  0.8532136618813000
  0.1580489307626425  0.9781556384548860  0.3529634492866902
  0.1584083130903880  0.9781206311043609  0.8541122113534253
  0.6604771997732346  0.2712475348358462  0.4018097461146353
  0.6544850363843899  0.2719834148290656  0.8962609596737425
  0.6589494992509315  0.7717599867750092  0.3977782342289506
  0.6586735695340802  0.7717786964191964  0.8967440560425810
  0.8389172320632063  0.2276687294179531  0.1463991052726379
  0.8435108067518641  0.2270556355705659  0.6484903076383469
  0.8413953097662217  0.7284557054064843  0.1471809263062345
  0.8428583722570310  0.7287979456717009  0.6465462503439350
  0.3434932664177702  0.0149120700756976  0.1070789575362074
  0.3420825238836577  0.0213789010922289  0.6022251979636059
  0.3330347392216992  0.5331620967150560  0.0973427031146328
  0.3422174418184435  0.5223148079404830  0.6014183719835463
  0.5496178582735878  0.1233280034995435  0.1011867162172661
  0.5516994421157609  0.1244442537070148  0.6044324943860917
  0.5495979429461534  0.6266688189811713  0.1011823884423757
  0.5516954430571935  0.6255523776295709  0.6044402058639983
  0.0501393149231716  0.1256704489459622  0.1480162267619381
  0.0530168307804346  0.1241178894849590  0.6472416225231132
  0.0501419875725795  0.6243291880416577  0.1480072767151698
  0.0530193770771162  0.6258873304204395  0.6472475492801134
  0.4520405415477478  0.3750054248349860  0.4013485795897830
  0.4439541953967559  0.3750063541912855  0.8686044938869363
  0.4494665532309655  0.8749845150046714  0.3967757066460330
  0.4491562001776854  0.8749948447824849  0.8963220103541794
  0.9486234558097209  0.3750033317657739  0.3521629565812995
  0.9465340711479695  0.3750056747838689  0.8523374275574501
  0.9483852098789629  0.8749950165715249  0.3532741987046158
  0.9486407860947352  0.8749982761207630  0.8518688993724410
  0.5964846898882505  0.3750118744874721  0.1937142935341242
  0.6012805052516245  0.3750014073695060  0.6817922593963068
  0.5914639697281175  0.8749920339660704  0.1880785477126961
  0.5898333364074495  0.8749924139876722  0.6874050871929435
  0.0854769270884651  0.3749972546751964  0.0621256903140171
  0.0884899985424200  0.3750084725059613  0.5623420506178251
  0.0873530986525706  0.8750099346429751  0.0625708200281423
  0.0896554227147261  0.8749950855554990  0.5623752333021339
  0.4117095219486477  0.1248022277162829  0.3118588063576519
  0.4089945167364410  0.1248633931110547  0.8121667304877598
  0.4116986710783328  0.6251801844874868  0.3118444403940494
  0.4089810469371828  0.6251465809592024  0.8121657175745627
  0.9119460365263142  0.1250504118691354  0.4379721275547618
  0.9104853796627653  0.1248488566597749  0.9378298760209304
  0.9119645068635700  0.6249475256463221  0.4379746749001912
  0.9104944395024964  0.6251599750815802  0.9378172526403635
 
  0.00000000E+00  0.00000000E+00  0.00000000E+00
  0.00000000E+00  0.00000000E+00  0.00000000E+00
  0.00000000E+00  0.00000000E+00  0.00000000E+00
  0.00000000E+00  0.00000000E+00  0.00000000E+00
  0.00000000E+00  0.00000000E+00  0.00000000E+00
  0.00000000E+00  0.00000000E+00  0.00000000E+00
  0.00000000E+00  0.00000000E+00  0.00000000E+00
  0.00000000E+00  0.00000000E+00  0.00000000E+00
  0.00000000E+00  0.00000000E+00  0.00000000E+00
  0.00000000E+00  0.00000000E+00  0.00000000E+00
  0.00000000E+00  0.00000000E+00  0.00000000E+00
  0.00000000E+00  0.00000000E+00  0.00000000E+00
  0.00000000E+00  0.00000000E+00  0.00000000E+00
  0.00000000E+00  0.00000000E+00  0.00000000E+00
  0.00000000E+00  0.00000000E+00  0.00000000E+00
  0.00000000E+00  0.00000000E+00  0.00000000E+00
  0.00000000E+00  0.00000000E+00  0.00000000E+00
  0.00000000E+00  0.00000000E+00  0.00000000E+00
  0.00000000E+00  0.00000000E+00  0.00000000E+00
  0.00000000E+00  0.00000000E+00  0.00000000E+00
  0.00000000E+00  0.00000000E+00  0.00000000E+00
  0.00000000E+00  0.00000000E+00  0.00000000E+00
  0.00000000E+00  0.00000000E+00  0.00000000E+00
  0.00000000E+00  0.00000000E+00  0.00000000E+00
  0.00000000E+00  0.00000000E+00  0.00000000E+00
  0.00000000E+00  0.00000000E+00  0.00000000E+00
  0.00000000E+00  0.00000000E+00  0.00000000E+00
  0.00000000E+00  0.00000000E+00  0.00000000E+00
  0.00000000E+00  0.00000000E+00  0.00000000E+00
  0.00000000E+00  0.00000000E+00  0.00000000E+00
  0.00000000E+00  0.00000000E+00  0.00000000E+00
  0.00000000E+00  0.00000000E+00  0.00000000E+00
  0.00000000E+00  0.00000000E+00  0.00000000E+00
  0.00000000E+00  0.00000000E+00  0.00000000E+00
  0.00000000E+00  0.00000000E+00  0.00000000E+00
  0.00000000E+00  0.00000000E+00  0.00000000E+00
  0.00000000E+00  0.00000000E+00  0.00000000E+00
  0.00000000E+00  0.00000000E+00  0.00000000E+00
  0.00000000E+00  0.00000000E+00  0.00000000E+00
  0.00000000E+00  0.00000000E+00  0.00000000E+00
  0.00000000E+00  0.00000000E+00  0.00000000E+00
  0.00000000E+00  0.00000000E+00  0.00000000E+00
  0.00000000E+00  0.00000000E+00  0.00000000E+00
  0.00000000E+00  0.00000000E+00  0.00000000E+00
  0.00000000E+00  0.00000000E+00  0.00000000E+00
  0.00000000E+00  0.00000000E+00  0.00000000E+00
  0.00000000E+00  0.00000000E+00  0.00000000E+00
  0.00000000E+00  0.00000000E+00  0.00000000E+00
  0.00000000E+00  0.00000000E+00  0.00000000E+00
  0.00000000E+00  0.00000000E+00  0.00000000E+00
  0.00000000E+00  0.00000000E+00  0.00000000E+00
  0.00000000E+00  0.00000000E+00  0.00000000E+00
  0.00000000E+00  0.00000000E+00  0.00000000E+00
  0.00000000E+00  0.00000000E+00  0.00000000E+00
  0.00000000E+00  0.00000000E+00  0.00000000E+00
  0.00000000E+00  0.00000000E+00  0.00000000E+00
  0.00000000E+00  0.00000000E+00  0.00000000E+00
  0.00000000E+00  0.00000000E+00  0.00000000E+00
  0.00000000E+00  0.00000000E+00  0.00000000E+00
  0.00000000E+00  0.00000000E+00  0.00000000E+00
  0.00000000E+00  0.00000000E+00  0.00000000E+00
  0.00000000E+00  0.00000000E+00  0.00000000E+00
  0.00000000E+00  0.00000000E+00  0.00000000E+00
  0.00000000E+00  0.00000000E+00  0.00000000E+00
  0.00000000E+00  0.00000000E+00  0.00000000E+00
  0.00000000E+00  0.00000000E+00  0.00000000E+00
  0.00000000E+00  0.00000000E+00  0.00000000E+00
  0.00000000E+00  0.00000000E+00  0.00000000E+00
  0.00000000E+00  0.00000000E+00  0.00000000E+00
  0.00000000E+00  0.00000000E+00  0.00000000E+00
  0.00000000E+00  0.00000000E+00  0.00000000E+00
  0.00000000E+00  0.00000000E+00  0.00000000E+00
  0.00000000E+00  0.00000000E+00  0.00000000E+00
  0.00000000E+00  0.00000000E+00  0.00000000E+00
  0.00000000E+00  0.00000000E+00  0.00000000E+00
  0.00000000E+00  0.00000000E+00  0.00000000E+00
  0.00000000E+00  0.00000000E+00  0.00000000E+00
  0.00000000E+00  0.00000000E+00  0.00000000E+00
  0.00000000E+00  0.00000000E+00  0.00000000E+00
  0.00000000E+00  0.00000000E+00  0.00000000E+00
  0.00000000E+00  0.00000000E+00  0.00000000E+00
  0.00000000E+00  0.00000000E+00  0.00000000E+00
  0.00000000E+00  0.00000000E+00  0.00000000E+00
  0.00000000E+00  0.00000000E+00  0.00000000E+00
  0.00000000E+00  0.00000000E+00  0.00000000E+00
  0.00000000E+00  0.00000000E+00  0.00000000E+00
  0.00000000E+00  0.00000000E+00  0.00000000E+00
  0.00000000E+00  0.00000000E+00  0.00000000E+00
  0.00000000E+00  0.00000000E+00  0.00000000E+00
  0.00000000E+00  0.00000000E+00  0.00000000E+00
  0.00000000E+00  0.00000000E+00  0.00000000E+00
  0.00000000E+00  0.00000000E+00  0.00000000E+00
  0.00000000E+00  0.00000000E+00  0.00000000E+00
  0.00000000E+00  0.00000000E+00  0.00000000E+00
  0.00000000E+00  0.00000000E+00  0.00000000E+00
  0.00000000E+00  0.00000000E+00  0.00000000E+00
  0.00000000E+00  0.00000000E+00  0.00000000E+00
  0.00000000E+00  0.00000000E+00  0.00000000E+00
  0.00000000E+00  0.00000000E+00  0.00000000E+00
  0.00000000E+00  0.00000000E+00  0.00000000E+00
  0.00000000E+00  0.00000000E+00  0.00000000E+00
  0.00000000E+00  0.00000000E+00  0.00000000E+00
  0.00000000E+00  0.00000000E+00  0.00000000E+00
  0.00000000E+00  0.00000000E+00  0.00000000E+00
  0.00000000E+00  0.00000000E+00  0.00000000E+00
  0.00000000E+00  0.00000000E+00  0.00000000E+00
  0.00000000E+00  0.00000000E+00  0.00000000E+00
  0.00000000E+00  0.00000000E+00  0.00000000E+00
  0.00000000E+00  0.00000000E+00  0.00000000E+00
  0.00000000E+00  0.00000000E+00  0.00000000E+00
  0.00000000E+00  0.00000000E+00  0.00000000E+00
  0.00000000E+00  0.00000000E+00  0.00000000E+00
  0.00000000E+00  0.00000000E+00  0.00000000E+00
  0.00000000E+00  0.00000000E+00  0.00000000E+00
  0.00000000E+00  0.00000000E+00  0.00000000E+00
  0.00000000E+00  0.00000000E+00  0.00000000E+00
  0.00000000E+00  0.00000000E+00  0.00000000E+00
  0.00000000E+00  0.00000000E+00  0.00000000E+00
  0.00000000E+00  0.00000000E+00  0.00000000E+00
  0.00000000E+00  0.00000000E+00  0.00000000E+00
  0.00000000E+00  0.00000000E+00  0.00000000E+00
  0.00000000E+00  0.00000000E+00  0.00000000E+00
  0.00000000E+00  0.00000000E+00  0.00000000E+00
  0.00000000E+00  0.00000000E+00  0.00000000E+00
  0.00000000E+00  0.00000000E+00  0.00000000E+00
  0.00000000E+00  0.00000000E+00  0.00000000E+00
  0.00000000E+00  0.00000000E+00  0.00000000E+00
