Mg7 Sc16 Se32                           
   1.00000000000000     
    11.2464320000000004    0.0000110000000000   -0.0000250000000000
     0.0000110000000000   11.2465189999999993    0.0000720000000000
    -0.0000250000000000    0.0000890000000000   11.2461749999999991
   Mg   Sc   Se
     7    16    32
Direct
  0.4998088897497021  0.4998064198943259  0.4998122225291139
  0.6241262560136812  0.1275725468031854  0.1275795942986094
  0.1275631401604778  0.6241101649860745  0.1275757792647451
  0.1275765436785569  0.1275864179272313  0.6241244084565545
  0.3758554566311724  0.8724683997594589  0.8724568203841491
  0.8724589810720198  0.3758503142010092  0.8724591165928653
  0.8724456897612738  0.8724649070843331  0.3758473145658060
  0.9944010616301526  0.7514197093949877  0.7514208339732902
  0.7514293250805086  0.9943543396055026  0.7514216797778243
  0.7514253019112994  0.7514130710096586  0.9944035647367393
  0.9998315299000023  0.9998311466526734  0.9998335177286533
  0.0057030439880336  0.2485526961693040  0.2485502619208158
  0.2485444908163425  0.0057222946476581  0.2485418102406106
  0.2485506992846416  0.2485439609246425  0.0056920227818847
  0.7477756645476824  0.4999783808889506  0.2522454030084798
  0.7477855039960587  0.2522640010614083  0.4999905353489720
 -0.0000024949583178  0.5000655439470850  0.5000677683466844
  0.2522911031971739  0.5000094792737775  0.7478095360617221
  0.2522567387586236  0.7477661927001343  0.4999591470553291
  0.4999075886449225  0.7477117779874410  0.2521921145906100
  0.4999939608404397 -0.0000415875115899  0.4999788201951922
  0.4999848443293982  0.2522403108048127  0.7477709708955631
  0.5000161597148700  0.4999965095443918 -0.0000375667141147
  0.7574523675957541  0.9941499429747485  0.9941611259037483
  0.9941590199786181  0.7574580909638080  0.9941685465706467
  0.9941594459071948  0.9941506033868198  0.7574439642043886
  0.7594672276606640  0.7594339414245419  0.7594617245946642
  0.2424492720208938  0.0058514568550297  0.0058401668105992
  0.0058468577554074  0.2424511391437782  0.0058457708433593
  0.0058483471086169  0.0058558768833005  0.2424621182874940
  0.2406522787616786  0.2406565566290375  0.2406415152454855
  0.7513138419739808  0.4920448289461666  0.4920402550030417
  0.9923706649237315  0.2583765411408457  0.4925241406039023
  0.9923604268105605  0.4925157365014522  0.2583652659784831
  0.7601044737443431  0.2568562953059919  0.2568527063427216
  0.2486326767582748  0.5079561030516447  0.5079630104524598
  0.0076467969311877  0.7416908476237052  0.5074934247585454
  0.0076662453687588  0.5075014039763452  0.7417018389660642
  0.2399589877161455  0.7431415652320447  0.7431340298397844
  0.2583436236127560  0.9923637087745538  0.4925128065505106
  0.4920260153779679  0.7513076346734844  0.4920129881122461
  0.4925026373913577  0.9923429810050417  0.2583286657154685
  0.2568226571609802  0.7601067464920541  0.2568383622639937
  0.7416660252205589  0.0076504638825208  0.5074880476840803
  0.5079530755383612  0.2486309463999092  0.5079516333148485
  0.5074950366103744  0.0076409245365990  0.7416665091527734
  0.7431336671261523  0.2399370367943811  0.7431472116031302
  0.2583595688762005  0.4925104406109704  0.9923802872151076
  0.4925116533840129  0.2583532337385660  0.9923712298816868
  0.4920500907055052  0.4920383166409232  0.7513235255055497
  0.2568571201580495  0.2568681225894465  0.7601037363634650
  0.7416704793276144  0.5074951373178220  0.0076394901691262
  0.5074938061920946  0.7416589453527589  0.0076201680732491
  0.5079378072661115  0.5079295770872061  0.2486106094508163
  0.7431031220402632  0.7431316479139097  0.2399542496191122
 
             NaN             NaN             NaN
             NaN             NaN             NaN
             NaN             NaN             NaN
             NaN             NaN             NaN
             NaN             NaN             NaN
             NaN             NaN             NaN
             NaN             NaN             NaN
             NaN             NaN             NaN
             NaN             NaN             NaN
             NaN             NaN             NaN
             NaN             NaN             NaN
             NaN             NaN             NaN
             NaN             NaN             NaN
             NaN             NaN             NaN
             NaN             NaN             NaN
             NaN             NaN             NaN
             NaN             NaN             NaN
             NaN             NaN             NaN
             NaN             NaN             NaN
             NaN             NaN             NaN
             NaN             NaN             NaN
             NaN             NaN             NaN
             NaN             NaN             NaN
             NaN             NaN             NaN
             NaN             NaN             NaN
             NaN             NaN             NaN
             NaN             NaN             NaN
             NaN             NaN             NaN
             NaN             NaN             NaN
             NaN             NaN             NaN
             NaN             NaN             NaN
             NaN             NaN             NaN
             NaN             NaN             NaN
             NaN             NaN             NaN
             NaN             NaN             NaN
             NaN             NaN             NaN
             NaN             NaN             NaN
             NaN             NaN             NaN
             NaN             NaN             NaN
             NaN             NaN             NaN
             NaN             NaN             NaN
             NaN             NaN             NaN
             NaN             NaN             NaN
             NaN             NaN             NaN
             NaN             NaN             NaN
             NaN             NaN             NaN
             NaN             NaN             NaN
             NaN             NaN             NaN
             NaN             NaN             NaN
             NaN             NaN             NaN
             NaN             NaN             NaN
             NaN             NaN             NaN
             NaN             NaN             NaN
             NaN             NaN             NaN
             NaN             NaN             NaN
