Mg7 Sc16 Se32
1.0
11.246432 0.000011 -0.000025
0.000011 11.246519 0.000072
-0.000025 0.000089 11.246175
Mg Sc Se
7 16 32
direct
0.499857 0.499888 0.499896 Mg
0.623854 0.126146 0.126152 Mg
0.126139 0.623854 0.126150 Mg
0.126138 0.126146 0.623850 Mg
0.376016 0.873968 0.873955 Mg
0.873959 0.376024 0.873947 Mg
0.873960 0.873981 0.376049 Mg
-0.002890 0.749365 0.749381 Sc
0.749374 -0.002985 0.749387 Sc
0.749391 0.749384 -0.002866 Sc
-0.000042 -0.000042 -0.000040 Sc
0.003064 0.250719 0.250708 Sc
0.250715 0.003059 0.250708 Sc
0.250715 0.250715 0.003047 Sc
0.746302 0.499950 0.253536 Sc
0.746272 0.253662 0.499937 Sc
0.000187 0.499964 0.499954 Sc
0.253651 0.499935 0.746330 Sc
0.253642 0.746280 0.499913 Sc
0.499932 0.746287 0.253506 Sc
0.499950 0.000222 0.499918 Sc
0.499956 0.253562 0.746316 Sc
0.499934 0.499914 0.000261 Sc
0.757565 0.992889 0.992907 Se
0.992896 0.757572 0.992907 Se
0.992890 0.992885 0.757565 Se
0.757873 0.757839 0.757897 Se
0.242364 0.007198 0.007184 Se
0.007191 0.242366 0.007181 Se
0.007190 0.007200 0.242379 Se
0.242223 0.242222 0.242215 Se
0.758895 0.492245 0.492179 Se
0.991849 0.257043 0.492515 Se
0.991865 0.492502 0.257017 Se
0.758601 0.257036 0.257016 Se
0.241291 0.507650 0.507672 Se
0.008136 0.742956 0.507498 Se
0.008138 0.507482 0.742941 Se
0.241450 0.742922 0.742932 Se
0.257028 0.991864 0.492504 Se
0.492220 0.758912 0.492165 Se
0.492491 0.991873 0.257001 Se
0.257020 0.758610 0.257004 Se
0.742929 0.008143 0.507496 Se
0.507635 0.241310 0.507665 Se
0.507495 0.008116 0.742937 Se
0.742940 0.241421 0.742935 Se
0.257020 0.492500 0.991883 Se
0.492495 0.257013 0.991885 Se
0.492232 0.492193 0.758948 Se
0.257030 0.257021 0.758603 Se
0.742926 0.507491 0.008118 Se
0.507484 0.742923 0.008109 Se
0.507637 0.507653 0.241300 Se
0.742925 0.742951 0.241447 Se
