Li16 Co18 O36                           
   1.00000000000000     
     8.0772449999999996    0.0761450000000000    2.3208069999999998
     3.6432680000000000    7.2082040000000003    2.3164120000000001
     0.0805580000000000    0.0070720000000000    9.8841020000000004
   Li   Co   O 
    16    18    36
Direct
  0.6850319999999996  0.6308590000000009  0.5004729999999995
  0.3340450000000033  0.3326569999999975  0.0000780000000020
  0.3335110000000014  0.3332100000000011  0.5002560000000003
  0.3335610000000031  0.6665629999999965  0.0005659999999992
  0.3424059999999969  0.6569750000000028  0.5013629999999978
  0.3344469999999973  0.9997180000000014  0.9994379999999978
  0.3243879999999990  0.0096169999999987  0.4988590000000030
  0.6672119999999993  0.3331659999999985  0.9997490000000013
  0.6665410000000023  0.6669839999999994  0.0004700000000000
  0.6669210000000021  0.9999299999999991  0.9988669999999971
  0.6680319999999966  0.0093159999999983  0.4980419999999981
  0.0004169999999988  0.3332710000000034  0.0006690000000020
  0.9999639999999985  0.6666039999999995  0.0007319999999993
  0.0003439999999983  0.6568079999999981  0.5008649999999975
  0.0004739999999970  0.9997789999999966  0.9997240000000005
  0.9831110000000010  0.0350480000000033  0.4997469999999993
  0.1659509999999997  0.1697750000000013  0.2498349999999974
  0.1663110000000003  0.1653710000000004  0.7497869999999978
  0.1654470000000003  0.5009510000000006  0.2501279999999966
  0.1662740000000014  0.4981849999999994  0.7551780000000008
  0.1656109999999984  0.8350330000000028  0.2499320000000012
  0.1670230000000004  0.8305739999999986  0.7518760000000029
  0.5005489999999995  0.1687680000000000  0.2458939999999998
  0.5010809999999992  0.1652190000000004  0.7486829999999998
  0.4991249999999994  0.5009019999999964  0.2506109999999993
  0.4998410000000035  0.4979930000000010  0.7512260000000026
  0.4988549999999989  0.8362399999999965  0.2497060000000033
  0.5005409999999983  0.8311509999999984  0.7481069999999974
  0.8323979999999978  0.1695080000000004  0.2486239999999995
  0.8340790000000027  0.1661119999999983  0.7492549999999980
  0.8318870000000018  0.5013519999999971  0.2519890000000018
  0.8350259999999992  0.4982400000000027  0.7513670000000019
  0.8322220000000016  0.8360249999999994  0.2473540000000014
  0.8340719999999990  0.8302049999999994  0.7506559999999993
  0.2581690000000023  0.2546910000000011  0.3536870000000008
  0.2546079999999975  0.2501600000000010  0.8607900000000015
  0.2521989999999974  0.5883129999999994  0.3592149999999990
  0.2537960000000012  0.5853370000000027  0.8638270000000006
  0.2517569999999978  0.9240580000000023  0.3582219999999978
  0.2545470000000023  0.9189039999999977  0.8593049999999991
  0.5856550000000027  0.2542520000000010  0.3531779999999998
  0.5869459999999975  0.2515459999999976  0.8595279999999974
  0.5845890000000011  0.5931500000000014  0.3556310000000025
  0.5866060000000033  0.5867870000000011  0.8599600000000009
  0.5862839999999991  0.9248469999999998  0.3556290000000004
  0.5863530000000026  0.9186410000000009  0.8581039999999973
  0.9219870000000014  0.2561800000000005  0.3495589999999993
  0.9208720000000028  0.2519279999999995  0.8604669999999999
  0.9182279999999992  0.5937169999999981  0.3548040000000015
  0.9184619999999981  0.5855809999999977  0.8636389999999992
  0.9183870000000027  0.9238069999999965  0.3567499999999981
  0.9195660000000032  0.9191020000000023  0.8602330000000009
  0.0804749999999999  0.0807149999999979  0.1399159999999995
  0.0812590000000029  0.0733180000000004  0.6451870000000000
  0.0788980000000024  0.4151069999999990  0.1403880000000015
  0.0816149999999993  0.4124029999999976  0.6472899999999981
  0.0803060000000002  0.7472989999999982  0.1399410000000003
  0.0811440000000019  0.7416270000000011  0.6446460000000016
  0.4127149999999986  0.0814080000000033  0.1374599999999973
  0.4134189999999975  0.0783199999999979  0.6399570000000026
  0.4124669999999995  0.4157610000000034  0.1390379999999993
  0.4084100000000035  0.4125099999999975  0.6469220000000035
  0.4124910000000028  0.7474679999999978  0.1409779999999969
  0.4135479999999987  0.7425789999999992  0.6416540000000026
  0.7480049999999991  0.0818429999999992  0.1363229999999973
  0.7488730000000032  0.0734070000000031  0.6446320000000014
  0.7453950000000020  0.4155080000000027  0.1404500000000013
  0.7444530000000000  0.4111529999999988  0.6515169999999983
  0.7457229999999981  0.7473090000000013  0.1398200000000003
  0.7484409999999997  0.7424960000000027  0.6412329999999997
 
  0.00000000E+00  0.00000000E+00  0.00000000E+00
  0.00000000E+00  0.00000000E+00  0.00000000E+00
  0.00000000E+00  0.00000000E+00  0.00000000E+00
  0.00000000E+00  0.00000000E+00  0.00000000E+00
  0.00000000E+00  0.00000000E+00  0.00000000E+00
  0.00000000E+00  0.00000000E+00  0.00000000E+00
  0.00000000E+00  0.00000000E+00  0.00000000E+00
  0.00000000E+00  0.00000000E+00  0.00000000E+00
  0.00000000E+00  0.00000000E+00  0.00000000E+00
  0.00000000E+00  0.00000000E+00  0.00000000E+00
  0.00000000E+00  0.00000000E+00  0.00000000E+00
  0.00000000E+00  0.00000000E+00  0.00000000E+00
  0.00000000E+00  0.00000000E+00  0.00000000E+00
  0.00000000E+00  0.00000000E+00  0.00000000E+00
  0.00000000E+00  0.00000000E+00  0.00000000E+00
  0.00000000E+00  0.00000000E+00  0.00000000E+00
  0.00000000E+00  0.00000000E+00  0.00000000E+00
  0.00000000E+00  0.00000000E+00  0.00000000E+00
  0.00000000E+00  0.00000000E+00  0.00000000E+00
  0.00000000E+00  0.00000000E+00  0.00000000E+00
  0.00000000E+00  0.00000000E+00  0.00000000E+00
  0.00000000E+00  0.00000000E+00  0.00000000E+00
  0.00000000E+00  0.00000000E+00  0.00000000E+00
  0.00000000E+00  0.00000000E+00  0.00000000E+00
  0.00000000E+00  0.00000000E+00  0.00000000E+00
  0.00000000E+00  0.00000000E+00  0.00000000E+00
  0.00000000E+00  0.00000000E+00  0.00000000E+00
  0.00000000E+00  0.00000000E+00  0.00000000E+00
  0.00000000E+00  0.00000000E+00  0.00000000E+00
  0.00000000E+00  0.00000000E+00  0.00000000E+00
  0.00000000E+00  0.00000000E+00  0.00000000E+00
  0.00000000E+00  0.00000000E+00  0.00000000E+00
  0.00000000E+00  0.00000000E+00  0.00000000E+00
  0.00000000E+00  0.00000000E+00  0.00000000E+00
  0.00000000E+00  0.00000000E+00  0.00000000E+00
  0.00000000E+00  0.00000000E+00  0.00000000E+00
  0.00000000E+00  0.00000000E+00  0.00000000E+00
  0.00000000E+00  0.00000000E+00  0.00000000E+00
  0.00000000E+00  0.00000000E+00  0.00000000E+00
  0.00000000E+00  0.00000000E+00  0.00000000E+00
  0.00000000E+00  0.00000000E+00  0.00000000E+00
  0.00000000E+00  0.00000000E+00  0.00000000E+00
  0.00000000E+00  0.00000000E+00  0.00000000E+00
  0.00000000E+00  0.00000000E+00  0.00000000E+00
  0.00000000E+00  0.00000000E+00  0.00000000E+00
  0.00000000E+00  0.00000000E+00  0.00000000E+00
  0.00000000E+00  0.00000000E+00  0.00000000E+00
  0.00000000E+00  0.00000000E+00  0.00000000E+00
  0.00000000E+00  0.00000000E+00  0.00000000E+00
  0.00000000E+00  0.00000000E+00  0.00000000E+00
  0.00000000E+00  0.00000000E+00  0.00000000E+00
  0.00000000E+00  0.00000000E+00  0.00000000E+00
  0.00000000E+00  0.00000000E+00  0.00000000E+00
  0.00000000E+00  0.00000000E+00  0.00000000E+00
  0.00000000E+00  0.00000000E+00  0.00000000E+00
  0.00000000E+00  0.00000000E+00  0.00000000E+00
  0.00000000E+00  0.00000000E+00  0.00000000E+00
  0.00000000E+00  0.00000000E+00  0.00000000E+00
  0.00000000E+00  0.00000000E+00  0.00000000E+00
  0.00000000E+00  0.00000000E+00  0.00000000E+00
  0.00000000E+00  0.00000000E+00  0.00000000E+00
  0.00000000E+00  0.00000000E+00  0.00000000E+00
  0.00000000E+00  0.00000000E+00  0.00000000E+00
  0.00000000E+00  0.00000000E+00  0.00000000E+00
  0.00000000E+00  0.00000000E+00  0.00000000E+00
  0.00000000E+00  0.00000000E+00  0.00000000E+00
  0.00000000E+00  0.00000000E+00  0.00000000E+00
  0.00000000E+00  0.00000000E+00  0.00000000E+00
  0.00000000E+00  0.00000000E+00  0.00000000E+00
  0.00000000E+00  0.00000000E+00  0.00000000E+00
