Li16 Co18 O36
1.0
8.077245 0.076145 2.320807
3.643268 7.208204 2.316412
0.080558 0.007072 9.884102
Li Co O
16 18 36
direct
0.685032 0.630859 0.500473 Li
0.334045 0.332657 0.000078 Li
0.333511 0.333210 0.500256 Li
0.333561 0.666563 0.000566 Li
0.342406 0.656975 0.501363 Li
0.334447 -0.000282 -0.000562 Li
0.324388 0.009617 0.498859 Li
0.667212 0.333166 -0.000251 Li
0.666541 0.666984 0.000470 Li
0.666921 -0.000070 0.998867 Li
0.668032 1.009316 0.498042 Li
0.000417 0.333271 0.000669 Li
0.999964 0.666604 0.000732 Li
1.000344 0.656808 0.500865 Li
0.000474 -0.000221 -0.000276 Li
0.983111 0.035048 0.499747 Li
0.165951 0.169775 0.249835 Co
0.166311 0.165371 0.749787 Co
0.165447 0.500951 0.250128 Co
0.166274 0.498185 0.755178 Co
0.165611 0.835033 0.249932 Co
0.167023 0.830574 0.751876 Co
0.500549 0.168768 0.245894 Co
0.501081 0.165219 0.748683 Co
0.499125 0.500902 0.250611 Co
0.499841 0.497993 0.751226 Co
0.498855 0.836240 0.249706 Co
0.500541 0.831151 0.748107 Co
0.832398 0.169508 0.248624 Co
0.834079 0.166112 0.749255 Co
0.831887 0.501352 0.251989 Co
0.835026 0.498240 0.751367 Co
0.832222 0.836025 0.247354 Co
0.834072 0.830205 0.750656 Co
0.258169 0.254691 0.353687 O
0.254608 0.250160 0.860790 O
0.252199 0.588313 0.359215 O
0.253796 0.585337 0.863827 O
0.251757 0.924058 0.358222 O
0.254547 0.918904 0.859305 O
0.585655 0.254252 0.353178 O
0.586946 0.251546 0.859528 O
0.584589 0.593150 0.355631 O
0.586606 0.586787 0.859960 O
0.586284 0.924847 0.355629 O
0.586353 0.918641 0.858104 O
0.921987 0.256180 0.349559 O
0.920872 0.251928 0.860467 O
0.918228 0.593717 0.354804 O
0.918462 0.585581 0.863639 O
0.918387 0.923807 0.356750 O
0.919566 0.919102 0.860233 O
0.080475 0.080715 0.139916 O
0.081259 0.073318 0.645187 O
0.078898 0.415107 0.140388 O
0.081615 0.412403 0.647290 O
0.080306 0.747299 0.139941 O
0.081144 0.741627 0.644646 O
0.412715 0.081408 0.137460 O
0.413419 0.078320 0.639957 O
0.412467 0.415761 0.139038 O
0.408410 0.412510 0.646922 O
0.412491 0.747468 0.140978 O
0.413548 0.742579 0.641654 O
0.748005 0.081843 0.136323 O
0.748873 0.073407 0.644632 O
0.745395 0.415508 0.140450 O
0.744453 0.411153 0.651517 O
0.745723 0.747309 0.139820 O
0.748441 0.742496 0.641233 O
