Li48 P16 O64                            
   1.00000000000000     
    10.5539191264132111    0.0004384900659426   -0.0054795146347625
     0.0005125857490131   12.3624719727095638   -0.0007987516782015
    -0.0051811627535589   -0.0006469372343807    9.9760637169082891
   Li   P    O 
    47    16    64
Direct
  0.1630160778247362  0.2525515830279232  0.1507807470473961
  0.6566381935825631  0.2522940201480577  0.0975284124567314
  0.6669329503382205  0.2485395718114413  0.5994937852416242
  0.6642696624036287  0.7510006226428464  0.0984827533474633
  0.6647969273886472  0.7511040635130176  0.5993271188246081
  0.1632510558246500  0.4972414818832849  0.1507451979797017
  0.1642800681640424  0.4988490619240071  0.6513088964605681
  0.1626195188968439  0.9982566464987966  0.1516281645125505
  0.1642657794813188  0.9986994468967390  0.6515877989285009
  0.3364774360361023  0.0003923669426350  0.4004393454707904
  0.3363918993750109  0.0004287290855298  0.9011005502017146
  0.3379022157920512  0.4995449260142883  0.3979056611949103
  0.3374282896494833  0.4974132017561370  0.9062298468388571
  0.8374099415751052  0.2485203902048135  0.3489684506458410
  0.8353760077805206  0.2487532440227263  0.8500227020348079
  0.8371077224785589  0.7487831436530310  0.3496153440472298
  0.8370574818675593  0.7489847321298275  0.8490784422622173
  0.3379055427096181  0.2504272193696320  0.3977163019096734
  0.3375787027096140  0.2528141296362050  0.9069020977917649
  0.3365205008444533  0.7495541108223212  0.4003766408857868
  0.3363692815894823  0.7496666836551610  0.9010050716538184
  0.8370776632283922  0.0012187926312888  0.3495919825181095
  0.8369953855803880  0.0010384228762655  0.8490950193737656
  0.8373685589654055  0.5014773157843928  0.3489853457717225
  0.8355029438835732  0.5012418030976203  0.8499796312359150
  0.6569777734001235  0.4976491928640567  0.0975995784641134
  0.6668706742042734  0.5014716744747284  0.5994710930970732
  0.6640476835326030  0.9990774553278651  0.0986184307507713
  0.6648008384045441  0.9989208865209116  0.5993241691670216
  0.1643213346026192  0.2511621600227528  0.6513322865920004
  0.1625864717884421  0.7517639210971137  0.1516440219446396
  0.1642362834578130  0.7512940838691168  0.6515447235069640
  0.9216177969852698  0.3749636527391202  0.1484114090104525
  0.9246683734294585  0.3749974820094463  0.6491431879900215
  0.9240173421593119  0.8750292013087668  0.1494933245188927
  0.9257411333892289  0.8750163352193951  0.6489769596290644
  0.4255534325415253  0.3750354281506504  0.6101666544181282
  0.4295350754532687  0.8750041579655903  0.1002848394145350
  0.4259941991315513  0.8750134785435247  0.6009474950376313
  0.0756185603944535  0.1253756468800209  0.3512791782122025
  0.0756035575347848  0.1255306616738141  0.8526403514090469
  0.0756294377493929  0.6245723442024321  0.3512803509893130
  0.0756173821221705  0.6244766879806971  0.8525769829175325
  0.5748553179872646  0.1248629768772252  0.3996902693463550
  0.5730828386715104  0.1250146605911336  0.8976836421601831
  0.5748988005117405  0.6251331042408377  0.3997873734372084
  0.5731091542134353  0.6250870512571230  0.8974451710554737
  0.9100771115813889  0.1249570497139968  0.0971097927861534
  0.9130045508830481  0.1244358217479754  0.5972855820835136
  0.9102172655956892  0.6249968083284475  0.0970936080620436
  0.9129970191474086  0.6255704860372890  0.5972766562514036
  0.4094345373336044  0.1204231323726240  0.1525580210684992
  0.4111648284402129  0.1248483418923956  0.6534334091439680
  0.4096064239154884  0.6294658736906549  0.1524327559814843
  0.4111608449302103  0.6252684212167374  0.6533820384550063
  0.0887546794230754  0.3749962848397096  0.4034605176764934
  0.0866130767439303  0.3750068581576322  0.9034255177007613
  0.0885679991087275  0.8749899674213127  0.4038690436171132
  0.0882225150312265  0.8749990012797911  0.9042078284603673
  0.5926773363976440  0.3750352657377536  0.3498652945602053
  0.5884330588018528  0.3749730151786093  0.8405369942503774
  0.5898499173428396  0.8749663322898109  0.3472193626070759
  0.5894486077845723  0.8750113638512366  0.8455648421704062
  0.8406309495164649  0.0213742810731202  0.1482888389504985
  0.8426110250828887  0.0213012571656221  0.6481915050977438
  0.8387800520586661  0.5224497106092809  0.1478822604534924
  0.8431593524874501  0.5228380399107831  0.6496912062443855
  0.3309072154568664  0.2152257592610771  0.0959292608630540
  0.3422651850535016  0.2279478757055356  0.6002072154371975
  0.3434112376423551  0.7362996452221570  0.1060317044071569
  0.3416758940897424  0.7285064756389673  0.6011348095349172
  0.1588635427601573  0.2719083021129695  0.3521781215987461
  0.1569430477865685  0.2720386162022347  0.8522552094341963
  0.1583811952424546  0.7718300028656546  0.3522855319604008
  0.1587087697903685  0.7718967821955726  0.8533135086643878
  0.6607484117453550  0.4787901363930218  0.4031374621949252
  0.6550742948952771  0.4780637579410864  0.8970047451258242
  0.6594727913775761  0.9782623565516789  0.3990127623738559
  0.6590190198092556  0.9782181232800427  0.8975313423274169
  0.1589328800400754  0.4780207244597412  0.3521310167879826
  0.1568867638598294  0.4779568720646780  0.8522152556120464
  0.1583829097251541  0.9781411565556436  0.3523113419057751
  0.1587161627347079  0.9780861994713392  0.8533290861189698
  0.6607362814650715  0.2712232661084863  0.4030187989369720
  0.6551760417358460  0.2719906459916352  0.8970192130268420
  0.6595045353330694  0.7717097308761026  0.3990057453807442
  0.6590456544657795  0.7718068820257872  0.8974827029464180
  0.8386365245853364  0.2275309710390348  0.1479031781886920
  0.8431910602214741  0.2271979426876300  0.6496747945498257
  0.8407882651537332  0.7285926324129266  0.1483046418216457
  0.8426109184107256  0.7287309014494527  0.6481839952522734
  0.3433968039292252  0.0135260632334562  0.1060327805408821
  0.3417337301868894  0.0215516281714387  0.6012657734648018
  0.3312480077784854  0.5346922656007799  0.0952968640992337
  0.3422583102360198  0.5221196905133811  0.6002496150359635
  0.5477875716828936  0.1233315783723554  0.0991279289342964
  0.5507711605414771  0.1244663417873487  0.6028409094926896
  0.5479488721843632  0.6266029894649896  0.0990080233940951
  0.5507586417094784  0.6255969738691398  0.6028139553797921
  0.0488064645331659  0.1252054420686911  0.1497724518478462
  0.0520377056661526  0.1242648383707577  0.6489817660615941
  0.0489889507230373  0.6247267963094345  0.1496944523287327
  0.0520273782511566  0.6257451404460325  0.6489626739568879
  0.4531483638462195  0.3749915454576382  0.3998049255410052
  0.4452843743487361  0.3751431940398294  0.8721854715083432
  0.4507597930216123  0.8749684145309669  0.3984745501091627
  0.4502426789774086  0.8749946222742613  0.8963729415156471
  0.9496756180436401  0.3750155037837268  0.3512859185413587
  0.9475450575952533  0.3749730949969743  0.8509970134255838
  0.9494194733990633  0.8749928774219521  0.3522446029291403
  0.9496472932550728  0.8750112672461092  0.8511029801751590
  0.5999295159802472  0.3750490474754996  0.1953601754748984
  0.6005937018539584  0.3749760721678059  0.6842484064474733
  0.5920079372114708  0.8749481234911817  0.1907328459995276
  0.5909509043038075  0.8750235749263381  0.6891250416263872
  0.0857047251376718  0.3750094646009037  0.0597791173587748
  0.0892969645746909  0.3750234400062298  0.5600336692102306
  0.0876162681057550  0.8749922763710958  0.0606133918771632
  0.0899508685871973  0.8749971738869108  0.5603841216257714
  0.4111016700303616  0.1243754569164869  0.3090196297523343
  0.4088227985892954  0.1249498262990583  0.8097148375081246
  0.4111609224010212  0.6253945251175406  0.3088379571394583
  0.4088306110615808  0.6252554579516914  0.8096495108033097
  0.9116407819187483  0.1249618727645202  0.4407746638948944
  0.9100461783048920  0.1248550906024065  0.9405212119341259
  0.9116351143373770  0.6250195474572773  0.4407715090030690
  0.9101117630711119  0.6251177571342617  0.9405049902862601
 
  0.00000000E+00  0.00000000E+00  0.00000000E+00
  0.00000000E+00  0.00000000E+00  0.00000000E+00
  0.00000000E+00  0.00000000E+00  0.00000000E+00
  0.00000000E+00  0.00000000E+00  0.00000000E+00
  0.00000000E+00  0.00000000E+00  0.00000000E+00
  0.00000000E+00  0.00000000E+00  0.00000000E+00
  0.00000000E+00  0.00000000E+00  0.00000000E+00
  0.00000000E+00  0.00000000E+00  0.00000000E+00
  0.00000000E+00  0.00000000E+00  0.00000000E+00
  0.00000000E+00  0.00000000E+00  0.00000000E+00
  0.00000000E+00  0.00000000E+00  0.00000000E+00
  0.00000000E+00  0.00000000E+00  0.00000000E+00
  0.00000000E+00  0.00000000E+00  0.00000000E+00
  0.00000000E+00  0.00000000E+00  0.00000000E+00
  0.00000000E+00  0.00000000E+00  0.00000000E+00
  0.00000000E+00  0.00000000E+00  0.00000000E+00
  0.00000000E+00  0.00000000E+00  0.00000000E+00
  0.00000000E+00  0.00000000E+00  0.00000000E+00
  0.00000000E+00  0.00000000E+00  0.00000000E+00
  0.00000000E+00  0.00000000E+00  0.00000000E+00
  0.00000000E+00  0.00000000E+00  0.00000000E+00
  0.00000000E+00  0.00000000E+00  0.00000000E+00
  0.00000000E+00  0.00000000E+00  0.00000000E+00
  0.00000000E+00  0.00000000E+00  0.00000000E+00
  0.00000000E+00  0.00000000E+00  0.00000000E+00
  0.00000000E+00  0.00000000E+00  0.00000000E+00
  0.00000000E+00  0.00000000E+00  0.00000000E+00
  0.00000000E+00  0.00000000E+00  0.00000000E+00
  0.00000000E+00  0.00000000E+00  0.00000000E+00
  0.00000000E+00  0.00000000E+00  0.00000000E+00
  0.00000000E+00  0.00000000E+00  0.00000000E+00
  0.00000000E+00  0.00000000E+00  0.00000000E+00
  0.00000000E+00  0.00000000E+00  0.00000000E+00
  0.00000000E+00  0.00000000E+00  0.00000000E+00
  0.00000000E+00  0.00000000E+00  0.00000000E+00
  0.00000000E+00  0.00000000E+00  0.00000000E+00
  0.00000000E+00  0.00000000E+00  0.00000000E+00
  0.00000000E+00  0.00000000E+00  0.00000000E+00
  0.00000000E+00  0.00000000E+00  0.00000000E+00
  0.00000000E+00  0.00000000E+00  0.00000000E+00
  0.00000000E+00  0.00000000E+00  0.00000000E+00
  0.00000000E+00  0.00000000E+00  0.00000000E+00
  0.00000000E+00  0.00000000E+00  0.00000000E+00
  0.00000000E+00  0.00000000E+00  0.00000000E+00
  0.00000000E+00  0.00000000E+00  0.00000000E+00
  0.00000000E+00  0.00000000E+00  0.00000000E+00
  0.00000000E+00  0.00000000E+00  0.00000000E+00
  0.00000000E+00  0.00000000E+00  0.00000000E+00
  0.00000000E+00  0.00000000E+00  0.00000000E+00
  0.00000000E+00  0.00000000E+00  0.00000000E+00
  0.00000000E+00  0.00000000E+00  0.00000000E+00
  0.00000000E+00  0.00000000E+00  0.00000000E+00
  0.00000000E+00  0.00000000E+00  0.00000000E+00
  0.00000000E+00  0.00000000E+00  0.00000000E+00
  0.00000000E+00  0.00000000E+00  0.00000000E+00
  0.00000000E+00  0.00000000E+00  0.00000000E+00
  0.00000000E+00  0.00000000E+00  0.00000000E+00
  0.00000000E+00  0.00000000E+00  0.00000000E+00
  0.00000000E+00  0.00000000E+00  0.00000000E+00
  0.00000000E+00  0.00000000E+00  0.00000000E+00
  0.00000000E+00  0.00000000E+00  0.00000000E+00
  0.00000000E+00  0.00000000E+00  0.00000000E+00
  0.00000000E+00  0.00000000E+00  0.00000000E+00
  0.00000000E+00  0.00000000E+00  0.00000000E+00
  0.00000000E+00  0.00000000E+00  0.00000000E+00
  0.00000000E+00  0.00000000E+00  0.00000000E+00
  0.00000000E+00  0.00000000E+00  0.00000000E+00
  0.00000000E+00  0.00000000E+00  0.00000000E+00
  0.00000000E+00  0.00000000E+00  0.00000000E+00
  0.00000000E+00  0.00000000E+00  0.00000000E+00
  0.00000000E+00  0.00000000E+00  0.00000000E+00
  0.00000000E+00  0.00000000E+00  0.00000000E+00
  0.00000000E+00  0.00000000E+00  0.00000000E+00
  0.00000000E+00  0.00000000E+00  0.00000000E+00
  0.00000000E+00  0.00000000E+00  0.00000000E+00
  0.00000000E+00  0.00000000E+00  0.00000000E+00
  0.00000000E+00  0.00000000E+00  0.00000000E+00
  0.00000000E+00  0.00000000E+00  0.00000000E+00
  0.00000000E+00  0.00000000E+00  0.00000000E+00
  0.00000000E+00  0.00000000E+00  0.00000000E+00
  0.00000000E+00  0.00000000E+00  0.00000000E+00
  0.00000000E+00  0.00000000E+00  0.00000000E+00
  0.00000000E+00  0.00000000E+00  0.00000000E+00
  0.00000000E+00  0.00000000E+00  0.00000000E+00
  0.00000000E+00  0.00000000E+00  0.00000000E+00
  0.00000000E+00  0.00000000E+00  0.00000000E+00
  0.00000000E+00  0.00000000E+00  0.00000000E+00
  0.00000000E+00  0.00000000E+00  0.00000000E+00
  0.00000000E+00  0.00000000E+00  0.00000000E+00
  0.00000000E+00  0.00000000E+00  0.00000000E+00
  0.00000000E+00  0.00000000E+00  0.00000000E+00
  0.00000000E+00  0.00000000E+00  0.00000000E+00
  0.00000000E+00  0.00000000E+00  0.00000000E+00
  0.00000000E+00  0.00000000E+00  0.00000000E+00
  0.00000000E+00  0.00000000E+00  0.00000000E+00
  0.00000000E+00  0.00000000E+00  0.00000000E+00
  0.00000000E+00  0.00000000E+00  0.00000000E+00
  0.00000000E+00  0.00000000E+00  0.00000000E+00
  0.00000000E+00  0.00000000E+00  0.00000000E+00
  0.00000000E+00  0.00000000E+00  0.00000000E+00
  0.00000000E+00  0.00000000E+00  0.00000000E+00
  0.00000000E+00  0.00000000E+00  0.00000000E+00
  0.00000000E+00  0.00000000E+00  0.00000000E+00
  0.00000000E+00  0.00000000E+00  0.00000000E+00
  0.00000000E+00  0.00000000E+00  0.00000000E+00
  0.00000000E+00  0.00000000E+00  0.00000000E+00
  0.00000000E+00  0.00000000E+00  0.00000000E+00
  0.00000000E+00  0.00000000E+00  0.00000000E+00
  0.00000000E+00  0.00000000E+00  0.00000000E+00
  0.00000000E+00  0.00000000E+00  0.00000000E+00
  0.00000000E+00  0.00000000E+00  0.00000000E+00
  0.00000000E+00  0.00000000E+00  0.00000000E+00
  0.00000000E+00  0.00000000E+00  0.00000000E+00
  0.00000000E+00  0.00000000E+00  0.00000000E+00
  0.00000000E+00  0.00000000E+00  0.00000000E+00
  0.00000000E+00  0.00000000E+00  0.00000000E+00
  0.00000000E+00  0.00000000E+00  0.00000000E+00
  0.00000000E+00  0.00000000E+00  0.00000000E+00
  0.00000000E+00  0.00000000E+00  0.00000000E+00
  0.00000000E+00  0.00000000E+00  0.00000000E+00
  0.00000000E+00  0.00000000E+00  0.00000000E+00
  0.00000000E+00  0.00000000E+00  0.00000000E+00
  0.00000000E+00  0.00000000E+00  0.00000000E+00
  0.00000000E+00  0.00000000E+00  0.00000000E+00
  0.00000000E+00  0.00000000E+00  0.00000000E+00
  0.00000000E+00  0.00000000E+00  0.00000000E+00
  0.00000000E+00  0.00000000E+00  0.00000000E+00
