Li46 P16 O64                            
   1.00000000000000     
    10.4265589999999992    0.0070230000000000   -0.0049130000000000
     0.0076500000000000   12.1828179999999993    0.0014910000000000
    -0.0045620000000000    0.0007570000000000    9.7994439999999994
   Li   P    O 
    46    16    64
Direct
  0.4070791425707371  0.3738055083357994  0.1154423211602287
  0.6620655866170261  0.2500455317331006  0.6008427249552658
  0.6620617551896719  0.7474159727462606  0.0979797070401567
  0.6631256738455953  0.7503066290159114  0.5983548018442590
  0.1619024334375228  0.4979353398195685  0.1544311008068615
  0.1632437561799391  0.5013337887817151  0.6522619720773479
  0.1665559779714535  0.9946398241116532  0.1546156457250609
  0.1632618198924625  0.9993366791062894  0.6526428313322404
  0.3352443091758639  0.9996761441020822  0.4043907973241478
  0.3363334195087250  0.9995577208876797  0.9006602202027790
  0.3345715170024676  0.5011640779746381  0.4041824271711461
  0.3347083267521901  0.5001349391666320  0.9028861211594402
  0.8328435074455051  0.2491813507136372  0.3486363794367968
  0.8351118027003890  0.2494477386016792  0.8511411490053274
  0.8350235301587758  0.7481595248393534  0.3482278525106149
  0.8352865760485578  0.7484591992627794  0.8480051597509514
  0.3351157225662437  0.2469539629610696  0.4034622211070595
  0.3346605945182851  0.2474258846572723  0.9003162659149687
  0.3358857691628442  0.7482196027112850  0.4022753158616920
  0.3357162118516476  0.7478567222486358  0.9022265722607201
  0.8365030118561028  0.0006890932853405  0.3505389408861032
  0.8349501788306944  0.0003522795688494  0.8451798691922791
  0.8332104539110744  0.4994760550446014  0.3463629592348817
  0.8349489159120828  0.4995266039206032  0.8497246856979868
  0.6618347526631728  0.4903607643433026  0.0959128191154793
  0.6636362610968820  0.5002218802024976  0.5961707490419383
  0.6664229854063937  0.9941060465145566  0.0961151247097162
  0.6634730861740349  0.9985936318466541  0.5976471605055554
  0.1624001867802290  0.2509992224561299  0.6501686662094998
  0.1632703153924831  0.7491128650986211  0.1524578410787708
  0.1635110850516020  0.7509571077009694  0.6521336219145071
  0.9289747995831197  0.3740196170572536  0.1482302514107814
  0.9213293602120404  0.3752528708808469  0.6515328999431254
  0.9227601436483706  0.8722221077267382  0.1494466431287590
  0.9230026326290114  0.8748872722978845  0.6485320627263672
  0.4178918092908571  0.3747320747105818  0.6030198070445555
  0.4238804939702378  0.8718495476613983  0.1008537262018530
  0.4233463773112139  0.8743873192789796  0.6015349265207934
  0.0796359782115717  0.1284564139750861  0.3445892435665600
  0.0779718426586994  0.1265992521377010  0.8549806113358588
  0.0747336244839001  0.6242208149024907  0.3522819477647026
  0.0751368987856108  0.6244531356523927  0.8508621232132449
  0.5775584956573824  0.1250332228633810  0.3953345545295524
  0.5793371609255736  0.1262937112192048  0.9059824363830344
  0.5758795339705398  0.6239491285270929  0.3984687921865734
  0.5764806099561784  0.6220740671359831  0.8993677605435627
  0.9121451641088876  0.1209429502733532  0.0950600566701454
  0.9121353707497900  0.1251303432797494  0.5951369499668683
  0.9098651513671329  0.6238054135885437  0.0957354249254875
  0.9103501967935800  0.6250350147037453  0.5953814688878315
  0.4123227640983097  0.1197835222897819  0.1550955565354152
  0.4124357361848849  0.1233644990129576  0.6553203669035733
  0.4108892908300744  0.6235652235064061  0.1547488889272979
  0.4113756007542759  0.6251372575598384  0.6550492382927227
  0.0875686619328297  0.3748615707583173  0.4075503813531204
  0.0883525851908846  0.3763751642958105  0.9043847722118946
  0.0879806060937603  0.8742819530401289  0.4050325916875242
  0.0876900850569888  0.8744001657456232  0.9048260361553976
  0.5831733079292003  0.3750169955629233  0.3459112859388366
  0.5853546340240366  0.3735593489675084  0.8409651396782221
  0.5879057266004483  0.8737900529226977  0.3453894894997491
  0.5879715980082896  0.8733757545656614  0.8453897099616032
  0.8385486303528487  0.0202564183031399  0.1480654119933094
  0.8411740790725304  0.0216524494089016  0.6457919725823927
  0.8398835743236329  0.5202926494660819  0.1464399631134949
  0.8402594349360788  0.5223350997222406  0.6486221614067964
  0.3536551662814382  0.2248717265214671  0.0959243018232754
  0.3409822677816881  0.2267574332877555  0.6054181631621263
  0.3414808732092392  0.7277271269103908  0.1034154563671852
  0.3413607661650910  0.7289878144721308  0.6041625450995876
  0.1583610550492678  0.2694666247878982  0.3684668113688798
  0.1582291497883509  0.2729593380180874  0.8519723523840858
  0.1579889949717098  0.7705590512205276  0.3539495058072140
  0.1578330320638995  0.7709560208810989  0.8532592334044931
  0.6559566148629637  0.4773978186813043  0.3980880652183182
  0.6570694272161488  0.4745560608904856  0.8960615461325515
  0.6583245534161704  0.9770551624368105  0.3964128524076002
  0.6591925351639764  0.9759091745324405  0.8974024788505366
  0.1579077232964388  0.4773578331414868  0.3541556997343985
  0.1582462000565453  0.4790858560869684  0.8487491520087840
  0.1587895270362591  0.9770970469265012  0.3533706328863895
  0.1581187653866965  0.9776388969660226  0.8538244809662103
  0.6549403841758044  0.2718876197905061  0.3964661802309309
  0.6553314807456834  0.2672023931995872  0.8785493880918021
  0.6577065627199801  0.7704358692927001  0.3975604982947082
  0.6573762815991799  0.7693894379759524  0.8966296735024080
  0.8560149949530231  0.2275840663741210  0.1527573939948097
  0.8411800559466117  0.2283957999042121  0.6461873044428763
  0.8391465945502633  0.7271785637017585  0.1472872224599296
  0.8405171645956852  0.7288810232841693  0.6463886590016986
  0.3395708524715615  0.0183636169220025  0.1033860504467945
  0.3413917051866926  0.0202485193244613  0.6038767111143389
  0.3379271275125189  0.5218294069396777  0.1034078795839992
  0.3400664419041534  0.5227691204628003  0.6029542478057340
  0.5504155038012647  0.1142880951510925  0.1034995994590018
  0.5501966307930531  0.1237982858321925  0.5999310131857292
  0.5495143365674880  0.6219138744051587  0.1018765698690895
  0.5500889255000777  0.6251513703204037  0.6024179833382429
  0.0504608472581988  0.1146379222479425  0.1466067984673808
  0.0502029941600095  0.1249043058189606  0.6499386758167802
  0.0485378071674579  0.6248434947961484  0.1491432449654237
  0.0496814709703807  0.6260608147961157  0.6464783911273456
  0.4453298144349542  0.3741451936763438  0.4029097296646385
  0.4465222641074020  0.3730439257692311  0.8931425901962874
  0.4487664773022879  0.8743143434871503  0.3971038123167646
  0.4490524276596407  0.8738681423888773  0.8979099416177194
  0.9491147780080165  0.3739107529374090  0.3531521259418005
  0.9488854327222415  0.3747087519827407  0.8515704803158580
  0.9489788637025814  0.8742343267913858  0.3523348395183930
  0.9486014763086752  0.8746931470727617  0.8526438551352001
  0.5762465832437793  0.3785196207097869  0.1907516636027156
  0.5845442504242986  0.3788429731467303  0.6832530990183986
  0.5887404302725502  0.8728213637740889  0.1879355430149011
  0.5885796383416092  0.8742439660362955  0.6880794251469921
  0.0887922903008422  0.3809071307028837  0.0596174469624050
  0.0852175660458736  0.3791968669309144  0.5651897094921686
  0.0881677186847736  0.8737193713509979  0.0623434563424202
  0.0883623790631139  0.8748923142491242  0.5623381465964991
  0.4089466668311930  0.1227112868731094  0.3114824106109059
  0.4135008988711062  0.1225080602882975  0.8124490910274684
  0.4106077777649060  0.6238644662678199  0.3121700801006856
  0.4111723123720504  0.6241848809196193  0.8123887776527561
  0.9126152219330805  0.1250756079098184  0.4378510030626666
  0.9085700492671709  0.1228062908402428  0.9384362642121336
  0.9085821157343316  0.6236486686047844  0.4379882955060155
  0.9098594075238868  0.6245023133042952  0.9382692715182331
 
             NaN             NaN             NaN
             NaN             NaN             NaN
             NaN             NaN             NaN
             NaN             NaN             NaN
             NaN             NaN             NaN
             NaN             NaN             NaN
             NaN             NaN             NaN
             NaN             NaN             NaN
             NaN             NaN             NaN
             NaN             NaN             NaN
             NaN             NaN             NaN
             NaN             NaN             NaN
             NaN             NaN             NaN
             NaN             NaN             NaN
             NaN             NaN             NaN
             NaN             NaN             NaN
             NaN             NaN             NaN
             NaN             NaN             NaN
             NaN             NaN             NaN
             NaN             NaN             NaN
             NaN             NaN             NaN
             NaN             NaN             NaN
             NaN             NaN             NaN
             NaN             NaN             NaN
             NaN             NaN             NaN
             NaN             NaN             NaN
             NaN             NaN             NaN
             NaN             NaN             NaN
             NaN             NaN             NaN
             NaN             NaN             NaN
             NaN             NaN             NaN
             NaN             NaN             NaN
             NaN             NaN             NaN
             NaN             NaN             NaN
             NaN             NaN             NaN
             NaN             NaN             NaN
             NaN             NaN             NaN
             NaN             NaN             NaN
             NaN             NaN             NaN
             NaN             NaN             NaN
             NaN             NaN             NaN
             NaN             NaN             NaN
             NaN             NaN             NaN
             NaN             NaN             NaN
             NaN             NaN             NaN
             NaN             NaN             NaN
             NaN             NaN             NaN
             NaN             NaN             NaN
             NaN             NaN             NaN
             NaN             NaN             NaN
             NaN             NaN             NaN
             NaN             NaN             NaN
             NaN             NaN             NaN
             NaN             NaN             NaN
             NaN             NaN             NaN
             NaN             NaN             NaN
             NaN             NaN             NaN
             NaN             NaN             NaN
             NaN             NaN             NaN
             NaN             NaN             NaN
             NaN             NaN             NaN
             NaN             NaN             NaN
             NaN             NaN             NaN
             NaN             NaN             NaN
             NaN             NaN             NaN
             NaN             NaN             NaN
             NaN             NaN             NaN
             NaN             NaN             NaN
             NaN             NaN             NaN
             NaN             NaN             NaN
             NaN             NaN             NaN
             NaN             NaN             NaN
             NaN             NaN             NaN
             NaN             NaN             NaN
             NaN             NaN             NaN
             NaN             NaN             NaN
             NaN             NaN             NaN
             NaN             NaN             NaN
             NaN             NaN             NaN
             NaN             NaN             NaN
             NaN             NaN             NaN
             NaN             NaN             NaN
             NaN             NaN             NaN
             NaN             NaN             NaN
             NaN             NaN             NaN
             NaN             NaN             NaN
             NaN             NaN             NaN
             NaN             NaN             NaN
             NaN             NaN             NaN
             NaN             NaN             NaN
             NaN             NaN             NaN
             NaN             NaN             NaN
             NaN             NaN             NaN
             NaN             NaN             NaN
             NaN             NaN             NaN
             NaN             NaN             NaN
             NaN             NaN             NaN
             NaN             NaN             NaN
             NaN             NaN             NaN
             NaN             NaN             NaN
             NaN             NaN             NaN
             NaN             NaN             NaN
             NaN             NaN             NaN
             NaN             NaN             NaN
             NaN             NaN             NaN
             NaN             NaN             NaN
             NaN             NaN             NaN
             NaN             NaN             NaN
             NaN             NaN             NaN
             NaN             NaN             NaN
             NaN             NaN             NaN
             NaN             NaN             NaN
             NaN             NaN             NaN
             NaN             NaN             NaN
             NaN             NaN             NaN
             NaN             NaN             NaN
             NaN             NaN             NaN
             NaN             NaN             NaN
             NaN             NaN             NaN
             NaN             NaN             NaN
             NaN             NaN             NaN
             NaN             NaN             NaN
             NaN             NaN             NaN
             NaN             NaN             NaN
             NaN             NaN             NaN
             NaN             NaN             NaN
