Li46 P16 O64                            
   1.00000000000000     
    10.4265589999999992    0.0070230000000000   -0.0049130000000000
     0.0076500000000000   12.1828179999999993    0.0014910000000000
    -0.0045620000000000    0.0007570000000000    9.7994439999999994
   Li   P    O 
    46    16    64
Direct
  0.4108969678665212  0.3758847450190285  0.1132268474853714
  0.6632145107420817  0.2496663679070117  0.6031654383988431
  0.6647029747597578  0.7480067102370775  0.0979649781267812
  0.6644548246895978  0.7512691474168827  0.5984176099238637
  0.1641019470926598  0.4951424358256583  0.1535187288311546
  0.1642971941460422  0.5014202500877084  0.6524073148036267
  0.1645212242319725  0.9935512356708106  0.1556141014492069
  0.1637557645230566  0.9986937113584551  0.6525227947978848
  0.3348130763329057 -0.0009747628634054  0.4031990720431021
  0.3361090635716624 -0.0014646352266551  0.9023112301773902
  0.3360578811518105  0.5003287977318777  0.4030072164757123
  0.3354538305453152  0.4988180162113959  0.9038619389979317
  0.8340532132267461  0.2491862949616201  0.3494088130339155
  0.8356893396046099  0.2497085713418262  0.8506230479825755
  0.8364052993816484  0.7483208343110618  0.3483392466242448
  0.8363889207916790  0.7486553448040939  0.8474572654772089
  0.3352144201330295  0.2468897981332491  0.4032784194653571
  0.3324653088618635  0.2469669799452289  0.8983889360215623
  0.3360789461369438  0.7485771838067519  0.4017370042360587
  0.3356305957729908  0.7477314575292492  0.9014378784061734
  0.8365366790608397  0.0014552061898020  0.3502072798779831
  0.8353691304778785  0.0010489738229567  0.8450080651685669
  0.8340732591061280  0.5004795179642364  0.3469868256521808
  0.8338830175933843  0.5008717756188206  0.8487105627746577
  0.6631435992444563  0.4910828278898305  0.0965973659192384
  0.6642347812888252  0.5016060872168796  0.5974949929523163
  0.6664231672589401  0.9948753625452090  0.0949520156852684
  0.6638964371106919  0.9995716192329044  0.5976279943414783
  0.1616621732941192  0.2511569346213974  0.6485025406321610
  0.1632293279422639  0.7486233047869714  0.1514700545803284
  0.1640583795853928  0.7512560125173977  0.6524830414479870
  0.9263053213213666  0.3748048817427154  0.1483230657437492
  0.9202130637421497  0.3759337089969453  0.6499351372658950
  0.9220663030123593  0.8728971614566624  0.1495950171946807
  0.9232743265199649  0.8751563680461453  0.6482994368391667
  0.4198001214259917  0.3748894263793746  0.6013383505529467
  0.4249719606514364  0.8693357011091900  0.1010573342545260
  0.4242964941681097  0.8748542250723264  0.6007130887076361
  0.0799347934394617  0.1282072334418571  0.3453205992615252
  0.0779349770481344  0.1263295576236376  0.8539897308640115
  0.0766374434371511  0.6237035345520282  0.3508699694028641
  0.0760761999201974  0.6245751656048434  0.8511644157571961
  0.5767442437984126  0.1261985581378418  0.3958804962336918
  0.5777874711801114  0.1270698283430347  0.9049288861733160
  0.5767067475384894  0.6248158557023435  0.3994020651351060
  0.5760799105178430  0.6234100911386454  0.8994967225288097
  0.9126348063548070  0.1215880830861493  0.0955171997392216
  0.9134711025864820  0.1249947015188445  0.5949818341059503
  0.9118837803190701  0.6236787000998574  0.0957635635888055
  0.9123122328662042  0.6255310027116658  0.5949743111069068
  0.4099327155983460  0.1179404593680455  0.1550429601144295
  0.4109876206533468  0.1232671931393231  0.6560249497974801
  0.4122744431799605  0.6209850569630893  0.1546170618815142
  0.4112572147436681  0.6254515497172842  0.6553749697688539
  0.0878288810770780  0.3752631036308457  0.4074308348231089
  0.0869117754149229  0.3766613621478124  0.9029789496666001
  0.0879270354855538  0.8741670280248565  0.4050371242429420
  0.0879388458949696  0.8745406132440164  0.9048017921576849
  0.5859041436794605  0.3747117825338860  0.3471732324289160
  0.5850740162718782  0.3734512030473481  0.8415630771663684
  0.5888245641373888  0.8742491464004339  0.3450101231437755
  0.5879381132756490  0.8740317213952629  0.8459130149975306
  0.8381794277297956  0.0206980004721952  0.1476778349421299
  0.8416571662123447  0.0214202582060912  0.6454961404653522
  0.8404477335883557  0.5210267063622734  0.1468570088799810
  0.8407674821446857  0.5234011288673914  0.6480028883197191
  0.3526836679166040  0.2241940840801743  0.0956045573934588
  0.3407545031086310  0.2271803338040420  0.6055967074138175
  0.3404565948504168  0.7229629609775523  0.1011032835145740
  0.3416009356412686  0.7293798475403743  0.6039981094339548
  0.1580763323947876  0.2690927877688241  0.3699676522600315
  0.1558571254516664  0.2731982620694018  0.8507381628813537
  0.1578770475714308  0.7711374769899971  0.3528588409002792
  0.1577319353376601  0.7713383473129460  0.8533769985723051
  0.6569199368791849  0.4780596091765243  0.4003536932976410
  0.6563038806150627  0.4754368705502587  0.8969268505665552
  0.6584787902572612  0.9784604195275926  0.3963717416534422
  0.6597483351048455  0.9769180122246747  0.8967116587355289
  0.1589563533976529  0.4761719848130025  0.3535309658318286
  0.1583648450346540  0.4788853731740527  0.8496529705913539
  0.1582080782182777  0.9773654192270632  0.3538600289656140
  0.1579852700292708  0.9776885577376195  0.8544291613629923
  0.6572046916161978  0.2718765706355758  0.4007997526674602
  0.6562480436290150  0.2675539444245565  0.8784482613740420
  0.6593663361401539  0.7714318264200909  0.3980347528725996
  0.6590982130192884  0.7702079977680154  0.8964679504245314
  0.8559439950862998  0.2279835261423970  0.1531826144815986
  0.8426059452316170  0.2280206554744325  0.6465927018938373
  0.8417721365946399  0.7275366574826371  0.1475875169472744
  0.8418008924828027  0.7296188270069287  0.6458700189141522
  0.3371195990409274  0.0162368833144971  0.1053498191656135
  0.3411243604510752  0.0204884806863838  0.6020339118729932
  0.3445961590939318  0.5165055262351159  0.1065682685134561
  0.3412767665790969  0.5230284561444694  0.6016609845057662
  0.5479672689927563  0.1129639004842461  0.1019995602149375
  0.5500507286816465  0.1240235027495689  0.6004895964900032
  0.5516879386780259  0.6221846856767884  0.1027271710959902
  0.5509798950262216  0.6264950633754510  0.6032949180244080
  0.0503417295608601  0.1146757814341637  0.1475795790223925
  0.0510071354576407  0.1240728703548496  0.6491878948892610
  0.0503825511077295  0.6234686569321986  0.1477303705166598
  0.0506646982299430  0.6262966200073382  0.6470883233357079
  0.4473759529344029  0.3735206041132598  0.4018242872963055
  0.4471368882728537  0.3716203381297406  0.8946694480139497
  0.4497050930212959  0.8743146228284098  0.3961079926227509
  0.4504169509034546  0.8733710735467414  0.8981094346793533
  0.9496522665847186  0.3742603449151284  0.3529410222854313
  0.9475682447117110  0.3763084960777232  0.8495534018248421
  0.9485144891889483  0.8747603707217332  0.3524174629291398
  0.9481422326189404  0.8750959681699297  0.8518989743359454
  0.5817952636118182  0.3766877601502217  0.1923478241843062
  0.5847799456324683  0.3795489406711324  0.6832365790807491
  0.5904945649436594  0.8729792136958048  0.1878883837601741
  0.5892740307874296  0.8748238567306151  0.6875494982479881
  0.0859296559792294  0.3803780392574705  0.0584497458973672
  0.0847785676968769  0.3801336087794654  0.5646887184800793
  0.0871178880034202  0.8734440062888198  0.0622605425005014
  0.0883197846434693  0.8743218979503150  0.5622441495915400
  0.4081852904580543  0.1228658674953730  0.3128472350008736
  0.4116236055840273  0.1213469775164757  0.8121250078658319
  0.4116639445828624  0.6236801602689017  0.3124666395321327
  0.4104131198348687  0.6237644110335115  0.8122042470814449
  0.9132023006804362  0.1250749837870520  0.4377979336233415
  0.9093718114279840  0.1233168723134769  0.9384794617931977
  0.9109554049512506  0.6242397516286358  0.4379032508851378
  0.9105182696143431  0.6247068767937318  0.9380781040790026
 
             NaN             NaN             NaN
             NaN             NaN             NaN
             NaN             NaN             NaN
             NaN             NaN             NaN
             NaN             NaN             NaN
             NaN             NaN             NaN
             NaN             NaN             NaN
             NaN             NaN             NaN
             NaN             NaN             NaN
             NaN             NaN             NaN
             NaN             NaN             NaN
             NaN             NaN             NaN
             NaN             NaN             NaN
             NaN             NaN             NaN
             NaN             NaN             NaN
             NaN             NaN             NaN
             NaN             NaN             NaN
             NaN             NaN             NaN
             NaN             NaN             NaN
             NaN             NaN             NaN
             NaN             NaN             NaN
             NaN             NaN             NaN
             NaN             NaN             NaN
             NaN             NaN             NaN
             NaN             NaN             NaN
             NaN             NaN             NaN
             NaN             NaN             NaN
             NaN             NaN             NaN
             NaN             NaN             NaN
             NaN             NaN             NaN
             NaN             NaN             NaN
             NaN             NaN             NaN
             NaN             NaN             NaN
             NaN             NaN             NaN
             NaN             NaN             NaN
             NaN             NaN             NaN
             NaN             NaN             NaN
             NaN             NaN             NaN
             NaN             NaN             NaN
             NaN             NaN             NaN
             NaN             NaN             NaN
             NaN             NaN             NaN
             NaN             NaN             NaN
             NaN             NaN             NaN
             NaN             NaN             NaN
             NaN             NaN             NaN
             NaN             NaN             NaN
             NaN             NaN             NaN
             NaN             NaN             NaN
             NaN             NaN             NaN
             NaN             NaN             NaN
             NaN             NaN             NaN
             NaN             NaN             NaN
             NaN             NaN             NaN
             NaN             NaN             NaN
             NaN             NaN             NaN
             NaN             NaN             NaN
             NaN             NaN             NaN
             NaN             NaN             NaN
             NaN             NaN             NaN
             NaN             NaN             NaN
             NaN             NaN             NaN
             NaN             NaN             NaN
             NaN             NaN             NaN
             NaN             NaN             NaN
             NaN             NaN             NaN
             NaN             NaN             NaN
             NaN             NaN             NaN
             NaN             NaN             NaN
             NaN             NaN             NaN
             NaN             NaN             NaN
             NaN             NaN             NaN
             NaN             NaN             NaN
             NaN             NaN             NaN
             NaN             NaN             NaN
             NaN             NaN             NaN
             NaN             NaN             NaN
             NaN             NaN             NaN
             NaN             NaN             NaN
             NaN             NaN             NaN
             NaN             NaN             NaN
             NaN             NaN             NaN
             NaN             NaN             NaN
             NaN             NaN             NaN
             NaN             NaN             NaN
             NaN             NaN             NaN
             NaN             NaN             NaN
             NaN             NaN             NaN
             NaN             NaN             NaN
             NaN             NaN             NaN
             NaN             NaN             NaN
             NaN             NaN             NaN
             NaN             NaN             NaN
             NaN             NaN             NaN
             NaN             NaN             NaN
             NaN             NaN             NaN
             NaN             NaN             NaN
             NaN             NaN             NaN
             NaN             NaN             NaN
             NaN             NaN             NaN
             NaN             NaN             NaN
             NaN             NaN             NaN
             NaN             NaN             NaN
             NaN             NaN             NaN
             NaN             NaN             NaN
             NaN             NaN             NaN
             NaN             NaN             NaN
             NaN             NaN             NaN
             NaN             NaN             NaN
             NaN             NaN             NaN
             NaN             NaN             NaN
             NaN             NaN             NaN
             NaN             NaN             NaN
             NaN             NaN             NaN
             NaN             NaN             NaN
             NaN             NaN             NaN
             NaN             NaN             NaN
             NaN             NaN             NaN
             NaN             NaN             NaN
             NaN             NaN             NaN
             NaN             NaN             NaN
             NaN             NaN             NaN
             NaN             NaN             NaN
             NaN             NaN             NaN
             NaN             NaN             NaN
             NaN             NaN             NaN
