Li16 Co18 O36                           
   1.00000000000000     
     8.0668249999999997    0.0352650000000000    2.3555790000000001
     3.6577730000000002    7.1878880000000001    2.3579360000000000
     0.0436640000000000    0.0108580000000000    9.8881390000000007
   Li   Co   O 
    16    18    36
Direct
  0.7613930044643327  0.4949159186958585  0.4775802160410137
  0.3333768502317188  0.3328205128289234 -0.0002908800029091
  0.3331940420818767  0.3344544433462565  0.4989200554807349
  0.3329400008398933  0.6678232136872462  0.0005504694511684
  0.3484344227033128  0.6584855463464752  0.5004906363252855
  0.3334639452296983  0.0005031607221498  0.9991573342654930
  0.3320960176749478  0.0013882418743113  0.4984908949232328
  0.6666607171262261  0.3337524992083893  0.0000250822271047
  0.6645534634306250  0.6689141756452197 -0.0009500265693627
  0.6661556552480759  0.0001139934798876  0.9989676718982413
  0.6673733439445814  1.0015434195760025  0.4980098206532330
  0.0014830146681749  0.3315440217440500 -0.0007613021872834
  1.0000845150236832  0.6682662229149597 -0.0006635967171196
  0.9931245948016094  0.6580710926030245  0.5001203903840082
  0.0005301456189354 -0.0000571618307925  0.0003735791148600
  0.9840661683408158  0.0319659292584224  0.4993260386752378
  0.1664448788987956  0.1702380639690668  0.2490204876184659
  0.1654708586418680  0.1652332731443164  0.7486727778210368
  0.1675077384705609  0.5008800326875819  0.2471893398647362
  0.1656242495292753  0.4980885659416695  0.7550289556481092
  0.1659561690934391  0.8350475989016629  0.2496976500095089
  0.1655130587932952  0.8303320061163388  0.7532189230963691
  0.5012330387629014  0.1699738158121808  0.2444588757242911
  0.5004115349622542  0.1650679620582021  0.7489964618043293
  0.5009152378176228  0.5011901929643534  0.2484969552922079
  0.4974832243705297  0.4974652894484493  0.7539077846762881
  0.5006244168740762  0.8367697982289543  0.2484896037482610
  0.5007230391200171  0.8300754082840766  0.7482437938421829
  0.8325887983820524  0.1698475860070781  0.2482325633270231
  0.8330275087600988  0.1621862937463880  0.7535726388505354
  0.8353205784119193  0.5037516096702158  0.2408357647724963
  0.8333556333929503  0.4973243248254002  0.7539148738819642
  0.8322173477021508  0.8366621888009154  0.2467395532091773
  0.8326325365961436  0.8296911926424918  0.7521977751776240
  0.2595164298098959  0.2550190120673754  0.3519685941981822
  0.2539147523962583  0.2493783174985650  0.8596174224411026
  0.2536171959879168  0.5876821656843929  0.3574241938510691
  0.2521819880345476  0.5847877097168422  0.8643241737826507
  0.2533529873410469  0.9231749777958922  0.3578380845264881
  0.2540319729577769  0.9189300864635352  0.8591236206912637
  0.5859596948429900  0.2545897596615608  0.3520144656138523
  0.5848707286114578  0.2495042768396969  0.8620678474423035
  0.5891832807536227  0.5911725278482630  0.3507669742715897
  0.5848863875749050  0.5864390656665518  0.8617277352063779
  0.5861679097486509  0.9283767552063635  0.3519822432851635
  0.5850919116216547  0.9184822547933070  0.8584757871953200
  0.9199026615625906  0.2607796452585343  0.3506212100981853
  0.9215726734491014  0.2493774430119987  0.8620492735345499
  0.9210745735432333  0.5913669532375149  0.3496761235526646
  0.9182872396940198  0.5844905420621921  0.8639882410470477
  0.9186515447139821  0.9230263459815800  0.3570043659622646
  0.9188714603179011  0.9168548365820551  0.8626507344785834
  0.0804216705540613  0.0813219785455546  0.1400150908843980
  0.0786156822512490  0.0732173451014556  0.6463512326721221
  0.0830297182613158  0.4144320601399708  0.1358143516880931
  0.0790018334195755  0.4133309637619120  0.6471840505675789
  0.0804649170886230  0.7488534851176465  0.1388586142359435
  0.0792726419480973  0.7425071818236428  0.6458070024935898
  0.4126894464340029  0.0820476830963661  0.1371811161694060
  0.4132379818185725  0.0781114372060186  0.6394941627435362
  0.4136194132775406  0.4173247206740910  0.1369006152004429
  0.4082164597844107  0.4129716595564835  0.6470872090452912
  0.4125837425281170  0.7491127226937183  0.1399975992458091
  0.4092871791778158  0.7426835216097908  0.6456379300187087
  0.7487803048318484  0.0822731671750018  0.1363072738719283
  0.7479961885354438  0.0732361462126094  0.6462741430335800
  0.7462781684401534  0.4149849741978737  0.1361904347985916
  0.7427825103877890  0.4054238836527285  0.6598715110008895
  0.7456960570299819  0.7519357118562739  0.1354715940140415
  0.7484517987891629  0.7421741825345739  0.6449852175093853
 
             NaN             NaN             NaN
             NaN             NaN             NaN
             NaN             NaN             NaN
             NaN             NaN             NaN
             NaN             NaN             NaN
             NaN             NaN             NaN
             NaN             NaN             NaN
             NaN             NaN             NaN
             NaN             NaN             NaN
             NaN             NaN             NaN
             NaN             NaN             NaN
             NaN             NaN             NaN
             NaN             NaN             NaN
             NaN             NaN             NaN
             NaN             NaN             NaN
             NaN             NaN             NaN
             NaN             NaN             NaN
             NaN             NaN             NaN
             NaN             NaN             NaN
             NaN             NaN             NaN
             NaN             NaN             NaN
             NaN             NaN             NaN
             NaN             NaN             NaN
             NaN             NaN             NaN
             NaN             NaN             NaN
             NaN             NaN             NaN
             NaN             NaN             NaN
             NaN             NaN             NaN
             NaN             NaN             NaN
             NaN             NaN             NaN
             NaN             NaN             NaN
             NaN             NaN             NaN
             NaN             NaN             NaN
             NaN             NaN             NaN
             NaN             NaN             NaN
             NaN             NaN             NaN
             NaN             NaN             NaN
             NaN             NaN             NaN
             NaN             NaN             NaN
             NaN             NaN             NaN
             NaN             NaN             NaN
             NaN             NaN             NaN
             NaN             NaN             NaN
             NaN             NaN             NaN
             NaN             NaN             NaN
             NaN             NaN             NaN
             NaN             NaN             NaN
             NaN             NaN             NaN
             NaN             NaN             NaN
             NaN             NaN             NaN
             NaN             NaN             NaN
             NaN             NaN             NaN
             NaN             NaN             NaN
             NaN             NaN             NaN
             NaN             NaN             NaN
             NaN             NaN             NaN
             NaN             NaN             NaN
             NaN             NaN             NaN
             NaN             NaN             NaN
             NaN             NaN             NaN
             NaN             NaN             NaN
             NaN             NaN             NaN
             NaN             NaN             NaN
             NaN             NaN             NaN
             NaN             NaN             NaN
             NaN             NaN             NaN
             NaN             NaN             NaN
             NaN             NaN             NaN
             NaN             NaN             NaN
             NaN             NaN             NaN
