Li16 Co18 O36
1.0
8.066825 0.035265 2.355579
3.657773 7.187888 2.357936
0.043664 0.010858 9.888139
Li Co O
16 18 36
direct
0.766323 0.502771 0.447498 Li
0.333703 0.333888 0.000053 Li
0.326846 0.334627 0.499444 Li
0.333781 0.667415 0.000546 Li
0.342576 0.664550 0.501389 Li
0.333894 0.000681 -0.000006 Li
0.331283 0.003310 0.499939 Li
0.667358 0.334184 0.000217 Li
0.666761 0.667750 0.000349 Li
0.667157 0.000637 0.999680 Li
0.667814 0.996393 0.498831 Li
0.000489 0.333960 0.000441 Li
0.999968 0.667206 0.000469 Li
0.988719 0.652917 0.500329 Li
0.000141 0.000857 0.000384 Li
0.995560 0.016293 0.501042 Li
0.166309 0.168036 0.251304 Co
0.165578 0.165575 0.748812 Co
0.166964 0.500146 0.248828 Co
0.165987 0.498331 0.751855 Co
0.165937 0.834146 0.250416 Co
0.165411 0.830771 0.753258 Co
0.501135 0.168318 0.246156 Co
0.500522 0.165379 0.748934 Co
0.500291 0.500845 0.249369 Co
0.499213 0.499113 0.751111 Co
0.499949 0.834490 0.250979 Co
0.500195 0.831553 0.747935 Co
0.833530 0.167507 0.249231 Co
0.833933 0.165489 0.750321 Co
0.833205 0.500151 0.252296 Co
0.833129 0.499170 0.748225 Co
0.832625 0.834290 0.248500 Co
0.833397 0.831124 0.750600 Co
0.259050 0.254039 0.353720 O
0.253816 0.250970 0.859261 O
0.253222 0.587082 0.358029 O
0.252734 0.584226 0.863080 O
0.253047 0.921478 0.359784 O
0.253840 0.919295 0.859946 O
0.586722 0.254175 0.355413 O
0.586304 0.251711 0.859789 O
0.585820 0.588287 0.355885 O
0.586556 0.586796 0.859455 O
0.586509 0.925845 0.354302 O
0.585983 0.919020 0.858472 O
0.920096 0.253706 0.354754 O
0.920213 0.252902 0.859638 O
0.922598 0.591213 0.350736 O
0.918769 0.585114 0.860700 O
0.919085 0.921073 0.357786 O
0.918163 0.918866 0.862104 O
0.080799 0.080381 0.140886 O
0.080325 0.073182 0.645900 O
0.079616 0.413425 0.140523 O
0.080375 0.412904 0.644763 O
0.080459 0.747772 0.139779 O
0.079952 0.744271 0.643938 O
0.412774 0.080523 0.139204 O
0.412890 0.078890 0.639808 O
0.413855 0.415663 0.137589 O
0.411826 0.412846 0.643226 O
0.412817 0.748147 0.141037 O
0.408738 0.745011 0.645036 O
0.748493 0.081039 0.137173 O
0.747764 0.077456 0.642496 O
0.747203 0.414455 0.140382 O
0.743040 0.409617 0.650705 O
0.745882 0.746819 0.140426 O
0.747455 0.745504 0.642899 O
