Na6 P2 S8                               
   1.00000000000000     
    13.9498798723964903   -0.0217392638487883    0.0000124416978734
    -0.0218081635502669   13.9787279642675699    0.0000151358033840
     0.0000373361406089   -0.0000222486819311   14.2398815164514971
   Na   P    S 
    47    16    64
Direct
  0.6900306467625228  0.7510963879176344  0.7503250081213579
  0.9999928935553584  0.2500003884407107  0.2071811915114736
  0.9999930557827525  0.2500030966617786  0.7064636929775077
  0.9999952193617290  0.7500013958308571  0.2125908659411735
  0.0000003813004241  0.7499997961988925  0.7161796942691083
  0.4999953951228946  0.2500017582649861  0.2093360736869272
  0.4999998025630532  0.2499997069832389  0.7092171973320518
  0.4999955795268889  0.7500014664736554  0.2110321866636795
  0.2497648111294382  0.9990491915196174  0.2865788362218993
  0.2472283883809041  0.9983748335393443  0.7842369785116361
  0.2519366318772782  0.5008870653132789  0.2960971797312197
  0.2504591492189832  0.5042444206861632  0.7934254489891188
  0.7480628863210654  0.9991142034349636  0.2960938877160615
  0.7495434826235297  0.9957514597162103  0.7934228992371430
  0.7502325155372418  0.5009514958300372  0.2865775172039733
  0.7527746836103049  0.5016221647793557  0.7842295495430633
  0.2535596608570572  0.9980461274175383  0.0344285104647142
  0.2432545952662153  0.0024100073667412  0.5351702311465587
  0.2473292620772085  0.4989377996822739  0.0459135667602908
  0.2548581792905438  0.5041339438151837  0.5459606765401475
  0.7526771691812755  0.0010634462454675  0.0459051173624516
  0.7451434825233676  0.9958635510467602  0.5459577306848544
  0.7464435356015002  0.5019527345459380  0.0344243781465821
  0.7567497090436675  0.4975893636842628  0.5351583702907732
  0.0000021564211892  0.2499938025568440  0.4565440797402545
  0.0000031390872124  0.2500006487154138  0.9565165047972428
  0.0000018979041201  0.7499979457392243  0.4655443502913883
  0.9999986903480789  0.7499967373787442  0.9613728957479637
  0.4999967225018125  0.2500015558187982  0.4594523924934180
  0.5000008293977629  0.2499985302366454  0.9576733257902532
  0.4999963403305614  0.7499992786994838  0.4812065320940278
  0.4999946195173024  0.7499967357842863  0.9464830178192329
  0.9914672608179060  0.0021063309992968  0.5001891581524518
  0.0001587073219511  0.0054598462476108  0.9995091051823337
  0.0085412848618276  0.4978869942283026  0.5001936687146085
  0.9998522514737331  0.4945393809514869  0.9995103933874887
  0.4956310686246610  0.9976135248168347  0.5007357927178617
  0.5080071567050979  0.9988413242772438  0.0006611429956465
  0.5043657122213787  0.5023830816057071  0.5007402563855194
  0.4919990981358922  0.5011611568675463  0.0006583621369955
  0.2478524399376312  0.2524046258665607  0.2496849674210040
  0.2483729680181028  0.2544928830845450  0.7500516867685221
  0.2523397067192050  0.7475905825128422  0.2498176026345078
  0.3099745034199444  0.7488998422826398  0.7503237408505541
  0.7521404062480386  0.2475904249210785  0.2496833725348395
  0.7516123155424808  0.2455039593826811  0.7500515761572757
  0.7476461208540002  0.7524115092085069  0.2498159348061648
  0.9990691077906533  0.0005866882333763  0.2496491915741217
  0.9981970676757186  0.0026758940964839  0.7499041264432194
  0.0009318950621946  0.4994121271491920  0.2496539003099372
  0.0018081297554815  0.4973277251899617  0.7499073209298714
  0.5000859826707540  0.9999390006616125  0.2505043460453180
  0.4989239388432480  0.9999920948546759  0.7503016259621731
  0.4999137288770257  0.5000639277768570  0.2505042264263935
  0.5010781437348300  0.5000067706217663  0.7503014042619256
  0.2496571858656651  0.2503993465549215  0.9999579789167257
  0.2492600135204626  0.2519351271991255  0.4992485249670935
  0.2510128245974101  0.7470073604284551  0.0004777461494498
  0.2491720337620933  0.7532092423694863  0.4985028910403031
  0.7503439932419198  0.2496011482660876  0.9999575615563643
  0.7507386236509888  0.2480622949879034  0.4992478639940430
  0.7489825619635937  0.7529924752764359  0.0004776866047393
  0.7508275151857333  0.7467945285684792  0.4985020114720840
  0.1553739290928675  0.1725671511864704  0.0823762908891013
  0.1540331394915526  0.1758729134129808  0.5818665486645997
  0.1539620116713465  0.6744667983494281  0.0841801575853225
  0.1576343167933700  0.6777507339043893  0.5849112800228156
  0.6548821475646633  0.1747685071333507  0.0836980241952716
  0.6546773021673502  0.1738256765979500  0.5822063917971434
  0.6544405485422544  0.6755401241282968  0.0824936103667184
  0.6572025069749188  0.6655330217162714  0.5769908628917619
  0.3451176078939824  0.3252332772627682  0.0836990334482763
  0.3453245868010768  0.3261674454787737  0.5822083865496879
  0.3455532415581999  0.8244574471334545  0.0824978014436368
  0.3427970949119725  0.8344702494992902  0.5769941204809328
  0.8446277148581558  0.3274330303878372  0.0823767718817336
  0.8459659179999406  0.3241304000919598  0.5818586684943767
  0.8460317456649307  0.8255323154918344  0.0841828603937884
  0.8423671599051445  0.8222518870860753  0.5849106765167562
  0.1735027286340127  0.3480274019327112  0.4177348919679815
  0.1735003485938975  0.3468564663564351  0.9193823574748237
  0.1708326919965941  0.8427603130001557  0.4119851064691389
  0.1783330629016646  0.8380531224864640  0.9122676933994285
  0.6762624382262317  0.3425935595042731  0.4149922104134092
  0.6755183621153193  0.3429436375305173  0.9153567883705662
  0.6723533531189503  0.8424045289846731  0.4182128894081600
  0.6719061382966345  0.8526808133727499  0.9237014538056485
  0.3237337987902151  0.1574030357334877  0.4149918018062806
  0.3244810006560428  0.1570584164201136  0.9153553296763661
  0.3276447344643501  0.6575998284945328  0.4182133040269633
  0.3280890081805765  0.6473175719194870  0.9237031735898142
  0.8264969248924956  0.1519703061783986  0.4177325482861178
  0.8265025273714812  0.1531474673597586  0.9193795056189629
  0.8291676714202865  0.6572446276013579  0.4119822439879357
  0.8216654025699768  0.6619478535330217  0.9122671077762234
  0.0964214184379912  0.4225476995634594  0.1683781222581118
  0.1002389481516488  0.4225450252736493  0.6697773315277828
  0.0926164517393886  0.9254692455173767  0.1648844486767231
  0.0897460349409656  0.9273402784311244  0.6639503198864389
  0.5930594864213319  0.4252161646144970  0.1649353735912271
  0.5951030882163550  0.4241249626730053  0.6661293714665959
  0.5971871859311122  0.9243972123489996  0.1699957900406801
  0.5912596833788299  0.9215471414207386  0.6681101626944610
  0.4069419571428341  0.0747875413398233  0.1649335207034568
  0.4049015246375873  0.0758724227312868  0.6661264019497750
  0.4028149554871518  0.5756040831788312  0.1699926078337057
  0.4087441440108748  0.5784524827862683  0.6681098956689908
  0.9035776928988710  0.0774472236749162  0.1683707634719198
  0.8997640289141060  0.0774536109260779  0.6697745301762694
  0.9073830237418932  0.5745262829092184  0.1648874466032169
  0.9102595805537845  0.5726628355382175  0.6639523158737433
  0.0762209721172482  0.0946459251461391  0.3326754734396928
  0.0770152493129856  0.0984256186259458  0.8299673001438066
  0.0763851559614181  0.5947042795300135  0.3326202440693820
  0.0735151878469935  0.5917524355630377  0.8360927064938366
  0.5741644315624370  0.0957455631702544  0.3343142903658318
  0.5771402761395450  0.0961993793292280  0.8307957224750595
  0.5763943787214245  0.5948226987898835  0.3325541884023338
  0.5793034877002441  0.5873366238774551  0.8387344599009836
  0.4258347339194160  0.4042570460866983  0.3343129076203013
  0.4228606823514198  0.4038011524587120  0.8307943250783083
  0.4236027577033354  0.9051796807794901  0.3325518573420894
  0.4207007368166771  0.9126622058549714  0.8387378733488973
  0.9237806998105000  0.4053547645515607  0.3326852804614973
  0.9229880071277918  0.4015828202649132  0.8299709282836645
  0.9236173711819333  0.9053008286817601  0.3326224070993646
  0.9264955558786099  0.9082513532811092  0.8360925580250296
