Na47 P16 S64
1.0
13.949880 -0.021739 0.000012
-0.021808 13.978728 0.000015
0.000037 -0.000022 14.239882
Na P S
47 16 64
direct
0.690031 0.751096 0.750325 Na
0.999993 0.250000 0.207181 Na
0.999993 0.250003 0.706464 Na
0.999995 0.750001 0.212591 Na
1.000000 0.750000 0.716180 Na
0.499995 0.250002 0.209336 Na
0.500000 0.250000 0.709217 Na
0.499996 0.750001 0.211032 Na
0.249765 0.999049 0.286579 Na
0.247228 0.998375 0.784237 Na
0.251937 0.500887 0.296097 Na
0.250459 0.504244 0.793425 Na
0.748063 0.999114 0.296094 Na
0.749543 0.995751 0.793423 Na
0.750233 0.500951 0.286578 Na
0.752775 0.501622 0.784230 Na
0.253560 0.998046 0.034429 Na
0.243255 1.002410 0.535170 Na
0.247329 0.498938 0.045914 Na
0.254858 0.504134 0.545961 Na
0.752677 1.001063 0.045905 Na
0.745143 0.995864 0.545958 Na
0.746444 0.501953 0.034424 Na
0.756750 0.497589 0.535158 Na
1.000002 0.249994 0.456544 Na
1.000003 0.250001 0.956517 Na
1.000002 0.749998 0.465544 Na
0.999999 0.749997 0.961373 Na
0.499997 0.250002 0.459452 Na
0.500001 0.249999 0.957673 Na
0.499996 0.749999 0.481207 Na
0.499995 0.749997 0.946483 Na
0.991467 1.002106 0.500189 Na
0.000159 0.005460 -0.000491 Na
0.008541 0.497887 0.500194 Na
0.999852 0.494539 0.999510 Na
0.495631 -0.002386 0.500736 Na
0.508007 0.998841 1.000661 Na
0.504366 0.502383 0.500740 Na
0.491999 0.501161 0.000658 Na
0.247852 0.252405 0.249685 Na
0.248373 0.254493 0.750052 Na
0.252340 0.747591 0.249818 Na
0.309975 0.748900 0.750324 Na
0.752140 0.247590 0.249683 Na
0.751612 0.245504 0.750052 Na
0.747646 0.752412 0.249816 Na
0.999069 0.000587 0.249649 P
0.998197 0.002676 0.749904 P
0.000932 0.499412 0.249654 P
0.001808 0.497328 0.749907 P
0.500086 0.999939 0.250504 P
0.498924 0.999992 0.750302 P
0.499914 0.500064 0.250504 P
0.501078 0.500007 0.750301 P
0.249657 0.250399 -0.000042 P
0.249260 0.251935 0.499249 P
0.251013 0.747007 0.000478 P
0.249172 0.753209 0.498503 P
0.750344 0.249601 0.999958 P
0.750739 0.248062 0.499248 P
0.748983 0.752992 0.000478 P
0.750828 0.746795 0.498502 P
0.155374 0.172567 0.082376 S
0.154033 0.175873 0.581867 S
0.153962 0.674467 0.084180 S
0.157634 0.677751 0.584911 S
0.654882 0.174769 0.083698 S
0.654677 0.173826 0.582206 S
0.654441 0.675540 0.082494 S
0.657203 0.665533 0.576991 S
0.345118 0.325233 0.083699 S
0.345325 0.326167 0.582208 S
0.345553 0.824457 0.082498 S
0.342797 0.834470 0.576994 S
0.844628 0.327433 0.082377 S
0.845966 0.324130 0.581859 S
0.846032 0.825532 0.084183 S
0.842367 0.822252 0.584911 S
0.173503 0.348027 0.417735 S
0.173500 0.346856 0.919382 S
0.170833 0.842760 0.411985 S
0.178333 0.838053 0.912268 S
0.676262 0.342594 0.414992 S
0.675518 0.342944 0.915357 S
0.672353 0.842405 0.418213 S
0.671906 0.852681 0.923701 S
0.323734 0.157403 0.414992 S
0.324481 0.157058 0.915355 S
0.327645 0.657600 0.418213 S
0.328089 0.647318 0.923703 S
0.826497 0.151970 0.417733 S
0.826503 0.153147 0.919380 S
0.829168 0.657245 0.411982 S
0.821665 0.661948 0.912267 S
0.096421 0.422548 0.168378 S
0.100239 0.422545 0.669777 S
0.092616 0.925469 0.164884 S
0.089746 0.927340 0.663950 S
0.593059 0.425216 0.164935 S
0.595103 0.424125 0.666129 S
0.597187 0.924397 0.169996 S
0.591260 0.921547 0.668110 S
0.406942 0.074788 0.164934 S
0.404902 0.075872 0.666126 S
0.402815 0.575604 0.169993 S
0.408744 0.578452 0.668110 S
0.903578 0.077447 0.168371 S
0.899764 0.077454 0.669775 S
0.907383 0.574526 0.164887 S
0.910260 0.572663 0.663952 S
0.076221 0.094646 0.332675 S
0.077015 0.098426 0.829967 S
0.076385 0.594704 0.332620 S
0.073515 0.591752 0.836093 S
0.574164 0.095746 0.334314 S
0.577140 0.096199 0.830796 S
0.576394 0.594823 0.332554 S
0.579303 0.587337 0.838734 S
0.425835 0.404257 0.334313 S
0.422861 0.403801 0.830794 S
0.423603 0.905180 0.332552 S
0.420701 0.912662 0.838738 S
0.923781 0.405355 0.332685 S
0.922988 0.401583 0.829971 S
0.923617 0.905301 0.332622 S
0.926496 0.908251 0.836093 S
