Li17 Co18 O36                           
   1.00000000000000     
     8.0548859999999998   -0.0036910000000000    2.3749280000000002
     3.6789820000000000    7.1664630000000002    2.3731179999999998
    -0.0120540000000000   -0.0051530000000000    9.8902020000000004
   Li   Co   O 
    17    18    36
Direct
  0.3012920375460854  0.4464921220700365  0.5135087022091961
  0.3328652529972809  0.3328341655524948  0.9974949752200892
  0.3306129253409674  0.6715608924083030  0.9967299182041994
  0.3314527845319738  0.9954230661014067  0.5035884502507885
  0.3331332327706332  0.0015084598449421  0.9974645625586495
  0.6635329249630894  0.3351736010159228  0.5061620617646073
  0.6690069796760173  0.3323973107049695  0.9959219972979044
  0.6494326967341992  0.6663020511676636  0.5057264184093830
  0.6666667380624686  0.6703165454496471  0.9977488210391556
  0.6506758915957513  0.0126088615243467  0.5056091355205170
  0.6670369340945705 -0.0003030370454642  0.9987430386354025
  0.0063356397693876  0.3321111568248767  0.5021890341265723
  0.0026270793355820  0.3323213267729443  0.9977386514537966
  0.9747951488839356  0.6826603723401237  0.5030226461487038
  0.9985350251164234  0.6687863507724598  0.9991696556830474
  0.0130305094487517  0.9866138931376767  0.5016703516277924
  0.0014845609181198  0.0001320667160554  0.9967416282975876
  0.1645781393359511  0.1708251471563657  0.2484568604767191
  0.1687838598598179  0.1658538827665491  0.7506768629571950
  0.1635747794382004  0.5039228802885204  0.2470132490109901
  0.1666572127642588  0.4991724352611519  0.7553756100892123
  0.1629345873617872  0.8408560507497763  0.2469651170197147
  0.1682538845365296  0.8313425964334095  0.7500350644280709
  0.4966244972686417  0.1709348434787130  0.2519724455838591
  0.5008518946429201  0.1638265859685364  0.7553848078284111
  0.4975201260540751  0.5052580041668495  0.2489831164911888
  0.5008917376098819  0.4995922562491872  0.7548044847672407
  0.4965773104848328  0.8371114750213942  0.2511039315369004
  0.4996057405934588  0.8314851025147152  0.7543386342713223
  0.8300432726260423  0.1697219706680450  0.2503303957489742
  0.8347892621895592  0.1650319185090162  0.7505778522750562
  0.8323550265877939  0.5022349659000706  0.2497110143225214
  0.8337352500570432  0.5002451633774057  0.7515116258485610
  0.8294805945700886  0.8364627143396302  0.2496536890306926
  0.8337853615110716  0.8321853346544539  0.7532446214071731
  0.2502674934099126  0.2580590725207058  0.3561539323912329
  0.2529347776789871  0.2514166311358929  0.8643460526755828
  0.2535267865959215  0.5954677118969671  0.3474085474071709
  0.2533671211499850  0.5865024662096351  0.8644611960406032
  0.2495390204720254  0.9284646578557477  0.3550913327928859
  0.2519302908308500  0.9200440256692063  0.8622954054663891
  0.5824216361033850  0.2619077432006108  0.3587417275060752
  0.5894885232386159  0.2511289975662606  0.8641463582262573
  0.5842452014580787  0.5868429944157437  0.3554335162054670
  0.5888811608881982  0.5844992317227249  0.8646112372420389
  0.5830442790450974  0.9236543903248287  0.3609311241979229
  0.5873283320874141  0.9179154185720648  0.8651800049060622
  0.9179235916512647  0.2564143124834395  0.3588989935345758
  0.9210767385405025  0.2529616375431182  0.8604104408398991
  0.9186052878884293  0.5890979389277158  0.3590857961500433
  0.9194076528400955  0.5853323711554042  0.8634271675474632
  0.9173994470755248  0.9233874468586725  0.3588871560176209
  0.9212227785100150  0.9194131440730118  0.8611205026955703
  0.0751950448865887  0.0851972976893933  0.1380661394633994
  0.0815763340416778  0.0787684466568390  0.6401784340056003
  0.0766161925071910  0.4180195797340983  0.1379342190589956
  0.0811771896216661  0.4155718867533757  0.6415338716803999
  0.0755859884850814  0.7516122287221366  0.1378977910394777
  0.0774009573324628  0.7432845539430308  0.6441334174712533
  0.4131750867069085  0.0829010209627803  0.1403073736935686
  0.4148042447794401  0.0758100855981308  0.6458257237069722
  0.4152692620032377  0.4175546350556362  0.1402371141488158
  0.4173579574694105  0.4081791414727100  0.6516821682506143
  0.4123777757122313  0.7493201115287904  0.1391146520016132
  0.4152937801500562  0.7457521036457502  0.6460011291771363
  0.7422811926118261  0.0831891576867665  0.1413628661437134
  0.7462533744361802  0.0785255436944068  0.6422025604338926
  0.7390348684340170  0.4172584426712572  0.1413238710435809
  0.7467344362126463  0.4131045901832563  0.6414747952226583
  0.7435130317923047  0.7488497498305529  0.1406461179636441
  0.7448009153046050  0.7466739045657912  0.6429529165030274
 
             NaN             NaN             NaN
             NaN             NaN             NaN
             NaN             NaN             NaN
             NaN             NaN             NaN
             NaN             NaN             NaN
             NaN             NaN             NaN
             NaN             NaN             NaN
             NaN             NaN             NaN
             NaN             NaN             NaN
             NaN             NaN             NaN
             NaN             NaN             NaN
             NaN             NaN             NaN
             NaN             NaN             NaN
             NaN             NaN             NaN
             NaN             NaN             NaN
             NaN             NaN             NaN
             NaN             NaN             NaN
             NaN             NaN             NaN
             NaN             NaN             NaN
             NaN             NaN             NaN
             NaN             NaN             NaN
             NaN             NaN             NaN
             NaN             NaN             NaN
             NaN             NaN             NaN
             NaN             NaN             NaN
             NaN             NaN             NaN
             NaN             NaN             NaN
             NaN             NaN             NaN
             NaN             NaN             NaN
             NaN             NaN             NaN
             NaN             NaN             NaN
             NaN             NaN             NaN
             NaN             NaN             NaN
             NaN             NaN             NaN
             NaN             NaN             NaN
             NaN             NaN             NaN
             NaN             NaN             NaN
             NaN             NaN             NaN
             NaN             NaN             NaN
             NaN             NaN             NaN
             NaN             NaN             NaN
             NaN             NaN             NaN
             NaN             NaN             NaN
             NaN             NaN             NaN
             NaN             NaN             NaN
             NaN             NaN             NaN
             NaN             NaN             NaN
             NaN             NaN             NaN
             NaN             NaN             NaN
             NaN             NaN             NaN
             NaN             NaN             NaN
             NaN             NaN             NaN
             NaN             NaN             NaN
             NaN             NaN             NaN
             NaN             NaN             NaN
             NaN             NaN             NaN
             NaN             NaN             NaN
             NaN             NaN             NaN
             NaN             NaN             NaN
             NaN             NaN             NaN
             NaN             NaN             NaN
             NaN             NaN             NaN
             NaN             NaN             NaN
             NaN             NaN             NaN
             NaN             NaN             NaN
             NaN             NaN             NaN
             NaN             NaN             NaN
             NaN             NaN             NaN
             NaN             NaN             NaN
             NaN             NaN             NaN
             NaN             NaN             NaN
