Li17 Co18 O36                           
   1.00000000000000     
     8.0548859999999998   -0.0036910000000000    2.3749280000000002
     3.6789820000000000    7.1664630000000002    2.3731179999999998
    -0.0120540000000000   -0.0051530000000000    9.8902020000000004
   Li   Co   O 
    17    18    36
Direct
  0.3045021293266085  0.4280350565027236  0.5126163642690340
  0.3326600126998826  0.3327526118716999  0.9976346694111533
  0.3308069443815928  0.6712374578408573  0.9968031432907959
  0.3306544641111164  0.9967904437182044  0.5035967577716981
  0.3326106602486531  0.0021642100949681  0.9974074424791907
  0.6634768462388010  0.3361651212316102  0.5062132953054835
  0.6694034255582675  0.3320328834059361  0.9960147819493267
  0.6487676808569300  0.6677115688500231  0.5058206009043307
  0.6670692961292031  0.6708371482550499  0.9973603875629561
  0.6526022343406269  0.0105253401156821  0.5060600903643289
  0.6673157850283902 -0.0003399803893914  0.9988706986058555
  0.0059809266299394  0.3326156388410875  0.5019002575602677
  0.0033520356889985  0.3324382513155811  0.9974806353634259
  0.9771071842189480  0.6827125858483396  0.5030948464163191
  0.9990182748584601  0.6690498798847875  0.9993050445901636
  0.0129660363889113  0.9869740556289683  0.5016148034077571
  0.0013288667597594  0.0003648518330249  0.9974428041290623
  0.1650755714813615  0.1705609471582842  0.2486948494261219
  0.1679624839644252  0.1671886064885717  0.7501630313064345
  0.1645511367327337  0.5030352458300477  0.2472575464687848
  0.1662665254189129  0.5007275368955384  0.7546134271714029
  0.1637156442554405  0.8387266625603467  0.2478795634001927
  0.1675949682874781  0.8323562934165228  0.7499400128896769
  0.4972779477910382  0.1699233533152900  0.2522438985687310
  0.5000255499530047  0.1654428067806267  0.7550057057957232
  0.4978727096557380  0.5048784684637675  0.2494428701025089
  0.5000782281918860  0.5012363509214977  0.7540035372661512
  0.4967483741871470  0.8369767157469117  0.2512851117471745
  0.4986944020909700  0.8332441012522671  0.7535874287409117
  0.8307405516453713  0.1692339645507469  0.2505015183966252
  0.8340593718034676  0.1660467863236768  0.7504937854953150
  0.8331297823338624  0.5020446015366412  0.2493886583362558
  0.8327468227345900  0.5008657354931908  0.7513343895954134
  0.8305567446923502  0.8357486271748625  0.2495215503765061
  0.8324199821201772  0.8339582157858632  0.7533186174891987
  0.2504730197970411  0.2575742703503695  0.3570164509579855
  0.2524084710591614  0.2524500437028454  0.8639529198812554
  0.2544851400737658  0.5932691215349020  0.3491524298064440
  0.2528806862455381  0.5873623013572279  0.8640546574786960
  0.2494210509920243  0.9283771656485859  0.3554414901377047
  0.2514577319659514  0.9211937014196547  0.8619033986518219
  0.5831831573209145  0.2613595584122829  0.3594229286624080
  0.5886120426696554  0.2523390815803785  0.8639100689528895
  0.5854371741098959  0.5866018277168912  0.3551514774216241
  0.5882637738965613  0.5855501036761788  0.8642187640913673
  0.5840025518035986  0.9228827730661249  0.3611325602716083
  0.5861169832182010  0.9191184839813232  0.8651699062336434
  0.9182107860648925  0.2564583473077356  0.3586755737894762
  0.9207300182786898  0.2537453994702709  0.8603863380064464
  0.9195395052689803  0.5888197400705327  0.3587087347195627
  0.9188088406702595  0.5863364619285294  0.8632379877977320
  0.9177876726739780  0.9230132046175149  0.3588723154055264
  0.9205938291716471  0.9203042332986903  0.8612388658477166
  0.0758543584302586  0.0842989342992941  0.1384899835329240
  0.0808443354391773  0.0798406830417682  0.6400505870032064
  0.0775388795559761  0.4174355571037430  0.1377145795002407
  0.0804264468487384  0.4163418893775844  0.6412141954698405
  0.0769430239447937  0.7502117107126069  0.1382294897306458
  0.0757934869835556  0.7451048924157972  0.6444008705389535
  0.4133049069700053  0.0828188473255510  0.1404607953072019
  0.4141142218927000  0.0775792245527513  0.6449942712781009
  0.4156932828498374  0.4166278402299493  0.1409794565708037
  0.4162229352260357  0.4096097089729802  0.6504271119688049
  0.4125991186205072  0.7484160746409081  0.1394696994248459
  0.4145987021607921  0.7470793995204075  0.6455805447152092
  0.7432494747336703  0.0828057153834472  0.1412073207693754
  0.7455502817386810  0.0795811389137278  0.6422208913449952
  0.7392939808876114  0.4169222323599907  0.1413739804538157
  0.7462822754058481  0.4140207178643537  0.6413463580785940
  0.7443125941116926  0.7487718987551317  0.1402631626985381
  0.7444290142525835  0.7474978669583401  0.6426922652159524
 
             NaN             NaN             NaN
             NaN             NaN             NaN
             NaN             NaN             NaN
             NaN             NaN             NaN
             NaN             NaN             NaN
             NaN             NaN             NaN
             NaN             NaN             NaN
             NaN             NaN             NaN
             NaN             NaN             NaN
             NaN             NaN             NaN
             NaN             NaN             NaN
             NaN             NaN             NaN
             NaN             NaN             NaN
             NaN             NaN             NaN
             NaN             NaN             NaN
             NaN             NaN             NaN
             NaN             NaN             NaN
             NaN             NaN             NaN
             NaN             NaN             NaN
             NaN             NaN             NaN
             NaN             NaN             NaN
             NaN             NaN             NaN
             NaN             NaN             NaN
             NaN             NaN             NaN
             NaN             NaN             NaN
             NaN             NaN             NaN
             NaN             NaN             NaN
             NaN             NaN             NaN
             NaN             NaN             NaN
             NaN             NaN             NaN
             NaN             NaN             NaN
             NaN             NaN             NaN
             NaN             NaN             NaN
             NaN             NaN             NaN
             NaN             NaN             NaN
             NaN             NaN             NaN
             NaN             NaN             NaN
             NaN             NaN             NaN
             NaN             NaN             NaN
             NaN             NaN             NaN
             NaN             NaN             NaN
             NaN             NaN             NaN
             NaN             NaN             NaN
             NaN             NaN             NaN
             NaN             NaN             NaN
             NaN             NaN             NaN
             NaN             NaN             NaN
             NaN             NaN             NaN
             NaN             NaN             NaN
             NaN             NaN             NaN
             NaN             NaN             NaN
             NaN             NaN             NaN
             NaN             NaN             NaN
             NaN             NaN             NaN
             NaN             NaN             NaN
             NaN             NaN             NaN
             NaN             NaN             NaN
             NaN             NaN             NaN
             NaN             NaN             NaN
             NaN             NaN             NaN
             NaN             NaN             NaN
             NaN             NaN             NaN
             NaN             NaN             NaN
             NaN             NaN             NaN
             NaN             NaN             NaN
             NaN             NaN             NaN
             NaN             NaN             NaN
             NaN             NaN             NaN
             NaN             NaN             NaN
             NaN             NaN             NaN
             NaN             NaN             NaN
