Li17 Co18 O36                           
   1.00000000000000     
     8.0548859999999998   -0.0036910000000000    2.3749280000000002
     3.6789820000000000    7.1664630000000002    2.3731179999999998
    -0.0120540000000000   -0.0051530000000000    9.8902020000000004
   Li   Co   O 
    17    18    36
Direct
  0.3041125884535484  0.4259091284071499  0.5125717978573646
  0.3327077980881361  0.3331318708961160  0.9975259002536462
  0.3305461729347114  0.6714648242068211  0.9966961070701592
  0.3311955228543235  0.9958967083454127  0.5032252398313994
  0.3325471868041897  0.0022309517152583  0.9976703457482068
  0.6637687918591750  0.3362452516541458  0.5061387803151945
  0.6691699070734368  0.3323500210670154  0.9958487321687449
  0.6488397414196471  0.6679001516196592  0.5056830149668958
  0.6668596851421241  0.6710186141607596  0.9973464221853510
  0.6518387545181359  0.0111935003202053  0.5058770861049153
  0.6670145714756162  1.0000399854619393  0.9989317069424474
  0.0067705854852583  0.3325899635781530  0.5017086614584754
  0.0032453300906158  0.3326371111904597  0.9974853748143021
  0.9762276760108966  0.6838470838915552  0.5031126692368230
  0.9988388942163389  0.6691510217947276  0.9992197215173183
  0.0135776995000630  0.9865093498767580  0.5015988228639165
  0.0009326652014636  0.0005954989204356  0.9973967528264620
  0.1649525887909706  0.1708772049678307  0.2486706300146849
  0.1683617475490584  0.1666303823099569  0.7504125442510424
  0.1640311095498937  0.5036846269507742  0.2471423996136891
  0.1665083889776699  0.5000194056012114  0.7547112803002323
  0.1635927231305431  0.8391710759088110  0.2482926681384745
  0.1678271128636650  0.8320102207897873  0.7499063981309304
  0.4971165620262436  0.1706172494224066  0.2520480140224159
  0.5004082336465832  0.1645648386974832  0.7552036164814777
  0.4976338212766606  0.5052433240314800  0.2493931237707716
  0.5004104457687171  0.5006516907223296  0.7539960378607208
  0.4966582043239576  0.8372263465226542  0.2511763714908497
  0.4991067842161918  0.8323630137535910  0.7541285161317639
  0.8303722779292925  0.1696958050516124  0.2502833187783018
  0.8345149893427877  0.1657987880461533  0.7502443880174393
  0.8326627736796199  0.5024969163329932  0.2493534968490407
  0.8332413298291093  0.5006730388654353  0.7515209528390615
  0.8299558288889740  0.8363153368281181  0.2496329028041969
  0.8326950242672023  0.8333393649071590  0.7534630072386266
  0.2506200487397969  0.2583342588942389  0.3566810562601325
  0.2527244257634965  0.2519680988765638  0.8641222385160936
  0.2542835550775473  0.5935766587851431  0.3493467752449094
  0.2531590673482501  0.5870602069343309  0.8640847966663344
  0.2496867967112221  0.9286427637630433  0.3552802625102974
  0.2516566489263866  0.9206612825662633  0.8621347459235554
  0.5826791490473744  0.2617499440144095  0.3589718831418018
  0.5890888144501877  0.2519075779838611  0.8638675754707104
  0.5850835023049771  0.5869861082854655  0.3551056928853853
  0.5884689634655160  0.5849970719695456  0.8643917813618592
  0.5835375145347640  0.9235602485108899  0.3609649415255379
  0.5863871580560448  0.9186265481145741  0.8654229710247026
  0.9180013366949339  0.2567699489839118  0.3586130415904327
  0.9209267930122498  0.2533999270589949  0.8603771225017385
  0.9191189577666613  0.5891518994117587  0.3587688567635415
  0.9190197530608245  0.5859766338636893  0.8634020786091682
  0.9175646392144636  0.9234300070421588  0.3589528197461062
  0.9207977365070358  0.9202058855941452  0.8612311098231354
  0.0757279518857125  0.0844388937447702  0.1386813152144303
  0.0813162434728470  0.0794532966379756  0.6399539019375494
  0.0771875427004570  0.4180685165470701  0.1376591332944265
  0.0805505237178339  0.4158726363510206  0.6414607571059467
  0.0762435090487913  0.7512024828792091  0.1383029775049721
  0.0760067101961130  0.7446777731273768  0.6445756493363565
  0.4132627686145399  0.0831310761521541  0.1406150694760036
  0.4144616839556932  0.0768511094239672  0.6452587670875000
  0.4154055653627797  0.4175004756889967  0.1404911801422051
  0.4163755744911512  0.4089313076266845  0.6504567842609610
  0.4121814962476680  0.7491850039566385  0.1396116380001810
  0.4148866187471920  0.7466102459496271  0.6457193455129566
  0.7426224022784466  0.0831698282071942  0.1413742550790237
  0.7458454715060218  0.0792137872888613  0.6421875999377523
  0.7390821352796718  0.4174142227037991  0.1411643306983924
  0.7465295197388125  0.4138426718536533  0.6412778795992546
  0.7437148475658315  0.7492449056567755  0.1404904637438338
  0.7445087591180821  0.7471984009674573  0.6429653379859069
 
             NaN             NaN             NaN
             NaN             NaN             NaN
             NaN             NaN             NaN
             NaN             NaN             NaN
             NaN             NaN             NaN
             NaN             NaN             NaN
             NaN             NaN             NaN
             NaN             NaN             NaN
             NaN             NaN             NaN
             NaN             NaN             NaN
             NaN             NaN             NaN
             NaN             NaN             NaN
             NaN             NaN             NaN
             NaN             NaN             NaN
             NaN             NaN             NaN
             NaN             NaN             NaN
             NaN             NaN             NaN
             NaN             NaN             NaN
             NaN             NaN             NaN
             NaN             NaN             NaN
             NaN             NaN             NaN
             NaN             NaN             NaN
             NaN             NaN             NaN
             NaN             NaN             NaN
             NaN             NaN             NaN
             NaN             NaN             NaN
             NaN             NaN             NaN
             NaN             NaN             NaN
             NaN             NaN             NaN
             NaN             NaN             NaN
             NaN             NaN             NaN
             NaN             NaN             NaN
             NaN             NaN             NaN
             NaN             NaN             NaN
             NaN             NaN             NaN
             NaN             NaN             NaN
             NaN             NaN             NaN
             NaN             NaN             NaN
             NaN             NaN             NaN
             NaN             NaN             NaN
             NaN             NaN             NaN
             NaN             NaN             NaN
             NaN             NaN             NaN
             NaN             NaN             NaN
             NaN             NaN             NaN
             NaN             NaN             NaN
             NaN             NaN             NaN
             NaN             NaN             NaN
             NaN             NaN             NaN
             NaN             NaN             NaN
             NaN             NaN             NaN
             NaN             NaN             NaN
             NaN             NaN             NaN
             NaN             NaN             NaN
             NaN             NaN             NaN
             NaN             NaN             NaN
             NaN             NaN             NaN
             NaN             NaN             NaN
             NaN             NaN             NaN
             NaN             NaN             NaN
             NaN             NaN             NaN
             NaN             NaN             NaN
             NaN             NaN             NaN
             NaN             NaN             NaN
             NaN             NaN             NaN
             NaN             NaN             NaN
             NaN             NaN             NaN
             NaN             NaN             NaN
             NaN             NaN             NaN
             NaN             NaN             NaN
             NaN             NaN             NaN
