Li17 Co18 O36                           
   1.00000000000000     
     8.0548859999999998   -0.0036910000000000    2.3749280000000002
     3.6789820000000000    7.1664630000000002    2.3731179999999998
    -0.0120540000000000   -0.0051530000000000    9.8902020000000004
   Li   Co   O 
    17    18    36
Direct
  0.2948174264808705  0.4353632548447786  0.5165689526438019
  0.3333459132587303  0.3345738809970981  0.9970842170734999
  0.3331711460120508  0.6672524199688348 -0.0050822119515388
  0.3287830944895581  0.0007189117228653  0.5071991700133159
  0.3347363545926603  1.0029485846775215 -0.0057115698917236
  0.6593174115849917  0.3362808125614109  0.5065159740418687
  0.6691321187123312  0.3324825354162934 -0.0040791934292638
  0.6569324890718505  0.6632074432804530  0.5079417077386649
  0.6695342929390750  0.6674728361505232 -0.0041829681455684
  0.6536369910767500  0.0091429410400446  0.5092696691026436
  0.6697122564462751  1.0000422897925907 -0.0040093335444367
  0.0047162943283593  0.3316673883041124  0.5024183826674742
  0.9999584373564531  0.3344910938843951  0.9973136261410315
 -0.0237842130011975  0.6820144603792968  0.5025153008723655
  0.0000612351150003  0.6683635344685264  0.9973089200742337
  0.0059373637319662  0.9945802522670371  0.5058799384254024
  0.9980944955152813  1.0019170711546797  0.9943656535297263
  0.1641649082052641  0.1691354432311155  0.2470717080777498
  0.1679385625280633  0.1674528887182881  0.7501602453155291
  0.1630167460642932  0.5028487892372180  0.2474627434409563
  0.1653489548764502  0.5006718269541156  0.7551304170824762
  0.1638049837382227  0.8390850110386627  0.2493562304920864
  0.1675397396479367  0.8328319988039320  0.7491445554268139
  0.4971002265712906  0.1688988217803720  0.2535167457142596
  0.5003547738273272  0.1663582630502033  0.7541432406347828
  0.5010159646388267  0.5000605487010894  0.2509066710553735
  0.4999988336153139  0.5011115746716137  0.7517395965055087
  0.4996320644534530  0.8318238242675785  0.2556958130967131
  0.4986807237310481  0.8337873472825419  0.7535008007676038
  0.8332485693123323  0.1685337448656807  0.2485506547505527
  0.8342983531736268  0.1664209011950118  0.7498551760493291
  0.8366444219338682  0.4995652661063583  0.2489695938808400
  0.8328534088988799  0.5004446443095822  0.7515162380582072
  0.8332219223462489  0.8333202360243419  0.2487327473803584
  0.8325245675719942  0.8326015775790611  0.7511164379990787
  0.2411683129035689  0.2595274891824257  0.3592422834526799
  0.2529592999942669  0.2522639854472810  0.8634873950189926
  0.2457583262750590  0.5926682689636887  0.3541832303167058
  0.2529745032652115  0.5878953963636385  0.8627388565866977
  0.2442839607238966  0.9306902658609588  0.3622742802170704
  0.2512766219714135  0.9215037051891817  0.8611053237134012
  0.5920924926165377  0.2485331186307383  0.3655972449378147
  0.5891462518201349  0.2523908377082303  0.8624875780974124
  0.5964209474047707  0.5800263619814831  0.3622035032892930
  0.5879092035910184  0.5854040535529648  0.8630343557469157
  0.5916427653025348  0.9139717710897259  0.3674470569998369
  0.5870768299612004  0.9190511050435780  0.8636127846960822
  0.9204694154918912  0.2538774910406978  0.3575576605490682
  0.9206501001291624  0.2538176341573484  0.8597275453591504
  0.9205201648990646  0.5879480039556073  0.3587899054722810
  0.9184800316613950  0.5865112258281778  0.8628121297414419
  0.9176319785391042  0.9222600002435579  0.3592635206588644
  0.9201910097039867  0.9201935677505727  0.8596346284153960
  0.0764975407325226  0.0858387229481793  0.1339883402837066
  0.0805754520502449  0.0809245786650138  0.6395858041289550
  0.0801560118149450  0.4145514923334099  0.1373861130931664
  0.0795111672999529  0.4161991518920057  0.6423706801407814
  0.0760809575198637  0.7485164469287309  0.1348091197668291
  0.0762142115606256  0.7447839048907068  0.6437784908366115
  0.4112070103270009  0.0823360252976354  0.1365546820499789
  0.4138919922201691  0.0779012663218702  0.6445770037550045
  0.4086477846887827  0.4186737702332580  0.1346823320575806
  0.4150852186983995  0.4100595672228523  0.6498295544434032
  0.4099031298965391  0.7555592567481630  0.1347969500075598
  0.4143736414457199  0.7473743346497184  0.6445767158271559
  0.7517628323747408  0.0782135029013541  0.1371559913428485
  0.7467580975768691  0.0791869279446251  0.6409679809732596
  0.7514219138686701  0.4119878356833443  0.1370341622020627
  0.7473266060404866  0.4134373589432332  0.6407781928834467
  0.7525782757757855  0.7448750968700677  0.1374412177049276
  0.7445176116430665  0.7467718291945398  0.6417962503257910
 
             NaN             NaN             NaN
             NaN             NaN             NaN
             NaN             NaN             NaN
             NaN             NaN             NaN
             NaN             NaN             NaN
             NaN             NaN             NaN
             NaN             NaN             NaN
             NaN             NaN             NaN
             NaN             NaN             NaN
             NaN             NaN             NaN
             NaN             NaN             NaN
             NaN             NaN             NaN
             NaN             NaN             NaN
             NaN             NaN             NaN
             NaN             NaN             NaN
             NaN             NaN             NaN
             NaN             NaN             NaN
             NaN             NaN             NaN
             NaN             NaN             NaN
             NaN             NaN             NaN
             NaN             NaN             NaN
             NaN             NaN             NaN
             NaN             NaN             NaN
             NaN             NaN             NaN
             NaN             NaN             NaN
             NaN             NaN             NaN
             NaN             NaN             NaN
             NaN             NaN             NaN
             NaN             NaN             NaN
             NaN             NaN             NaN
             NaN             NaN             NaN
             NaN             NaN             NaN
             NaN             NaN             NaN
             NaN             NaN             NaN
             NaN             NaN             NaN
             NaN             NaN             NaN
             NaN             NaN             NaN
             NaN             NaN             NaN
             NaN             NaN             NaN
             NaN             NaN             NaN
             NaN             NaN             NaN
             NaN             NaN             NaN
             NaN             NaN             NaN
             NaN             NaN             NaN
             NaN             NaN             NaN
             NaN             NaN             NaN
             NaN             NaN             NaN
             NaN             NaN             NaN
             NaN             NaN             NaN
             NaN             NaN             NaN
             NaN             NaN             NaN
             NaN             NaN             NaN
             NaN             NaN             NaN
             NaN             NaN             NaN
             NaN             NaN             NaN
             NaN             NaN             NaN
             NaN             NaN             NaN
             NaN             NaN             NaN
             NaN             NaN             NaN
             NaN             NaN             NaN
             NaN             NaN             NaN
             NaN             NaN             NaN
             NaN             NaN             NaN
             NaN             NaN             NaN
             NaN             NaN             NaN
             NaN             NaN             NaN
             NaN             NaN             NaN
             NaN             NaN             NaN
             NaN             NaN             NaN
             NaN             NaN             NaN
             NaN             NaN             NaN
