Li17 Co18 O36                           
   1.00000000000000     
     8.0548859999999998   -0.0036910000000000    2.3749280000000002
     3.6789820000000000    7.1664630000000002    2.3731179999999998
    -0.0120540000000000   -0.0051530000000000    9.8902020000000004
   Li   Co   O 
    17    18    36
Direct
  0.3034329293042137  0.4271450323321422  0.5126173234695781
  0.3324833094905700  0.3346967417722116  0.9971645247555586
  0.3318608178993885  0.6714935855318189  0.9960690299799967
  0.3318887420082166 -0.0061331822070344  0.5053560794129681
  0.3339776380914963  0.0024999210205102  0.9971803935579066
  0.6630699009696780  0.3363788350743956  0.5068972618329060
  0.6690198261405718  0.3339229763679947  0.9954926315881811
  0.6474002116658202  0.6667359728107781  0.5062864175620403
  0.6673047398822568  0.6709324085884669  0.9971526378678205
  0.6530083989516103  0.0099357911041279  0.5064638454531565
  0.6667953381526498  0.0010393880085701  0.9986045700292949
  0.0057037045793271  0.3330809033863066  0.5025417966799957
  1.0033295503178858  0.3329843785370929  0.9971601707798183
  0.9737917203458080  0.6846549794422409  0.5038184760188923
 -0.0014570754896461  0.6695871437225311  0.9990569108705174
  0.0115556829050152  0.9881059313085135  0.5026372006089299
  1.0009982231382284  0.0005414695961382  0.9970942318413473
  0.1649267226364584  0.1720513993964287  0.2475191765494396
  0.1678017486544453  0.1674808314496907  0.7502399761003744
  0.1647811277864628  0.5052679039049996  0.2453998173672407
  0.1655045453702250  0.5010993478148222  0.7546739635748048
  0.1633011390091688  0.8397043165758515  0.2480404692600459
  0.1670920115399560  0.8325483600166455  0.7502171837172258
  0.4966171981133012  0.1708203228405514  0.2513747547871684
  0.4993819842980962  0.1662327789056871  0.7547942424909270
  0.4988782209516814  0.5044294265037127  0.2486834046764101
  0.4996155189982360  0.5013187548271656  0.7544538591611137
  0.4965512946586068  0.8341575863473505  0.2537038704840650
  0.4986301602934510  0.8336212056164436  0.7536817513572285
  0.8310074784338671  0.1686888501018199  0.2506871211017530
  0.8336857795597746  0.1663081694253889  0.7507397318980055
  0.8339691676726815  0.5003050685416107  0.2499542789824182
  0.8329426809239950  0.5010690555095012  0.7515760785810646
  0.8304025941792688  0.8347408273596725  0.2504868237482064
  0.8321177076604460  0.8340528866307394  0.7536253780501723
  0.2492031162690947  0.2602395745753043  0.3566315867341070
  0.2519986244829667  0.2529211867499291  0.8637674013218046
  0.2556578825000432  0.5937396091727383  0.3485915585767406
  0.2521936419335746  0.5878789494908107  0.8640987887611898
  0.2473745666325733  0.9300721967439505  0.3566565101901664
  0.2513567920575629  0.9214506466319365  0.8621497382132493
  0.5822248174205136  0.2610029232435697  0.3584480675372829
  0.5886689746182781  0.2526283480045564  0.8638681183190833
  0.5903296792990116  0.5737596808491855  0.3597528336244649
  0.5884912485926844  0.5861220393783806  0.8640175504270626
  0.5866824632068424  0.9112052323314742  0.3661975044622243
  0.5857509307936554  0.9198896859033715  0.8651580483817680
  0.9195587995324577  0.2551671914028833  0.3586645965682326
  0.9205945394304478  0.2538408592144445  0.8605953555084842
  0.9215029971029909  0.5876156074321749  0.3584517576015652
  0.9183132983782677  0.5867749702690707  0.8634015046044980
  0.9161895474329023  0.9233369933718905  0.3603040119242714
  0.9199940188814087  0.9206812792220813  0.8615943355778461
  0.0757653206924511  0.0843958287259997  0.1387095696210562
  0.0806297829304294  0.0799498001420522  0.6402879520677458
  0.0770360784338889  0.4185549664157968  0.1372809290965466
  0.0801226553661444  0.4165735449458624  0.6413213297687178
  0.0752643600184097  0.7523874287683512  0.1382103721434774
  0.0752159747762616  0.7456519672786094  0.6446264436185974
  0.4111098889134129  0.0921914427838416  0.1363616121529470
  0.4138925855799181  0.0779423867363516  0.6448403360218889
  0.4129852088830865  0.4300801223529954  0.1344079055061347
  0.4154873552882855  0.4102844197162078  0.6505989133295642
  0.4145371391162581  0.7490641593133877  0.1395535800375688
  0.4140483342455149  0.7469531796146552  0.6462681027796302
  0.7443654457933550  0.0819716470927667  0.1407702577088573
  0.7451355807283150  0.0801011733428932  0.6423318158718080
  0.7405067485704698  0.4156235053210882  0.1410391796660966
  0.7460720147206650  0.4140748186137372  0.6418682849364401
  0.7461840511440581  0.7470501020728235  0.1399264493228311
  0.7441196913746700  0.7477401226420197  0.6432618231395190
 
             NaN             NaN             NaN
             NaN             NaN             NaN
             NaN             NaN             NaN
             NaN             NaN             NaN
             NaN             NaN             NaN
             NaN             NaN             NaN
             NaN             NaN             NaN
             NaN             NaN             NaN
             NaN             NaN             NaN
             NaN             NaN             NaN
             NaN             NaN             NaN
             NaN             NaN             NaN
             NaN             NaN             NaN
             NaN             NaN             NaN
             NaN             NaN             NaN
             NaN             NaN             NaN
             NaN             NaN             NaN
             NaN             NaN             NaN
             NaN             NaN             NaN
             NaN             NaN             NaN
             NaN             NaN             NaN
             NaN             NaN             NaN
             NaN             NaN             NaN
             NaN             NaN             NaN
             NaN             NaN             NaN
             NaN             NaN             NaN
             NaN             NaN             NaN
             NaN             NaN             NaN
             NaN             NaN             NaN
             NaN             NaN             NaN
             NaN             NaN             NaN
             NaN             NaN             NaN
             NaN             NaN             NaN
             NaN             NaN             NaN
             NaN             NaN             NaN
             NaN             NaN             NaN
             NaN             NaN             NaN
             NaN             NaN             NaN
             NaN             NaN             NaN
             NaN             NaN             NaN
             NaN             NaN             NaN
             NaN             NaN             NaN
             NaN             NaN             NaN
             NaN             NaN             NaN
             NaN             NaN             NaN
             NaN             NaN             NaN
             NaN             NaN             NaN
             NaN             NaN             NaN
             NaN             NaN             NaN
             NaN             NaN             NaN
             NaN             NaN             NaN
             NaN             NaN             NaN
             NaN             NaN             NaN
             NaN             NaN             NaN
             NaN             NaN             NaN
             NaN             NaN             NaN
             NaN             NaN             NaN
             NaN             NaN             NaN
             NaN             NaN             NaN
             NaN             NaN             NaN
             NaN             NaN             NaN
             NaN             NaN             NaN
             NaN             NaN             NaN
             NaN             NaN             NaN
             NaN             NaN             NaN
             NaN             NaN             NaN
             NaN             NaN             NaN
             NaN             NaN             NaN
             NaN             NaN             NaN
             NaN             NaN             NaN
             NaN             NaN             NaN
