Li47 P16 O64                            
   1.00000000000000     
    10.4464810000000003   -0.0011880000000000   -0.0138670000000000
    -0.0013670000000000   12.2280350000000002   -0.0022080000000000
    -0.0131030000000000   -0.0017750000000000    9.8340999999999994
   Li   P    O 
    47    16    64
Direct
  0.5587109454131564  0.2762224302472925  0.0720925139946651
  0.6655223986296863  0.2509755820680847  0.5975397508209099
  0.6637185295887226  0.7511812303610327  0.0978326375675812
  0.6644214909026585  0.7517177639018291  0.5983542117685718
  0.1651356994494239  0.4972339289411846  0.1520066517797609
  0.1649627825014046  0.4987319404745895  0.6524135330207800
  0.1630794713561678  0.9956576712932818  0.1530430726074790
  0.1641983302939262  0.9988921065483557  0.6525394406292391
  0.3357773708377241  0.0000944959152638  0.4028390076724193
  0.3360654159876180  0.0004870830399670  0.9036529510523003
  0.3387073145660247  0.4995828051357892  0.3971344745944167
  0.3377399824589773  0.4969441874452478  0.9116282930888158
  0.8330005481443992  0.2491680827289668  0.3427783761909545
  0.8324181896575621  0.2496263602062192  0.8560230089527341
  0.8363838811124887  0.7486368421257020  0.3476839321018212
  0.8364705556885674  0.7487838229560770  0.8477226549154264
  0.3382469817106594  0.2514276316918025  0.3983703198751222
  0.3347161947563735  0.2523448809863973  0.9053301361291225
  0.3367903058219738  0.7493917792336746  0.4008496491609765
  0.3362031219051199  0.7490669401930975  0.9054191159793045
  0.8367869638220994  0.0024202020377955  0.3473664532057159
  0.8374203046361253  0.0013531556703567  0.8484433084896116
  0.8348908030264852  0.5008500148711967  0.3481022266202158
  0.8352321213888304  0.5011861893234344  0.8491322852409715
  0.6582399662851423  0.4980150818102618  0.0974580358647868
  0.6654134959997470  0.5021789036551958  0.5993762839083986
  0.6662136515042902  0.0033599878552142  0.0999858796270018
  0.6643256188776506  0.0001193726506868  0.5975954332937357
  0.1657768929797749  0.2520826656882388  0.1503817553940489
  0.1639091613022961  0.2509762193803825  0.6522549756714792
  0.1649158143380571  0.7506789910048719  0.1521594835732014
  0.1646473920916305  0.7513518380172427  0.6527829493670445
  0.9186659849427190  0.3741429258532647  0.1474986894664980
  0.9224643131209312  0.3742449628216631  0.6493811074993276
  0.9228940536578943  0.8756061070017400  0.1491331723826345
  0.9237739656012199  0.8753988752954011  0.6487849390480100
  0.4247505305350944  0.3758690225744920  0.6029667361521169
  0.4278079240266008  0.8753767511218382  0.1013432891094555
  0.4247568996990780  0.8751254949159697  0.6010802512148474
  0.0761399338503116  0.1259535198616165  0.3484280024319851
  0.0764865209169013  0.1253308675065100  0.8529029846011540
  0.0768200716739279  0.6239163549325137  0.3503605735709316
  0.0778001029824167  0.6239723369507801  0.8522835912462173
  0.5763060113422386  0.1280531191887836  0.3969916547152419
  0.5786556866208072  0.1233035379285198  0.8974776399009313
  0.5760757890139682  0.6245446747293280  0.4006945954165957
  0.5736172307020000  0.6248694046890739  0.8993878670276824
  0.9147993496025218  0.1253640462500943  0.0958452501011362
  0.9123706055797928  0.1250443222183862  0.5959067537248721
  0.9113420021481410  0.6254453016023335  0.0954612816194930
  0.9132343951376548  0.6256299816250257  0.5955383834499346
  0.4067115432066973  0.1183580747082981  0.1542758774813156
  0.4115513117249725  0.1248021131809926  0.6550984259390927
  0.4098682707110909  0.6293207007128595  0.1544014835181214
  0.4107597577537886  0.6261148741029062  0.6552559833424925
  0.0873951023423358  0.3752506407407241  0.4048163354742931
  0.0862085655900422  0.3751170170772611  0.9047647342476549
  0.0876313497288863  0.8745674764372610  0.4053049443022063
  0.0878411754080112  0.8743272279157940  0.9048645579122635
  0.5902839403490421  0.3773167987724413  0.3500070142394457
  0.5867351402096611  0.3764597687513818  0.8382147648773342
  0.5896908858966560  0.8758526678564453  0.3457184623445231
  0.5894283274465193  0.8750715981239414  0.8450387590082296
  0.8444076871440264  0.0218636620145117  0.1476444797053261
  0.8424825124930738  0.0213911870054996  0.6464888627137797
  0.8398333370944076  0.5233772583144531  0.1464527723171788
  0.8436042121548435  0.5232216011920023  0.6485062621951534
  0.3373688715278626  0.2185724165231938  0.0982925712844892
  0.3412647027065506  0.2272067814450073  0.6023986596293617
  0.3444407110051955  0.7370585747358825  0.1083863941192224
  0.3415441432818919  0.7297333240230898  0.6031748118322841
  0.1574197866418731  0.2723290137086989  0.3528928304155109
  0.1558711280241696  0.2720146362674232  0.8528310137590284
  0.1574946389006540  0.7716079569812875  0.3537475965507732
  0.1584040362342001  0.7715023303381379  0.8536522909052235
  0.6600726917212508  0.4803632699522323  0.4050843100089529
  0.6561553138699728  0.4790808159681788  0.8933787705757444
  0.6591227243163271  0.9791748601384667  0.3977983512043962
  0.6601301669590491  0.9775419548480244  0.8972309376550922
  0.1579899465224535  0.4781643595080898  0.3539382543103476
  0.1568920894628678  0.4775624189855907  0.8527109624688282
  0.1575268369251240  0.9775673751633267  0.3543035584373104
  0.1582431490694438  0.9772211043021091  0.8537321064686177
  0.6595584618532445  0.2734376211148149  0.4023237031279973
  0.6525492522959082  0.2726324586586931  0.8938424724523657
  0.6596169914767046  0.7728051787897915  0.3978813844311435
  0.6589435003754238  0.7716181163161745  0.8960434011000878
  0.8505020897025753  0.2281987570000203  0.1490428907321293
  0.8424357152200013  0.2269777374733238  0.6499200467953218
  0.8418110186159437  0.7290854206515668  0.1464493814696880
  0.8428009494821712  0.7288157466683394  0.6464683197048050
  0.3393013129685475  0.0127441346078482  0.1072012749239682
  0.3420079012713999  0.0211216803795427  0.6034676651690652
  0.3324201949090202  0.5338310456446599  0.1000511355130450
  0.3415037804285566  0.5237423996993215  0.6010218154724896
  0.5448538271003192  0.1205080389111422  0.1001725881850364
  0.5505557459227695  0.1247776139239280  0.6036439240390944
  0.5485416003737110  0.6277318558670616  0.1007500483971905
  0.5503267004540850  0.6272995915527190  0.6053671826095995
  0.0555725231858911  0.1214442135689601  0.1443684048256507
  0.0514787362652895  0.1241852224301857  0.6476716952273808
  0.0499614883661359  0.6250746213574447  0.1482540685059701
  0.0521584992281511  0.6260971161743557  0.6474726640301074
  0.4519940184130509  0.3757578887920538  0.4039314236272266
  0.4470611040215953  0.3746020120046946  0.8827660523279706
  0.4509145586595720  0.8753246959969456  0.3974669537616845
  0.4506086556947308  0.8752495009595195  0.8962749161621106
  0.9484271089741242  0.3760381069520088  0.3535639797699000
  0.9471880241850739  0.3754066785971741  0.8524244289363953
  0.9486369103885169  0.8747591157909103  0.3534209349605686
  0.9493667492820512  0.8745138718096466  0.8513755270758766
  0.5944942971350776  0.3809777740578048  0.1960755669345944
  0.5945726412673958  0.3768038791030114  0.6818863028983584
  0.5922685946426507  0.8763029426784412  0.1889612503130078
  0.5904901982758616  0.8757337448540503  0.6880621890669617
  0.0862421823968818  0.3752246555084837  0.0613566356427292
  0.0887103165324088  0.3748589443931363  0.5619865902570512
  0.0872308467147772  0.8734673059107164  0.0615279475501206
  0.0888418637068624  0.8746013700473719  0.5622578130083532
  0.4087271570961375  0.1223302887379509  0.3114563457843734
  0.4102384750130939  0.1246364608466559  0.8119882098757503
  0.4124782108464573  0.6267548485829645  0.3118871300967405
  0.4080461975119719  0.6253333700672867  0.8119956702943598
  0.9110387893561674  0.1260276670223105  0.4390105010762829
  0.9116997681342015  0.1240616958418952  0.9383804270906937
  0.9118247079575867  0.6251894374623275  0.4386606843894666
  0.9113367537381891  0.6256032094926561  0.9383914963249720
 
             NaN             NaN             NaN
             NaN             NaN             NaN
             NaN             NaN             NaN
             NaN             NaN             NaN
             NaN             NaN             NaN
             NaN             NaN             NaN
             NaN             NaN             NaN
             NaN             NaN             NaN
             NaN             NaN             NaN
             NaN             NaN             NaN
             NaN             NaN             NaN
             NaN             NaN             NaN
             NaN             NaN             NaN
             NaN             NaN             NaN
             NaN             NaN             NaN
             NaN             NaN             NaN
             NaN             NaN             NaN
             NaN             NaN             NaN
             NaN             NaN             NaN
             NaN             NaN             NaN
             NaN             NaN             NaN
             NaN             NaN             NaN
             NaN             NaN             NaN
             NaN             NaN             NaN
             NaN             NaN             NaN
             NaN             NaN             NaN
             NaN             NaN             NaN
             NaN             NaN             NaN
             NaN             NaN             NaN
             NaN             NaN             NaN
             NaN             NaN             NaN
             NaN             NaN             NaN
             NaN             NaN             NaN
             NaN             NaN             NaN
             NaN             NaN             NaN
             NaN             NaN             NaN
             NaN             NaN             NaN
             NaN             NaN             NaN
             NaN             NaN             NaN
             NaN             NaN             NaN
             NaN             NaN             NaN
             NaN             NaN             NaN
             NaN             NaN             NaN
             NaN             NaN             NaN
             NaN             NaN             NaN
             NaN             NaN             NaN
             NaN             NaN             NaN
             NaN             NaN             NaN
             NaN             NaN             NaN
             NaN             NaN             NaN
             NaN             NaN             NaN
             NaN             NaN             NaN
             NaN             NaN             NaN
             NaN             NaN             NaN
             NaN             NaN             NaN
             NaN             NaN             NaN
             NaN             NaN             NaN
             NaN             NaN             NaN
             NaN             NaN             NaN
             NaN             NaN             NaN
             NaN             NaN             NaN
             NaN             NaN             NaN
             NaN             NaN             NaN
             NaN             NaN             NaN
             NaN             NaN             NaN
             NaN             NaN             NaN
             NaN             NaN             NaN
             NaN             NaN             NaN
             NaN             NaN             NaN
             NaN             NaN             NaN
             NaN             NaN             NaN
             NaN             NaN             NaN
             NaN             NaN             NaN
             NaN             NaN             NaN
             NaN             NaN             NaN
             NaN             NaN             NaN
             NaN             NaN             NaN
             NaN             NaN             NaN
             NaN             NaN             NaN
             NaN             NaN             NaN
             NaN             NaN             NaN
             NaN             NaN             NaN
             NaN             NaN             NaN
             NaN             NaN             NaN
             NaN             NaN             NaN
             NaN             NaN             NaN
             NaN             NaN             NaN
             NaN             NaN             NaN
             NaN             NaN             NaN
             NaN             NaN             NaN
             NaN             NaN             NaN
             NaN             NaN             NaN
             NaN             NaN             NaN
             NaN             NaN             NaN
             NaN             NaN             NaN
             NaN             NaN             NaN
             NaN             NaN             NaN
             NaN             NaN             NaN
             NaN             NaN             NaN
             NaN             NaN             NaN
             NaN             NaN             NaN
             NaN             NaN             NaN
             NaN             NaN             NaN
             NaN             NaN             NaN
             NaN             NaN             NaN
             NaN             NaN             NaN
             NaN             NaN             NaN
             NaN             NaN             NaN
             NaN             NaN             NaN
             NaN             NaN             NaN
             NaN             NaN             NaN
             NaN             NaN             NaN
             NaN             NaN             NaN
             NaN             NaN             NaN
             NaN             NaN             NaN
             NaN             NaN             NaN
             NaN             NaN             NaN
             NaN             NaN             NaN
             NaN             NaN             NaN
             NaN             NaN             NaN
             NaN             NaN             NaN
             NaN             NaN             NaN
             NaN             NaN             NaN
             NaN             NaN             NaN
             NaN             NaN             NaN
             NaN             NaN             NaN
             NaN             NaN             NaN
