Li47 P16 O64
1.0
10.446481 -0.001188 -0.013867
-0.001367 12.228035 -0.002208
-0.013103 -0.001775 9.834100
Li P O
47 16 64
direct
0.571204 0.296407 0.097499 Li
0.664999 0.250644 0.599689 Li
0.663546 0.750189 0.097358 Li
0.664107 0.751219 0.598449 Li
0.164938 0.497593 0.151467 Li
0.164720 0.498743 0.652282 Li
0.164135 0.997582 0.152474 Li
0.164859 0.998728 0.652351 Li
0.336684 0.000890 0.401071 Li
0.336742 0.001141 0.904835 Li
0.338590 0.499144 0.398655 Li
0.338001 0.497345 0.906919 Li
0.833756 0.249123 0.345412 Li
0.833780 0.249007 0.851038 Li
0.836229 0.748549 0.347765 Li
0.836256 0.748850 0.847656 Li
0.338370 0.250982 0.398960 Li
0.337893 0.251642 0.906628 Li
0.336858 0.749222 0.400839 Li
0.336600 0.749242 0.904189 Li
0.836523 0.001858 0.347468 Li
0.836445 0.001639 0.847902 Li
0.834394 0.500708 0.347629 Li
0.833945 0.500344 0.849089 Li
0.658004 0.495064 0.096669 Li
0.665132 0.501234 0.597855 Li
0.664363 1.001179 0.098648 Li
0.663976 1.000278 0.598209 Li
0.164544 0.251410 0.150835 Li
0.164644 0.251186 0.652322 Li
0.164558 0.750795 0.151888 Li
0.164631 0.751188 0.652599 Li
0.919794 0.374451 0.147858 Li
0.922369 0.374743 0.649098 Li
0.922818 0.875291 0.149032 Li
0.923725 0.875304 0.648733 Li
0.425100 0.375362 0.605021 Li
0.427187 0.875338 0.101504 Li
0.424693 0.875459 0.600646 Li
0.076960 0.125683 0.349574 Li
0.077396 0.125489 0.852434 Li
0.076764 0.624055 0.350554 Li
0.077078 0.624064 0.852002 Li
0.576158 0.127659 0.397041 Li
0.575606 0.128311 0.904028 Li
0.576096 0.623930 0.399513 Li
0.574523 0.623661 0.899130 Li
0.912694 0.124982 0.095548 P
0.913197 0.124778 0.595300 P
0.911024 0.624999 0.095304 P
0.912895 0.625452 0.595437 P
0.409190 0.121049 0.154196 P
0.411437 0.124560 0.654831 P
0.410371 0.627419 0.153935 P
0.411006 0.625997 0.654808 P
0.087620 0.375183 0.404642 P
0.086796 0.375027 0.904603 P
0.087843 0.874706 0.405042 P
0.087925 0.874660 0.904912 P
0.590182 0.375952 0.348754 P
0.587216 0.374724 0.839039 P
0.589736 0.875120 0.345616 P
0.589141 0.875333 0.845077 P
0.842662 0.021485 0.146863 O
0.842854 0.021525 0.646245 O
0.839925 0.522700 0.146261 O
0.843099 0.523075 0.648174 O
0.334706 0.219031 0.099191 O
0.341161 0.226994 0.602105 O
0.343474 0.733807 0.106311 O
0.341658 0.729637 0.602927 O
0.157616 0.272266 0.353112 O
0.156927 0.272228 0.852920 O
0.157707 0.771674 0.353473 O
0.158199 0.771630 0.853759 O
0.659844 0.479474 0.403097 O
0.655662 0.477473 0.895818 O
0.659299 0.978356 0.397629 O
0.659472 0.978001 0.896989 O
0.158094 0.478123 0.353548 O
0.157018 0.477906 0.852978 O
0.157734 0.977660 0.353913 O
0.158456 0.977459 0.853794 O
0.659866 0.272663 0.402510 O
0.655723 0.271212 0.888724 O
0.659420 0.772040 0.398133 O
0.658804 0.771761 0.896119 O
0.844951 0.227627 0.147549 O
0.843722 0.227235 0.647980 O
0.841551 0.728548 0.146527 O
0.842729 0.728711 0.646402 O
0.341172 0.014739 0.107394 O
0.341858 0.020971 0.602668 O
0.335486 0.529574 0.099725 O
0.341064 0.523746 0.601253 O
0.547153 0.120457 0.102008 O
0.550213 0.124526 0.602996 O
0.549101 0.626421 0.101130 O
0.550234 0.626790 0.604153 O
0.052198 0.123083 0.146644 O
0.052176 0.124035 0.647412 O
0.049810 0.624878 0.147895 O
0.051851 0.625785 0.647415 O
0.451792 0.375352 0.402964 O
0.446328 0.374536 0.878628 O
0.450811 0.874962 0.396979 O
0.450345 0.875094 0.896444 O
0.948743 0.375680 0.352616 O
0.947826 0.375162 0.852118 O
0.948856 0.874721 0.353004 O
0.949337 0.874808 0.851647 O
0.594206 0.377732 0.194690 O
0.595433 0.377722 0.682561 O
0.592225 0.874704 0.188888 O
0.590255 0.875526 0.688057 O
0.086560 0.375109 0.061353 O
0.088463 0.375079 0.561740 O
0.087581 0.874195 0.061674 O
0.088855 0.874615 0.562004 O
0.409665 0.124205 0.311669 O
0.409801 0.124261 0.811563 O
0.411462 0.625702 0.311257 O
0.408939 0.625550 0.811595 O
0.912035 0.125167 0.438378 O
0.911689 0.124362 0.938311 O
0.911650 0.625010 0.438511 O
0.910756 0.625210 0.938236 O
