Mg15 Mn32 O64                           
   1.00000000000000     
    11.6299109999999999    0.0000000000000000    0.0000020000000000
     0.0000000000000000   11.6355009999999996    0.0000000000000000
     0.0000020000000000    0.0000000000000000    9.3719789999999996
   Mg   Mn   O 
    15    32    64
Direct
  0.4999995473734848  0.6600247494370111  0.6737076633103976
  0.4999999810221466  0.2516553693980348  0.7466844771456619
  0.0000000825128819  0.2496043539554661  0.7491667811271974
 -0.0000002308512276  0.7515333645178242  0.7511100326060940
 -0.0000002313625552  0.4998304825255866  0.5011340280080755
 -0.0000000724713652  0.9993766109810986  0.4980350677062866
  0.4999999390571948  0.9981226355936229  0.4992636771669492
  0.2499988809972415  0.0009479356041227  0.2523844788034120
  0.2532002203586743  0.4998363031617390  0.2491346144430915
  0.7500008236262292  0.0009476886500272  0.2523849771753006
  0.7468002125210290  0.4998360729375774  0.2491347348116746
  0.2484928895660836  0.2455252091567330  0.0004129378275695
  0.2506697082922578  0.7538934583098773  0.9991436282436198
  0.7515072675709380  0.2455249287337307  0.0004131676640746
  0.7493303121763093  0.7538934804878703  0.9991438931915316
  0.1257550342134161  0.2516650754185377  0.3766918346930845
  0.1253444339984586  0.7492419776909737  0.3739783340390385
  0.6229852133360667  0.2517258945724145  0.3730752145035721
  0.6242471586223781  0.7497701818289371  0.3703335102662916
  0.3770147779882964  0.2517257713437471  0.3730746874482936
  0.3757523945599542  0.7497705400187169  0.3703331122685949
  0.8742448178842311  0.2516651219994187  0.3766918429351546
  0.8746550476189799  0.7492416572333787  0.3739783855610740
  0.1245616088915130  0.4991969987972265  0.8790461731244832
  0.1250981287444834  0.0001643634592204  0.8735132903525717
  0.6272786672168676  0.4992344930890567  0.8803000823023045
  0.6233482175891846  0.9998620533440348  0.8725032276859791
  0.3727218656471757  0.4992346016590571  0.8802994748810176
  0.3766517935765992  0.9998620853913976  0.8725028944545207
  0.8754387668089159  0.4991969638070083  0.8790468181744752
  0.8749018527772694  0.0001642987239523  0.8735129635825482
  0.5000000683453941  0.1235899940373324  0.1239202565416034
  0.5000001073339169  0.6278664370080275  0.1202355907930030
 -0.0000000515189180  0.1248166277495136  0.1265193388506247
  0.0000001304127318  0.6250533622466241  0.1267686780620224
  0.5000000313099210  0.3711572373226339  0.1204200662040583
  0.4999999965020058  0.8765371226500043  0.1204338363392255
  0.0000001927420036  0.3748576407221876  0.1282865735782752
 -0.0000000595379319  0.8753406123318990  0.1249984698018425
  0.2530782058501825  0.3762456117973446  0.6275578159165431
  0.2511903441966620  0.8746573160387530  0.6242021001471322
  0.7469219413242947  0.3762450999004007  0.6275587003739901
  0.7488091036515945  0.8746568768385921  0.6242022844407683
  0.2500306603537553  0.1252243783026114  0.6236547222340625
  0.2467208892982410  0.6258055781289721  0.6265264453431643
  0.7499693516987196  0.1252239678429561  0.6236547357177227
  0.7532788198294129  0.6258051760222297  0.6265269457871703
  0.1381436998023695  0.2523516408843436  0.6221510704307505
  0.1357677266628538  0.7504809633801756  0.6214733490235558
  0.6373015152517126  0.2519283486054869  0.6218888012336105
  0.6391370243378308  0.7450560435432011  0.6149564528547593
  0.3626985180362012  0.2519288799766488  0.6218884435908415
  0.3608623356998609  0.7450567067946015  0.6149560959833230
  0.8618566158330626  0.2523510589097590  0.6221515110584289
  0.8642318413215125  0.7504804515267032  0.6214738197456274
  0.1379538222577687  0.4986448202380633  0.6316935170775266
  0.1371913678603818 -0.0002214519069446  0.6268837753985347
  0.6342511952392446  0.5080240370229513  0.6735843833184578
  0.6376430808588913  1.0002965220609745  0.6264052907341745
  0.3657488271471881  0.5080249438021337  0.6735839127274800
  0.3623566948511033  1.0002968777179755  0.6264053662955464
  0.8620463121970009  0.4986445260786526  0.6316942457067014
  0.8628085834361993 -0.0002220682348114  0.6268838743267158
  0.4999999475635425  0.1160003158977274  0.8763434012831451
  0.5000002591788959  0.6069320109537515  0.8788592206244902
 -0.0000000090493487  0.1136126285456024  0.8783440399372892
  0.0000002309223523  0.6124882555213896  0.8782981670272383
  0.5000002343444320  0.3897684737372025  0.8777194874856804
  0.4999998980795753  0.8924874222436429  0.8858173042901409
  0.0000002955661453  0.3865035478278228  0.8792078729817983
  0.0000000109590994  0.8872181776409427  0.8793318060172813
  0.0000000045788135  0.3640836949365389  0.3721482563254584
 -0.0000003289643213  0.8623467419452739  0.3699433929798026
  0.4999999336529572  0.3591566793391039  0.3509658235820897
  0.4999998934169866  0.8644028573862916  0.3680066559788260
 -0.0000000365486362  0.1384446439756948  0.3726515000628630
 -0.0000001524699904  0.6361930930514994  0.3716221549333588
  0.5000000227492164  0.1360733268682654  0.3711746148670353
  0.4999996255893863  0.6414549691444841  0.3604934722944911
  0.3859477021201370  1.0008186154343053  0.1222012536948071
  0.3844955898677096  0.4993582186966510  0.0978090931724208
  0.8867557114693565  0.0003886365914530  0.1220054738496024
  0.8866188600063234  0.4996089308681102  0.1220418064622382
  0.1132440415155869  0.0003886694175607  0.1220053877363929
  0.1133816764535646  0.4996089484441498  0.1220416706319950
  0.6140518774757904  1.0008186096366793  0.1222012438309036
  0.6155044682733416  0.4993583469428404  0.0978089182429318
  0.3866254752249701  0.2487126560725049  0.1236098965443411
  0.3871043784830583  0.7500800074654130  0.1254111314507743
  0.8869584661848348  0.2501879503585874  0.1299320243930368
  0.8869428981784661  0.7498515189240138  0.1276421309263253
  0.1130417658884305  0.2501877724847230  0.1299319054351709
  0.1130572168729850  0.7498517084816423  0.1276420765446015
  0.6133745340061661  0.2487125744676986  0.1236099642182419
  0.6128954015859264  0.7500802501017954  0.1254113547964384
  0.2508537026113433  0.3659375700178648  0.3819098141121811
  0.2490783710172422  0.8624742900385056  0.3777957463793065
  0.7491463432969220  0.3659374597958605  0.3819100790240657
  0.7509211434828345  0.8624740575139860  0.3777961481488936
  0.2496201470860358  0.1387484396166475  0.3796904396641383
  0.2492088408484416  0.6349451427089895  0.3787566594647154
  0.7503798227994527  0.1387482640454412  0.3796906992125682
  0.7507907985560458  0.6349448838154144  0.3787568029629071
  0.2491086312709947  0.1130612637910987  0.8680946003751948
  0.2511203513401396  0.6102331913653807  0.8817143739300802
  0.7508913899554328  0.1130611419962202  0.8680945637296220
  0.7488795801653401  0.6102329136267161  0.8817146165869759
  0.2521164821137664  0.3875359908635661  0.8777478502273433
  0.2486492837752263  0.8867505041661402  0.8678511548486080
  0.7478835347260493  0.3875359627402978  0.8777485142944927
  0.7513506435526339  0.8867503542688626  0.8678512336703406
 
             NaN             NaN             NaN
             NaN             NaN             NaN
             NaN             NaN             NaN
             NaN             NaN             NaN
             NaN             NaN             NaN
             NaN             NaN             NaN
             NaN             NaN             NaN
             NaN             NaN             NaN
             NaN             NaN             NaN
             NaN             NaN             NaN
             NaN             NaN             NaN
             NaN             NaN             NaN
             NaN             NaN             NaN
             NaN             NaN             NaN
             NaN             NaN             NaN
             NaN             NaN             NaN
             NaN             NaN             NaN
             NaN             NaN             NaN
             NaN             NaN             NaN
             NaN             NaN             NaN
             NaN             NaN             NaN
             NaN             NaN             NaN
             NaN             NaN             NaN
             NaN             NaN             NaN
             NaN             NaN             NaN
             NaN             NaN             NaN
             NaN             NaN             NaN
             NaN             NaN             NaN
             NaN             NaN             NaN
             NaN             NaN             NaN
             NaN             NaN             NaN
             NaN             NaN             NaN
             NaN             NaN             NaN
             NaN             NaN             NaN
             NaN             NaN             NaN
             NaN             NaN             NaN
             NaN             NaN             NaN
             NaN             NaN             NaN
             NaN             NaN             NaN
             NaN             NaN             NaN
             NaN             NaN             NaN
             NaN             NaN             NaN
             NaN             NaN             NaN
             NaN             NaN             NaN
             NaN             NaN             NaN
             NaN             NaN             NaN
             NaN             NaN             NaN
             NaN             NaN             NaN
             NaN             NaN             NaN
             NaN             NaN             NaN
             NaN             NaN             NaN
             NaN             NaN             NaN
             NaN             NaN             NaN
             NaN             NaN             NaN
             NaN             NaN             NaN
             NaN             NaN             NaN
             NaN             NaN             NaN
             NaN             NaN             NaN
             NaN             NaN             NaN
             NaN             NaN             NaN
             NaN             NaN             NaN
             NaN             NaN             NaN
             NaN             NaN             NaN
             NaN             NaN             NaN
             NaN             NaN             NaN
             NaN             NaN             NaN
             NaN             NaN             NaN
             NaN             NaN             NaN
             NaN             NaN             NaN
             NaN             NaN             NaN
             NaN             NaN             NaN
             NaN             NaN             NaN
             NaN             NaN             NaN
             NaN             NaN             NaN
             NaN             NaN             NaN
             NaN             NaN             NaN
             NaN             NaN             NaN
             NaN             NaN             NaN
             NaN             NaN             NaN
             NaN             NaN             NaN
             NaN             NaN             NaN
             NaN             NaN             NaN
             NaN             NaN             NaN
             NaN             NaN             NaN
             NaN             NaN             NaN
             NaN             NaN             NaN
             NaN             NaN             NaN
             NaN             NaN             NaN
             NaN             NaN             NaN
             NaN             NaN             NaN
             NaN             NaN             NaN
             NaN             NaN             NaN
             NaN             NaN             NaN
             NaN             NaN             NaN
             NaN             NaN             NaN
             NaN             NaN             NaN
             NaN             NaN             NaN
             NaN             NaN             NaN
             NaN             NaN             NaN
             NaN             NaN             NaN
             NaN             NaN             NaN
             NaN             NaN             NaN
             NaN             NaN             NaN
             NaN             NaN             NaN
             NaN             NaN             NaN
             NaN             NaN             NaN
             NaN             NaN             NaN
             NaN             NaN             NaN
             NaN             NaN             NaN
             NaN             NaN             NaN
             NaN             NaN             NaN
