Mg15 Mn32 O64
1.0
11.629911 0.000000 0.000002
0.000000 11.635501 0.000000
0.000002 -0.000000 9.371979
Mg Mn O
15 32 64
direct
0.500000 0.686768 0.684183 Mg
0.500000 0.251864 0.747084 Mg
1.000000 0.249829 0.749334 Mg
1.000000 0.750171 0.749301 Mg
1.000000 0.500110 0.501721 Mg
0.000000 -0.000110 0.499161 Mg
0.500000 0.998868 0.498602 Mg
0.249602 0.000406 0.251524 Mg
0.252634 0.499595 0.250149 Mg
0.750398 1.000406 0.251525 Mg
0.747365 0.499594 0.250149 Mg
0.248672 0.247678 0.000522 Mg
0.249328 0.752322 -0.000506 Mg
0.751328 0.247677 0.000522 Mg
0.750672 0.752322 -0.000506 Mg
0.125456 0.250831 0.376291 Mn
0.125271 0.749170 0.375415 Mn
0.623584 0.251197 0.374394 Mn
0.624301 0.748803 0.372454 Mn
0.376416 0.251197 0.374394 Mn
0.375698 0.748803 0.372454 Mn
0.874544 0.250830 0.376291 Mn
0.874729 0.749170 0.375415 Mn
0.124586 0.499941 0.877601 Mn
0.124823 1.000058 0.873765 Mn
0.626229 0.500244 0.876257 Mn
0.624745 0.999756 0.873263 Mn
0.373771 0.500244 0.876258 Mn
0.375255 0.999755 0.873263 Mn
0.875414 0.499941 0.877602 Mn
0.875178 1.000058 0.873764 Mn
0.500001 0.124429 0.124659 Mn
0.499999 0.626569 0.122111 Mn
-0.000000 0.124889 0.126169 Mn
0.000000 0.624891 0.127079 Mn
0.499999 0.372859 0.123018 Mn
0.500000 0.876144 0.123752 Mn
0.000000 0.375103 0.127650 Mn
1.000000 0.875117 0.125598 Mn
0.251006 0.375482 0.627618 Mn
0.250212 0.874467 0.622928 Mn
0.748994 0.375482 0.627617 Mn
0.749788 0.874467 0.622928 Mn
0.250094 0.124903 0.623706 Mn
0.251124 0.625148 0.626840 Mn
0.749906 0.124903 0.623706 Mn
0.748875 0.625148 0.626840 Mn
0.137204 0.250707 0.621458 O
0.136703 0.749293 0.620884 O
0.637424 0.250385 0.621767 O
0.638635 0.749616 0.616194 O
0.362577 0.250385 0.621767 O
0.361364 0.749615 0.616194 O
0.862796 0.250707 0.621458 O
0.863297 0.749293 0.620884 O
0.137729 0.499946 0.630959 O
0.136921 0.000055 0.627965 O
0.638432 0.500153 0.660512 O
0.636722 -0.000154 0.627773 O
0.361568 0.500154 0.660512 O
0.363278 -0.000154 0.627774 O
0.862271 0.499946 0.630960 O
0.863079 0.000054 0.627964 O
0.500000 0.113189 0.876295 O
0.500000 0.610217 0.888248 O
0.000000 0.113357 0.878630 O
1.000000 0.612979 0.879176 O
0.500000 0.389322 0.878540 O
0.500000 0.887271 0.886004 O
1.000000 0.386857 0.879366 O
0.000000 0.886805 0.878441 O
0.000000 0.363563 0.372458 O
1.000000 0.862512 0.370983 O
0.500000 0.359973 0.355986 O
0.500000 0.864226 0.363848 O
0.000000 0.137552 0.371560 O
0.000000 0.636374 0.371885 O
0.500001 0.136052 0.370372 O
0.500000 0.639749 0.349463 O
0.386859 -0.000205 0.121948 O
0.386000 0.500208 0.105568 O
0.886792 0.000123 0.121342 O
0.886634 0.499877 0.122829 O
0.113208 0.000123 0.121342 O
0.113366 0.499877 0.122829 O
0.613142 0.999792 0.121948 O
0.613998 0.500207 0.105569 O
0.386914 0.249021 0.124522 O
0.387651 0.750980 0.123908 O
0.887030 0.250079 0.129796 O
0.887000 0.749920 0.128714 O
0.112971 0.250079 0.129796 O
0.113000 0.749920 0.128714 O
0.613086 0.249020 0.124522 O
0.612348 0.750980 0.123908 O
0.250492 0.364496 0.380549 O
0.249514 0.862321 0.377402 O
0.749508 0.364496 0.380549 O
0.750486 0.862321 0.377402 O
0.249864 0.137739 0.379187 O
0.250141 0.635445 0.378763 O
0.750136 0.137739 0.379187 O
0.749858 0.635443 0.378764 O
0.249861 0.112889 0.869970 O
0.250701 0.612034 0.877104 O
0.750140 0.112889 0.869970 O
0.749298 0.612033 0.877104 O
0.250814 0.387767 0.877103 O
0.249748 0.887310 0.869971 O
0.749186 0.387767 0.877103 O
0.750253 0.887310 0.869970 O
