Li17 Co18 O36                           
   1.00000000000000     
     8.1837520000000001   -0.0000590000000000    2.4238569999999999
     3.7330000000000001    7.2827570000000001    2.4238499999999998
     0.0236130000000000    0.0144390000000000    9.9391800000000003
   Li   Co   O 
    17    18    36
Direct
  0.3135274074589140  0.5919564789609727  0.5076797720298628
  0.3330074077595274  0.3320723139414312  0.0013998446433229
  0.3328116655524808  0.6658907695045039  1.0003314488309871
  0.3320545452552464 -0.0006204978091451  1.0013553250807741
  0.3311433656246117  0.0028841441239502  0.5008987890817130
  0.6662828394191397  0.3325349292454094  1.0007290166033325
  0.6667322633891380  0.3289743325136183  0.5010579731448680
  0.6654475137499329  0.6661183500545915  0.0012998897961945
  0.6496237215387785  0.6654939714347183  0.5018438767584402
  0.6660950097037459  0.9987266925094906  0.0016074499826451
  0.6439879659430435  0.0203510544395983  0.5011235015250796
 -0.0004672726791451  0.3317726484861973  1.0012261920108574
  0.0147961610888672  0.3335333226555855  0.5005589029466078
 -0.0009347472576488  0.6661422862688824  0.0008166596924884
 -0.0203395150405488  0.6723399271312380  0.4999096175772689
 -0.0003397439364536 -0.0002435985730920  0.9998329348809359
  0.0081007918833369  0.9907235968293745  0.4995158272404279
  0.1639491709900589  0.1672198761975125  0.2476174863473146
  0.1680627394201579  0.1651265135252637  0.7505897443826856
  0.1635494875203696  0.4996341802220001  0.2483547015226201
  0.1671613248568570  0.4956750399141073  0.7542334671871035
  0.1635128635770036  0.8349098680355608  0.2472116465049150
  0.1684441746901176  0.8304295098707436  0.7504805897372443
  0.4963584480790642  0.1673847470221655  0.2511152189820419
  0.5009590464385384  0.1626458621234286  0.7534195191702102
  0.4967352245177946  0.4996404401502923  0.2492074069558963
  0.5009095065669781  0.4971832346640871  0.7545610603945169
  0.4959605500347469  0.8330744957946047  0.2513121802000991
  0.5003346733774255  0.8300924650089191  0.7544405376105721
  0.8309817356822908  0.1670931592863800  0.2488553150246954
  0.8347094566044254  0.1643771688264485  0.7506199429846168
  0.8299773965720383  0.4998110891611776  0.2503694921952308
  0.8334229691529870  0.4978994346537386  0.7529998264030496
  0.8296500895931599  0.8336729631811826  0.2506810744468886
  0.8342754283636397  0.8305963056554039  0.7514056331803139
  0.2494237654576466  0.2533438707785145  0.3533383417420475
  0.2539374477298175  0.2497692729394825  0.8622193151213415
  0.2473990059504404  0.5911655320210787  0.3494883167043112
  0.2535267913348357  0.5853199058759593  0.8620442367618310
  0.2492682138519374  0.9233577567181298  0.3549189016413067
  0.2527389954971371  0.9183959557316869  0.8604544126392647
  0.5880255572276532  0.2540874004712039  0.3548358875182003
  0.5897619837949736  0.2494740269822739  0.8619244118505366
  0.5831537078004762  0.5854377242855519  0.3586821629008791
  0.5873308154611900  0.5835405296727046  0.8641984653712212
  0.5828312760299759  0.9208055359851189  0.3602381047758453
  0.5892979045452655  0.9170336711121323  0.8623574127408211
  0.9185496880800396  0.2532823047430841  0.3571299156905144
  0.9213894587571123  0.2508415314179014  0.8596966727981387
  0.9176905803197158  0.5865288060884915  0.3585714762735390
  0.9199302985678091  0.5853977413256281  0.8614424980410681
  0.9182271946842913  0.9208391041845631  0.3576173551760374
  0.9219070072505882  0.9181512152253547  0.8586158800665742
  0.0771124810707797  0.0808749259379359  0.1377021830674923
  0.0815895617897607  0.0777193671865214  0.6413244193331590
  0.0756648678818415  0.4144941407041836  0.1393640360056912
  0.0764805623009179  0.4128977146876660  0.6471798317128676
  0.0747967955326505  0.7477439894566570  0.1396197185492705
  0.0816811990961919  0.7406397617802543  0.6426076778547838
  0.4116048395366245  0.0789423226570559  0.1411741320237903
  0.4148143690292486  0.0722645731188587  0.6485739182459926
  0.4108343410079999  0.4122437273315078  0.1402064426047535
  0.4165510251928202  0.4061728120166224  0.6517790165430568
  0.4109999578786507  0.7469428148714284  0.1402902296178999
  0.4149624576268938  0.7433749321238218  0.6471780217402300
  0.7432581439575037  0.0793503249942068  0.1416347372345578
  0.7464584453001201  0.0773553044827679  0.6428950841195902
  0.7441028305940461  0.4133817258678163  0.1410470923292806
  0.7460600123297857  0.4116579711670211  0.6440590097716551
  0.7426546590281199  0.7465411484125981  0.1427848455720071
  0.7451476469621193  0.7439789000565089  0.6449456973676381
 
             NaN             NaN             NaN
             NaN             NaN             NaN
             NaN             NaN             NaN
             NaN             NaN             NaN
             NaN             NaN             NaN
             NaN             NaN             NaN
             NaN             NaN             NaN
             NaN             NaN             NaN
             NaN             NaN             NaN
             NaN             NaN             NaN
             NaN             NaN             NaN
             NaN             NaN             NaN
             NaN             NaN             NaN
             NaN             NaN             NaN
             NaN             NaN             NaN
             NaN             NaN             NaN
             NaN             NaN             NaN
             NaN             NaN             NaN
             NaN             NaN             NaN
             NaN             NaN             NaN
             NaN             NaN             NaN
             NaN             NaN             NaN
             NaN             NaN             NaN
             NaN             NaN             NaN
             NaN             NaN             NaN
             NaN             NaN             NaN
             NaN             NaN             NaN
             NaN             NaN             NaN
             NaN             NaN             NaN
             NaN             NaN             NaN
             NaN             NaN             NaN
             NaN             NaN             NaN
             NaN             NaN             NaN
             NaN             NaN             NaN
             NaN             NaN             NaN
             NaN             NaN             NaN
             NaN             NaN             NaN
             NaN             NaN             NaN
             NaN             NaN             NaN
             NaN             NaN             NaN
             NaN             NaN             NaN
             NaN             NaN             NaN
             NaN             NaN             NaN
             NaN             NaN             NaN
             NaN             NaN             NaN
             NaN             NaN             NaN
             NaN             NaN             NaN
             NaN             NaN             NaN
             NaN             NaN             NaN
             NaN             NaN             NaN
             NaN             NaN             NaN
             NaN             NaN             NaN
             NaN             NaN             NaN
             NaN             NaN             NaN
             NaN             NaN             NaN
             NaN             NaN             NaN
             NaN             NaN             NaN
             NaN             NaN             NaN
             NaN             NaN             NaN
             NaN             NaN             NaN
             NaN             NaN             NaN
             NaN             NaN             NaN
             NaN             NaN             NaN
             NaN             NaN             NaN
             NaN             NaN             NaN
             NaN             NaN             NaN
             NaN             NaN             NaN
             NaN             NaN             NaN
             NaN             NaN             NaN
             NaN             NaN             NaN
             NaN             NaN             NaN
