Li17 Co18 O36
1.0
8.183752 -0.000059 2.423857
3.733000 7.282757 2.423850
0.023613 0.014439 9.939180
Li Co O
17 18 36
direct
0.269914 0.597121 0.535352 Li
0.332897 0.333505 0.000039 Li
0.333751 0.666493 -0.000031 Li
0.333331 1.000007 0.999996 Li
0.333343 1.000041 0.499997 Li
0.666355 0.333890 -0.000032 Li
0.654469 0.339392 0.500011 Li
0.666204 0.666811 1.000066 Li
0.660449 0.666534 0.500647 Li
0.666241 0.999860 0.000083 Li
0.660437 1.005985 0.500620 Li
0.000458 0.333186 0.999940 Li
0.006240 0.333474 0.499364 Li
0.000311 0.666094 0.000027 Li
0.012183 0.660569 0.499987 Li
0.000416 1.000153 -0.000106 Li
0.006181 0.994085 0.499366 Li
0.166933 0.167230 0.247905 Co
0.167027 0.166942 0.749487 Co
0.167101 0.499872 0.249287 Co
0.167213 0.499959 0.749329 Co
0.167093 0.833491 0.249291 Co
0.167027 0.833042 0.749486 Co
0.499646 0.166965 0.250496 Co
0.499577 0.166508 0.750712 Co
0.499468 0.500025 0.250669 Co
0.499568 0.500123 0.750703 Co
0.499636 0.833046 0.250524 Co
0.499736 0.832791 0.752080 Co
0.833745 0.166787 0.249108 Co
0.833348 0.166773 0.749670 Co
0.833750 0.500019 0.249143 Co
0.832927 0.499961 0.750872 Co
0.833319 0.833232 0.250352 Co
0.832921 0.833219 0.750870 Co
0.252963 0.253621 0.355101 O
0.253277 0.253684 0.858594 O
0.252648 0.589074 0.353724 O
0.253224 0.587310 0.858712 O
0.252903 0.923403 0.355094 O
0.252686 0.920650 0.859018 O
0.589397 0.253415 0.356272 O
0.587566 0.253185 0.859101 O
0.589398 0.586285 0.356276 O
0.586807 0.586041 0.860844 O
0.586627 0.920439 0.358817 O
0.586833 0.919927 0.860842 O
0.921246 0.253848 0.356473 O
0.920447 0.253280 0.858267 O
0.921072 0.586589 0.357645 O
0.920365 0.586830 0.859011 O
0.921054 0.920615 0.357629 O
0.920457 0.920750 0.858329 O
0.079819 0.080108 0.139153 O
0.080023 0.079588 0.641184 O
0.079846 0.413979 0.139153 O
0.077286 0.413685 0.643729 O
0.079051 0.746793 0.140908 O
0.077258 0.746567 0.643721 O
0.413982 0.079404 0.140983 O
0.413723 0.076656 0.644902 O
0.413420 0.412658 0.141310 O
0.414022 0.410909 0.646247 O
0.413414 0.746281 0.141404 O
0.413746 0.746382 0.644916 O
0.746203 0.079252 0.141656 O
0.745624 0.079415 0.642341 O
0.746319 0.413160 0.141014 O
0.745619 0.413423 0.642368 O
0.746282 0.746690 0.141746 O
0.745435 0.746088 0.643548 O
