Mg7 Sc16 Se32                           
   1.00000000000000     
    11.3332169999999994    0.0000000000000000    0.0000000000000000
     0.0000000000000000   11.3332099999999993    0.0000000000000000
     0.0000000000000000    0.0000000000000000   11.3331979999999994
   Mg   Sc   Se
     7    16    32
Direct
  0.4998994419241332  0.4998993229975496  0.4998994781957504
  0.6242446344291234  0.1275789434415686  0.1275788927184392
  0.1275788449524156  0.6242445053443553  0.1275789568985625
  0.1275788180003767  0.1275788684595481  0.6242443205600868
  0.3757573994881250  0.8724213607686494  0.8724213947949021
  0.8724213161727146  0.3757574938361332  0.8724213344329009
  0.8724214908607304  0.8724214507653374  0.3757575281157887
  0.9942723551711589  0.7514213253302998  0.7514207469890350
  0.7514214609559473  0.9942722735988203  0.7514208473431566
  0.7514212318478971  0.7514212275250843  0.9942722852837674
  0.9999951902937851  0.9999951632419553  0.9999950433239128
  0.0057206027577940  0.2485764969149503  0.2485768158500642
  0.2485764179265024  0.0057207900479728  0.2485766504149434
  0.2485763883074115  0.2485765103807148  0.0057206929323477
  0.7477911717905773  0.5000026306860038  0.2522212771832510
  0.7477912471608266  0.2522212097871178  0.5000027794549691
  0.9999696624160551  0.5000020629973091  0.5000020049457264
  0.2522216255305691  0.5000027656401926  0.7477909806840861
  0.2522210767639452  0.7477911011952380  0.5000026722190469
  0.5000026952548440  0.7477909385324207  0.2522211955953348
  0.5000021897539518  0.9999697500309669  0.5000022219804303
  0.5000028432979050  0.2522217180499012  0.7477910387975373
  0.5000023839710963  0.5000023589393564  0.9999696890975207
  0.7579389274316014  0.9937395876851359  0.9937398236549125
  0.9937394827453049  0.7579388553583688  0.9937398350746226
  0.9937393684545640  0.9937394325211978  0.7579387829259387
  0.7602091626603807  0.7602089342544958  0.7602090356531068
  0.2420569711150965  0.0062562377226979  0.0062557944073825
  0.0062562497596387  0.2420570373619602  0.0062556834251368
  0.0062564150708913  0.0062561389070565  0.2420570374072132
  0.2397825533320455  0.2397826266201990  0.2397825085084015
  0.7514452676839366  0.4913992329333439  0.4913990110860219
  0.9920888945895395  0.2590121680446639  0.4921129561796870
  0.9920891918819473  0.4921130101093302  0.2590116925215404
  0.7607762031836190  0.2571757395777055  0.2571754707405052
  0.2485467206453534  0.5086040732524342  0.5086043786745018
  0.0079159409525715  0.7409892442816691  0.5078858643005632
  0.0079153926449736  0.5078858412925752  0.7409897142269533
  0.2392188130021392  0.7428285642727689  0.7428287838163998
  0.2590123588732381  0.9920889400939088  0.4921130201911189
  0.4913992819155073  0.7514452939170411  0.4913988444122888
  0.4921130088544270  0.9920894620768633  0.2590117133341800
  0.2571759627655924  0.7607762238675854  0.2571754315349904
  0.7409890604549282  0.0079156301177897  0.5078858207380007
  0.5086041801521898  0.2485466038535678  0.5086046593649576
  0.5078859137723356  0.0079151375298151  0.7409897264472926
  0.7428284430926838  0.2392187301261963  0.7428288998858980
  0.2590120348437265  0.4921130816062059  0.9920895392839801
  0.4921129041893107  0.2590118746036513  0.9920897243639153
  0.4913985266554598  0.4913984424533571  0.7514453214426844
  0.2571759724648929  0.2571757904276462  0.7607760318541641
  0.7409892417207434  0.5078859120982151  0.0079151898998334
  0.5078859929642541  0.7409894494517487  0.0079150771448136
  0.5086045759718734  0.5086047507108687  0.2485467069545065
  0.7428283779550213  0.7428285641847963  0.2392189491961001
 
             NaN             NaN             NaN
             NaN             NaN             NaN
             NaN             NaN             NaN
             NaN             NaN             NaN
             NaN             NaN             NaN
             NaN             NaN             NaN
             NaN             NaN             NaN
             NaN             NaN             NaN
             NaN             NaN             NaN
             NaN             NaN             NaN
             NaN             NaN             NaN
             NaN             NaN             NaN
             NaN             NaN             NaN
             NaN             NaN             NaN
             NaN             NaN             NaN
             NaN             NaN             NaN
             NaN             NaN             NaN
             NaN             NaN             NaN
             NaN             NaN             NaN
             NaN             NaN             NaN
             NaN             NaN             NaN
             NaN             NaN             NaN
             NaN             NaN             NaN
             NaN             NaN             NaN
             NaN             NaN             NaN
             NaN             NaN             NaN
             NaN             NaN             NaN
             NaN             NaN             NaN
             NaN             NaN             NaN
             NaN             NaN             NaN
             NaN             NaN             NaN
             NaN             NaN             NaN
             NaN             NaN             NaN
             NaN             NaN             NaN
             NaN             NaN             NaN
             NaN             NaN             NaN
             NaN             NaN             NaN
             NaN             NaN             NaN
             NaN             NaN             NaN
             NaN             NaN             NaN
             NaN             NaN             NaN
             NaN             NaN             NaN
             NaN             NaN             NaN
             NaN             NaN             NaN
             NaN             NaN             NaN
             NaN             NaN             NaN
             NaN             NaN             NaN
             NaN             NaN             NaN
             NaN             NaN             NaN
             NaN             NaN             NaN
             NaN             NaN             NaN
             NaN             NaN             NaN
             NaN             NaN             NaN
             NaN             NaN             NaN
             NaN             NaN             NaN
