Mg7 Sc16 Se32
1.0
11.333217 -0.000000 0.000000
-0.000000 11.333210 -0.000000
-0.000000 -0.000000 11.333198
Mg Sc Se
7 16 32
direct
0.500004 0.500004 0.500004 Mg
0.623713 0.126287 0.126287 Mg
0.126287 0.623713 0.126287 Mg
0.126287 0.126287 0.623713 Mg
0.376291 0.873709 0.873709 Mg
0.873709 0.376291 0.873709 Mg
0.873709 0.873709 0.376291 Mg
0.996841 0.750063 0.750063 Sc
0.750063 0.996840 0.750063 Sc
0.750063 0.750063 0.996841 Sc
0.999993 0.999993 0.999993 Sc
0.003119 0.249925 0.249925 Sc
0.249925 0.003119 0.249925 Sc
0.249924 0.249925 0.003119 Sc
0.746937 0.500019 0.253077 Sc
0.746938 0.253077 0.500019 Sc
-0.000034 0.500019 0.500019 Sc
0.253077 0.500019 0.746937 Sc
0.253077 0.746937 0.500019 Sc
0.500019 0.746937 0.253077 Sc
0.500019 -0.000034 0.500019 Sc
0.500019 0.253077 0.746937 Sc
0.500019 0.500019 -0.000034 Sc
0.758196 0.992754 0.992754 Se
0.992754 0.758196 0.992754 Se
0.992754 0.992754 0.758196 Se
0.758648 0.758648 0.758648 Se
0.241795 0.007235 0.007235 Se
0.007235 0.241795 0.007235 Se
0.007235 0.007235 0.241794 Se
0.241314 0.241314 0.241313 Se
0.759667 0.491257 0.491257 Se
0.991735 0.257341 0.491709 Se
0.991735 0.491709 0.257341 Se
0.759215 0.257341 0.257341 Se
0.240279 0.508769 0.508769 Se
0.008269 0.742683 0.508288 Se
0.008269 0.508288 0.742683 Se
0.240760 0.742683 0.742683 Se
0.257341 0.991735 0.491709 Se
0.491257 0.759667 0.491257 Se
0.491709 0.991735 0.257341 Se
0.257341 0.759215 0.257341 Se
0.742683 0.008269 0.508288 Se
0.508769 0.240279 0.508769 Se
0.508288 0.008269 0.742683 Se
0.742683 0.240760 0.742683 Se
0.257341 0.491709 0.991735 Se
0.491709 0.257341 0.991735 Se
0.491257 0.491257 0.759667 Se
0.257341 0.257341 0.759215 Se
0.742683 0.508288 0.008269 Se
0.508288 0.742683 0.008269 Se
0.508769 0.508769 0.240279 Se
0.742683 0.742683 0.240760 Se
