Li7 Mn16 O32                            
   1.00000000000000     
     8.3789029999999993    0.0667410000000000    0.0097110000000000
     0.0234930000000000    8.1921079999999993    0.0250170000000000
    -0.0172140000000000    0.0004530000000000    8.2521979999999999
   Li   Mn   O 
     7    16    32
Direct
  0.3145953998933368  0.4396717299169832  0.8077259528481301
  0.8806414678562291  0.8733191005938953  0.8793211159575466
  0.1170006359414934  0.1296620608488866  0.1228760866481351
  0.8840948051301639  0.3726802145144338  0.3794890123088461
  0.3765889095060136  0.8737986665385129  0.3805792415401273
  0.6156513163726568  0.1284071894733209  0.6259852671243966
  0.6192750159167918  0.6256080770473499  0.1161976270355563
  0.5044411076829722  0.2502780562511710  0.2477969552684893
  0.2595695365586384  0.4967270089939008  0.2426112150877958
  0.2558269004238099  0.2464096884594189  0.4996257246336888
  0.5043361696426910  0.4960442666709120  0.4955404616450554
  0.4972888130176298  0.7525702626760397  0.7506474561297291
  0.7501594464730696  0.4959116646175947  0.7423562489927704
  0.7433050614111394  0.7526208749532659  0.4954753256770856
  0.2458896051529786  0.0047424398265457  0.7599975052648005
  0.2522467816283033  0.7532767446423314  0.0042683683400547
  0.4960928909024657  0.0079100096968223  0.0029842301361728
  0.7466653143670227  0.0033044704284839  0.2545355912212381
  0.7496060878098926  0.2503146395281913  0.9987886809040856
  0.9972598395025069  0.2506011563502838  0.7463060671958341
  0.0019820418532598  0.4969795022360582  0.9989495282621244
  0.9980836128428282  0.7465178518407014  0.2531803984435520
  0.9971216467650069  0.0002844702657627  0.5028255352068529
  0.7535818903120962  0.0140103227682326  0.0262850614199084
  0.0201484004361827  0.7333278814477571  0.0186170156186559
  0.0135661394222259  0.0134292556886234  0.7385445883090893
  0.7331713532666898  0.7332277824771819  0.7323494675686019
  0.2390522589137773  0.9824778566449904  0.9901680434237282
  0.9813204951057100  0.2630742135461540  0.9795148482409186
  0.9738464277431170  0.9991171770264338  0.2701523929941420
  0.2769379834923947  0.2656008251875276  0.2407701756213655
  0.7356096606919056  0.5151082142583531  0.5058260935843713
  0.0187442188200597  0.2384467687610140  0.5168802885238769
  0.0329591026294892  0.4965739814074873  0.2367795356924267
  0.7307324635603546  0.2343132239364171  0.2604971613601943
  0.2779643542449602  0.4830345843485808  0.4781601973344891
  0.9689893520309153  0.7619163612331020  0.4818943506141262
  0.9793089314347726  0.4826859396567466  0.7580995393326732
  0.2660290064015370  0.7685307588163519  0.7712870373106384
  0.2540925271876961  0.0152255686098993  0.5285341461730594
  0.5133123914530187  0.7302415442504995  0.5105975328422119
  0.5149554889844213  0.0170721273915757  0.2398459810326865
  0.2497079152709498  0.7318457997659636  0.2357943621777586
  0.7375795815812227  0.9800606179053579  0.4867129805343582
  0.4921629092258372  0.2637006052030966  0.4795879461580969
  0.4711940641885984  0.0123903857727515  0.7728645243249793
  0.7705137807168342  0.2653475999462046  0.7369660921606644
  0.2585637136862228  0.5224276040514946  0.0135972119953440
  0.5212736826401378  0.2414278230400121  0.0215341209528095
  0.5202230642485116  0.4914049654662845  0.7208387937637475
  0.2216489370816778  0.2365280761851202  0.7578531376284028
  0.7460861521596427  0.4880166234376708  0.9698212436717674
  0.4803001587837749  0.7685463286878229  0.9882527248883467
  0.4922452268833898  0.4859409725695634  0.2606078144697962
  0.7479634211792719  0.7677153964658683  0.2644740974767418
 
             NaN             NaN             NaN
             NaN             NaN             NaN
             NaN             NaN             NaN
             NaN             NaN             NaN
             NaN             NaN             NaN
             NaN             NaN             NaN
             NaN             NaN             NaN
             NaN             NaN             NaN
             NaN             NaN             NaN
             NaN             NaN             NaN
             NaN             NaN             NaN
             NaN             NaN             NaN
             NaN             NaN             NaN
             NaN             NaN             NaN
             NaN             NaN             NaN
             NaN             NaN             NaN
             NaN             NaN             NaN
             NaN             NaN             NaN
             NaN             NaN             NaN
             NaN             NaN             NaN
             NaN             NaN             NaN
             NaN             NaN             NaN
             NaN             NaN             NaN
             NaN             NaN             NaN
             NaN             NaN             NaN
             NaN             NaN             NaN
             NaN             NaN             NaN
             NaN             NaN             NaN
             NaN             NaN             NaN
             NaN             NaN             NaN
             NaN             NaN             NaN
             NaN             NaN             NaN
             NaN             NaN             NaN
             NaN             NaN             NaN
             NaN             NaN             NaN
             NaN             NaN             NaN
             NaN             NaN             NaN
             NaN             NaN             NaN
             NaN             NaN             NaN
             NaN             NaN             NaN
             NaN             NaN             NaN
             NaN             NaN             NaN
             NaN             NaN             NaN
             NaN             NaN             NaN
             NaN             NaN             NaN
             NaN             NaN             NaN
             NaN             NaN             NaN
             NaN             NaN             NaN
             NaN             NaN             NaN
             NaN             NaN             NaN
             NaN             NaN             NaN
             NaN             NaN             NaN
             NaN             NaN             NaN
             NaN             NaN             NaN
             NaN             NaN             NaN
