Li7 Mn16 O32
1.0
8.378903 0.066741 0.009711
0.023493 8.192108 0.025017
-0.017214 0.000453 8.252198
Li Mn O
7 16 32
direct
0.314911 0.434277 0.811660 Li
0.880929 0.873526 0.879361 Li
0.117539 0.128836 0.123783 Li
0.884133 0.372715 0.379526 Li
0.377120 0.874330 0.380764 Li
0.617053 0.127468 0.625329 Li
0.620206 0.625864 0.117543 Li
0.503923 0.251407 0.249127 Mn
0.257900 0.496300 0.243469 Mn
0.255221 0.248817 0.503943 Mn
0.503163 0.496957 0.496970 Mn
0.497037 0.749958 0.750996 Mn
0.751814 0.497103 0.742249 Mn
0.743915 0.751380 0.495771 Mn
0.244798 1.002635 0.759283 Mn
0.251292 0.750532 1.002216 Mn
0.495796 0.005284 0.003704 Mn
0.746466 0.003535 0.254688 Mn
0.751635 0.250621 -0.001030 Mn
-0.000782 0.251737 0.747471 Mn
0.005290 0.497537 0.995191 Mn
0.999162 0.747307 0.252061 Mn
0.996338 0.001266 0.502659 Mn
0.753708 0.014696 0.026084 O
0.020253 0.732838 0.016574 O
0.012988 0.014612 0.738632 O
0.737448 0.733758 0.731152 O
0.239342 0.980261 0.990217 O
0.983923 0.264187 0.979901 O
0.973672 -0.000308 0.270251 O
0.277151 0.264930 0.241458 O
0.741531 0.515984 0.507739 O
0.018928 0.239668 0.518601 O
0.030236 0.496359 0.232208 O
0.730544 0.234681 0.260029 O
0.269521 0.483918 0.475132 O
0.970512 0.762227 0.482157 O
0.980519 0.484215 0.758689 O
0.260605 0.768640 0.770423 O
0.253620 0.015658 0.528556 O
0.514368 0.730041 0.509871 O
0.515075 0.017345 0.239718 O
0.248595 0.731348 0.234946 O
0.737639 0.979811 0.486258 O
0.490766 0.264385 0.480765 O
0.472297 1.006079 0.772980 O
0.771926 0.266283 0.738377 O
0.254561 0.518184 0.013770 O
0.520666 0.241528 0.020579 O
0.524483 0.495457 0.726240 O
0.224177 0.233558 0.761084 O
0.752365 0.488403 0.972119 O
0.478964 0.765910 0.989700 O
0.490412 0.485717 0.260288 O
0.749361 0.767673 0.264025 O
