Li17 Co18 O36                           
   1.00000000000000     
     8.0544659999999997   -0.0037840000000000    2.3755920000000001
     3.6784240000000001    7.1660839999999997    2.3744260000000001
    -0.0116200000000000   -0.0056770000000000    9.8909939999999992
   Li   Co   O 
    17    18    36
Direct
  0.3199670393865715  0.3877681341746549  0.5063325216111741
  0.3339709236630398  0.3342450537655906  0.9989033858704806
  0.3348236063768588  0.6679601070249152  0.9959533352920638
  0.3334776542604794  0.9959842626490696  0.5056709258020214
  0.3359178500225550  0.0021224213140639  0.9968016159619817
  0.6598248393748624  0.3415155789761281  0.5033137375540803
  0.6663998241062452  0.3346073723406791  0.9981011279803593
  0.6498108205169387  0.6670504237433239  0.5035206684569078
  0.6679443582466444  0.6688350819408202  0.9977157061260862
  0.6532776524869902  0.0103626252954911  0.5061139090754722
  0.6656329437197327  0.0017254308244281  0.9997022251779294
  0.0022854152107657  0.3342308320442037  0.5017951741897627
  0.9991448054932331  0.3379905856716672  0.9970752184466873
  0.9872465787635855  0.6765198117125668  0.5054201794861533
  0.9979380676087083  0.6681535261708115  0.9972847561401155
  0.0083658021607626  0.9900195692549515  0.5049298436255504
  0.9981719570900904  0.0031397601773346  0.9955635080418985
  0.1647331229825610  0.1716287087149587  0.2490418670403494
  0.1660868287518169  0.1683108701753034  0.7510565222778633
  0.1643051017027376  0.5033056329976345  0.2478602842495182
  0.1660270153253911  0.5020338310570680  0.7526751322839708
  0.1653390780336630  0.8370070175086937  0.2508671943969262
  0.1666930503159849  0.8339881270045703  0.7494786081143042
  0.4970731496257322  0.1712441803117768  0.2517935714595328
  0.4990255178603246  0.1667348573405510  0.7542801793364491
  0.4990269382268464  0.5035519132092787  0.2490011546481755
  0.4988685629497195  0.5011686400117729  0.7509609448564560
  0.4985060424353063  0.8356280003255303  0.2511930924160995
  0.4984985156249739  0.8338198256613967  0.7532036753627249
  0.8297344079320753  0.1703105382315407  0.2508357833801003
  0.8327132158961817  0.1675807611114682  0.7503207770431162
  0.8319257481248953  0.5033467576883177  0.2496916104643879
  0.8326954550913904  0.5012304385793908  0.7513539599786003
  0.8299721618462469  0.8373242258028981  0.2520652768817734
  0.8317745640223433  0.8343801104695493  0.7537258209687303
  0.2496328324356592  0.2586616548377023  0.3582203210670890
  0.2514103366446843  0.2539333234109395  0.8635402531240700
  0.2488390719572040  0.5969567602954453  0.3524909087175304
  0.2524061663387574  0.5885722000630278  0.8626182178469695
  0.2487799907777883  0.9245872520062217  0.3546836097207588
  0.2511167072258175  0.9217863384794421  0.8620191862777007
  0.5838771084737965  0.2591901663270896  0.3603954030980727
  0.5875800342922360  0.2536654061932258  0.8626179772003648
  0.5892219063588093  0.5880963662213282  0.3560604568885156
  0.5870371606701471  0.5862032196324485  0.8625028879564144
  0.5839315902869237  0.9233213086255612  0.3614140861086955
  0.5853079025458341  0.9198953204390746  0.8653423552824159
  0.9187034585427042  0.2564207805765979  0.3587875617390345
  0.9196197091943250  0.2542900852672962  0.8609664426803645
  0.9190192269498269  0.5902038262820321  0.3593007582032124
  0.9188026592530258  0.5870297684537613  0.8630414757773287
  0.9205882003836430  0.9225257898711645  0.3601324771523530
  0.9199129158903504  0.9214825091891126  0.8620600588883800
  0.0784196228964497  0.0773576368322944  0.1414556436073885
  0.0799588411993540  0.0811469759746937  0.6398024658334686
  0.0790968392860509  0.4164844451809497  0.1380398357160584
  0.0798215809439716  0.4159828205697976  0.6411971106267753
  0.0777541644961122  0.7548257081088839  0.1414047792020729
  0.0741306604374140  0.7478199892396693  0.6447503780831452
  0.4120240819659069  0.0831457159187821  0.1411123616267758
  0.4125780339293703  0.0798059078191865  0.6440131096886601
  0.4118576112578504  0.4165456548464083  0.1395374513049812
  0.4141589225487586  0.4096134409923536  0.6471635472263485
  0.4092241011554957  0.7513176960556018  0.1405388275579553
  0.4138426872142588  0.7485621222690941  0.6445760122566366
  0.7435880009591953  0.0828727227917833  0.1419782969330547
  0.7451203184654401  0.0801934693063237  0.6423625283845177
  0.7450200091086217  0.4152736587228656  0.1398996237327452
  0.7462067830672098  0.4143084513168679  0.6408929600386742
  0.7449017066055730  0.7507901194131885  0.1410114547590017
  0.7447988824144472  0.7481187079650791  0.6428597837978797
 
             NaN             NaN             NaN
             NaN             NaN             NaN
             NaN             NaN             NaN
             NaN             NaN             NaN
             NaN             NaN             NaN
             NaN             NaN             NaN
             NaN             NaN             NaN
             NaN             NaN             NaN
             NaN             NaN             NaN
             NaN             NaN             NaN
             NaN             NaN             NaN
             NaN             NaN             NaN
             NaN             NaN             NaN
             NaN             NaN             NaN
             NaN             NaN             NaN
             NaN             NaN             NaN
             NaN             NaN             NaN
             NaN             NaN             NaN
             NaN             NaN             NaN
             NaN             NaN             NaN
             NaN             NaN             NaN
             NaN             NaN             NaN
             NaN             NaN             NaN
             NaN             NaN             NaN
             NaN             NaN             NaN
             NaN             NaN             NaN
             NaN             NaN             NaN
             NaN             NaN             NaN
             NaN             NaN             NaN
             NaN             NaN             NaN
             NaN             NaN             NaN
             NaN             NaN             NaN
             NaN             NaN             NaN
             NaN             NaN             NaN
             NaN             NaN             NaN
             NaN             NaN             NaN
             NaN             NaN             NaN
             NaN             NaN             NaN
             NaN             NaN             NaN
             NaN             NaN             NaN
             NaN             NaN             NaN
             NaN             NaN             NaN
             NaN             NaN             NaN
             NaN             NaN             NaN
             NaN             NaN             NaN
             NaN             NaN             NaN
             NaN             NaN             NaN
             NaN             NaN             NaN
             NaN             NaN             NaN
             NaN             NaN             NaN
             NaN             NaN             NaN
             NaN             NaN             NaN
             NaN             NaN             NaN
             NaN             NaN             NaN
             NaN             NaN             NaN
             NaN             NaN             NaN
             NaN             NaN             NaN
             NaN             NaN             NaN
             NaN             NaN             NaN
             NaN             NaN             NaN
             NaN             NaN             NaN
             NaN             NaN             NaN
             NaN             NaN             NaN
             NaN             NaN             NaN
             NaN             NaN             NaN
             NaN             NaN             NaN
             NaN             NaN             NaN
             NaN             NaN             NaN
             NaN             NaN             NaN
             NaN             NaN             NaN
             NaN             NaN             NaN
