Li17 Co18 O36                           
   1.00000000000000     
     8.0544659999999997   -0.0037840000000000    2.3755920000000001
     3.6784240000000001    7.1660839999999997    2.3744260000000001
    -0.0116200000000000   -0.0056770000000000    9.8909939999999992
   Li   Co   O 
    17    18    36
Direct
  0.3223222873121691  0.3785365667441801  0.5060412308044930
  0.3339514517512159  0.3346334569928090  0.9989854487663067
  0.3349419110630422  0.6680281522102074  0.9959586324215167
  0.3334373951933968  0.9961440835249150  0.5056921682147730
  0.3358016235170046  0.0025975907052697  0.9968512929508985
  0.6594084762087524  0.3425105911462800  0.5032490782851783
  0.6662880121555600  0.3348924843359302  0.9982531131106857
  0.6499705263257487  0.6677868115080684  0.5034339326747168
  0.6680507911834125  0.6692292076064568  0.9975860500054220
  0.6545673962788994  0.0092600926771641  0.5061707431630876
  0.6654450521651758  0.0022241112951096  0.9997008949415644
  0.0018414241860354  0.3347634537100467  0.5017284371122834
  0.9991805665467992  0.3386345981815262  0.9969935902900812
  0.9892668294964735  0.6760918152755789  0.5055167283925552
  0.9982185928512671  0.6682768825926255  0.9971108368076917
  0.0081236426316259  0.9905262375162541  0.5050742524564287
  0.9979466943202510  0.0036281523134720  0.9957283888452448
  0.1648068758710079  0.1716366103101531  0.2491079493468771
  0.1658078496673664  0.1685772714091575  0.7511576869434112
  0.1643812510023164  0.5032888838450366  0.2479343806277801
  0.1660463548482493  0.5023465786051554  0.7524230679044980
  0.1653678806667173  0.8366622674933465  0.2512051985898422
  0.1664125864493786  0.8344146163860806  0.7494765701212263
  0.4972987200715718  0.1711003939518274  0.2518210800185721
  0.4989336605967182  0.1670269121593827  0.7542120222296195
  0.4990438936110257  0.5035028891962626  0.2491963818697873
  0.4987197867278587  0.5014341437659831  0.7507784421486740
  0.4984941074799424  0.8355625159777899  0.2512241845786832
  0.4983842158475286  0.8340666959527804  0.7531911087659708
  0.8298878794552444  0.1700986037669261  0.2508197279309820
  0.8325062988407320  0.1679010324846031  0.7503679083997770
  0.8320936258355935  0.5032922346726439  0.2495641030400772
  0.8326070565168374  0.5013835834985335  0.7514078995742735
  0.8297879051886412  0.8368888894565418  0.2509556694553833
  0.8315705309775933  0.8346149922665081  0.7538509776942556
  0.2498189296997071  0.2586590571131981  0.3586049025960424
  0.2513246414405645  0.2542937506341503  0.8634652867801264
  0.2490834297659780  0.5962738802116646  0.3531205057001688
  0.2523180759612546  0.5889958217314527  0.8623956010438294
  0.2488177668016192  0.9246544135302465  0.3548843417941213
  0.2510245650581649  0.9221346161140715  0.8620011984988692
  0.5841384997362351  0.2589332000082719  0.3604922947156608
  0.5873095831801126  0.2541111275042766  0.8625143087612478
  0.5895491948596852  0.5880778191870311  0.3560430503222891
  0.5868130123196208  0.5865707255490450  0.8624224925899535
  0.5842581402550220  0.9230796480771245  0.3612250698213471
  0.5850053991869109  0.9202250599886599  0.8653798167989759
  0.9188165497432260  0.2564605703436554  0.3588183104738792
  0.9194799727192270  0.2545608086641247  0.8610503491398896
  0.9190527875641675  0.5903016446712368  0.3590082550696432
  0.9187724133528481  0.5872947058852928  0.8630253292881664
  0.9203550931245804  0.9222035876888288  0.3599135643191010
  0.9196628090330023  0.9218919197188297  0.8621597481567361
  0.0786686527565801  0.0772700749866617  0.1416516311549226
  0.0797090250939603  0.0815994051454992  0.6398396697329232
  0.0793655540513209  0.4164493563627820  0.1380175585010808
  0.0796038790631978  0.4161063583396070  0.6412380747054404
  0.0782064190368317  0.7546163170138777  0.1412743905548556
  0.0737200134340517  0.7484609627572451  0.6448395690406522
  0.4120419730634231  0.0831793921660413  0.1412490015861452
  0.4123248590809673  0.0804300424233708  0.6437249912580338
  0.4119109414221300  0.4164944392965400  0.1396929653982905
  0.4138607414674137  0.4097987848280480  0.6466549224483380
  0.4091765614702255  0.7512453829695293  0.1408177114938609
  0.4136437465223753  0.7490408375547561  0.6444716510034902
  0.7436102082402560  0.0829976524550464  0.1417368035857163
  0.7450219010904290  0.0804709579212482  0.6423756115974452
  0.7451299910992479  0.4152465629161600  0.1399117650344658
  0.7461027291005939  0.4146620357009120  0.6408569061457526
  0.7446941041647482  0.7505835601203683  0.1404251341323840
  0.7447890555868335  0.7483278373096368  0.6428836828080883
 
             NaN             NaN             NaN
             NaN             NaN             NaN
             NaN             NaN             NaN
             NaN             NaN             NaN
             NaN             NaN             NaN
             NaN             NaN             NaN
             NaN             NaN             NaN
             NaN             NaN             NaN
             NaN             NaN             NaN
             NaN             NaN             NaN
             NaN             NaN             NaN
             NaN             NaN             NaN
             NaN             NaN             NaN
             NaN             NaN             NaN
             NaN             NaN             NaN
             NaN             NaN             NaN
             NaN             NaN             NaN
             NaN             NaN             NaN
             NaN             NaN             NaN
             NaN             NaN             NaN
             NaN             NaN             NaN
             NaN             NaN             NaN
             NaN             NaN             NaN
             NaN             NaN             NaN
             NaN             NaN             NaN
             NaN             NaN             NaN
             NaN             NaN             NaN
             NaN             NaN             NaN
             NaN             NaN             NaN
             NaN             NaN             NaN
             NaN             NaN             NaN
             NaN             NaN             NaN
             NaN             NaN             NaN
             NaN             NaN             NaN
             NaN             NaN             NaN
             NaN             NaN             NaN
             NaN             NaN             NaN
             NaN             NaN             NaN
             NaN             NaN             NaN
             NaN             NaN             NaN
             NaN             NaN             NaN
             NaN             NaN             NaN
             NaN             NaN             NaN
             NaN             NaN             NaN
             NaN             NaN             NaN
             NaN             NaN             NaN
             NaN             NaN             NaN
             NaN             NaN             NaN
             NaN             NaN             NaN
             NaN             NaN             NaN
             NaN             NaN             NaN
             NaN             NaN             NaN
             NaN             NaN             NaN
             NaN             NaN             NaN
             NaN             NaN             NaN
             NaN             NaN             NaN
             NaN             NaN             NaN
             NaN             NaN             NaN
             NaN             NaN             NaN
             NaN             NaN             NaN
             NaN             NaN             NaN
             NaN             NaN             NaN
             NaN             NaN             NaN
             NaN             NaN             NaN
             NaN             NaN             NaN
             NaN             NaN             NaN
             NaN             NaN             NaN
             NaN             NaN             NaN
             NaN             NaN             NaN
             NaN             NaN             NaN
             NaN             NaN             NaN
