Li17 Co18 O36                           
   1.00000000000000     
     8.0544659999999997   -0.0037840000000000    2.3755920000000001
     3.6784240000000001    7.1660839999999997    2.3744260000000001
    -0.0116200000000000   -0.0056770000000000    9.8909939999999992
   Li   Co   O 
    17    18    36
Direct
  0.3221338503383591  0.3781092945223484  0.5060774661235972
  0.3335520512394178  0.3346684527730288  0.9992049890083534
  0.3345347862750742  0.6677101107586678  0.9959570929964935
  0.3327945754619338  0.9959935497371849  0.5054859213770148
  0.3352990154138854  0.0035617551967983  0.9967539823346601
  0.6588712616873728  0.3427317241854226  0.5033107912688386
  0.6662472996527983  0.3347375362290281  0.9983148704588009
  0.6496762853317021  0.6676729659730026  0.5035317231027631
  0.6688535100842147  0.6689554389183380  0.9972429447910623
  0.6538922705190424  0.0090971706576696  0.5066089462352935
  0.6653951164735685  0.0023322114222341  0.9997247596167769
  0.0016223524821124  0.3347769298840300  0.5016285532535961
 -0.0002750627485311  0.3380695470458676  0.9972522710766120
  0.9902119474305365  0.6747402216994990  0.5055471323926479
  0.9984969482979497  0.6682200235742782  0.9974563493660097
  0.0081902699195601  0.9911867754845600  0.5050604329976049
  0.9980825801777459  0.0035044489049560  0.9961030364570244
  0.1650132149364388  0.1716364392368467  0.2491119051747486
  0.1656889063046320  0.1686708923800106  0.7511808027132696
  0.1646497754709152  0.5030705763162201  0.2478783142914592
  0.1659233605422990  0.5024094577410191  0.7524201557885869
  0.1652737199259236  0.8369843364991579  0.2510381027271561
  0.1661486432669258  0.8344823378112884  0.7496175415255848
  0.4974946160389596  0.1708805666354866  0.2519658833612672
  0.4988470489597807  0.1670811752975948  0.7542138348588510
  0.4989235995824948  0.5033026720968036  0.2498019861457600
  0.4984898038567327  0.5015154656486878  0.7509230547840383
  0.4982367142826488  0.8355825462291471  0.2516516383878238
  0.4982922497454933  0.8341528294102425  0.7531859722525754
  0.8304990692358093  0.1707532668155279  0.2500281437196899
  0.8323650337911114  0.1679867392248392  0.7504182822622217
  0.8326287568615373  0.5030863053448391  0.2493212392902053
  0.8325693442967058  0.5014351680943638  0.7514660442630168
  0.8300901835522604  0.8367102051360557  0.2504212903416400
  0.8314522079608947  0.8346228045167832  0.7538781152575282
  0.2500786229758452  0.2584291867047782  0.3588437586998203
  0.2512920644947903  0.2543758454183415  0.8633852655435029
  0.2486622160653472  0.5955255569508634  0.3530204800608706
  0.2521540720458025  0.5890379710600947  0.8624485491094909
  0.2483789310507167  0.9259139974558259  0.3548468373872903
  0.2509422111589268  0.9221748225247696  0.8620932382589671
  0.5849291754254171  0.2585962065785395  0.3605013791233956
  0.5871194552641532  0.2541806119506754  0.8625719543555304
  0.5898379815147213  0.5879609570631292  0.3562065919160253
  0.5865958250291882  0.5867506141076981  0.8625806920317289
  0.5845599715690265  0.9227823714702190  0.3612738769959297
  0.5848098674430359  0.9202559091502110  0.8654651075104159
  0.9190261516692723  0.2566170441526997  0.3586135017948663
  0.9193350594789399  0.2546423219731861  0.8610536273502979
  0.9192046498921457  0.5902694925558343  0.3588113296852048
  0.9186893050086223  0.5873485522380847  0.8629967776855079
  0.9224249447944561  0.9219539047718154  0.3586062437845486
  0.9193906266869007  0.9220031800638242  0.8622396808314039
  0.0793160745379735  0.0784474152790934  0.1412977332260553
  0.0794812443394691  0.0816634256753914  0.6399779962533395
  0.0795748376467148  0.4164323742773129  0.1376868424685724
  0.0794507827893496  0.4161439756416201  0.6412750588932020
  0.0788488747758731  0.7532863417692167  0.1411150369209551
  0.0735261616569410  0.7486236561060214  0.6448251696027385
  0.4123302637227541  0.0831206845873403  0.1413228954958778
  0.4121824390474289  0.0805245014478777  0.6437212257676392
  0.4122674957773226  0.4160559878419143  0.1399079447928792
  0.4137719278672402  0.4098551450821676  0.6466864904725439
  0.4075032456613599  0.7517813949696922  0.1414569996840242
  0.4134211665793990  0.7491216894617106  0.6446021773978426
  0.7438341720190099  0.0831187413353414  0.1415330785768039
  0.7449465136352681  0.0804804678612886  0.6423005576626573
  0.7448185295331999  0.4156598010376483  0.1398160376319253
  0.7458490561159546  0.4147424124442251  0.6409653600205082
  0.7446864690808537  0.7506416527671297  0.1403233394482679
  0.7447559295721455  0.7484538877863854  0.6427625650303670
 
             NaN             NaN             NaN
             NaN             NaN             NaN
             NaN             NaN             NaN
             NaN             NaN             NaN
             NaN             NaN             NaN
             NaN             NaN             NaN
             NaN             NaN             NaN
             NaN             NaN             NaN
             NaN             NaN             NaN
             NaN             NaN             NaN
             NaN             NaN             NaN
             NaN             NaN             NaN
             NaN             NaN             NaN
             NaN             NaN             NaN
             NaN             NaN             NaN
             NaN             NaN             NaN
             NaN             NaN             NaN
             NaN             NaN             NaN
             NaN             NaN             NaN
             NaN             NaN             NaN
             NaN             NaN             NaN
             NaN             NaN             NaN
             NaN             NaN             NaN
             NaN             NaN             NaN
             NaN             NaN             NaN
             NaN             NaN             NaN
             NaN             NaN             NaN
             NaN             NaN             NaN
             NaN             NaN             NaN
             NaN             NaN             NaN
             NaN             NaN             NaN
             NaN             NaN             NaN
             NaN             NaN             NaN
             NaN             NaN             NaN
             NaN             NaN             NaN
             NaN             NaN             NaN
             NaN             NaN             NaN
             NaN             NaN             NaN
             NaN             NaN             NaN
             NaN             NaN             NaN
             NaN             NaN             NaN
             NaN             NaN             NaN
             NaN             NaN             NaN
             NaN             NaN             NaN
             NaN             NaN             NaN
             NaN             NaN             NaN
             NaN             NaN             NaN
             NaN             NaN             NaN
             NaN             NaN             NaN
             NaN             NaN             NaN
             NaN             NaN             NaN
             NaN             NaN             NaN
             NaN             NaN             NaN
             NaN             NaN             NaN
             NaN             NaN             NaN
             NaN             NaN             NaN
             NaN             NaN             NaN
             NaN             NaN             NaN
             NaN             NaN             NaN
             NaN             NaN             NaN
             NaN             NaN             NaN
             NaN             NaN             NaN
             NaN             NaN             NaN
             NaN             NaN             NaN
             NaN             NaN             NaN
             NaN             NaN             NaN
             NaN             NaN             NaN
             NaN             NaN             NaN
             NaN             NaN             NaN
             NaN             NaN             NaN
             NaN             NaN             NaN
