Li17 Co18 O36                           
   1.00000000000000     
     8.0544659999999997   -0.0037840000000000    2.3755920000000001
     3.6784240000000001    7.1660839999999997    2.3744260000000001
    -0.0116200000000000   -0.0056770000000000    9.8909939999999992
   Li   Co   O 
    17    18    36
Direct
  0.3207814781952418  0.3805072870449988  0.5063511713344956
  0.3332867642982568  0.3356000066368805  0.9987781144887954
  0.3329443588893701  0.6683159801839212  0.9955554938463136
  0.3308565164411346  0.9947722572487545  0.5054975070126129
  0.3355287498068459  0.0051087920399014  0.9963003016925114
  0.6604876040673736  0.3412241717133382  0.5041363340718477
  0.6666027979597061  0.3354002952447586  0.9976206550751039
  0.6503040273471254  0.6655405495815334  0.5045758748658092
  0.6716816389262293  0.6688291922486429  0.9966957372329412
  0.6525711202356044  0.0099160505537690  0.5074183474208190
  0.6664628478010388  0.0018933136136071  0.9992568964281862
  0.0025170688485989  0.3344208447205297  0.5016831874677065
  0.0003569018756555  0.3385830702987125  0.9967473775614477
  0.9883541521695730  0.6750470617832787  0.5062898067227950
  0.9987248654785329  0.6686016717390234  0.9980165687931633
  0.0092052443456598  0.9910712156584531  0.5055564409568443
  0.9987615302144988  0.0020794693401754  0.9958868125830890
  0.1646571105377209  0.1717550491657006  0.2493625073440716
  0.1658604938126137  0.1686826245552054  0.7510395652629934
  0.1650763896974116  0.5035356952971951  0.2469726956296940
  0.1659401355185285  0.5025522690322101  0.7523600335401924
  0.1628442215939848  0.8375326091542143  0.2518333691290957
  0.1662807447965363  0.8345706403469327  0.7494432248673287
  0.4975623861745452  0.1710996483039159  0.2503501470088612
  0.4988640280987535  0.1671532059364035  0.7541919502194662
  0.4990302218564969  0.5025307855667293  0.2502748214946381
  0.4985337406570726  0.5015272020490326  0.7509508377909774
  0.4968994972962677  0.8349332705117650  0.2543128629815398
  0.4983089589120026  0.8341875122141904  0.7531853732684667
  0.8303561957232674  0.1703185193277943  0.2502431153442709
  0.8324311170901595  0.1680375177590913  0.7504415012170916
  0.8341681910583341  0.5020540886939235  0.2487470997963812
  0.8326369576129127  0.5014181153488796  0.7514381677119795
  0.8314761166011110  0.8350320793597793  0.2491570230004634
  0.8315334105347653  0.8346744317681898  0.7538653988005436
  0.2508327781827601  0.2588412569242079  0.3580357944670620
  0.2513025763130732  0.2545221028488267  0.8631244705360922
  0.2464650889816233  0.5963275190248299  0.3534317830211564
  0.2522224117398771  0.5891414235080337  0.8621264263743763
  0.2401412755440623  0.9311530838310735  0.3598232996606084
  0.2511907981241736  0.9222659663731979  0.8620238673803662
  0.5851277635372300  0.2573623123433945  0.3601333284165144
  0.5873997919904972  0.2542698357743690  0.8623873175626600
  0.5929851046022055  0.5814588152760126  0.3586782324320495
  0.5867103785701362  0.5869645160861270  0.8627507741084119
  0.5852907486858943  0.9209510147927122  0.3607042401651737
  0.5847829048197518  0.9202910609840536  0.8655214786190223
  0.9190990864120022  0.2562022898203757  0.3585241505622245
  0.9196930046294063  0.2546570470537122  0.8609754747906355
  0.9202658267176775  0.5892570749804555  0.3584755345241827
  0.9189144500025115  0.5872461956567830  0.8626421879641338
  0.9223206997349890  0.9199943757185928  0.3584444337672786
  0.9195927539030372  0.9222950898389946  0.8616614099860294
  0.0803451740883112  0.0771899094622569  0.1416709214498635
  0.0795508526797856  0.0819284683800789  0.6401872449592081
  0.0797932570208666  0.4160647558168495  0.1373139420844623
  0.0795004504905734  0.4163139939184478  0.6410898403739808
  0.0787272910877756  0.7520868746608519  0.1395265243237446
  0.0733880079942716  0.7486033928777895  0.6448924769160400
  0.4107687956830373  0.0873908386183899  0.1383969431125418
  0.4124705838966617  0.0804044929829210  0.6435975301629784
  0.4123861403120910  0.4181064425833765  0.1387966520499305
  0.4138705193317940  0.4099797789595944  0.6467103865285235
  0.4048900234061624  0.7541227585280488  0.1441105039017260
  0.4136497396329014  0.7489974979336252  0.6446300583827258
  0.7448686097467436  0.0824147236217716  0.1408962010766000
  0.7449928871593533  0.0805375160948725  0.6422168016421930
  0.7448931351612873  0.4147134135496561  0.1398498103005787
  0.7460552999990410  0.4147551375031033  0.6411322307771660
  0.7524306548549916  0.7469940824206698  0.1363281776446310
  0.7446764807301532  0.7485868767697639  0.6426359371249252
 
             NaN             NaN             NaN
             NaN             NaN             NaN
             NaN             NaN             NaN
             NaN             NaN             NaN
             NaN             NaN             NaN
             NaN             NaN             NaN
             NaN             NaN             NaN
             NaN             NaN             NaN
             NaN             NaN             NaN
             NaN             NaN             NaN
             NaN             NaN             NaN
             NaN             NaN             NaN
             NaN             NaN             NaN
             NaN             NaN             NaN
             NaN             NaN             NaN
             NaN             NaN             NaN
             NaN             NaN             NaN
             NaN             NaN             NaN
             NaN             NaN             NaN
             NaN             NaN             NaN
             NaN             NaN             NaN
             NaN             NaN             NaN
             NaN             NaN             NaN
             NaN             NaN             NaN
             NaN             NaN             NaN
             NaN             NaN             NaN
             NaN             NaN             NaN
             NaN             NaN             NaN
             NaN             NaN             NaN
             NaN             NaN             NaN
             NaN             NaN             NaN
             NaN             NaN             NaN
             NaN             NaN             NaN
             NaN             NaN             NaN
             NaN             NaN             NaN
             NaN             NaN             NaN
             NaN             NaN             NaN
             NaN             NaN             NaN
             NaN             NaN             NaN
             NaN             NaN             NaN
             NaN             NaN             NaN
             NaN             NaN             NaN
             NaN             NaN             NaN
             NaN             NaN             NaN
             NaN             NaN             NaN
             NaN             NaN             NaN
             NaN             NaN             NaN
             NaN             NaN             NaN
             NaN             NaN             NaN
             NaN             NaN             NaN
             NaN             NaN             NaN
             NaN             NaN             NaN
             NaN             NaN             NaN
             NaN             NaN             NaN
             NaN             NaN             NaN
             NaN             NaN             NaN
             NaN             NaN             NaN
             NaN             NaN             NaN
             NaN             NaN             NaN
             NaN             NaN             NaN
             NaN             NaN             NaN
             NaN             NaN             NaN
             NaN             NaN             NaN
             NaN             NaN             NaN
             NaN             NaN             NaN
             NaN             NaN             NaN
             NaN             NaN             NaN
             NaN             NaN             NaN
             NaN             NaN             NaN
             NaN             NaN             NaN
             NaN             NaN             NaN
