Li17 Co18 O36                           
   1.00000000000000     
     8.0544659999999997   -0.0037840000000000    2.3755920000000001
     3.6784240000000001    7.1660839999999997    2.3744260000000001
    -0.0116200000000000   -0.0056770000000000    9.8909939999999992
   Li   Co   O 
    17    18    36
Direct
  0.3109337573310714  0.3902457743667030  0.5108679986979426
  0.3328038755177409  0.3338871998768306  0.9957834749548855
  0.3313077260752991  0.6693889982713785 -0.0048162028463189
  0.3302910359733298  0.9990751967565056  0.5055823278302778
  0.3323500430608378  1.0046785723175573 -0.0051508398066911
  0.6603170162435505  0.3376111815334382  0.5069804365634235
  0.6701267127529750  0.3318027751587039 -0.0048312463091506
  0.6583710011611283  0.6654648151154423  0.5072794729075586
  0.6700511026510660  0.6674214689131764 -0.0043468216217097
  0.6597752330259095  0.0019572265891840  0.5073184643811520
  0.6686494828601145  1.0010381692670645 -0.0038127112073138
  0.0029853901111064  0.3319756147107243  0.5014634336436344
  1.0009850673717922  0.3339068430710480  0.9972751838854443
 -0.0088810964094411  0.6776385382784990  0.5031283922297565
 -0.0003514544006115  0.6685802852774252  0.9980251013668914
  0.0083300907168969  0.9909224976021940  0.5037006324442590
  0.9999463310254660  1.0006642504797456  0.9967535124721102
  0.1657829517939839  0.1685533662644076  0.2464216142540925
  0.1676545147205488  0.1677982645883898  0.7500443993195880
  0.1645797019792838  0.5013120415387529  0.2486068713360546
  0.1661603597093703  0.5021887310491344  0.7528138420162023
  0.1637843633437511  0.8348022644625701  0.2503554271247386
  0.1673339186802473  0.8338983441735947  0.7487579667036162
  0.4985826450055895  0.1673698608922148  0.2504948938544076
  0.5006058086917884  0.1662197564075406  0.7535955979915947
  0.4980882389955018  0.5001993875837117  0.2518630925664002
  0.4996817920531835  0.5011364391648652  0.7501165724109964
  0.4963605450487948  0.8358967160697653  0.2555684578582811
  0.4993611281697174  0.8335057326653112  0.7524846270954648
  0.8344413744383892  0.1670248827293156  0.2490387266718346
  0.8343908065456349  0.1668402008485281  0.7492136786392032
  0.8345040701788367  0.4991033992651964  0.2480873460142567
  0.8324804344844798  0.5012910676382792  0.7511618064048178
  0.8327453836512646  0.8342209617962637  0.2504194753591337
  0.8323616648361659  0.8333052975180889  0.7513428747923619
  0.2513422376755743  0.2548564384002654  0.3570880872785098
  0.2527651589729218  0.2534863320308796  0.8623922750314601
  0.2429237449331340  0.5913603002706541  0.3590093587074372
  0.2533291455123036  0.5880086799870669  0.8616595183454435
  0.2471230361174619  0.9268928553570076  0.3587914459238435
  0.2521192658234958  0.9216415793037290  0.8611096964884668
  0.5852532276483794  0.2589529101951152  0.3583297762397125
  0.5885948943990913  0.2533874451171021  0.8615401412417912
  0.5924984453779923  0.5752650595751674  0.3607109686700015
  0.5873180354140108  0.5857518993223362  0.8619095240401160
  0.5885201135538507  0.9249294754164066  0.3651456477716264
  0.5860991869246234  0.9194361607193896  0.8638801151980149
  0.9208878266548790  0.2539499467384730  0.3574729093816139
  0.9206433685668403  0.2535278936575457  0.8599731574828888
  0.9193762715485111  0.5864942547116138  0.3588354006588207
  0.9191105180873785  0.5869852607846112  0.8621176545081733
  0.9186074794055963  0.9222593206533135  0.3598166765054869
  0.9199938048516113  0.9211148012137942  0.8600870087914466
  0.0792304293877281  0.0793859379385055  0.1380024287421293
  0.0806158242613776  0.0813162181357298  0.6394456660446928
  0.0792087685921464  0.4154946739592600  0.1373955467810298
  0.0794822808632779  0.4155603089379010  0.6416114374737972
  0.0780499699091821  0.7484715677945871  0.1392738241217842
  0.0751284331121897  0.7471886915675054  0.6440997569352922
  0.4133330012901456  0.0864438670125353  0.1359121346867464
  0.4137317964661721  0.0798674141259609  0.6429597947152971
  0.4138018833215322  0.4146498321878627  0.1393300533416403
  0.4142432137578930  0.4097172114247604  0.6464700541262000
  0.4117628099167889  0.7391460059620358  0.1397229094490722
  0.4146073659857447  0.7480736224589918  0.6438599646927452
  0.7456456941475262  0.0808343624640093  0.1404765292446681
  0.7461709457717810  0.0801822131907571  0.6404616269005186
  0.7524863222950823  0.4109369378792804  0.1351079015789174
  0.7471546733315284  0.4138980549987565  0.6403217595241576
  0.7478435458570055  0.7471231199477198  0.1384859010510387
  0.7458000473488449  0.7464552634452775  0.6414586746675353
 
             NaN             NaN             NaN
             NaN             NaN             NaN
             NaN             NaN             NaN
             NaN             NaN             NaN
             NaN             NaN             NaN
             NaN             NaN             NaN
             NaN             NaN             NaN
             NaN             NaN             NaN
             NaN             NaN             NaN
             NaN             NaN             NaN
             NaN             NaN             NaN
             NaN             NaN             NaN
             NaN             NaN             NaN
             NaN             NaN             NaN
             NaN             NaN             NaN
             NaN             NaN             NaN
             NaN             NaN             NaN
             NaN             NaN             NaN
             NaN             NaN             NaN
             NaN             NaN             NaN
             NaN             NaN             NaN
             NaN             NaN             NaN
             NaN             NaN             NaN
             NaN             NaN             NaN
             NaN             NaN             NaN
             NaN             NaN             NaN
             NaN             NaN             NaN
             NaN             NaN             NaN
             NaN             NaN             NaN
             NaN             NaN             NaN
             NaN             NaN             NaN
             NaN             NaN             NaN
             NaN             NaN             NaN
             NaN             NaN             NaN
             NaN             NaN             NaN
             NaN             NaN             NaN
             NaN             NaN             NaN
             NaN             NaN             NaN
             NaN             NaN             NaN
             NaN             NaN             NaN
             NaN             NaN             NaN
             NaN             NaN             NaN
             NaN             NaN             NaN
             NaN             NaN             NaN
             NaN             NaN             NaN
             NaN             NaN             NaN
             NaN             NaN             NaN
             NaN             NaN             NaN
             NaN             NaN             NaN
             NaN             NaN             NaN
             NaN             NaN             NaN
             NaN             NaN             NaN
             NaN             NaN             NaN
             NaN             NaN             NaN
             NaN             NaN             NaN
             NaN             NaN             NaN
             NaN             NaN             NaN
             NaN             NaN             NaN
             NaN             NaN             NaN
             NaN             NaN             NaN
             NaN             NaN             NaN
             NaN             NaN             NaN
             NaN             NaN             NaN
             NaN             NaN             NaN
             NaN             NaN             NaN
             NaN             NaN             NaN
             NaN             NaN             NaN
             NaN             NaN             NaN
             NaN             NaN             NaN
             NaN             NaN             NaN
             NaN             NaN             NaN
