Li7 Mn16 O32                            
   1.00000000000000     
     8.3789029999999993    0.0667410000000000    0.0097110000000000
     0.0234930000000000    8.1921079999999993    0.0250170000000000
    -0.0172140000000000    0.0004530000000000    8.2521979999999999
   Li   Mn   O 
     7    16    32
Direct
  0.3123515177335716  0.4407420492441922  0.8066162290757827
  0.8795353173018999  0.8733303818613477  0.8794265657341457
  0.1163321361496271  0.1309254185249338  0.1213508787863921
  0.8829100127523403  0.3745955180844118  0.3799207458328262
  0.3782147172562257  0.8763235961749535  0.3788641155632619
  0.6138779173682936  0.1297737163976991  0.6239829818483433
  0.6176689989836103  0.6285983713692470  0.1142902399408045
  0.5048760930239149  0.2531536376137782  0.2456380862121233
  0.2602774146355524  0.5016793394742435  0.2403864216563160
  0.2554880979006291  0.2469823990630228  0.4973183713447403
  0.5035980802824693  0.4967821907156229  0.4911910386747840
  0.4964246931068468  0.7531193336539619  0.7501051158806468
  0.7470858512856422  0.4952665168473091  0.7397416817631487
  0.7397310861724563  0.7541483597209749  0.4949218410662480
  0.2455070195487826  0.0052872767664411  0.7569804918535511
  0.2515579856900459  0.7544516643598042  0.0035960388052312
  0.4957582472868924  0.0088641215455979  0.0012264618548173
  0.7443077156983529  0.0036493343346990  0.2541685197438306
  0.7472836248702410  0.2501416282934756  0.9965114694636162
  0.9951090013465252  0.2518974672138580  0.7456626442576565
  0.9976898862871993  0.4997061423232581  0.9988149881606017
  0.9974953828002975  0.7486880531357910  0.2541123713717505
  0.9954488741110894  0.9999581693034919  0.5031880531151419
  0.7521020789040005  0.0137699313824444  0.0256909794309613
  0.0199222777520012  0.7355241320115766  0.0178389057937559
  0.0125338642686425  0.0142806504352490  0.7382546174717369
  0.7298388214583976  0.7336361175150838  0.7314892939785799
  0.2383633081847889  0.9839524360941095  0.9874280209217476
  0.9791909447247819  0.2652986187802232  0.9796730784975070
  0.9728602112577229  0.9945819221968086  0.2691366254881029
  0.2766054689792783  0.2691684138774230  0.2392793097780712
  0.7344769046198355  0.5164963379133864  0.5036978466098994
  0.0165915892483440  0.2382978352785936  0.5162468246638564
  0.0316109263915931  0.5041823926792275  0.2373030395335539
  0.7312791050396800  0.2355864329209219  0.2579560683598615
  0.2764662033807420  0.4838801607529763  0.4753538220391849
  0.9653818948264874  0.7627963312288809  0.4837049698542308
  0.9758666305311157  0.4837932934388358  0.7576253419350611
  0.2663201033772585  0.7692365592484047  0.7698815062512406
  0.2529345449469604  0.0162570878041910  0.5254060607233155
  0.5106878715250028  0.7301386084941127  0.5080490371515172
  0.5141746409469591  0.0205992961573976  0.2396892729223903
  0.2532447045735786  0.7351888315033219  0.2340057404591000
  0.7352695858708056  0.9814742895172959  0.4862416204054494
  0.4924867363084760  0.2654107588822285  0.4768030732388909
  0.4703060523547756  0.0125595606401774  0.7695431239859065
  0.7686734916067267  0.2656088770101347  0.7354254886449125
  0.2564222767045531  0.5240305111583997  0.0123209592679817
  0.5192585372810504  0.2417364278940788  0.0189896421586886
  0.5177120113533089  0.4922973045903782  0.7176292027101719
  0.2203185734003423  0.2376550051025033  0.7550928910913116
  0.7428412509170919  0.4884549801069453  0.9671845475154576
  0.4795761855894536  0.7716145251348546  0.9889119599861673
  0.4920690991631201  0.4881418012331000  0.2576526368155375
  0.7421043111252889  0.7691741479222243  0.2649012079847721
 
             NaN             NaN             NaN
             NaN             NaN             NaN
             NaN             NaN             NaN
             NaN             NaN             NaN
             NaN             NaN             NaN
             NaN             NaN             NaN
             NaN             NaN             NaN
             NaN             NaN             NaN
             NaN             NaN             NaN
             NaN             NaN             NaN
             NaN             NaN             NaN
             NaN             NaN             NaN
             NaN             NaN             NaN
             NaN             NaN             NaN
             NaN             NaN             NaN
             NaN             NaN             NaN
             NaN             NaN             NaN
             NaN             NaN             NaN
             NaN             NaN             NaN
             NaN             NaN             NaN
             NaN             NaN             NaN
             NaN             NaN             NaN
             NaN             NaN             NaN
             NaN             NaN             NaN
             NaN             NaN             NaN
             NaN             NaN             NaN
             NaN             NaN             NaN
             NaN             NaN             NaN
             NaN             NaN             NaN
             NaN             NaN             NaN
             NaN             NaN             NaN
             NaN             NaN             NaN
             NaN             NaN             NaN
             NaN             NaN             NaN
             NaN             NaN             NaN
             NaN             NaN             NaN
             NaN             NaN             NaN
             NaN             NaN             NaN
             NaN             NaN             NaN
             NaN             NaN             NaN
             NaN             NaN             NaN
             NaN             NaN             NaN
             NaN             NaN             NaN
             NaN             NaN             NaN
             NaN             NaN             NaN
             NaN             NaN             NaN
             NaN             NaN             NaN
             NaN             NaN             NaN
             NaN             NaN             NaN
             NaN             NaN             NaN
             NaN             NaN             NaN
             NaN             NaN             NaN
             NaN             NaN             NaN
             NaN             NaN             NaN
             NaN             NaN             NaN
