Li7 Mn16 O32                            
   1.00000000000000     
     8.3789029999999993    0.0667410000000000    0.0097110000000000
     0.0234930000000000    8.1921079999999993    0.0250170000000000
    -0.0172140000000000    0.0004530000000000    8.2521979999999999
   Li   Mn   O 
     7    16    32
Direct
  0.2745973512484656  0.4770824306703346  0.7711869220131511
  0.8798894922777368  0.8724228931506036  0.8804497454061865
  0.1172654837508694  0.1305246651501414  0.1215985575288694
  0.8833167565632386  0.3735822956817528  0.3803813126386016
  0.3790748046608127  0.8757520659655472  0.3789507420952326
  0.6140170266799896  0.1296933341253098  0.6248869003730428
  0.6176524083077679  0.6273511054948082  0.1144388898054203
  0.5054539910520957  0.2506283867658907  0.2454557544154668
  0.2603199008710637  0.4999094733467554  0.2409974371119807
  0.2585196222536096  0.2477493740460338  0.4961623556573893
  0.5041871773057506  0.4973474405015098  0.4950181465122864
  0.4975646057309160  0.7531824829337087  0.7498470913806939
  0.7473130257649296  0.4971602017667039  0.7409499889761617
  0.7392626131329150  0.7537591520564831  0.4949537716904515
  0.2458511880975215  0.0052731685552316  0.7568735078697472
  0.2525722183308681  0.7533584425903472  0.0031035508874910
  0.4960584295241581  0.0090648930820435  0.0019729675311838
  0.7442686159399370  0.0029584600072456  0.2537236628532049
  0.7478093653273316  0.2498966813353449  0.9970846535101586
  0.9956876147260367  0.2505880228948842  0.7465236799854841
 -0.0022644323999275  0.4981679853638772  0.9987941079082179
  0.9976309113844111  0.7481603744391124  0.2542278420113391
  0.9959192898261633 -0.0008307828153211  0.5034862754247869
  0.7525244614941051  0.0130772449599209  0.0260162744159020
  0.0205743232186490  0.7343824765062019  0.0181823340213516
  0.0130176676126569  0.0132582314062562  0.7387143809865411
  0.7309437640383341  0.7335311881536422  0.7317968741854205
  0.2387217318092776  0.9833243850705392  0.9877448415162888
  0.9796096514561540  0.2644935274574864  0.9798376768575885
  0.9733859473108532  0.9941003485868118  0.2695827760622111
  0.2771732432397976  0.2688354936532485  0.2407869435319584
  0.7350740532596539  0.5160176918873079  0.5044895468371120
  0.0162492450436045  0.2373436686236608  0.5165138843360952
  0.0322881652650415  0.5032498754646406  0.2385720928981341
  0.7319710176454565  0.2354711327852844  0.2583167793945605
  0.2765153088862498  0.4827749340590488  0.4790145745708191
  0.9660269771955183  0.7623320934784301  0.4838626855591083
  0.9793175796832542  0.4824793536155612  0.7572045681338425
  0.2667710073196650  0.7665153734437711  0.7702927648072762
  0.2531107333813903  0.0153194276056703  0.5262258065054993
  0.5113207846685389  0.7296589899760435  0.5092044985462930
  0.5146424727921831  0.0206410277221889  0.2402250370936803
  0.2536515642924065  0.7344877487407501  0.2343999367670050
  0.7357227855243001  0.9814008761736100  0.4867331867156210
  0.4929651667993293  0.2649349526996802  0.4778253785794329
  0.4706636306527945  0.0117664273351045  0.7695964034633892
  0.7690695600605768  0.2649850478628346  0.7356988763141260
  0.2567868775546602  0.5235086050732843  0.0118606931969398
  0.5205166634572048  0.2411737803108687  0.0200863441487007
  0.5179506507610492  0.4926275151255198  0.7192172911417105
  0.2205726519327017  0.2379673175358993  0.7550492456065635
  0.7448897449302376  0.4886884365868271  0.9673527196146743
  0.4802419653927719  0.7716703098464255  0.9896205872193236
  0.4922782572431048  0.4881223644310146  0.2591143894407859
  0.7425557620227144  0.7686393094473111  0.2652784103627789
 
             NaN             NaN             NaN
             NaN             NaN             NaN
             NaN             NaN             NaN
             NaN             NaN             NaN
             NaN             NaN             NaN
             NaN             NaN             NaN
             NaN             NaN             NaN
             NaN             NaN             NaN
             NaN             NaN             NaN
             NaN             NaN             NaN
             NaN             NaN             NaN
             NaN             NaN             NaN
             NaN             NaN             NaN
             NaN             NaN             NaN
             NaN             NaN             NaN
             NaN             NaN             NaN
             NaN             NaN             NaN
             NaN             NaN             NaN
             NaN             NaN             NaN
             NaN             NaN             NaN
             NaN             NaN             NaN
             NaN             NaN             NaN
             NaN             NaN             NaN
             NaN             NaN             NaN
             NaN             NaN             NaN
             NaN             NaN             NaN
             NaN             NaN             NaN
             NaN             NaN             NaN
             NaN             NaN             NaN
             NaN             NaN             NaN
             NaN             NaN             NaN
             NaN             NaN             NaN
             NaN             NaN             NaN
             NaN             NaN             NaN
             NaN             NaN             NaN
             NaN             NaN             NaN
             NaN             NaN             NaN
             NaN             NaN             NaN
             NaN             NaN             NaN
             NaN             NaN             NaN
             NaN             NaN             NaN
             NaN             NaN             NaN
             NaN             NaN             NaN
             NaN             NaN             NaN
             NaN             NaN             NaN
             NaN             NaN             NaN
             NaN             NaN             NaN
             NaN             NaN             NaN
             NaN             NaN             NaN
             NaN             NaN             NaN
             NaN             NaN             NaN
             NaN             NaN             NaN
             NaN             NaN             NaN
             NaN             NaN             NaN
             NaN             NaN             NaN
