Li46 P16 O64
1.0
10.653458 -0.007234 -0.023290
-0.008439 12.451121 -0.013782
-0.021922 -0.011141 10.078422
Li P O
46 16 64
direct
0.164356 0.249228 0.147328 Li
0.664269 0.252814 0.600716 Li
0.662132 0.748902 0.098180 Li
0.663580 0.751717 0.600173 Li
0.164007 0.497382 0.149681 Li
0.165004 0.498942 0.651166 Li
0.163439 -0.006140 0.152938 Li
0.165166 -0.001261 0.651652 Li
0.338002 0.000892 0.399711 Li
0.339314 0.001824 0.906466 Li
0.340815 0.498456 0.394591 Li
0.340043 0.495418 0.908314 Li
0.831011 0.249698 0.344184 Li
0.832134 0.248841 0.856375 Li
0.836727 0.748051 0.349618 Li
0.836862 0.748614 0.849421 Li
0.340427 0.252177 0.394230 Li
0.341691 0.253501 0.910072 Li
0.338298 0.749751 0.399121 Li
0.338377 0.750606 0.903993 Li
0.837634 0.002466 0.348830 Li
0.838039 0.002540 0.850452 Li
0.831874 0.500104 0.348702 Li
0.832859 0.499471 0.851163 Li
0.650340 0.487744 0.092778 Li
0.664803 0.502991 0.597372 Li
0.664658 1.003207 0.100758 Li
0.663173 1.002239 0.599934 Li
0.165363 0.251085 0.651468 Li
0.164410 0.750830 0.150896 Li
0.164389 0.751211 0.652148 Li
0.920363 0.372843 0.147691 Li
0.925077 0.374037 0.649509 Li
0.924368 0.875341 0.149678 Li
0.925757 0.875766 0.649710 Li
0.428508 0.376190 0.602859 Li
0.431530 0.876108 0.103226 Li
0.428267 0.876504 0.601328 Li
0.075030 0.126015 0.348112 Li
0.076097 0.126054 0.854445 Li
0.073904 0.623151 0.350429 Li
0.074796 0.623252 0.852689 Li
0.572782 0.132160 0.392997 Li
0.573063 0.138016 0.914089 Li
0.573203 0.622373 0.399066 Li
0.571164 0.622131 0.898185 Li
0.916255 0.124063 0.099439 P
0.913594 0.124817 0.597430 P
0.909531 0.624687 0.097538 P
0.912746 0.625666 0.597882 P
0.404617 0.115119 0.151736 P
0.410937 0.124324 0.653198 P
0.407661 0.630475 0.150540 P
0.409645 0.627844 0.652926 P
0.088024 0.375725 0.402860 P
0.086880 0.375157 0.902366 P
0.088193 0.873965 0.405088 P
0.088727 0.873939 0.903475 P
0.590697 0.377645 0.350211 P
0.586836 0.374986 0.833442 P
0.592114 0.874930 0.348459 P
0.591868 0.875417 0.846988 P
0.844320 0.021660 0.149495 O
0.843345 0.022211 0.647936 O
0.839217 0.522878 0.146804 O
0.843935 0.523921 0.650215 O
0.327548 0.208483 0.093348 O
0.340130 0.225406 0.600295 O
0.344251 0.738900 0.107214 O
0.340993 0.731304 0.602043 O
0.156655 0.273300 0.350829 O
0.156396 0.273088 0.850997 O
0.157606 0.771574 0.353710 O
0.158732 0.771478 0.853013 O
0.659706 0.480906 0.408023 O
0.654448 0.477066 0.892964 O
0.661031 0.977867 0.399636 O
0.663638 0.975974 0.899121 O
0.158429 0.478053 0.352384 O
0.156185 0.477654 0.851060 O
0.157621 0.976364 0.355673 O
0.159383 0.976082 0.853904 O
0.659866 0.274962 0.405923 O
0.655797 0.271544 0.876063 O
0.660999 0.772422 0.401032 O
0.659512 0.771058 0.896134 O
0.856721 0.227030 0.153988 O
0.845257 0.226915 0.649031 O
0.840493 0.727840 0.148176 O
0.842918 0.728381 0.648199 O
0.336741 0.006839 0.111979 O
0.341833 0.020474 0.602062 O
0.328020 0.537583 0.094946 O
0.339773 0.526678 0.598865 O
0.539460 0.110946 0.098523 O
0.547896 0.124554 0.599621 O
0.544641 0.627073 0.096365 O
0.547670 0.629157 0.602437 O
0.055807 0.117432 0.147481 O
0.051570 0.123425 0.650036 O
0.047242 0.625332 0.150663 O
0.050800 0.626424 0.649709 O
0.453209 0.376233 0.406833 O
0.446193 0.374972 0.869828 O
0.454215 0.874808 0.399647 O
0.454150 0.875694 0.898085 O
0.949812 0.377388 0.352730 O
0.948652 0.375256 0.850437 O
0.950350 0.873870 0.352484 O
0.951531 0.874370 0.848980 O
0.594334 0.381074 0.200538 O
0.595740 0.381812 0.678145 O
0.594915 0.873488 0.193620 O
0.592109 0.876132 0.691415 O
0.086894 0.375256 0.057349 O
0.090062 0.375287 0.558459 O
0.086079 0.872305 0.058362 O
0.088455 0.873660 0.560366 O
0.406667 0.123283 0.307904 O
0.410134 0.124096 0.808032 O
0.410914 0.626806 0.306373 O
0.407756 0.627148 0.807917 O
0.912999 0.124692 0.442248 O
0.913206 0.123910 0.943504 O
0.911652 0.625155 0.442664 O
0.910352 0.625415 0.942009 O
