Li48 P16 O64                            
   1.00000000000000     
    10.4431307751851836    0.0009823452791421   -0.0065668038516946
     0.0011319701426612   12.1424484998125894   -0.0047920217979537
    -0.0061759827026959   -0.0038469685985767    9.7990126056590725
   Li   P    O 
    47    16    64
Direct
  0.4285397300846725  0.3706924984355382  0.0980716715604188
  0.6632983818521794  0.2511572199145746  0.6042075313474129
  0.6644092287267611  0.7503407648761922  0.0976338767005913
  0.6640713118705790  0.7522916468494074  0.5985192593892208
  0.1648925718254688  0.4987464572790117  0.1517880086605388
  0.1635294904835902  0.4996336537357280  0.6520788238932411
  0.1639889506556926  0.9948944239560973  0.1546203057500719
  0.1640977610257437  0.9984652646929959  0.6518192250030381
  0.3359597576865099  0.0007420091502084  0.4028049552835000
  0.3364144561430962  0.0008814266815378  0.9018163291613206
  0.3352064916657156  0.5016469808250150  0.4022419199828633
  0.3363935850780635  0.5005367582772493  0.9024581603443238
  0.8328407425066828  0.2494175234030891  0.3456337491384929
  0.8365255175854784  0.2493551127095444  0.8514779865625002
  0.8357214069701016  0.7490842049326289  0.3478015192936610
  0.8358582632695075  0.7491653147078310  0.8479435608984218
  0.3348046422759623  0.2492471766817985  0.4030794798172082
  0.3362244746727683  0.2480434262129094  0.9005670096829590
  0.3362208766057719  0.7491886865164403  0.4017650896482223
  0.3362123784357109  0.7492134763472436  0.9023563515829451
  0.8362392644749335  0.0011379082207696  0.3483674013249569
  0.8358837908118133  0.0012974267685522  0.8476465157502346
  0.8342836817907582  0.5011507458724083  0.3478836601524620
  0.8362712307682472  0.5003223921747946  0.8480139449734452
  0.6652266996372020  0.4940566256463228  0.0956839917733205
  0.6641022204456561  0.5028482292534306  0.5983556094993787
  0.6663724902943713  0.0014328287954157  0.0998489330882961
  0.6635327166263494  0.0006564390759323  0.5976606800387785
  0.1642168646105091  0.2510681161537676  0.1511030291528357
  0.1631842103917407  0.2505422130644490  0.6524407216210406
  0.1646689247492574  0.7496251398128564  0.1515947825399451
  0.1637479087872364  0.7507975563865088  0.6525304476071909
  0.9221049401132930  0.3759394687262301  0.1469337584889345
  0.9236640186037519  0.3750069002957943  0.6489170699606035
  0.9237934615978034  0.8743651843063773  0.1488283427476844
  0.9233360768920065  0.8752939316569694  0.6488171056985408
  0.4187084282305520  0.3761137294887504  0.6014818215657982
  0.4248928473594447  0.8742685407420154  0.1016301703748042
  0.4241801047042344  0.8756698149538309  0.6010136614984773
  0.0765067154525809  0.1244076359795656  0.3515296450166687
  0.0773835340173648  0.1245413382280134  0.8507699499355326
  0.0755104151094841  0.6246420913318786  0.3507104605249438
  0.0760848090258008  0.6246148788061632  0.8514095255094745
  0.5764318188933402  0.1268973195722438  0.3952976739232952
  0.5789491134016913  0.1294593989233661  0.9075502442093750
  0.5761214893460362  0.6261987823781610  0.3996157060582206
  0.5767091167985754  0.6245774838774523  0.8990248170553699
  0.9152264451347776  0.1241024764048575  0.0953501858075754
  0.9119995596789323  0.1252737561680775  0.5950353090865335
  0.9116001221258969  0.6250015215933047  0.0951834074461146
  0.9116016488530363  0.6252375985323653  0.5953267531379467
  0.4093645790877076  0.1235099617610516  0.1547043568243254
  0.4118664661220564  0.1248081621855377  0.6548753095105511
  0.4129258695838587  0.6235941684581121  0.1544933263165618
  0.4111192838510220  0.6264125196124084  0.6549261025705988
  0.0874648304921806  0.3752615588519177  0.4045883502794396
  0.0887495386036505  0.3750786357706772  0.9046891419856280
  0.0880186452019416  0.8741803134512693  0.4050695675760210
  0.0883031917213657  0.8744776055099024  0.9046307647332412
  0.5862786717957107  0.3769239913743974  0.3490484247868224
  0.5872344992919096  0.3752224356517573  0.8399731361420635
  0.5887702178765366  0.8754492285852393  0.3451099925999372
  0.5886915886061317  0.8757251517768694  0.8457783630679216
  0.8440981132464742  0.0214593456788066  0.1476729630790672
  0.8412636269455760  0.0218454813378415  0.6465218298926345
  0.8409738097109454  0.5218354414443453  0.1469159388807881
  0.8414785394487083  0.5217587320348613  0.6472577439289893
  0.3403105395918757  0.2269721978823824  0.1011355221769108
  0.3400898340539342  0.2282184685150881  0.6043023902032516
  0.3424828905457957  0.7273892101868284  0.1029710794214367
  0.3409633391926974  0.7303049362439253  0.6040352425606912
  0.1570124215538726  0.2714303215229776  0.3521591838469647
  0.1587393727884603  0.2713225072122114  0.8529499317405964
  0.1584953093507409  0.7708094054990227  0.3529666064164587
  0.1584797631857882  0.7707681945181051  0.8531805968249060
  0.6575349463116211  0.4801837756227130  0.4013022937184303
  0.6587836148001003  0.4769031826112240  0.8951653391181651
  0.6585939734497472  0.9793847369693580  0.3963739733165781
  0.6593972684883624  0.9787241746194724  0.8981143058619878
  0.1581619089231765  0.4785530867325321  0.3529929640741329
  0.1591906586698286  0.4785230845617292  0.8528514370240288
  0.1585706061076664  0.9778071955515983  0.3542694564527196
  0.1588930734610869  0.9778194719636986  0.8531183431499016
  0.6571881534469881  0.2735984157616045  0.3999597606500132
  0.6585162031692420  0.2690912571227173  0.8754937617350578
  0.6590743715449676  0.7721292630611529  0.3976663466259964
  0.6585116284827635  0.7714282894756366  0.8963396540014941
  0.8541847703317131  0.2293437098494522  0.1505266306564508
  0.8427183845342654  0.2290412731719300  0.6470377760131285
  0.8417464780944215  0.7288051736148589  0.1467823428481765
  0.8412915440351370  0.7288563577213409  0.6468721613343718
  0.3377145638253936  0.0195410944094405  0.1046575080360341
  0.3412799104619850  0.0211693435997020  0.6033143510772589
  0.3425599026246786  0.5199993905041396  0.1030226349349945
  0.3400044095090848  0.5235092989036616  0.6026393371553453
  0.5461062886921653  0.1185413766774914  0.1014373246509948
  0.5495049045881260  0.1257298368811419  0.6000626529938913
  0.5516108583485746  0.6236740138036652  0.1021594260971952
  0.5497162933898707  0.6272233607123425  0.6026855711487968
  0.0554051551900656  0.1214578370365444  0.1453340696892340
  0.0509381391548374  0.1243913588009846  0.6471449096406232
  0.0505179161112466  0.6246020302138717  0.1472078662953322
  0.0503671698064281  0.6251947209298763  0.6475746809489706
  0.4478377566470968  0.3755576839226649  0.4028231372701541
  0.4497843157161228  0.3737584993899361  0.8956270374694810
  0.4498199063247270  0.8751792957443172  0.3968224001622929
  0.4499745328397182  0.8753383696394366  0.8982779216175061
  0.9484449743654721  0.3758502080473320  0.3534093478291851
  0.9500343885893443  0.3752827768587537  0.8524053153487259
  0.9494184169506497  0.8745847380560079  0.3523888607145551
  0.9495296063880403  0.8749045673480467  0.8522703228112292
  0.5844001393748997  0.3800867398354271  0.1933763362831229
  0.5836012616488375  0.3812980729562483  0.6825580642007338
  0.5900980288186517  0.8747170521685561  0.1878419013364052
  0.5889431565796386  0.8763649730985605  0.6883754317259232
  0.0894450156226938  0.3752675874995361  0.0619163485582988
  0.0892806764932317  0.3749707736016603  0.5619394074445694
  0.0887096452694465  0.8737145693209811  0.0619847487937690
  0.0883351127475862  0.8740730614930499  0.5623139291859545
  0.4083214241140567  0.1254352862712409  0.3120468839146895
  0.4127395938828684  0.1243667617725563  0.8120439795990322
  0.4118880694045970  0.6245408201357066  0.3119333201465153
  0.4111081060563606  0.6252048195552931  0.8122800834688135
  0.9111187818868487  0.1254271725752574  0.4377024562428886
  0.9127721743267472  0.1242079974835448  0.9382099276243423
  0.9107347018365957  0.6250454555307954  0.4379932773439776
  0.9107574885665670  0.6248971323700232  0.9378066770239641
 
  0.00000000E+00  0.00000000E+00  0.00000000E+00
  0.00000000E+00  0.00000000E+00  0.00000000E+00
  0.00000000E+00  0.00000000E+00  0.00000000E+00
  0.00000000E+00  0.00000000E+00  0.00000000E+00
  0.00000000E+00  0.00000000E+00  0.00000000E+00
  0.00000000E+00  0.00000000E+00  0.00000000E+00
  0.00000000E+00  0.00000000E+00  0.00000000E+00
  0.00000000E+00  0.00000000E+00  0.00000000E+00
  0.00000000E+00  0.00000000E+00  0.00000000E+00
  0.00000000E+00  0.00000000E+00  0.00000000E+00
  0.00000000E+00  0.00000000E+00  0.00000000E+00
  0.00000000E+00  0.00000000E+00  0.00000000E+00
  0.00000000E+00  0.00000000E+00  0.00000000E+00
  0.00000000E+00  0.00000000E+00  0.00000000E+00
  0.00000000E+00  0.00000000E+00  0.00000000E+00
  0.00000000E+00  0.00000000E+00  0.00000000E+00
  0.00000000E+00  0.00000000E+00  0.00000000E+00
  0.00000000E+00  0.00000000E+00  0.00000000E+00
  0.00000000E+00  0.00000000E+00  0.00000000E+00
  0.00000000E+00  0.00000000E+00  0.00000000E+00
  0.00000000E+00  0.00000000E+00  0.00000000E+00
  0.00000000E+00  0.00000000E+00  0.00000000E+00
  0.00000000E+00  0.00000000E+00  0.00000000E+00
  0.00000000E+00  0.00000000E+00  0.00000000E+00
  0.00000000E+00  0.00000000E+00  0.00000000E+00
  0.00000000E+00  0.00000000E+00  0.00000000E+00
  0.00000000E+00  0.00000000E+00  0.00000000E+00
  0.00000000E+00  0.00000000E+00  0.00000000E+00
  0.00000000E+00  0.00000000E+00  0.00000000E+00
  0.00000000E+00  0.00000000E+00  0.00000000E+00
  0.00000000E+00  0.00000000E+00  0.00000000E+00
  0.00000000E+00  0.00000000E+00  0.00000000E+00
  0.00000000E+00  0.00000000E+00  0.00000000E+00
  0.00000000E+00  0.00000000E+00  0.00000000E+00
  0.00000000E+00  0.00000000E+00  0.00000000E+00
  0.00000000E+00  0.00000000E+00  0.00000000E+00
  0.00000000E+00  0.00000000E+00  0.00000000E+00
  0.00000000E+00  0.00000000E+00  0.00000000E+00
  0.00000000E+00  0.00000000E+00  0.00000000E+00
  0.00000000E+00  0.00000000E+00  0.00000000E+00
  0.00000000E+00  0.00000000E+00  0.00000000E+00
  0.00000000E+00  0.00000000E+00  0.00000000E+00
  0.00000000E+00  0.00000000E+00  0.00000000E+00
  0.00000000E+00  0.00000000E+00  0.00000000E+00
  0.00000000E+00  0.00000000E+00  0.00000000E+00
  0.00000000E+00  0.00000000E+00  0.00000000E+00
  0.00000000E+00  0.00000000E+00  0.00000000E+00
  0.00000000E+00  0.00000000E+00  0.00000000E+00
  0.00000000E+00  0.00000000E+00  0.00000000E+00
  0.00000000E+00  0.00000000E+00  0.00000000E+00
  0.00000000E+00  0.00000000E+00  0.00000000E+00
  0.00000000E+00  0.00000000E+00  0.00000000E+00
  0.00000000E+00  0.00000000E+00  0.00000000E+00
  0.00000000E+00  0.00000000E+00  0.00000000E+00
  0.00000000E+00  0.00000000E+00  0.00000000E+00
  0.00000000E+00  0.00000000E+00  0.00000000E+00
  0.00000000E+00  0.00000000E+00  0.00000000E+00
  0.00000000E+00  0.00000000E+00  0.00000000E+00
  0.00000000E+00  0.00000000E+00  0.00000000E+00
  0.00000000E+00  0.00000000E+00  0.00000000E+00
  0.00000000E+00  0.00000000E+00  0.00000000E+00
  0.00000000E+00  0.00000000E+00  0.00000000E+00
  0.00000000E+00  0.00000000E+00  0.00000000E+00
  0.00000000E+00  0.00000000E+00  0.00000000E+00
  0.00000000E+00  0.00000000E+00  0.00000000E+00
  0.00000000E+00  0.00000000E+00  0.00000000E+00
  0.00000000E+00  0.00000000E+00  0.00000000E+00
  0.00000000E+00  0.00000000E+00  0.00000000E+00
  0.00000000E+00  0.00000000E+00  0.00000000E+00
  0.00000000E+00  0.00000000E+00  0.00000000E+00
  0.00000000E+00  0.00000000E+00  0.00000000E+00
  0.00000000E+00  0.00000000E+00  0.00000000E+00
  0.00000000E+00  0.00000000E+00  0.00000000E+00
  0.00000000E+00  0.00000000E+00  0.00000000E+00
  0.00000000E+00  0.00000000E+00  0.00000000E+00
  0.00000000E+00  0.00000000E+00  0.00000000E+00
  0.00000000E+00  0.00000000E+00  0.00000000E+00
  0.00000000E+00  0.00000000E+00  0.00000000E+00
  0.00000000E+00  0.00000000E+00  0.00000000E+00
  0.00000000E+00  0.00000000E+00  0.00000000E+00
  0.00000000E+00  0.00000000E+00  0.00000000E+00
  0.00000000E+00  0.00000000E+00  0.00000000E+00
  0.00000000E+00  0.00000000E+00  0.00000000E+00
  0.00000000E+00  0.00000000E+00  0.00000000E+00
  0.00000000E+00  0.00000000E+00  0.00000000E+00
  0.00000000E+00  0.00000000E+00  0.00000000E+00
  0.00000000E+00  0.00000000E+00  0.00000000E+00
  0.00000000E+00  0.00000000E+00  0.00000000E+00
  0.00000000E+00  0.00000000E+00  0.00000000E+00
  0.00000000E+00  0.00000000E+00  0.00000000E+00
  0.00000000E+00  0.00000000E+00  0.00000000E+00
  0.00000000E+00  0.00000000E+00  0.00000000E+00
  0.00000000E+00  0.00000000E+00  0.00000000E+00
  0.00000000E+00  0.00000000E+00  0.00000000E+00
  0.00000000E+00  0.00000000E+00  0.00000000E+00
  0.00000000E+00  0.00000000E+00  0.00000000E+00
  0.00000000E+00  0.00000000E+00  0.00000000E+00
  0.00000000E+00  0.00000000E+00  0.00000000E+00
  0.00000000E+00  0.00000000E+00  0.00000000E+00
  0.00000000E+00  0.00000000E+00  0.00000000E+00
  0.00000000E+00  0.00000000E+00  0.00000000E+00
  0.00000000E+00  0.00000000E+00  0.00000000E+00
  0.00000000E+00  0.00000000E+00  0.00000000E+00
  0.00000000E+00  0.00000000E+00  0.00000000E+00
  0.00000000E+00  0.00000000E+00  0.00000000E+00
  0.00000000E+00  0.00000000E+00  0.00000000E+00
  0.00000000E+00  0.00000000E+00  0.00000000E+00
  0.00000000E+00  0.00000000E+00  0.00000000E+00
  0.00000000E+00  0.00000000E+00  0.00000000E+00
  0.00000000E+00  0.00000000E+00  0.00000000E+00
  0.00000000E+00  0.00000000E+00  0.00000000E+00
  0.00000000E+00  0.00000000E+00  0.00000000E+00
  0.00000000E+00  0.00000000E+00  0.00000000E+00
  0.00000000E+00  0.00000000E+00  0.00000000E+00
  0.00000000E+00  0.00000000E+00  0.00000000E+00
  0.00000000E+00  0.00000000E+00  0.00000000E+00
  0.00000000E+00  0.00000000E+00  0.00000000E+00
  0.00000000E+00  0.00000000E+00  0.00000000E+00
  0.00000000E+00  0.00000000E+00  0.00000000E+00
  0.00000000E+00  0.00000000E+00  0.00000000E+00
  0.00000000E+00  0.00000000E+00  0.00000000E+00
  0.00000000E+00  0.00000000E+00  0.00000000E+00
  0.00000000E+00  0.00000000E+00  0.00000000E+00
  0.00000000E+00  0.00000000E+00  0.00000000E+00
  0.00000000E+00  0.00000000E+00  0.00000000E+00
  0.00000000E+00  0.00000000E+00  0.00000000E+00
  0.00000000E+00  0.00000000E+00  0.00000000E+00
