Mg7 Sc16 Se32
1.0
11.209086 0.000000 0.000001
0.000000 11.209088 -0.000000
0.000001 -0.000000 11.209087
Mg Sc Se
7 16 32
direct
0.407966 0.407966 0.407966 Mg
0.624697 0.125303 0.125303 Mg
0.125303 0.624697 0.125303 Mg
0.125303 0.125303 0.624697 Mg
0.377019 0.872981 0.872981 Mg
0.872981 0.377019 0.872981 Mg
0.872981 0.872981 0.377019 Mg
0.994633 0.749805 0.749805 Sc
0.749806 0.994633 0.749805 Sc
0.749805 0.749805 0.994633 Sc
1.000138 1.000138 1.000138 Sc
0.000950 0.249891 0.249891 Sc
0.249891 0.000950 0.249891 Sc
0.249891 0.249891 0.000950 Sc
0.748993 0.500166 0.255395 Sc
0.748993 0.255395 0.500166 Sc
-0.004554 0.500166 0.500166 Sc
0.255395 0.500166 0.748993 Sc
0.255395 0.748993 0.500166 Sc
0.500166 0.748993 0.255395 Sc
0.500166 -0.004554 0.500166 Sc
0.500166 0.255395 0.748993 Sc
0.500166 0.500166 -0.004554 Sc
0.758007 0.992942 0.992942 Se
0.992942 0.758007 0.992942 Se
0.992942 0.992942 0.758007 Se
0.756613 0.756613 0.756613 Se
0.242864 0.007022 0.007022 Se
0.007022 0.242864 0.007022 Se
0.007022 0.007022 0.242864 Se
0.243113 0.243113 0.243113 Se
0.756993 0.493365 0.493365 Se
0.992563 0.257079 0.491971 Se
0.992563 0.491971 0.257079 Se
0.758387 0.257079 0.257079 Se
0.240568 0.507011 0.507011 Se
0.009567 0.742854 0.507260 Se
0.009567 0.507260 0.742854 Se
0.240319 0.742854 0.742854 Se
0.257079 0.992563 0.491971 Se
0.493365 0.756993 0.493365 Se
0.491971 0.992563 0.257079 Se
0.257079 0.758387 0.257079 Se
0.742854 0.009567 0.507260 Se
0.507011 0.240568 0.507011 Se
0.507260 0.009567 0.742854 Se
0.742854 0.240319 0.742854 Se
0.257079 0.491971 0.992563 Se
0.491971 0.257079 0.992563 Se
0.493365 0.493365 0.756993 Se
0.257079 0.257079 0.758387 Se
0.742854 0.507260 0.009567 Se
0.507260 0.742854 0.009567 Se
0.507011 0.507011 0.240568 Se
0.742854 0.742854 0.240319 Se
