Na15 V32 O64                            
   1.00000000000000     
     9.2557510000000001    0.0051170000000000    0.0000450000000000
     0.0064150000000000   11.8412480000000002    0.0129800000000000
    -0.0004710000000000    0.0126150000000000   10.7941520000000004
   Na   V    O 
    15    32    64
Direct
  0.7382446226011927  0.3839599335460036  0.1643784520275935
  0.7485268908742638  0.0632515083878975  0.1511004100238239
  0.7433791089366816  0.7913283848338079  0.1551254648269380
  0.2453299879942212  0.0577235545855173  0.3522900440706606
  0.2426496465687283  0.3073094619529950  0.3434514531350894
  0.2459287236834518  0.5578130603751718  0.3518846930398581
  0.2437625542683123  0.8064074497624424  0.3445096348454236
  0.2567917983021140  0.1789258096057075  0.8463133007757446
  0.2545589366555484  0.4283596750701242  0.8491361913757461
  0.2570316662077914  0.6795033915124135  0.8481918229112470
  0.2569291314518081  0.9274986890604153  0.8505373634289894
  0.7562272595911235  0.1808962796118647  0.6476246803035748
  0.7549090098204450  0.4324547409781243  0.6491182091244986
  0.7572639662195523  0.6805714809720357  0.6496982654137595
  0.7577155608981021  0.9314825471278567  0.6510062873938929
  0.5799883474033705  0.0500041394123158  0.8987536934069674
  0.5847789183845314  0.3029982609146378  0.8878365969643711
  0.5833435002417450  0.5601408402213094  0.8996921068828403
  0.5849321793182319  0.8031502461027193  0.8980421479652866
  0.0809564003234226  0.0549850425307832  0.6054976433945060
  0.0826008926712288  0.3082505795633210  0.6017958183942501
  0.0822559254662329  0.5554856671607322  0.6073945442244211
  0.0831910380992103  0.8090228449243247  0.6014791074436450
  0.4215386460483897  0.1789972035610002  0.1018603105707529
  0.4144048320196265  0.4288909525301123  0.1028052892045111
  0.4198561963863542  0.6775575906636960  0.1040229442504613
  0.4201204556085437  0.9286623962939460  0.1083923941563966
  0.9186559167942019  0.1838005061276374  0.3932573690819910
  0.9206108716565484  0.4342119445097414  0.3988220313155307
  0.9187773841896569  0.6829601127128442  0.3952091981461673
  0.9191114639892122  0.9325414559885088  0.3959642838099299
  0.5677512865018585  0.0567183059605754  0.3879325703947376
  0.5627581484581000  0.3032119871882472  0.3882470046890974
  0.5686573028008264  0.5566930196745992  0.3856271461149226
  0.5635448586354243  0.8043390130580749  0.3887662820714806
  0.0698653651637317  0.0532428475014333  0.1126128940167707
  0.0594588697797908  0.3029056317368237  0.1110054318582587
  0.0636743555555885  0.5546459868878646  0.1125803416973089
  0.0637959544758015  0.8044169305281096  0.1129943478039810
  0.4324709220403054  0.1803036240261292  0.6137170305563019
  0.4365670502446555  0.4309212560699765  0.6110295032464202
  0.4334665231985090  0.6801193055225269  0.6132172497933035
  0.4365498075601418  0.9320843641627606  0.6104586968772353
  0.9387491299628522  0.1749477779479002  0.8866754421993733
  0.9311969750759365  0.4300649504121097  0.8851799361682625
  0.9398907213471039  0.6810794265571807  0.8874776415158696
  0.9347731136764671  0.9273807234236872  0.8880502916931278
  0.7931702465479212  0.0594210079296751  0.8492823245857668
  0.7834298339429310  0.2992104276405020  0.8488223856595308
  0.7934685409288632  0.5592421257676262  0.8461078173055052
  0.7947530799952188  0.7981926886316477  0.8486092860208730
  0.2937858667596984  0.0478684142806908  0.6510069934578213
  0.2915630257048412  0.3084104231802415  0.6530534685932906
  0.2953494307578192  0.5463254734341210  0.6514817465435389
  0.2937378579310844  0.8100368756651631  0.6539044287605783
  0.2110186154162395  0.1858608767650659  0.1483673837331808
  0.2059888238055849  0.4228769393467537  0.1456267925859377
  0.2081265988482176  0.6859675512442953  0.1524578367777776
  0.2092369176240663  0.9247277832423313  0.1510797023870433
  0.7066930705808474  0.1874838281511941  0.3553829011233958
  0.7088918082644586  0.4263981727196610  0.3610854766301516
  0.7071347272861083  0.6896433399385793  0.3584765458268144
  0.7088640805006765  0.9272023262972420  0.3512539639216672
  0.8871229095628177  0.0534390116445662  0.5187412887811866
  0.8883937261467494  0.3126933581100609  0.5192045100223767
  0.8885896551296709  0.5545488198178947  0.5216223149473360
  0.8878917421961050  0.8130147771953447  0.5195420088288637
  0.3860043530427458  0.0560894945017358  0.9799594963584179
  0.3926229582883518  0.2978089302082510  0.9758850769901376
  0.3840570801927802  0.5588427104327500  0.9788246133122708
  0.3898011634799941  0.7985972697006446  0.9835124668158657
  0.1142453036842598  0.1878483654858072  0.4830321635790492
  0.1162504394526624  0.4288249327023235  0.4793415729515951
  0.1153577753043647  0.6885664924030923  0.4841464860348581
  0.1151172317665487  0.9290373593990607  0.4773484130690321
  0.6129515614538918  0.1739346832059833  0.0127672127872509
  0.6078954495618554  0.4325950684137726  0.0064280511410857
  0.6145763087378160  0.6755982417211371  0.0221897675557804
  0.6165442851288709  0.9325723199730979  0.0219669895546584
  0.9794476545321703  0.0506041893440799  0.2831697956814884
  0.9778138406971598  0.3111196354161672  0.2790788812578545
  0.9823480626956191  0.5490414169363942  0.2872662859957008
  0.9781701350304579  0.8101791895360990  0.2802369526600315
  0.4787234626108392  0.0642584079692175  0.2165418023955013
  0.4828643030785221  0.3029688861357198  0.2164123558826501
  0.4710667018853393  0.5608206739150217  0.2164354136093022
  0.4815078459636546  0.8013181431421696  0.2212898504351619
  0.0211784218935216  0.1823046477648003  0.7183097992272591
  0.0214310776887349  0.4205086032516327  0.7161918732407982
  0.0256369010271236  0.6834653039077576  0.7189235500701856
  0.0222770294455480  0.9218711013499252  0.7161852486561928
  0.5233525214895208  0.1779948700315678  0.7830003757474708
  0.5247319313948819  0.4275517338781201  0.7808802528089136
  0.5230472560171077  0.6716913977892851  0.7847313063979042
  0.5234933659640028  0.9361234421728312  0.7843398879733245
  0.5758489106171916  0.0514465440739353  0.5724484376209212
  0.5755225818662639  0.3092633069096580  0.5722768770313804
  0.5748287546946231  0.5518368948177316  0.5713189987124259
  0.5761908223999579  0.8110420749246239  0.5751446518074547
  0.0774630399578631  0.0569759506853252  0.9254504613420725
  0.0738110284087807  0.2975215252978715  0.9257823852831142
  0.0751332519577844  0.5591149287272976  0.9250508906705961
  0.0807342108623451  0.8009643776787913  0.9289561256707729
  0.4229149055193562  0.1847484770649790  0.4286715336929681
  0.4241960737760088  0.4262708019351323  0.4270788096329859
  0.4240740580418459  0.6854978500960546  0.4295111342043691
  0.4233668028949579  0.9273992541967713  0.4282586729863829
  0.9249442431420307  0.1808343106393807  0.0702958979286356
  0.9305592657684926  0.4249033862662728  0.0664894935537643
  0.9270877253653081  0.6847421336505740  0.0703411026749256
  0.9266146961578691  0.9249514287925152  0.0713987974561929
 
             NaN             NaN             NaN
             NaN             NaN             NaN
             NaN             NaN             NaN
             NaN             NaN             NaN
             NaN             NaN             NaN
             NaN             NaN             NaN
             NaN             NaN             NaN
             NaN             NaN             NaN
             NaN             NaN             NaN
             NaN             NaN             NaN
             NaN             NaN             NaN
             NaN             NaN             NaN
             NaN             NaN             NaN
             NaN             NaN             NaN
             NaN             NaN             NaN
             NaN             NaN             NaN
             NaN             NaN             NaN
             NaN             NaN             NaN
             NaN             NaN             NaN
             NaN             NaN             NaN
             NaN             NaN             NaN
             NaN             NaN             NaN
             NaN             NaN             NaN
             NaN             NaN             NaN
             NaN             NaN             NaN
             NaN             NaN             NaN
             NaN             NaN             NaN
             NaN             NaN             NaN
             NaN             NaN             NaN
             NaN             NaN             NaN
             NaN             NaN             NaN
             NaN             NaN             NaN
             NaN             NaN             NaN
             NaN             NaN             NaN
             NaN             NaN             NaN
             NaN             NaN             NaN
             NaN             NaN             NaN
             NaN             NaN             NaN
             NaN             NaN             NaN
             NaN             NaN             NaN
             NaN             NaN             NaN
             NaN             NaN             NaN
             NaN             NaN             NaN
             NaN             NaN             NaN
             NaN             NaN             NaN
             NaN             NaN             NaN
             NaN             NaN             NaN
             NaN             NaN             NaN
             NaN             NaN             NaN
             NaN             NaN             NaN
             NaN             NaN             NaN
             NaN             NaN             NaN
             NaN             NaN             NaN
             NaN             NaN             NaN
             NaN             NaN             NaN
             NaN             NaN             NaN
             NaN             NaN             NaN
             NaN             NaN             NaN
             NaN             NaN             NaN
             NaN             NaN             NaN
             NaN             NaN             NaN
             NaN             NaN             NaN
             NaN             NaN             NaN
             NaN             NaN             NaN
             NaN             NaN             NaN
             NaN             NaN             NaN
             NaN             NaN             NaN
             NaN             NaN             NaN
             NaN             NaN             NaN
             NaN             NaN             NaN
             NaN             NaN             NaN
             NaN             NaN             NaN
             NaN             NaN             NaN
             NaN             NaN             NaN
             NaN             NaN             NaN
             NaN             NaN             NaN
             NaN             NaN             NaN
             NaN             NaN             NaN
             NaN             NaN             NaN
             NaN             NaN             NaN
             NaN             NaN             NaN
             NaN             NaN             NaN
             NaN             NaN             NaN
             NaN             NaN             NaN
             NaN             NaN             NaN
             NaN             NaN             NaN
             NaN             NaN             NaN
             NaN             NaN             NaN
             NaN             NaN             NaN
             NaN             NaN             NaN
             NaN             NaN             NaN
             NaN             NaN             NaN
             NaN             NaN             NaN
             NaN             NaN             NaN
             NaN             NaN             NaN
             NaN             NaN             NaN
             NaN             NaN             NaN
             NaN             NaN             NaN
             NaN             NaN             NaN
             NaN             NaN             NaN
             NaN             NaN             NaN
             NaN             NaN             NaN
             NaN             NaN             NaN
             NaN             NaN             NaN
             NaN             NaN             NaN
             NaN             NaN             NaN
             NaN             NaN             NaN
             NaN             NaN             NaN
             NaN             NaN             NaN
             NaN             NaN             NaN
             NaN             NaN             NaN
