Na15 V32 O64                            
   1.00000000000000     
     9.2557510000000001    0.0051170000000000    0.0000450000000000
     0.0064150000000000   11.8412480000000002    0.0129800000000000
    -0.0004710000000000    0.0126150000000000   10.7941520000000004
   Na   V    O 
    15    32    64
Direct
  0.7400260675211090  0.4117348411605083  0.1663127907374158
  0.7468509930653620  0.0679236395392513  0.1501500844704149
  0.7425736053695919  0.7952035163865342  0.1535860038259458
  0.2436871727364627  0.0604279437887545  0.3512951174965802
  0.2425042793996262  0.3107588073157526  0.3432543150732875
  0.2455221684964536  0.5606384946408250  0.3512554308666832
  0.2427532354485196  0.8093168938748528  0.3436903784201404
  0.2552442489317647  0.1806409654837504  0.8462770230995244
  0.2562799359674915  0.4316557994797881  0.8510924094915806
  0.2563447058857404  0.6825723632296046  0.8488829536857774
  0.2546871778770614  0.9316934171747531  0.8519655592629788
  0.7566632632801070  0.1830504804001152  0.6491269409702218
  0.7560229281372222  0.4345558206955399  0.6516588122471917
  0.7588099242888637  0.6829573140531640  0.6512551112330491
  0.7572418399081565  0.9348210276667782  0.6519569654332201
  0.5812656953761668  0.0523613832617713  0.8980653948849309
  0.5815439755476628  0.3052394539900984  0.8893286994963477
  0.5838258757970631  0.5603117201214218  0.9003910352858390
  0.5835787062960192  0.8052515578823619  0.8973267102523264
  0.0811280667856923  0.0594129923084315  0.6042477266721389
  0.0834743284801808  0.3101109935767979  0.6008818315199778
  0.0827160005403158  0.5593842562042665  0.6071672889702314
  0.0789583221232815  0.8132963823153128  0.5999273981348774
  0.4185625405449608  0.1816945864493331  0.1008379677612670
  0.4129358512720267  0.4320762241046551  0.1047951658929911
  0.4193682538757724  0.6806768086234185  0.1026928536748143
  0.4185758358911572  0.9317873924926298  0.1078538289797876
  0.9158123988819009  0.1871866605713930  0.3933230069755016
  0.9216121346175956  0.4372560235633535  0.4002679396013750
  0.9182342474067937  0.6860115731819924  0.3948482995616874
  0.9174162269303338  0.9371921606647462  0.3946328078296074
  0.5652120564568015  0.0584819136534056  0.3884622927380721
  0.5625519247728673  0.3076672972202648  0.3885173777398359
  0.5677762372438818  0.5602869999857208  0.3856007290557932
  0.5630448748600023  0.8058041568245103  0.3871929301491062
  0.0674308751958834  0.0567758346932053  0.1103012509098625
  0.0588707489862212  0.3056734897078974  0.1120213519236345
  0.0643048385516400  0.5582399362202607  0.1120950192793499
  0.0623933167768761  0.8080304862368505  0.1123375887911084
  0.4331361395946177  0.1821572409359104  0.6150435581977496
  0.4385117635541165  0.4372337765245506  0.6129828968163114
  0.4362291915528295  0.6822053186074380  0.6136746966287540
  0.4367406973144473  0.9276037573082337  0.6109536226755532
  0.9372040009956111  0.1844536204679928  0.8855167197349908
  0.9344107126844335  0.4314621476762120  0.8843272916544446
  0.9389929795817380  0.6842078806223492  0.8874559670279794
  0.9319229198080371  0.9309517755926620  0.8875621610137515
  0.7895589475808207  0.0599062587742144  0.8458453661989332
  0.7933259544674167  0.2993235588102529  0.8447882947475688
  0.7935145470290625  0.5606397723090685  0.8449682861303737
  0.7935379692237560  0.8001058908658772  0.8472744474389701
  0.2955167934828208  0.0571081439200149  0.6460865894774921
  0.2966180511217409  0.3075318600833907  0.6491329739379649
  0.2955789202573328  0.5501483218158925  0.6506915562156901
  0.2957154762689915  0.8157433638973139  0.6524470566811105
  0.2081452960655951  0.1887619151981143  0.1519863817716518
  0.2052076617906832  0.4271088487739552  0.1490805588180118
  0.2076299910142134  0.6892724775352737  0.1531014811902436
  0.2070506475527238  0.9280987459823616  0.1508667546640545
  0.7032066007675534  0.1893403345088043  0.3584248728745103
  0.7083913954725299  0.4289700205918959  0.3639931663148350
  0.7072356934154568  0.6918773342238999  0.3570191735204533
  0.7072006476408556  0.9306876995052645  0.3510905655401959
  0.8856996092897259  0.0568549114880298  0.5188654256951882
  0.8881249827965102  0.3158328580016133  0.5209949346329081
  0.8890602069510544  0.5576709856251725  0.5221638819287652
  0.8867278788439945  0.8164230787566191  0.5190952233117530
  0.3832286441063144  0.0588544085246123  0.9804768007588452
  0.3873563946798733  0.2996315988878187  0.9808817884441462
  0.3822874758007237  0.5617351032150060  0.9793997912677578
  0.3879606784846677  0.8014698953275562  0.9836379763636826
  0.1123227035677829  0.1919085553874138  0.4807173211819410
  0.1162965199504393  0.4323954699494937  0.4789950278006900
  0.1153842565083383  0.6927854351335656  0.4841907506476527
  0.1133744429452728  0.9331943806504810  0.4761794891282932
  0.6104565504708788  0.1738083767260184  0.0118642529240093
  0.6065009753081163  0.4377418325047730  0.0086267522560311
  0.6133472441846449  0.6784086387704490  0.0212694591808745
  0.6147906087178312  0.9353593130055347  0.0205423619759105
  0.9756070800168222  0.0541953751994458  0.2819756572872447
  0.9753531387461735  0.3148505212580966  0.2800783447520576
  0.9792870040187295  0.5517708242615696  0.2864230124165903
  0.9765129472777279  0.8134795050677486  0.2801213748247642
  0.4755307962748410  0.0672044744928245  0.2178920527607333
  0.4808175094052515  0.3064282518776194  0.2196157353098428
  0.4723935518786729  0.5638473120026448  0.2169531369768949
  0.4809358167637823  0.8041088444815159  0.2206100659689675
  0.0241574171538382  0.1852725495626010  0.7174920929726714
  0.0273893168369811  0.4228022699334039  0.7156376606095780
  0.0256283957352868  0.6865874813582648  0.7181958768192584
  0.0241780444025888  0.9249133142971631  0.7153634869881362
  0.5149249467952633  0.1774937274027131  0.7745249880585692
  0.5228235526724394  0.4337947833002447  0.7789613857435324
  0.5210965493726546  0.6749526184862684  0.7851380076205744
  0.5190261934514966  0.9374067860852536  0.7845416375285145
  0.5709424241833519  0.0532550786837834  0.5742848024894245
  0.5736941879231688  0.3099735241172846  0.5739482504961381
  0.5774401857586542  0.5552342320284127  0.5711749699534732
  0.5792449158026680  0.8112921839445330  0.5741206396330549
  0.0728665868717500  0.0611447201643552  0.9245338028008668
  0.0790414615410421  0.3013062124921824  0.9275500634546021
  0.0752357914801313  0.5628839410449268  0.9245883968546404
  0.0792282338803821  0.8042941040834949  0.9288592997289230
  0.4202130604584530  0.1867971785586457  0.4356640246108048
  0.4245674983652610  0.4299447591618703  0.4282610603144885
  0.4235740814803878  0.6877587825168433  0.4298804314941015
  0.4233996330437600  0.9281775633265031  0.4282750698286082
  0.9235746872345967  0.1856882345416229  0.0694792957104997
  0.9327269770917775  0.4278502827178655  0.0653681036450744
  0.9261946765531702  0.6876379264782457  0.0701493216636155
  0.9246080579795058  0.9280483060734630  0.0709726418938418
 
             NaN             NaN             NaN
             NaN             NaN             NaN
             NaN             NaN             NaN
             NaN             NaN             NaN
             NaN             NaN             NaN
             NaN             NaN             NaN
             NaN             NaN             NaN
             NaN             NaN             NaN
             NaN             NaN             NaN
             NaN             NaN             NaN
             NaN             NaN             NaN
             NaN             NaN             NaN
             NaN             NaN             NaN
             NaN             NaN             NaN
             NaN             NaN             NaN
             NaN             NaN             NaN
             NaN             NaN             NaN
             NaN             NaN             NaN
             NaN             NaN             NaN
             NaN             NaN             NaN
             NaN             NaN             NaN
             NaN             NaN             NaN
             NaN             NaN             NaN
             NaN             NaN             NaN
             NaN             NaN             NaN
             NaN             NaN             NaN
             NaN             NaN             NaN
             NaN             NaN             NaN
             NaN             NaN             NaN
             NaN             NaN             NaN
             NaN             NaN             NaN
             NaN             NaN             NaN
             NaN             NaN             NaN
             NaN             NaN             NaN
             NaN             NaN             NaN
             NaN             NaN             NaN
             NaN             NaN             NaN
             NaN             NaN             NaN
             NaN             NaN             NaN
             NaN             NaN             NaN
             NaN             NaN             NaN
             NaN             NaN             NaN
             NaN             NaN             NaN
             NaN             NaN             NaN
             NaN             NaN             NaN
             NaN             NaN             NaN
             NaN             NaN             NaN
             NaN             NaN             NaN
             NaN             NaN             NaN
             NaN             NaN             NaN
             NaN             NaN             NaN
             NaN             NaN             NaN
             NaN             NaN             NaN
             NaN             NaN             NaN
             NaN             NaN             NaN
             NaN             NaN             NaN
             NaN             NaN             NaN
             NaN             NaN             NaN
             NaN             NaN             NaN
             NaN             NaN             NaN
             NaN             NaN             NaN
             NaN             NaN             NaN
             NaN             NaN             NaN
             NaN             NaN             NaN
             NaN             NaN             NaN
             NaN             NaN             NaN
             NaN             NaN             NaN
             NaN             NaN             NaN
             NaN             NaN             NaN
             NaN             NaN             NaN
             NaN             NaN             NaN
             NaN             NaN             NaN
             NaN             NaN             NaN
             NaN             NaN             NaN
             NaN             NaN             NaN
             NaN             NaN             NaN
             NaN             NaN             NaN
             NaN             NaN             NaN
             NaN             NaN             NaN
             NaN             NaN             NaN
             NaN             NaN             NaN
             NaN             NaN             NaN
             NaN             NaN             NaN
             NaN             NaN             NaN
             NaN             NaN             NaN
             NaN             NaN             NaN
             NaN             NaN             NaN
             NaN             NaN             NaN
             NaN             NaN             NaN
             NaN             NaN             NaN
             NaN             NaN             NaN
             NaN             NaN             NaN
             NaN             NaN             NaN
             NaN             NaN             NaN
             NaN             NaN             NaN
             NaN             NaN             NaN
             NaN             NaN             NaN
             NaN             NaN             NaN
             NaN             NaN             NaN
             NaN             NaN             NaN
             NaN             NaN             NaN
             NaN             NaN             NaN
             NaN             NaN             NaN
             NaN             NaN             NaN
             NaN             NaN             NaN
             NaN             NaN             NaN
             NaN             NaN             NaN
             NaN             NaN             NaN
             NaN             NaN             NaN
             NaN             NaN             NaN
             NaN             NaN             NaN
