Na47 P16 S64
1.0
13.746121 -0.008538 -0.000013
-0.008612 13.761091 -0.000477
-0.000079 -0.000195 14.176630
Na P S
47 16 64
direct
0.609917 0.748737 0.733500 Na
0.999868 0.250452 0.205107 Na
0.999410 0.250238 0.704409 Na
0.999408 0.750441 0.209710 Na
0.986258 0.751996 0.715009 Na
0.500135 0.249546 0.206000 Na
0.500588 0.249766 0.705571 Na
0.500588 0.749567 0.208501 Na
0.249379 0.999379 0.292911 Na
0.248482 0.998556 0.791727 Na
0.251221 0.500620 0.296023 Na
0.250673 0.502266 0.794686 Na
0.748792 0.998924 0.293609 Na
0.747571 0.984592 0.788228 Na
0.750607 0.501076 0.290504 Na
0.753285 0.514590 0.785278 Na
0.252536 0.999170 0.041806 Na
0.244882 0.999666 0.543124 Na
0.247715 0.499787 0.045936 Na
0.254760 0.503199 0.546912 Na
0.752474 1.000175 0.042309 Na
0.744926 0.997675 0.542719 Na
0.747270 0.500892 0.038186 Na
0.755438 0.499433 0.538926 Na
0.500119 0.251363 0.456365 Na
0.501206 0.247425 0.954183 Na
0.500173 0.751558 0.468470 Na
0.500308 0.747105 0.952536 Na
0.999867 0.248632 0.454591 Na
0.998815 0.252575 0.953711 Na
0.999831 0.748436 0.462004 Na
0.999690 0.752894 0.959511 Na
0.993397 0.997909 0.501244 Na
0.002725 0.007394 0.000322 Na
0.008875 0.496413 0.499515 Na
0.997461 0.500732 0.998591 Na
0.492676 0.001136 0.500031 Na
0.505914 0.996859 0.999258 Na
0.505039 0.504555 0.501759 Na
0.493883 0.495012 0.000994 Na
0.249445 0.250900 0.249972 Na
0.249412 0.251562 0.750116 Na
0.250999 0.749173 0.250287 Na
0.278801 0.749272 0.749375 Na
0.750568 0.249104 0.249470 Na
0.750579 0.248443 0.750609 Na
0.748999 0.750828 0.249795 Na
0.499805 0.499527 0.250353 P
0.500704 0.498405 0.751805 P
0.499488 0.000189 0.250454 P
0.498028 0.999992 0.748679 P
0.000952 0.499571 0.249837 P
0.002330 0.498870 0.748359 P
-0.000233 0.000721 0.249732 P
0.998957 0.002725 0.751479 P
0.249842 0.250342 1.000047 P
0.249670 0.250699 0.499853 P
0.250361 0.748678 0.000691 P
0.249578 0.751627 0.499471 P
0.750177 0.249660 0.999923 P
0.750324 0.249288 0.499139 P
0.749631 0.751331 0.001874 P
0.750439 0.748363 0.497444 P
0.153808 0.174239 0.082421 S
0.153025 0.175142 0.581623 S
0.152875 0.675088 0.083519 S
0.155022 0.676206 0.583153 S
0.654292 0.173826 0.082930 S
0.653635 0.174890 0.581611 S
0.654254 0.674384 0.084341 S
0.654961 0.669188 0.576369 S
0.346345 0.325464 0.082742 S
0.346218 0.325512 0.582162 S
0.346734 0.824422 0.082775 S
0.345171 0.829135 0.579714 S
0.845588 0.326487 0.082609 S
0.847096 0.324449 0.581071 S
0.846117 0.826126 0.085098 S
0.844869 0.825465 0.579806 S
0.174346 0.347315 0.417723 S
0.174385 0.347240 0.918724 S
0.172120 0.844928 0.415196 S
0.176678 0.843392 0.916043 S
0.675698 0.345675 0.416257 S
0.675208 0.345158 0.917197 S
0.673341 0.844348 0.415485 S
0.671906 0.849267 0.923644 S
0.324777 0.154647 0.416994 S
0.324758 0.154437 0.917462 S
0.326669 0.655604 0.417607 S
0.325963 0.650075 0.921125 S
0.825157 0.152325 0.417006 S
0.825655 0.153177 0.918448 S
0.827881 0.655094 0.413082 S
0.825430 0.657284 0.918566 S
0.097281 0.423760 0.167931 S
0.101679 0.422407 0.670022 S
0.095505 0.925496 0.166591 S
0.091958 0.924713 0.668374 S
0.595096 0.424173 0.166820 S
0.597169 0.424629 0.668035 S
0.596133 0.925043 0.168716 S
0.590345 0.924553 0.663337 S
0.403990 0.075371 0.166976 S
0.400558 0.076992 0.668606 S
0.402729 0.574785 0.168740 S
0.407412 0.577893 0.670390 S
0.903626 0.076694 0.167770 S
0.900599 0.075954 0.669455 S
0.905637 0.574686 0.166573 S
0.910290 0.572827 0.661331 S
0.075695 0.096434 0.332393 S
0.077187 0.100919 0.829771 S
0.076338 0.595518 0.332547 S
0.074275 0.595292 0.833002 S
0.574506 0.096729 0.333123 S
0.577378 0.095218 0.829355 S
0.575421 0.595443 0.332278 S
0.576039 0.588272 0.840162 S
0.424945 0.403247 0.333380 S
0.422750 0.399820 0.830147 S
0.423754 0.904305 0.332667 S
0.423264 0.906798 0.834467 S
0.924845 0.403597 0.332138 S
0.922691 0.404039 0.828985 S
0.924484 0.904741 0.332156 S
0.926415 0.909644 0.838686 S
