Mg1 Ti16 S32
1.0
9.910416 0.005884 0.005340
-0.003123 9.911173 0.000047
-0.002376 -0.002042 9.914307
Mg Ti S
1 16 32
direct
0.500355 0.249667 0.749842 Mg
0.248563 0.749008 0.001510 Ti
0.500059 -0.007849 0.007197 Ti
0.757900 0.249942 0.007076 Ti
1.000880 0.501340 0.001398 Ti
0.500073 0.250018 0.249771 Ti
0.248391 0.501419 0.249268 Ti
0.242878 0.250093 0.492461 Ti
0.499965 0.507400 0.492525 Ti
0.500169 0.749596 0.750080 Ti
0.757904 0.507138 0.750074 Ti
0.751228 0.750917 0.498867 Ti
0.242940 -0.007867 0.750154 Ti
0.751236 -0.001113 0.250871 Ti
1.000427 0.249750 0.749856 Ti
0.999654 0.750293 0.250380 Ti
0.999216 0.998763 0.498821 Ti
0.746896 0.003182 0.004877 S
0.003155 0.746783 0.003344 S
0.000970 0.003531 0.747577 S
0.746463 0.749094 0.747602 S
0.253455 0.995076 0.996725 S
0.999616 0.252469 0.996354 S
0.996809 0.997065 0.253445 S
0.253647 0.252514 0.250772 S
0.746726 0.504879 0.503362 S
0.000896 0.247528 0.503705 S
0.002975 0.503187 0.246836 S
0.746418 0.247613 0.249006 S
0.253247 0.496692 0.495305 S
0.996702 0.753311 0.497139 S
0.999600 0.496322 0.752587 S
0.253648 0.750438 0.752692 S
0.245310 0.003280 0.503467 S
0.502443 0.749255 0.503828 S
0.502523 0.003680 0.249103 S
0.246734 0.746801 0.246915 S
0.752846 0.997288 0.497188 S
0.495144 0.255011 0.496278 S
0.495251 0.996080 0.755027 S
0.753931 0.254824 0.754900 S
0.247153 0.502780 0.003117 S
0.505248 0.244775 0.003408 S
0.505230 0.503299 0.744957 S
0.246747 0.244760 0.744945 S
0.754868 0.496564 0.996606 S
0.497515 0.750417 0.996510 S
0.497344 0.496419 0.250787 S
0.752900 0.753385 0.253454 S
