Mg15 Mn32 O64                           
   1.00000000000000     
    11.4338429999999995   -0.0006760000000000    0.0026300000000000
    -0.0004330000000000   11.4179329999999997    0.0001590000000000
    -0.0004470000000000    0.0001160000000000    9.2393450000000001
   Mg   Mn   O 
    15    32    64
Direct
  0.4998960508790448  0.6321478298556842  0.6652221212826134
  0.0000080091003438  0.2458123321361044  0.7404924077526579
  0.9999461866676903  0.7459789357951214  0.7430930849683858
  0.5000475609480363  0.2476521218440418  0.7491432057545981
  1.0002048479734122  0.4966950543798844  0.4958993827640336
 -0.0001336180214824 -0.0052048437834008  0.4966587460966144
  0.4998315379057669 -0.0099910353698499  0.4913278576269091
  0.2489172388347061 -0.0041650602500659  0.2455950378359423
  0.2516142458380244  0.4943937223958384  0.2466894954515771
  0.7508993161103400 -0.0041714970473688  0.2454928020432874
  0.7481880318446867  0.4942255573589438  0.2464696203244675
  0.2471570850799337  0.2407722019472459 -0.0052660464217999
  0.2489534334848998  0.7459161094910440  0.9886630608928929
  0.7527483614232615  0.2412121142930648 -0.0054227627860732
  0.7508889223164007  0.7459159458637049  0.9887897386816834
  0.1253737999619010  0.2465180243249230  0.3744535331396379
  0.1250702073381883  0.7463417847765628  0.3682842870977947
  0.6239842818835162  0.2452400241797379  0.3670837652036628
  0.6247315291516052  0.7428424630492101  0.3614269360609064
  0.3750664066754109  0.2456343952120233  0.3676160376201621
  0.3747813836510780  0.7426178334967285  0.3605396258488751
  0.8752239556564173  0.2462296274972315  0.3737454369538936
  0.8755411532192088  0.7476091439202633  0.3688340219159311
  0.1260054921852597 -0.0041874356687745  0.8665413117336943
  0.1239665018269729  0.4930063838467599  0.8697982942346388
  0.6224086820758895 -0.0069919613975970  0.8666074709879885
  0.6309275145244230  0.4917203282252774  0.8838931052312433
  0.3771243688135494 -0.0071479470987348  0.8677875588063575
  0.3690236207293969  0.4913411179774290  0.8831136415244634
  0.8744340897929268 -0.0040724152626019  0.8667601044211329
  0.8769602346490086  0.4938598608058526  0.8705830836973180
  1.0000090539163302  0.1192685832510120  0.1189077064660955
  1.0004766757237031  0.6177087431226480  0.1184804526036190
  0.4979668245976386  0.1214886606616886  0.1183409878710184
  0.5010875315156026  0.6190241892535362  0.1158182251331006
  0.0005576251898405  0.3690814855171146  0.1246991441853252
 -0.0009543277830207  0.8705534316909304  0.1177011686440659
  0.5043336887680032  0.3664585515433816  0.1219570353267356
  0.4973449275544361  0.8655236171284217  0.1112232064815488
  0.2563347176524426  0.3720133364393099  0.6207514391688400
  0.2547877046517580  0.8667916064456830  0.6193230339412005
  0.7441701704442004  0.3719341575652056  0.6197034979620920
  0.7448894099348846  0.8669850294152268  0.6190820257222263
  0.2525691173448496  0.1191137593170428  0.6183307993471793
  0.2494867334174256  0.6184000349820760  0.6183057813403492
  0.7473964090796333  0.1190319506186950  0.6188277163877633
  0.7506502417437672  0.6184981558413312  0.6185792012272614
  0.1409696472948535  0.2461599948406318  0.6163313323978192
  0.1383099241105017  0.7454901211051453  0.6151184572631094
  0.6339035437817750  0.2465319366253335  0.6150087549718599
  0.6340286081213653  0.7362360010228487  0.6035739901685394
  0.3663637005020653  0.2465229720693617  0.6152652202752948
  0.3658084755691944  0.7363542035563951  0.6035084565364126
  0.8591487196117891  0.2460394181949242  0.6160475248401870
  0.8613475738911673  0.7454425578557252  0.6151249437298151
  0.1402962166329314 -0.0062314516023558  0.6211193791291418
  0.1387625026293129  0.4917911418725580  0.6228303564196803
  0.6355333018130074 -0.0063734618368972  0.6212938763105765
  0.6329244643317037  0.5014719312489271  0.6455263375802351
  0.3642260677776492 -0.0063468001025539  0.6213091503353502
  0.3673056965128926  0.5018656819394275  0.6457117945272437
  0.8593854216590053 -0.0063807907114404  0.6210926999137070
  0.8613493204937637  0.4919283087247070  0.6225658238712281
 -0.0001952073379030  0.1097684714061699  0.8712075834873372
  0.0004995691463138  0.6069075531874463  0.8710385071303434
  0.4999934253183438  0.1090182648603302  0.8752431170076473
  0.5002177781356273  0.5998665287543450  0.8936899682711080
  0.0001199261925308  0.3808181268477953  0.8735233524888372
  0.9998117262843894  0.8838777914497127  0.8714005988484681
  0.4997483861276059  0.3729088021404375  0.9024984541255388
  0.5000522088656616  0.8861927498616571  0.8854956847942971
 -0.0002997250001092  0.3594679548364263  0.3686000159964506
  0.9997943273244309  0.8599887222386956  0.3650083355889931
  0.4997316226626781  0.3543754846492714  0.3245000850728459
  0.5000643751985911  0.8548426166998908  0.3569827211436913
 -0.0001698144721194  0.1340513338328003  0.3701653242706033
  0.9998959042963433  0.6340260212007489  0.3667696659050073
  0.4999040107530375  0.1321439392164720  0.3650968843030190
  0.4998764339709931  0.6327849072480113  0.3215386674643921
  0.3872946313059832 -0.0068902820241167  0.1181651822700084
  0.3890465316360824  0.4914769742410433  0.1183210391205786
  0.8867336019700959 -0.0025227810995684  0.1156310943540220
  0.8867755826231259  0.4968370934453968  0.1185275486231894
  0.1132133947908436 -0.0023452883408260  0.1156316637896400
  0.1131092501619498  0.4967088199317635  0.1186071765266651
  0.6144781056464212 -0.0073056367955171  0.1186902867951164
  0.6094387174291855  0.4914342284913857  0.1178337630370251
  0.3881135520773707  0.2434670663724201  0.1182987949855298
  0.3896546345713437  0.7407038972270885  0.1127083902086185
  0.8870664249384276  0.2468792322925725  0.1261772216245013
  0.8865584015629883  0.7476698594577127  0.1206171961371379
  0.1127729898441925  0.2467813243069287  0.1261744181067545
  0.1134431034713941  0.7475062446611354  0.1206551851345953
  0.6109507730445642  0.2437739374184439  0.1183021184267960
  0.6114904246078846  0.7405919632596205  0.1124748147218132
  0.2509280813896276  0.3584635582259569  0.3755604486646025
  0.2517527427968964  0.8572326083645680  0.3706059494139255
  0.7490650285169723  0.3586018773062675  0.3756424946842599
  0.7480066945873596  0.8572683053967021  0.3704111038915167
  0.2508388402074457  0.1340173372529770  0.3737980590642478
  0.2479014246233140  0.6322102034441527  0.3691137781258768
  0.7489331302071268  0.1336408696126126  0.3737658467514201
  0.7520170553435582  0.6319599241897140  0.3691096677461335
  0.2504379752420139  0.1071769829471644  0.8633838502470675
  0.2487530775545664  0.6033964147092536  0.8719228064733734
  0.7492364539129230  0.1073924452730807  0.8634092736058298
  0.7520024795459987  0.6037937325895187  0.8714331618963814
  0.2500055406372997  0.3790559950042423  0.8706232118540305
  0.2483646724380304  0.8822880623680107  0.8616215929639155
  0.7508587468443316  0.3791871484508244  0.8704974730494578
  0.7512026493128556  0.8821663034637728  0.8619065860747754
 
             NaN             NaN             NaN
             NaN             NaN             NaN
             NaN             NaN             NaN
             NaN             NaN             NaN
             NaN             NaN             NaN
             NaN             NaN             NaN
             NaN             NaN             NaN
             NaN             NaN             NaN
             NaN             NaN             NaN
             NaN             NaN             NaN
             NaN             NaN             NaN
             NaN             NaN             NaN
             NaN             NaN             NaN
             NaN             NaN             NaN
             NaN             NaN             NaN
             NaN             NaN             NaN
             NaN             NaN             NaN
             NaN             NaN             NaN
             NaN             NaN             NaN
             NaN             NaN             NaN
             NaN             NaN             NaN
             NaN             NaN             NaN
             NaN             NaN             NaN
             NaN             NaN             NaN
             NaN             NaN             NaN
             NaN             NaN             NaN
             NaN             NaN             NaN
             NaN             NaN             NaN
             NaN             NaN             NaN
             NaN             NaN             NaN
             NaN             NaN             NaN
             NaN             NaN             NaN
             NaN             NaN             NaN
             NaN             NaN             NaN
             NaN             NaN             NaN
             NaN             NaN             NaN
             NaN             NaN             NaN
             NaN             NaN             NaN
             NaN             NaN             NaN
             NaN             NaN             NaN
             NaN             NaN             NaN
             NaN             NaN             NaN
             NaN             NaN             NaN
             NaN             NaN             NaN
             NaN             NaN             NaN
             NaN             NaN             NaN
             NaN             NaN             NaN
             NaN             NaN             NaN
             NaN             NaN             NaN
             NaN             NaN             NaN
             NaN             NaN             NaN
             NaN             NaN             NaN
             NaN             NaN             NaN
             NaN             NaN             NaN
             NaN             NaN             NaN
             NaN             NaN             NaN
             NaN             NaN             NaN
             NaN             NaN             NaN
             NaN             NaN             NaN
             NaN             NaN             NaN
             NaN             NaN             NaN
             NaN             NaN             NaN
             NaN             NaN             NaN
             NaN             NaN             NaN
             NaN             NaN             NaN
             NaN             NaN             NaN
             NaN             NaN             NaN
             NaN             NaN             NaN
             NaN             NaN             NaN
             NaN             NaN             NaN
             NaN             NaN             NaN
             NaN             NaN             NaN
             NaN             NaN             NaN
             NaN             NaN             NaN
             NaN             NaN             NaN
             NaN             NaN             NaN
             NaN             NaN             NaN
             NaN             NaN             NaN
             NaN             NaN             NaN
             NaN             NaN             NaN
             NaN             NaN             NaN
             NaN             NaN             NaN
             NaN             NaN             NaN
             NaN             NaN             NaN
             NaN             NaN             NaN
             NaN             NaN             NaN
             NaN             NaN             NaN
             NaN             NaN             NaN
             NaN             NaN             NaN
             NaN             NaN             NaN
             NaN             NaN             NaN
             NaN             NaN             NaN
             NaN             NaN             NaN
             NaN             NaN             NaN
             NaN             NaN             NaN
             NaN             NaN             NaN
             NaN             NaN             NaN
             NaN             NaN             NaN
             NaN             NaN             NaN
             NaN             NaN             NaN
             NaN             NaN             NaN
             NaN             NaN             NaN
             NaN             NaN             NaN
             NaN             NaN             NaN
             NaN             NaN             NaN
             NaN             NaN             NaN
             NaN             NaN             NaN
             NaN             NaN             NaN
             NaN             NaN             NaN
             NaN             NaN             NaN
             NaN             NaN             NaN
