Mg15 Mn32 O64
1.0
11.433843 -0.000676 0.002630
-0.000433 11.417933 0.000159
-0.000447 0.000116 9.239345
Mg Mn O
15 32 64
direct
0.499657 0.684233 0.688231 Mg
0.999786 0.250374 0.747046 Mg
0.999954 0.749841 0.747820 Mg
0.499682 0.254600 0.751885 Mg
0.999240 0.500145 0.500466 Mg
0.000209 -0.000007 0.502849 Mg
0.500113 -0.001561 0.498132 Mg
0.250272 0.000455 0.250481 Mg
0.249802 0.499615 0.252799 Mg
0.752092 0.000381 0.250469 Mg
0.748199 0.499685 0.253875 Mg
0.247670 0.249007 0.999428 Mg
0.249008 0.751052 0.998270 Mg
0.751815 0.248711 0.999079 Mg
0.752017 0.751243 0.998490 Mg
0.124407 0.248667 0.376330 Mn
0.124938 0.751424 0.375669 Mn
0.623922 0.251785 0.375293 Mn
0.625317 0.748188 0.373299 Mn
0.374847 0.251688 0.374350 Mn
0.374541 0.748175 0.372415 Mn
0.874241 0.248538 0.375922 Mn
0.875415 0.751599 0.375463 Mn
0.126619 0.000561 0.873551 Mn
0.123187 0.499545 0.875123 Mn
0.625874 0.999023 0.873230 Mn
0.626778 0.500613 0.879198 Mn
0.376842 0.999382 0.873207 Mn
0.372595 0.500569 0.879065 Mn
0.876536 1.000450 0.872914 Mn
0.874957 0.499635 0.874798 Mn
0.000918 0.124869 0.124869 Mn
0.998979 0.624907 0.126040 Mn
0.500985 0.124800 0.123884 Mn
0.499984 0.625585 0.125716 Mn
0.998315 0.375159 0.126591 Mn
0.001983 0.875188 0.124370 Mn
0.499503 0.373727 0.126761 Mn
0.501504 0.875463 0.123077 Mn
0.251658 0.376546 0.625355 Mn
0.252319 0.874094 0.624455 Mn
0.747517 0.376430 0.625783 Mn
0.747773 0.874310 0.624596 Mn
0.252327 0.125254 0.624834 Mn
0.251142 0.623439 0.625230 Mn
0.747668 0.125269 0.624860 Mn
0.747771 0.624639 0.625371 Mn
0.138610 0.249322 0.620954 O
0.137970 0.750540 0.620666 O
0.634633 0.250494 0.619889 O
0.636018 0.749725 0.614297 O
0.364733 0.250720 0.619901 O
0.363210 0.748909 0.614479 O
0.860824 0.249507 0.621170 O
0.861750 0.750872 0.620855 O
0.139177 0.000172 0.628539 O
0.136112 0.499499 0.629102 O
0.635581 0.999833 0.628841 O
0.639132 0.500445 0.645085 O
0.364645 0.999794 0.628740 O
0.360040 0.500050 0.645063 O
0.861202 0.000310 0.628421 O
0.862490 0.500005 0.629213 O
0.001234 0.113364 0.877278 O
0.999149 0.612837 0.878558 O
0.501222 0.112670 0.877435 O
0.499679 0.613497 0.909456 O
0.999015 0.386488 0.878795 O
0.001385 0.887606 0.877108 O
0.499606 0.386636 0.899072 O
0.501079 0.886800 0.887757 O
0.999201 0.361592 0.372579 O
0.000306 0.864300 0.371438 O
0.499421 0.361895 0.339849 O
0.500020 0.861506 0.363890 O
0.999495 0.135974 0.371952 O
0.999923 0.638447 0.372119 O
0.499541 0.138597 0.371042 O
0.499984 0.637843 0.332629 O
0.389085 -0.000598 0.123535 O
0.389355 0.500392 0.125550 O
0.888527 0.999904 0.120675 O
0.885608 0.500094 0.123822 O
0.114475 0.000482 0.120416 O
0.111497 0.499751 0.123762 O
0.613524 -0.000310 0.123418 O
0.609775 0.500164 0.125474 O
0.388168 0.250626 0.122947 O
0.389469 0.749213 0.122241 O
0.886834 0.248990 0.129538 O
0.887834 0.751174 0.128540 O
0.112144 0.250246 0.129382 O
0.113127 0.749808 0.128358 O
0.611689 0.251522 0.123048 O
0.611599 0.748374 0.122433 O
0.249295 0.361959 0.378326 O
0.251143 0.862769 0.376882 O
0.749381 0.361932 0.378879 O
0.749087 0.862817 0.377087 O
0.250906 0.137378 0.378516 O
0.249396 0.637943 0.376671 O
0.748089 0.137241 0.378744 O
0.750464 0.638173 0.377198 O
0.251966 0.112700 0.870782 O
0.248402 0.612309 0.875586 O
0.750312 0.112338 0.870644 O
0.750428 0.612673 0.875507 O
0.248818 0.387448 0.875697 O
0.251457 0.887692 0.870757 O
0.749862 0.387193 0.875398 O
0.751008 0.887562 0.870586 O
