Li16 Co18 O36                           
   1.00000000000000     
     8.1674650000000000   -0.0042730000000000    2.4395579999999999
     3.7218429999999998    7.2702920000000004    2.4397250000000001
     0.0237340000000000    0.0147830000000000   10.0012209999999993
   Li   Co   O 
    16    18    36
Direct
  0.2643815750158141  0.5978195746232056  0.5153463061153507
  0.3342058964772787  0.3322942132087180  0.0009842095216120
  0.3333863674580013  0.6667204036954583  0.9998549617916304
  0.3329030169872310  0.9997191540046912  0.0009056783091484
  0.3325123105738673  0.0022762917654775  0.5017171312745351
  0.6669549840351682  0.3336443737308916  0.9992546088415563
  0.6534022787849542  0.3389999632887849  0.4993641258239898
  0.6663867877816684  0.6662307612753736  0.0009066798148549
  0.6689525272598607  0.6658326041966751  0.5017179757762683
  0.6664855181247576  0.9998225147324141  1.0008344976263037
  0.6666014222366746  0.9999314169035645  0.5012323249795653
  0.9992523119243171  0.3325891252132827  0.0009671332256460
  0.0211621914815785  0.3544701912548533  0.5004156272556579
  0.9989577460850082  0.6675424191028340  0.0009832215877751
  0.0003033748502433  0.0002958686789719  0.9992516218198855
  0.0056215995013726  0.9868447762656158  0.4993588909637118
  0.1658144067410972  0.1663044394576697  0.2471608842226914
  0.1679856004449772  0.1667331521561506  0.7523512245751061
  0.1656580067832227  0.4989903352816918  0.2472940887766277
  0.1654365681687026  0.4988015756339786  0.7567605048456517
  0.1653757764625544  0.8339247130628787  0.2468331780079200
  0.1676470578744198  0.8333860653238523  0.7530059912573609
  0.4987491724352633  0.1660913506060143  0.2507424757872805
  0.5000467952567434  0.1665943722152418  0.7516885760141602
  0.5005847443809599  0.4987119892175976  0.2468356791421141
  0.5000298586399849  0.5009994391868744  0.7530031363820687
  0.4984758394737462  0.8317790309851619  0.2510769957801971
  0.4994564468339053  0.8328027180116037  0.7559060751365488
  0.8335088758480036  0.1668215956779172  0.2459020183925715
  0.8343168730445572  0.1676766689535219  0.7496600295141532
  0.8329959306187410  0.4991286336803814  0.2471630647596429
  0.8333884449394223  0.5013272338483892  0.7523503999410305
  0.8327802683632379  0.8320605896443577  0.2507425310058417
  0.8332402006078701  0.8334050091047837  0.7516866546196691
  0.2510618872483264  0.2527365064483536  0.3525289568151265
  0.2547029592982528  0.2513784778705802  0.8625735923730076
  0.2552892662863703  0.5886237575085967  0.3418611964642937
  0.2537366786949680  0.5870965973451038  0.8630953112070184
  0.2506711290994891  0.9219973344633144  0.3540410112759987
  0.2516136919568054  0.9202282220823139  0.8634795753991155
  0.5912424210159757  0.2528506573664422  0.3520577808650225
  0.5885490042489465  0.2529832420444093  0.8593228295237120
  0.5886930054819202  0.5839764797595527  0.3540386640622642
  0.5868911431830965  0.5849495903803905  0.8634758715897932
  0.5856904736957158  0.9189926653388782  0.3595824118095150
  0.5878360131172871  0.9211789511512719  0.8620876357255713
  0.9197428238319729  0.2530503221746793  0.3528269865124354
  0.9199609974897551  0.2533070208240166  0.8594486081011866
  0.9194255746803371  0.5843708084033663  0.3525329693524843
  0.9180257642725375  0.5880557179029230  0.8625776806851813
  0.9195310431784322  0.9245617993981680  0.3520607292194936
  0.9196259171121978  0.9219051983789185  0.8593299767825253
  0.0803527579063051  0.0802556262848598  0.1368013879655808
  0.0819999287898968  0.0798515284438258  0.6437794200259278
  0.0797401972350048  0.4130555078222682  0.1377312939309750
  0.0786881166304691  0.4120385699952379  0.6527841838333180
  0.0771784834483197  0.7472277270821253  0.1391088878775938
  0.0798249783838096  0.7459166146390183  0.6501012228894547
  0.4138102015123407  0.0781061468760026  0.1417403159680611
  0.4145189504364084  0.0743296312312952  0.6495393935222651
  0.4138962285423205  0.4105064399510835  0.1391137614804707
  0.4125352519495236  0.4131992884254270  0.6500947015752456
  0.4138074997638435  0.7471369381584502  0.1395817387424211
  0.4142692720878423  0.7476347723631905  0.6493908833275986
  0.7449939731150916  0.0783119700798767  0.1406338455889008
  0.7466844986232399  0.0800546832149432  0.6423663403756187
  0.7469213159855245  0.4136790323449376  0.1368094834847955
  0.7464845613862561  0.4153608091996297  0.6437831177007196
  0.7447956960444388  0.7471230125043407  0.1417384681280931
  0.7409779345939442  0.7478720858740161  0.6495448258148852
 
             NaN             NaN             NaN
             NaN             NaN             NaN
             NaN             NaN             NaN
             NaN             NaN             NaN
             NaN             NaN             NaN
             NaN             NaN             NaN
             NaN             NaN             NaN
             NaN             NaN             NaN
             NaN             NaN             NaN
             NaN             NaN             NaN
             NaN             NaN             NaN
             NaN             NaN             NaN
             NaN             NaN             NaN
             NaN             NaN             NaN
             NaN             NaN             NaN
             NaN             NaN             NaN
             NaN             NaN             NaN
             NaN             NaN             NaN
             NaN             NaN             NaN
             NaN             NaN             NaN
             NaN             NaN             NaN
             NaN             NaN             NaN
             NaN             NaN             NaN
             NaN             NaN             NaN
             NaN             NaN             NaN
             NaN             NaN             NaN
             NaN             NaN             NaN
             NaN             NaN             NaN
             NaN             NaN             NaN
             NaN             NaN             NaN
             NaN             NaN             NaN
             NaN             NaN             NaN
             NaN             NaN             NaN
             NaN             NaN             NaN
             NaN             NaN             NaN
             NaN             NaN             NaN
             NaN             NaN             NaN
             NaN             NaN             NaN
             NaN             NaN             NaN
             NaN             NaN             NaN
             NaN             NaN             NaN
             NaN             NaN             NaN
             NaN             NaN             NaN
             NaN             NaN             NaN
             NaN             NaN             NaN
             NaN             NaN             NaN
             NaN             NaN             NaN
             NaN             NaN             NaN
             NaN             NaN             NaN
             NaN             NaN             NaN
             NaN             NaN             NaN
             NaN             NaN             NaN
             NaN             NaN             NaN
             NaN             NaN             NaN
             NaN             NaN             NaN
             NaN             NaN             NaN
             NaN             NaN             NaN
             NaN             NaN             NaN
             NaN             NaN             NaN
             NaN             NaN             NaN
             NaN             NaN             NaN
             NaN             NaN             NaN
             NaN             NaN             NaN
             NaN             NaN             NaN
             NaN             NaN             NaN
             NaN             NaN             NaN
             NaN             NaN             NaN
             NaN             NaN             NaN
             NaN             NaN             NaN
             NaN             NaN             NaN
