Mg7 Mn16 O32                            
   1.00000000000000     
     8.1741410000000005    0.0000360000000000   -0.0002340000000000
     0.0000490000000000    9.3579519999999992    0.0000290000000000
    -0.0002230000000000   -0.0000210000000000    8.1743009999999998
   Mg   Mn   O 
     7    16    32
Direct
  0.5000592192457501  0.7499237323968584  0.2499402977763871
  0.3792140605998476  0.3793584705031737  0.8805782001776472
  0.8694157946988059  0.3793684173173765  0.3707973178041948
  0.8723102541151726  0.8792984350281087  0.8776985823573635
  0.6207911382247422  0.1206294110914194  0.6194182416336791
  0.1277044230365128  0.6206909950035745  0.6222880368428669
  0.1305866226424847  0.1206226276485940  0.1291901144835659
 -0.0000043589120678  0.2499939211573410  0.7500038259669549
  1.0000249516159661  0.7500017234808464  0.2500000475924318
  0.5000019318473523  0.2499813704484170  0.2499957859498316
  0.5000009720434392  0.7500023129255351  0.7499756652603823
  0.2506462922099099  1.0036593151858164  0.7469101900934765
  0.2474882345869273  0.5008566295080020  0.2504048025835479
  0.7525094242410729 -0.0008736581670600  0.2495853658260669
  0.7493624254315208  0.4963526557153761  0.7530793206048657
  0.2472198543002301  0.2521542631422589  0.5027979802653676
  0.2441701678875917  0.7499817651640622 -0.0058402762156321
  0.7527776955600954  0.2478572228506377  0.9972068447713834
  0.7558510297039172  0.7500086533501797  0.5058173733643351
  0.0030025349846248  1.0037300655617150  0.4992821998207861
  0.9970065266735756  0.4962841691234802  1.0007075078984480
  0.5003329777352968 -0.0009027178736662  0.9973745131166009
  0.4996765453232871  0.5008803464676869  0.5026271464232270
  0.2354340652365697  0.0466488272858170  0.5145163864547502
  0.2330220917161537  0.5020125435945459  0.0094753669807185
  0.7435047300531208  0.0292180301414120  0.0064127078579927
  0.7405749102600677  0.5020521374160249  0.5170296772602463
  0.0120511577416434  0.2562428514811351  0.5130478938706753
  0.0058512461765201  0.7474533275257204  0.0130549783177808
  0.5145248705335097  0.2452257743616505  0.0137023712123721
  0.5200359072853067  0.7334591654289977  0.5093315359426904
  0.0145116317286721  0.0005055297588185  0.7354433278051691
  0.0113783339426276  0.5009322284837114  0.2364739256907284
  0.5210727523450035 -0.0148517976722952  0.2288423194735573
  0.5135971694231362  0.5009588204136415  0.7387077839565663
  0.2369903523535092  0.2562085713978751  0.7379481919440126
  0.2406780239363128  0.7334507012666486  0.2299394178850740
  0.7363258102038414  0.2452022013857954  0.2354841348955266
  0.7369781542541257  0.7474678143061134  0.7441260868854201
  0.7669861482080048  0.9979786033948721  0.4905183464096151
  0.7645749466140737  0.4533663583625633  0.9854766528799134
  0.2594349883647644  0.9979394874385544  0.9829607911214616
  0.2564975741162409  0.4707720847279485  0.4935808587468274
  0.9941706573358162  0.7525437664710219  0.4869405585779639
  0.9879502529137246  0.2437643748223058  0.9869592807589749
  0.4799887187324831  0.7664989954611610  0.9906326230408160
  0.4854806102835865  0.2547769398164740  0.4863012205138862
  0.9886247475658072  0.9990542253295168  0.2635167841635866
  0.9854955603936636  0.4994911200003317  0.7645496404986323
  0.4864097763073017  0.9990308821991741  0.7612885342596122
  0.4789314816163787  0.5148189928405196  0.2711552896788841
  0.7593570325555290  0.7665230942944672  0.2700351200026720
  0.7630015496929538  0.2437827976462759  0.7620571223890630
  0.2630251951809686  0.7525388175440487  0.7558491175207613
  0.2636758512583511  0.2547826180301652  0.2645159186606206
 
             NaN             NaN             NaN
             NaN             NaN             NaN
             NaN             NaN             NaN
             NaN             NaN             NaN
             NaN             NaN             NaN
             NaN             NaN             NaN
             NaN             NaN             NaN
             NaN             NaN             NaN
             NaN             NaN             NaN
             NaN             NaN             NaN
             NaN             NaN             NaN
             NaN             NaN             NaN
             NaN             NaN             NaN
             NaN             NaN             NaN
             NaN             NaN             NaN
             NaN             NaN             NaN
             NaN             NaN             NaN
             NaN             NaN             NaN
             NaN             NaN             NaN
             NaN             NaN             NaN
             NaN             NaN             NaN
             NaN             NaN             NaN
             NaN             NaN             NaN
             NaN             NaN             NaN
             NaN             NaN             NaN
             NaN             NaN             NaN
             NaN             NaN             NaN
             NaN             NaN             NaN
             NaN             NaN             NaN
             NaN             NaN             NaN
             NaN             NaN             NaN
             NaN             NaN             NaN
             NaN             NaN             NaN
             NaN             NaN             NaN
             NaN             NaN             NaN
             NaN             NaN             NaN
             NaN             NaN             NaN
             NaN             NaN             NaN
             NaN             NaN             NaN
             NaN             NaN             NaN
             NaN             NaN             NaN
             NaN             NaN             NaN
             NaN             NaN             NaN
             NaN             NaN             NaN
             NaN             NaN             NaN
             NaN             NaN             NaN
             NaN             NaN             NaN
             NaN             NaN             NaN
             NaN             NaN             NaN
             NaN             NaN             NaN
             NaN             NaN             NaN
             NaN             NaN             NaN
             NaN             NaN             NaN
             NaN             NaN             NaN
             NaN             NaN             NaN
