Mg7 Mn16 O32
1.0
8.174141 0.000036 -0.000234
0.000049 9.357952 0.000029
-0.000223 -0.000021 8.174301
Mg Mn O
7 16 32
direct
0.499990 0.750006 0.250010 Mg
0.377324 0.376015 0.877324 Mg
0.872681 0.376009 0.372666 Mg
0.872753 0.873879 0.877246 Mg
0.622683 0.123959 0.622689 Mg
0.127252 0.626115 0.622743 Mg
0.127316 0.123949 0.127315 Mg
0.000011 0.250017 0.749992 Mn
0.999997 0.750013 0.249972 Mn
0.499983 0.249978 0.250011 Mn
0.500017 0.749993 0.750006 Mn
0.249604 0.999921 0.748399 Mn
0.249840 0.499861 0.248628 Mn
0.750164 1.000168 0.251385 Mn
0.750395 0.500056 0.751586 Mn
0.248181 0.250334 0.501815 Mn
0.251233 0.750006 0.001253 Mn
0.751815 0.249666 0.998186 Mn
0.748744 0.749998 0.498762 Mn
0.001598 0.999925 0.500395 Mn
0.998419 0.500063 -0.000384 Mn
0.498617 1.000159 0.999828 Mn
0.501388 0.499830 0.500173 Mn
0.236058 1.017758 0.513944 O
0.237069 0.500658 0.012384 O
0.737184 0.008267 0.012815 O
0.737615 0.500651 0.512928 O
0.011906 0.251723 0.512990 O
0.012611 0.747503 0.012941 O
0.513315 0.243210 0.012252 O
0.514327 0.729654 0.514004 O
0.012489 1.000037 0.737508 O
0.011984 0.500651 0.236656 O
0.514240 0.026021 0.235758 O
0.513358 0.500641 0.738016 O
0.237020 0.251728 0.738078 O
0.235986 0.729777 0.235656 O
0.737750 0.243199 0.236693 O
0.737050 0.747514 0.737372 O
0.762943 -0.000689 0.487611 O
0.763949 0.482350 0.986050 O
0.262394 -0.000685 0.987040 O
0.262823 0.491708 0.487191 O
0.987357 0.752511 0.487005 O
0.988100 0.248257 0.986987 O
0.485678 0.770437 0.986024 O
0.486663 0.256695 0.487766 O
0.988015 -0.000677 0.263379 O
0.987498 0.499956 0.762502 O
0.486635 -0.000678 0.761976 O
0.485763 0.474053 0.264250 O
0.763959 0.770459 0.264333 O
0.763008 0.248257 0.761903 O
0.262993 0.752502 0.762632 O
0.262251 0.256631 0.263358 O
