Li17 Co18 O36                           
   1.00000000000000     
     8.1357079999999993   -0.0000400000000000    2.4095080000000002
     3.7111070000000002    7.2399920000000000    2.4095000000000000
    -0.0105240000000000   -0.0064280000000000    9.9945760000000003
   Li   Co   O 
    17    18    36
Direct
  0.3222458645521838  0.3829028024490140  0.5035748309835003
  0.3333793359378268  0.3344852023829983  0.9998554473024830
  0.3328793258414343  0.6679433667097416 -0.0000381179509438
  0.3336088894051272  1.0005185847030176 -0.0000741916302975
  0.3322413670567789  0.9945913370640749  0.5024133640929924
  0.6665952988852453  0.3340804390954292  0.0003421591684664
  0.6603258415452571  0.3415211101760050  0.5018379849505697
  0.6660098120773807  0.6680714129972956  0.0005340573990744
  0.6472832345898251  0.6679222657501021  0.5016670930885159
  0.6664270490905073  1.0003913686296988  0.0008095731738996
  0.6541569611262009  1.0119809344525876  0.5026075964156418
 -0.0005550066561452  0.3346744102495519  0.9993648825396022
  0.0034573875790120  0.3346985787747434  0.5005363661843343
 -0.0009068188245422  0.6683045036249418  0.9997888121743392
 -0.0097515719668659  0.6766485976908063  0.5012428993668091
 -0.0006253039890855  1.0011964240653417 -0.0005336577028006
  0.0120045523971495  0.9865678273897749  0.5014912436060954
  0.1645661141598400  0.1704725581069672  0.2482258763866636
  0.1671952321014273  0.1676750956089316  0.7505556252987133
  0.1645180301889152  0.5027683441398434  0.2478851836136496
  0.1666909941080928  0.5017813086183007  0.7514869204067768
  0.1647031007423060  0.8361119369617122  0.2503604428182305
  0.1671336815583592  0.8336146909681185  0.7502591963634323
  0.4971494120151116  0.1695362533524902  0.2512573933418609
  0.4998792573245164  0.1662491202253919  0.7536056862801002
  0.4974900118238457  0.5033592681675082  0.2505344387107034
  0.4995704845675876  0.5014099899705545  0.7514085465027329
  0.4973307739881813  0.8352252205475386  0.2513196105945034
  0.4996680699693867  0.8339578552686910  0.7537209764311019
  0.8310134212115607  0.1693251280048540  0.2508668213132356
  0.8334742887214636  0.1674954489072939  0.7505537475842208
  0.8325247078281605  0.5022539358840860  0.2486096166794591
  0.8331195924217354  0.5012909075739626  0.7509745842291790
  0.8309014410316401  0.8357207412143202  0.2508933806693201
  0.8320082190733969  0.8342078499229684  0.7529743682192174
  0.2503836476046893  0.2568217561871881  0.3573038001841443
  0.2524735691671593  0.2542544152134166  0.8614475457710488
  0.2492715828874804  0.5909390304574741  0.3536261722361247
  0.2532535252384054  0.5881321916005000  0.8610720656599858
  0.2504481762343727  0.9278529388348162  0.3544966599786238
  0.2520468531440467  0.9215994442502615  0.8612054287686575
  0.5837951058233465  0.2575147626440942  0.3603045438693986
  0.5877790924819156  0.2539870966039555  0.8615711064500280
  0.5894331026388605  0.5879829436137641  0.3553019723439979
  0.5875468391563200  0.5861472407621173  0.8618962489513742
  0.5838687617297673  0.9222851933350799  0.3606195428173816
  0.5859648905161348  0.9201433652527862  0.8646090583866191
  0.9191435572296811  0.2563273926259446  0.3582400567836628
  0.9204642465153157  0.2543300423272452  0.8596865632743254
  0.9189282164211239  0.5887835514565324  0.3584246163039961
  0.9197297985031558  0.5870158855399299  0.8613308720021203
  0.9184021626219794  0.9224778657782312  0.3599888021234107
  0.9203131117595306  0.9214753226298544  0.8607967727465733
  0.0771374809981076  0.0823575655165677  0.1402726661917153
  0.0804651945749392  0.0802851676762382  0.6409501706856970
  0.0787475762875114  0.4161503777748493  0.1372378526658265
  0.0802398585051413  0.4154633202828013  0.6413959427899819
  0.0769100293106656  0.7503892825378737  0.1399830826685459
  0.0749011995687467  0.7477783196442337  0.6461405720369292
  0.4120775168832060  0.0819833652508131  0.1410275782896671
  0.4136469086947858  0.0790217003854576  0.6445167187901271
  0.4121801218922666  0.4151996321691563  0.1402226527081110
  0.4147068743159464  0.4097567892534056  0.6475415322729784
  0.4112169380266752  0.7492380322202337  0.1408809580641917
  0.4139985836528927  0.7483476746062770  0.6467325400598136
  0.7439441738272782  0.0822662017179239  0.1419618712370314
  0.7456217477542098  0.0802532551513824  0.6430021267306655
  0.7445761933324404  0.4150097276240211  0.1405183269395583
  0.7459397679577099  0.4145961685444743  0.6414969287725429
  0.7441570238000592  0.7497294218808700  0.1409379310015060
  0.7451505422539586  0.7479704706339184  0.6434620569913000
 
             NaN             NaN             NaN
             NaN             NaN             NaN
             NaN             NaN             NaN
             NaN             NaN             NaN
             NaN             NaN             NaN
             NaN             NaN             NaN
             NaN             NaN             NaN
             NaN             NaN             NaN
             NaN             NaN             NaN
             NaN             NaN             NaN
             NaN             NaN             NaN
             NaN             NaN             NaN
             NaN             NaN             NaN
             NaN             NaN             NaN
             NaN             NaN             NaN
             NaN             NaN             NaN
             NaN             NaN             NaN
             NaN             NaN             NaN
             NaN             NaN             NaN
             NaN             NaN             NaN
             NaN             NaN             NaN
             NaN             NaN             NaN
             NaN             NaN             NaN
             NaN             NaN             NaN
             NaN             NaN             NaN
             NaN             NaN             NaN
             NaN             NaN             NaN
             NaN             NaN             NaN
             NaN             NaN             NaN
             NaN             NaN             NaN
             NaN             NaN             NaN
             NaN             NaN             NaN
             NaN             NaN             NaN
             NaN             NaN             NaN
             NaN             NaN             NaN
             NaN             NaN             NaN
             NaN             NaN             NaN
             NaN             NaN             NaN
             NaN             NaN             NaN
             NaN             NaN             NaN
             NaN             NaN             NaN
             NaN             NaN             NaN
             NaN             NaN             NaN
             NaN             NaN             NaN
             NaN             NaN             NaN
             NaN             NaN             NaN
             NaN             NaN             NaN
             NaN             NaN             NaN
             NaN             NaN             NaN
             NaN             NaN             NaN
             NaN             NaN             NaN
             NaN             NaN             NaN
             NaN             NaN             NaN
             NaN             NaN             NaN
             NaN             NaN             NaN
             NaN             NaN             NaN
             NaN             NaN             NaN
             NaN             NaN             NaN
             NaN             NaN             NaN
             NaN             NaN             NaN
             NaN             NaN             NaN
             NaN             NaN             NaN
             NaN             NaN             NaN
             NaN             NaN             NaN
             NaN             NaN             NaN
             NaN             NaN             NaN
             NaN             NaN             NaN
             NaN             NaN             NaN
             NaN             NaN             NaN
             NaN             NaN             NaN
             NaN             NaN             NaN
