Na47 P16 S64                            
   1.00000000000000     
    13.7507249999999992   -0.0127910000000000   -0.0000320000000000
    -0.0128870000000000   13.7732069999999993   -0.0003200000000000
    -0.0000400000000000   -0.0000880000000000   14.1565049999999992
   Na   P    S 
    47    16    64
Direct
  0.6509396616493279  0.7528028060151252  0.7481506335644716
  0.9999459704776195  0.2502536456770352  0.2052122796153012
  0.9997270799604969  0.2501142782666078  0.7043464321928896
  0.9995916739268514  0.7502897935570544  0.2098574980864961
  0.9920231502086184  0.7509758528065531  0.7135802763771804
  0.5000529396723055  0.2497747116765701  0.2068184306279228
  0.5003420775606544  0.2500628681798631  0.7061848148847361
  0.5002755258968484  0.7497398867008283  0.2085391206551631
  0.2494544758057875  0.9991713801937306  0.2918412738522035
  0.2477263828492273  0.9986582765493432  0.7900270751128146
  0.2514306841702884  0.5008917542932826  0.2962928714446054
  0.2507947226137741  0.5025094083861769  0.7942223455953199
  0.7486429300237040  0.9989175188540168  0.2949809894785527
  0.7490538085027397  0.9916671290714971  0.7909653310976130
  0.7504771076603347  0.5010323745597769  0.2904085317279967
  0.7537467653375750  0.5077562183653507  0.7869186051536435
  0.2524618453030329  0.9989768754054087  0.0401055326548505
  0.2444289393668641  0.0003631020408340  0.5410746240870248
  0.2476249497767660  0.4995830149740071  0.0461477573776824
  0.2547017041948450  0.5037920922320687  0.5468899574418848
  0.7520887098218341  0.0006368075962299  0.0442104055532898
  0.7456587936237167  0.9973314448004427  0.5440793860996109
  0.7474801148193698  0.5010071459370642  0.0382182385757577
  0.7563291115233584  0.4982551722004947  0.5385051042501430
  0.5000226561939998  0.2508511583439859  0.4571541871058710
  0.5006650432812896  0.2486567638848555  0.9548664757232433
  0.4997328527808035  0.7510717864902017  0.4720635870092774
  0.4981482973832844  0.7484578918945753  0.9509036321061490
  0.9999770032091987  0.2491910753511476  0.4546482498765914
  0.9993028232879273  0.2513258442300565  0.9540343053876883
  1.0001571649231777  0.7491902971556762  0.4623253675990344
  0.9999122222334718  0.7515230350114578  0.9584728595269510
  0.9929171352059663  0.9993686689147309  0.5008278524938133
  0.0013707617492504  0.0064111862404561  0.9997824114160344
  0.0087610198154144  0.4973368583638036  0.4998616317624639
  0.9987434837970457  0.4983741891764916  0.9988324631993625
  0.4931638910317845  0.9992186784841599  0.5000609795914513
  0.5058501096385070  0.9985258931386081  0.9999802537421197
  0.5045996835640870  0.5041669186559069  0.5014820669716425
  0.4931917666056616  0.4967795668761191  0.0015714155460549
  0.2491524044523991  0.2513845182389043  0.2500340264659556
  0.2489327267990253  0.2523639634623647  0.7501302155802749
  0.2515092013552427  0.7486372196806240  0.2500695938708510
  0.2937228768497411  0.7483521487081951  0.7490833454613630
  0.7509192038939672  0.2485828991425618  0.2497044229357520
  0.7510852044794458  0.2475728741000408  0.7503901689013202
  0.7483613235266946  0.7513170441832342  0.2494227895513912
  0.4999190248462474  0.4997242358926595  0.2504093036254598
  0.5003210895838470  0.4989583259709984  0.7509713000181840
  0.4998527389507614  0.0000408017456188  0.2503456204194583
  0.4975861118399963  0.0008198039062139  0.7495937117835222
  0.0008971645584182  0.4996059436720787  0.2497931372319793
  0.0024335966455270  0.4978127263826352  0.7489143542399518
  0.9993512534940798  0.0006053472759141  0.2496663740889739
  0.9987543926683029  0.0028642311835926  0.7507398036011552
  0.2497938487090353  0.2505768198809518  0.0002009061966225
  0.2495102442642748  0.2509787182724631  0.4997342605310405
  0.2503361784091002  0.7480379797514179  0.0006879246309185
  0.2492627181570907  0.7527194230734957  0.4988378860288538
  0.7501604159022294  0.2493655156485588 -0.0000830360035848
  0.7504188207498600  0.2488400440460837  0.4993635042394495
  0.7494505923348777  0.7506921632492257  0.0007198013385334
  0.7511526514078410  0.7478645711545270  0.4968226100339286
  0.1541019754645843  0.1739776512116215  0.0826360054855708
  0.1529007532122632  0.1752035288860411  0.5813958834868946
  0.1527261317151737  0.6750870050811166  0.0839054109214670
  0.1559191552282778  0.6775697141171609  0.5842303995190861
  0.6539520690093349  0.1741551210947080  0.0831180157498993
  0.6538951609521584  0.1746072788238419  0.5820508907298453
  0.6534156805185667  0.6746250466766377  0.0829126566343742
  0.6555067303891382  0.6669723687666187  0.5741931870579344
  0.3462252618604338  0.3255951304603896  0.0831305821764809
  0.3458902679408178  0.3257253372247265  0.5822982087685867
  0.3465183360524941  0.8245243055089035  0.0825195608197373
  0.3449361897968780  0.8312850957855318  0.5777336026780977
  0.8456942798487661  0.3261916467584494  0.0825140961982519
  0.8471870635005392  0.3242353866373817  0.5812080936549705
  0.8456800707912935  0.8258827352818421  0.0836289179595022
  0.8440242888265547  0.8241480175143383  0.5813185756869363
  0.1742597099750562  0.3476506291181969  0.4176701044223585
  0.1741350411393526  0.3475179645899200  0.9191565510235225
  0.1711557905724072  0.8445051889504476  0.4135689318643024
  0.1773334789843606  0.8416413252667582  0.9145505624674003
  0.6757763331253392  0.3447639027980991  0.4160383358059118
  0.6755426162504652  0.3446849012221732  0.9167904269854890
  0.6732831097119343  0.8440555459153581  0.4159460845655406
  0.6718370223347356  0.8496518296904892  0.9223711296217587
  0.3246594169406116  0.1551891700468458  0.4166131744345548
  0.3246148713923682  0.1551813162467074  0.9171336109541455
  0.3263427139894179  0.6560010759263711  0.4174881452152829
  0.3261635996208453  0.6482479142110683  0.9225433272608852
  0.8254990672851557  0.1519108339184061  0.4174063078150358
  0.8255890743902330  0.1523656439229029  0.9188262323482699
  0.8292334702481693  0.6558345792168594  0.4117293908193810
  0.8245236413269132  0.6569586752257166  0.9168781232230414
  0.0971669773430558  0.4236206606400176  0.1679677966313627
  0.1017353580569906  0.4221717240695705  0.6698396666156945
  0.0945526254164667  0.9255524351222931  0.1659005808002745
  0.0914468828828689  0.9260004546972436  0.6666288677809511
  0.5949992247659120  0.4243221989872659  0.1665772748184347
  0.5968766105007108  0.4247415082381505  0.6675690164592400
  0.5969076553214595  0.9249746335889197  0.1687830320895670
  0.5904099533039925  0.9254640341099994  0.6642344904462160
  0.4047365493572773  0.0752780000074668  0.1665124899038152
  0.4010046421885735  0.0772308663370091  0.6679933927425155
  0.4026899918095938  0.5748429297118373  0.1688757805199773
  0.4075947747695775  0.5782344644989369  0.6695633229052397
  0.9029813560441542  0.0766789278611923  0.1680086161999848
  0.8998642596520091  0.0766101333876239  0.6694767003796709
  0.9057941058275746  0.5746691225195658  0.1660488264935943
  0.9100189133017635  0.5720346294464067  0.6624832008633551
  0.0756086481386469  0.0961424340314847  0.3323382045928838
  0.0769864986086438  0.1007480767733316  0.8295240624346658
  0.0763260110352346  0.5954497094148842  0.3324823701458824
  0.0742201261714958  0.5937388486529487  0.8340145580553677
  0.5746333227546835  0.0964642495739578  0.3334117500328854
  0.5768882447878781  0.0965662884468409  0.8299693860691257
  0.5756042019305428  0.5956029688038728  0.3322320360129374
  0.5766359418541741  0.5867817728605230  0.8411286080608669
  0.4251297352859738  0.4034744880465195  0.3335563791215428
  0.4226438767894599  0.4007256466874060  0.8301549710113394
  0.4240213354745718  0.9041825767748163  0.3323619669138527
  0.4224850680236859  0.9092198926424674  0.8363796410288258
  0.9245750683294879  0.4039105774892812  0.3322479544502815
  0.9233475442118936  0.4020749125692057  0.8294132561330553
  0.9241495916609233  0.9046120972154326  0.3322121590754353
  0.9266826747471643  0.9091973834880306  0.8376199095725350
 
             NaN             NaN             NaN
             NaN             NaN             NaN
             NaN             NaN             NaN
             NaN             NaN             NaN
             NaN             NaN             NaN
             NaN             NaN             NaN
             NaN             NaN             NaN
             NaN             NaN             NaN
             NaN             NaN             NaN
             NaN             NaN             NaN
             NaN             NaN             NaN
             NaN             NaN             NaN
             NaN             NaN             NaN
             NaN             NaN             NaN
             NaN             NaN             NaN
             NaN             NaN             NaN
             NaN             NaN             NaN
             NaN             NaN             NaN
             NaN             NaN             NaN
             NaN             NaN             NaN
             NaN             NaN             NaN
             NaN             NaN             NaN
             NaN             NaN             NaN
             NaN             NaN             NaN
             NaN             NaN             NaN
             NaN             NaN             NaN
             NaN             NaN             NaN
             NaN             NaN             NaN
             NaN             NaN             NaN
             NaN             NaN             NaN
             NaN             NaN             NaN
             NaN             NaN             NaN
             NaN             NaN             NaN
             NaN             NaN             NaN
             NaN             NaN             NaN
             NaN             NaN             NaN
             NaN             NaN             NaN
             NaN             NaN             NaN
             NaN             NaN             NaN
             NaN             NaN             NaN
             NaN             NaN             NaN
             NaN             NaN             NaN
             NaN             NaN             NaN
             NaN             NaN             NaN
             NaN             NaN             NaN
             NaN             NaN             NaN
             NaN             NaN             NaN
             NaN             NaN             NaN
             NaN             NaN             NaN
             NaN             NaN             NaN
             NaN             NaN             NaN
             NaN             NaN             NaN
             NaN             NaN             NaN
             NaN             NaN             NaN
             NaN             NaN             NaN
             NaN             NaN             NaN
             NaN             NaN             NaN
             NaN             NaN             NaN
             NaN             NaN             NaN
             NaN             NaN             NaN
             NaN             NaN             NaN
             NaN             NaN             NaN
             NaN             NaN             NaN
             NaN             NaN             NaN
             NaN             NaN             NaN
             NaN             NaN             NaN
             NaN             NaN             NaN
             NaN             NaN             NaN
             NaN             NaN             NaN
             NaN             NaN             NaN
             NaN             NaN             NaN
             NaN             NaN             NaN
             NaN             NaN             NaN
             NaN             NaN             NaN
             NaN             NaN             NaN
             NaN             NaN             NaN
             NaN             NaN             NaN
             NaN             NaN             NaN
             NaN             NaN             NaN
             NaN             NaN             NaN
             NaN             NaN             NaN
             NaN             NaN             NaN
             NaN             NaN             NaN
             NaN             NaN             NaN
             NaN             NaN             NaN
             NaN             NaN             NaN
             NaN             NaN             NaN
             NaN             NaN             NaN
             NaN             NaN             NaN
             NaN             NaN             NaN
             NaN             NaN             NaN
             NaN             NaN             NaN
             NaN             NaN             NaN
             NaN             NaN             NaN
             NaN             NaN             NaN
             NaN             NaN             NaN
             NaN             NaN             NaN
             NaN             NaN             NaN
             NaN             NaN             NaN
             NaN             NaN             NaN
             NaN             NaN             NaN
             NaN             NaN             NaN
             NaN             NaN             NaN
             NaN             NaN             NaN
             NaN             NaN             NaN
             NaN             NaN             NaN
             NaN             NaN             NaN
             NaN             NaN             NaN
             NaN             NaN             NaN
             NaN             NaN             NaN
             NaN             NaN             NaN
             NaN             NaN             NaN
             NaN             NaN             NaN
             NaN             NaN             NaN
             NaN             NaN             NaN
             NaN             NaN             NaN
             NaN             NaN             NaN
             NaN             NaN             NaN
             NaN             NaN             NaN
             NaN             NaN             NaN
             NaN             NaN             NaN
             NaN             NaN             NaN
             NaN             NaN             NaN
             NaN             NaN             NaN
             NaN             NaN             NaN
             NaN             NaN             NaN
             NaN             NaN             NaN
