Na47 P16 S64
1.0
13.750725 -0.012791 -0.000032
-0.012887 13.773207 -0.000320
-0.000040 -0.000088 14.156505
Na P S
47 16 64
direct
0.651142 0.750105 0.741615 Na
0.999936 0.250228 0.205379 Na
0.999707 0.250118 0.704425 Na
0.999707 0.750221 0.209871 Na
0.993131 0.750996 0.713864 Na
0.500068 0.249773 0.206720 Na
0.500294 0.249883 0.706167 Na
0.500300 0.749786 0.208063 Na
0.249520 0.999203 0.291649 Na
0.247956 0.998424 0.789784 Na
0.251381 0.500794 0.296313 Na
0.250767 0.502809 0.794216 Na
0.748625 0.998978 0.295105 Na
0.748354 0.990618 0.790987 Na
0.750471 0.501024 0.290446 Na
0.752927 0.508146 0.786556 Na
0.252438 0.998870 0.039925 Na
0.244893 1.000699 0.541151 Na
0.247943 0.499550 0.046117 Na
0.254559 0.503610 0.546829 Na
0.752153 1.000430 0.044305 Na
0.745282 0.996827 0.544731 Na
0.747466 0.501163 0.038114 Na
0.755264 0.498849 0.539049 Na
0.500058 0.250683 0.457337 Na
0.500602 0.248713 0.954810 Na
0.500085 0.750782 0.471869 Na
0.500154 0.748550 0.948143 Na
0.999932 0.249317 0.454673 Na
0.999407 0.251286 0.954102 Na
0.999915 0.749220 0.462164 Na
0.999848 0.751447 0.958610 Na
0.993022 0.999606 0.500779 Na
0.001152 0.005895 -0.000166 Na
0.008118 0.497559 0.499916 Na
0.998939 0.498166 0.998969 Na
0.494218 -0.001237 0.500698 Na
0.506129 0.998215 0.999974 Na
0.504634 0.504088 0.501556 Na
0.493768 0.497719 0.000843 Na
0.249161 0.251341 0.249958 Na
0.249127 0.252340 0.750171 Na
0.251511 0.748757 0.249933 Na
0.293217 0.748901 0.749551 Na
0.750851 0.248660 0.249705 Na
0.750871 0.247661 0.750419 Na
0.748501 0.751243 0.249687 Na
0.499916 0.499788 0.250579 P
0.500891 0.499046 0.751144 P
0.499733 0.000074 0.250632 P
0.498475 1.000151 0.749581 P
0.000920 0.499570 0.249704 P
0.002050 0.498145 0.749100 P
-0.000565 0.000576 0.249647 P
0.998593 0.002648 0.750660 P
0.249752 0.250511 1.000161 P
0.249501 0.251052 0.499688 P
0.250553 0.748011 0.000410 P
0.249361 0.752443 0.498993 P
0.750259 0.249490 1.000096 P
0.750497 0.248938 0.499333 P
0.749442 0.751996 0.001001 P
0.750649 0.747553 0.497980 P
0.153984 0.174021 0.082598 S
0.152928 0.175322 0.581506 S
0.152956 0.674805 0.083525 S
0.155514 0.676955 0.583535 S
0.654093 0.174123 0.083173 S
0.653991 0.174539 0.582043 S
0.654005 0.674955 0.083175 S
0.655293 0.668103 0.576702 S
0.346226 0.325523 0.083080 S
0.345933 0.325661 0.582317 S
0.346491 0.824449 0.082390 S
0.344768 0.831058 0.578378 S
0.845714 0.326342 0.082691 S
0.847130 0.324473 0.581229 S
0.846542 0.825804 0.084314 S
0.844428 0.823880 0.581867 S
0.174189 0.347693 0.417619 S
0.174185 0.347460 0.919008 S
0.171565 0.844731 0.414014 S
0.177224 0.841552 0.914441 S
0.675738 0.344894 0.416150 S
0.675458 0.344750 0.916986 S
0.673390 0.843904 0.416569 S
0.672180 0.851038 0.923319 S
0.324502 0.155257 0.416525 S
0.324525 0.155044 0.917122 S
0.326618 0.656071 0.417631 S
0.326753 0.648635 0.922059 S
0.825563 0.152120 0.417265 S
0.825836 0.152745 0.918870 S
0.828436 0.655282 0.412960 S
0.823828 0.658790 0.915701 S
0.097312 0.423487 0.168119 S
0.101232 0.422562 0.669783 S
0.094674 0.925543 0.165849 S
0.091613 0.926143 0.666522 S
0.594948 0.424562 0.166609 S
0.596744 0.424263 0.667364 S
0.596765 0.925049 0.169070 S
0.591441 0.923455 0.666012 S
0.404590 0.075213 0.166690 S
0.402118 0.076546 0.667652 S
0.402666 0.574871 0.169082 S
0.407437 0.577766 0.669543 S
0.903138 0.076738 0.168039 S
0.899905 0.076618 0.669502 S
0.905895 0.574552 0.165849 S
0.909511 0.572628 0.663001 S
0.075699 0.096042 0.332363 S
0.076834 0.100096 0.829910 S
0.076202 0.595581 0.332440 S
0.074096 0.593928 0.834186 S
0.574457 0.096520 0.333719 S
0.576988 0.096506 0.830077 S
0.575655 0.595721 0.332424 S
0.577439 0.588328 0.839234 S
0.425268 0.403470 0.333846 S
0.423075 0.401013 0.830472 S
0.423933 0.904156 0.332620 S
0.422212 0.909206 0.836384 S
0.924571 0.403975 0.332241 S
0.923105 0.402380 0.829518 S
0.924208 0.904550 0.332244 S
0.926245 0.908539 0.837029 S
