Li7 Mn16 O32                            
   1.00000000000000     
     8.3810289999999998    0.0667960000000000    0.0068270000000000
     0.0264700000000000    8.1900160000000000    0.0226390000000000
    -0.0173010000000000   -0.0040570000000000    8.2518530000000005
   Li   Mn   O 
     7    16    32
Direct
  0.2743613086691458  0.4768635652917665  0.7711330635702593
  0.8804085037209057  0.8718386432632758  0.8798812309893544
  0.1181215018968472  0.1305862332183391  0.1215180547248776
  0.8833138470471474  0.3734675772366395  0.3806755573522823
  0.3802011397950515  0.8762508129428036  0.3789956193781213
  0.6143576789885874  0.1295882841636095  0.6247925823799457
  0.6176602875745602  0.6269638827860576  0.1142766417004909
  0.5054198670989110  0.2535188754704550  0.2463041061797818
  0.2602939982584254  0.5032141860813688  0.2445920506148160
  0.2564660344236022  0.2459326387982892  0.4980801458695964
  0.5049697203440062  0.4963148461066282  0.4952700327747158
  0.4977793702110666  0.7536243668665218  0.7507526143338625
  0.7483522570709623  0.4950200017329314  0.7399941390820630
  0.7400132943598600  0.7542033506932535  0.4950048500428876
  0.2458555587107392  0.0051636320746414  0.7566820832459541
  0.2525591232219112  0.7536732333207299  0.0043659196547137
  0.4959383186015842  0.0090693730261375  0.0013401051547665
  0.7443459122240175  0.0034649620047426  0.2539345528117515
  0.7476704891970742  0.2499570284867066  0.9969848284390387
  0.9948544524163789  0.2473976605267206  0.7459337796489968
 -0.0001657971390285  0.4969572170106683 -0.0005092920620642
  0.9971947086555204  0.7478338497465099  0.2536910361806067
  0.9958575472679954  0.9983310248742224  0.5012185249278628
  0.7521764412729913  0.0130202090006768  0.0255790380156205
  0.0206794094717740  0.7330035826136764  0.0175123168049728
  0.0133913977551623  0.0115745058282683  0.7381540377496418
  0.7314304194858620  0.7335062953913256  0.7317206237698958
  0.2388685626994893  0.9834987413687042  0.9867991985251827
  0.9799216956333946  0.2635765830626317  0.9803823952917611
  0.9729644749005998  0.9928050025049767  0.2669502759081196
  0.2768208247459313  0.2700977614612028  0.2422442269045532
  0.7351891086024704  0.5162105618841865  0.5045646847133202
  0.0156716698427710  0.2351653861653087  0.5162478721617133
  0.0322717547788913  0.5048214920008414  0.2406923640701813
  0.7320034370434506  0.2354083460451257  0.2579828974982687
  0.2771576487645330  0.4834227613496763  0.4820360044029630
  0.9658344974370969  0.7627096657812040  0.4836268243363378
  0.9799163145018270  0.4803446355682742  0.7565042652262419
  0.2671041394405464  0.7656725075483349  0.7701745944336574
  0.2538457342473139  0.0155387679171316  0.5250609533525560
  0.5113360251578609  0.7301127164821803  0.5097629136967803
  0.5145098801359574  0.0206646009533977  0.2399518069959084
  0.2540545837512797  0.7359548568080481  0.2350586855010498
  0.7358250258010822  0.9814024007751637  0.4861609089321536
  0.4944494653165208  0.2653644362092634  0.4778011658795620
  0.4704038708729329  0.0119337034578088  0.7693315130052139
  0.7687748666921909  0.2649198600618130  0.7362423474064826
  0.2565434166395222  0.5233893328027951  0.0142191211313238
  0.5204468506020491  0.2414339341049307  0.0201313956806197
  0.5185753225528543  0.4924424890901449  0.7201869354633795
  0.2201153902845834  0.2375940778607484  0.7541396055526232
  0.7464244813230120  0.4888535042740610  0.9675111471188006
  0.4803918158978190  0.7715817659639411  0.9891726452419048
  0.4919233867424843  0.4885802090366232  0.2605855101011573
  0.7414110827846806  0.7688156918993334  0.2652633671103234
 
             NaN             NaN             NaN
             NaN             NaN             NaN
             NaN             NaN             NaN
             NaN             NaN             NaN
             NaN             NaN             NaN
             NaN             NaN             NaN
             NaN             NaN             NaN
             NaN             NaN             NaN
             NaN             NaN             NaN
             NaN             NaN             NaN
             NaN             NaN             NaN
             NaN             NaN             NaN
             NaN             NaN             NaN
             NaN             NaN             NaN
             NaN             NaN             NaN
             NaN             NaN             NaN
             NaN             NaN             NaN
             NaN             NaN             NaN
             NaN             NaN             NaN
             NaN             NaN             NaN
             NaN             NaN             NaN
             NaN             NaN             NaN
             NaN             NaN             NaN
             NaN             NaN             NaN
             NaN             NaN             NaN
             NaN             NaN             NaN
             NaN             NaN             NaN
             NaN             NaN             NaN
             NaN             NaN             NaN
             NaN             NaN             NaN
             NaN             NaN             NaN
             NaN             NaN             NaN
             NaN             NaN             NaN
             NaN             NaN             NaN
             NaN             NaN             NaN
             NaN             NaN             NaN
             NaN             NaN             NaN
             NaN             NaN             NaN
             NaN             NaN             NaN
             NaN             NaN             NaN
             NaN             NaN             NaN
             NaN             NaN             NaN
             NaN             NaN             NaN
             NaN             NaN             NaN
             NaN             NaN             NaN
             NaN             NaN             NaN
             NaN             NaN             NaN
             NaN             NaN             NaN
             NaN             NaN             NaN
             NaN             NaN             NaN
             NaN             NaN             NaN
             NaN             NaN             NaN
             NaN             NaN             NaN
             NaN             NaN             NaN
             NaN             NaN             NaN
