Li7 Mn16 O32                            
   1.00000000000000     
     8.3810289999999998    0.0667960000000000    0.0068270000000000
     0.0264700000000000    8.1900160000000000    0.0226390000000000
    -0.0173010000000000   -0.0040570000000000    8.2518530000000005
   Li   Mn   O 
     7    16    32
Direct
  0.2212205205419153  0.5231042764415366  0.7220025057989943
  0.8797774478941500  0.8708063872645161  0.8803492831921678
  0.1186346147374441  0.1296250413666210  0.1225725612939770
  0.8840043927421856  0.3718870327351869  0.3811699045378238
  0.3803347078476431  0.8755990220296812  0.3800885020207546
  0.6145531561915536  0.1294077572006272  0.6269860844992330
  0.6187030773719018  0.6248266623295825  0.1142353111318101
  0.5035475043889167  0.2529023430485718  0.2463214476753631
  0.2620766365157368  0.5024286987574857  0.2478404317658585
  0.2585667430837738  0.2451466473148830  0.5016868841069804
  0.5062836334706110  0.4946847986177622  0.4944201093858234
  0.4995139885048462  0.7511923003234228  0.7547386638619498
  0.7522722740850456  0.4971920539522875  0.7401973338390453
  0.7412543992532510  0.7554930146013257  0.4954693163053638
  0.2450141502156928  0.0076271884842573  0.7570087927708452
  0.2532197089847146  0.7527076285159198  0.0030111202565250
  0.4962077986090612  0.0089064674510269  0.0023428063439346
  0.7428430318242329  0.0009614930943378  0.2509416117023826
  0.7483347706909735  0.2504672527814888  0.9959283567136044
  0.9983211974143227  0.2443021013408166  0.7458041540999417
  0.0013823245508070  0.4971904596065928  1.0001027923537928
  0.9968849665812058  0.7474971718619391  0.2537857174426749
  0.9973398847631958 -0.0013565402194799  0.5040311140965165
  0.7525009806077678  0.0124634787652718  0.0266284989406744
  0.0213710895809965  0.7313638201109487  0.0179357978151135
  0.0135339292337702  0.0107588001123707  0.7392950417192988
  0.7359489420918421  0.7316883796409478  0.7319028901361866
  0.2391838320844033  0.9813398684062185  0.9891557110765485
  0.9812831265390844  0.2636297415370644  0.9814876481623984
  0.9731778926791523 -0.0083308275589214  0.2674663516557572
  0.2772394179345971  0.2691620209796670  0.2445927056469988
  0.7362059623880803  0.5157000796085991  0.5036994205891975
  0.0161584047338459  0.2339808414687140  0.5162496133451281
  0.0320919367053601  0.5056459738753325  0.2452296871902024
  0.7337076900821946  0.2350652311234515  0.2586047289603700
  0.2777806344885472  0.4829807005136866  0.4852812224276472
  0.9662615247454297  0.7616896764548966  0.4845381257679812
  0.9850019522322720  0.4798192757671055  0.7527526583711767
  0.2637914915602952  0.7632081628478433  0.7707434566640234
  0.2546936973266649  0.0142405035814403  0.5269420300008586
  0.5114030294774560  0.7304140904027410  0.5149110955424623
  0.5150111210804798  0.0199147851617327  0.2392976414199130
  0.2552471847908718  0.7349017930866133  0.2353084173783086
  0.7357888080191233  0.9810260952282998  0.4868256526512934
  0.4967850535883844  0.2654406171781854  0.4784525971407441
  0.4704269109814280  0.0099764784629185  0.7714276628843543
  0.7709234762948208  0.2644306907727504  0.7364636470608629
  0.2539914216395111  0.5213962293177696  0.0164746260667422
  0.5221819897309663  0.2422380028233987  0.0214541768627755
  0.5250463410407665  0.4907804480183535  0.7213312504991531
  0.2215056706513077  0.2345833103620890  0.7554793905468964
  0.7519963441876887  0.4891622451414839  0.9680043691638822
  0.4806542413552231  0.7680544717260287  0.9866048507709406
  0.4910327766948624  0.4879375561220614  0.2614298775361257
  0.7409433375683471  0.7683722522703532  0.2665631153989120
 
             NaN             NaN             NaN
             NaN             NaN             NaN
             NaN             NaN             NaN
             NaN             NaN             NaN
             NaN             NaN             NaN
             NaN             NaN             NaN
             NaN             NaN             NaN
             NaN             NaN             NaN
             NaN             NaN             NaN
             NaN             NaN             NaN
             NaN             NaN             NaN
             NaN             NaN             NaN
             NaN             NaN             NaN
             NaN             NaN             NaN
             NaN             NaN             NaN
             NaN             NaN             NaN
             NaN             NaN             NaN
             NaN             NaN             NaN
             NaN             NaN             NaN
             NaN             NaN             NaN
             NaN             NaN             NaN
             NaN             NaN             NaN
             NaN             NaN             NaN
             NaN             NaN             NaN
             NaN             NaN             NaN
             NaN             NaN             NaN
             NaN             NaN             NaN
             NaN             NaN             NaN
             NaN             NaN             NaN
             NaN             NaN             NaN
             NaN             NaN             NaN
             NaN             NaN             NaN
             NaN             NaN             NaN
             NaN             NaN             NaN
             NaN             NaN             NaN
             NaN             NaN             NaN
             NaN             NaN             NaN
             NaN             NaN             NaN
             NaN             NaN             NaN
             NaN             NaN             NaN
             NaN             NaN             NaN
             NaN             NaN             NaN
             NaN             NaN             NaN
             NaN             NaN             NaN
             NaN             NaN             NaN
             NaN             NaN             NaN
             NaN             NaN             NaN
             NaN             NaN             NaN
             NaN             NaN             NaN
             NaN             NaN             NaN
             NaN             NaN             NaN
             NaN             NaN             NaN
             NaN             NaN             NaN
             NaN             NaN             NaN
             NaN             NaN             NaN
