Na15 V32 O64                            
   1.00000000000000     
     9.2533340000000006   -0.0039280000000000    0.0016840000000000
    -0.0051210000000000   11.8409230000000001    0.0297090000000000
     0.0013970000000000    0.0277310000000000   10.7969709999999992
   Na   V    O 
    15    32    64
Direct
  0.7574771109031985  0.3352189095753331  0.1542592174463152
  0.7525407972849457  0.0663662376491976  0.1511661898935249
  0.7531453335022790  0.7976277331848668  0.1548025041444840
  0.2534228904855860  0.0628549312024499  0.3473997633439161
  0.2583265237920518  0.3137506378634827  0.3544471596438901
  0.2567608912397242  0.5621705501054604  0.3483879914430862
  0.2528696036032800  0.8123831689864300  0.3496412960195948
  0.2684637748828025  0.1912162551793265  0.8463998253994302
  0.2663111043802743  0.4420073680171058  0.8544822441331950
  0.2673992504392468  0.6914344298373180  0.8460763192104837
  0.2642867294481627  0.9419665941133876  0.8527454127146337
  0.7677733555813937  0.1878322238623358  0.6551914131621024
  0.7641408924241353  0.4372260343805083  0.6479060895817873
  0.7666020980374602  0.6880812528258389  0.6546475880937376
  0.7647109960701841  0.9366529200653675  0.6449986827502391
  0.5922235001892616  0.0665946943214475  0.8954142078611925
  0.5901765026095819  0.3177863573759268  0.8984897941966684
  0.5954481948428315  0.5659319989864295  0.8979089227847550
  0.5897149105820634  0.8169382639148441  0.8977633149328834
  0.0936078105811457  0.0639886880160394  0.6048006201625091
  0.0909914029857017  0.3128267096278742  0.6040538589782545
  0.0928358258693304  0.5637119150861468  0.6067547558150043
  0.0926808827242771  0.8139362065597024  0.6041843148930335
  0.4317625334830348  0.1927139280625005  0.1026108952613180
  0.4289896762990520  0.4410258718428027  0.1063256230518141
  0.4282671643416208  0.6880475327040009  0.1014172275944727
  0.4312598941447488  0.9390193601972282  0.1088514192798970
  0.9311446042932492  0.1869869124962073  0.3984031250759444
  0.9272238996063804  0.4380125188604335  0.3928297453823261
  0.9304474415824595  0.6913925000558618  0.3996420565912033
  0.9275853014101010  0.9386336092300156  0.3931215407603908
  0.5749988249277642  0.0656748141713887  0.3874912758553378
  0.5777219173354851  0.3097801990157050  0.3889955883624949
  0.5792349416585481  0.5651625919382310  0.3842893567207655
  0.5720163909659276  0.8088124910730327  0.3881401058505016
  0.0744889513174091  0.0636726846014246  0.1129624096527839
  0.0783729275782170  0.3085965459128440  0.1130726831400325
  0.0687487502079763  0.5648923287677289  0.1168914273020949
  0.0733407822289940  0.8170911550424174  0.1102345384491905
  0.4484452945281307  0.1869988913862670  0.6146127060375445
  0.4425997779328968  0.4372630299815211  0.6103892532949192
  0.4487631828789336  0.6855766676629013  0.6147352617396402
  0.4426980526485877  0.9372768251712780  0.6126028289299157
  0.9473735767972821  0.1904727403605485  0.8880075771408416
  0.9451144036139514  0.4400619819405172  0.8890391495814818
  0.9459468220314081  0.6901251527474656  0.8874836582662291
  0.9406455187333433  0.9401251118764992  0.8862123486006108
  0.8036134434435614  0.0711033903142318  0.8489008162574024
  0.8025144482250700  0.3097347322167977  0.8525614579683491
  0.8074828246549847  0.5710615453279513  0.8487710398753928
  0.7996338688884456  0.8094267744538969  0.8476881657685030
  0.3046862005337748  0.0680248348517292  0.6528725570920287
  0.3005968711221179  0.3075445928196118  0.6497315121665295
  0.3042576071434094  0.5684265332537420  0.6532619595141494
  0.3002134357421967  0.8077478473454321  0.6494628249840942
  0.2202819633555577  0.1921248291196347  0.1515773334540484
  0.2142031098492537  0.4380070064167395  0.1506993469548345
  0.2134138788146636  0.6899799322744675  0.1460104708557250
  0.2150020561234444  0.9339094869076442  0.1513722872228225
  0.7221033551714771  0.1797305685065645  0.3512378779514245
  0.7176392395786715  0.4359541819416313  0.3530417224877422
  0.7204903640707399  0.6988259152787076  0.3556239031917263
  0.7134355843219815  0.9389068199848624  0.3530331558929606
  0.8978102851892817  0.0681940317921295  0.5190651958693078
  0.8971352188288768  0.3092725258674593  0.5201820153933044
  0.8974195309155988  0.5690177422853093  0.5168737080850070
  0.8979932593173565  0.8095155352673721  0.5207566506613267
  0.3969444631385158  0.0710979772701279  0.9849667653056470
  0.3950345173022388  0.3125347089513133  0.9802689060577257
  0.3967083614474163  0.5686514705994041  0.9803839600732842
  0.3933693833613459  0.8118140709633692  0.9817369551519863
  0.1249229210698092  0.1912163682816202  0.4803900882043973
  0.1236978150618313  0.4342416264640616  0.4826757081343093
  0.1243840982732838  0.6918502292041884  0.4812722514228779
  0.1243860496611355  0.9352090071185557  0.4799995245671537
  0.6239832452285006  0.1971307274074010  0.0201157677357544
  0.6216827673196204  0.4369305034695036  0.0196286439323981
  0.6197641754520135  0.6983479337991030  0.0166331576582636
  0.6239009988115184  0.9371234001150722  0.0202400610208951
  0.9891838081240232  0.0673895497851705  0.2819502656041889
  0.9907236176377773  0.3060398126149840  0.2828303413239748
  0.9965920087992552  0.5692303574666903  0.2803908532377288
  0.9886306542339353  0.8068864276597199  0.2816336594206446
  0.4909717690204712  0.0683220083297701  0.2200410360888256
  0.4871904794206215  0.3067109062654115  0.2172078439601077
  0.4800378076865400  0.5733636748624612  0.2170831258610917
  0.4862211266670475  0.8083742861962703  0.2210617977937675
  0.0317910272047937  0.1939136885000608  0.7194339622628216
  0.0329890400863409  0.4363593442927952  0.7188864610898766
  0.0327235004331157  0.6930734645487452  0.7209222571037534
  0.0310432620731244  0.9350750152197514  0.7149817608620582
  0.5311238568428541  0.1927066829141940  0.7818302021443413
  0.5331813671952400  0.4319391866816943  0.7852834655945862
  0.5319311417539068  0.6918702825743223  0.7812702987857760
  0.5300037776514708  0.9325644144616776  0.7848620773294915
  0.5874146158333139  0.0658781380744590  0.5727600404228557
  0.5858732015527206  0.3062793920258075  0.5734419711309517
  0.5870672444151168  0.5675578948969556  0.5730834127724167
  0.5853371102180267  0.8087511183672593  0.5716511997613738
  0.0852001977932936  0.0689155150736497  0.9270317081478113
  0.0885100585226873  0.3100455430768235  0.9297350016501473
  0.0877999733414265  0.5699971341592264  0.9337298349186780
  0.0852918229840363  0.8129043061432897  0.9281152015412839
  0.4317900069496599  0.1815407073348164  0.4302553544092151
  0.4368509403189517  0.4380078491792408  0.4278525211597976
  0.4311599756186543  0.6918096314369592  0.4307287817737431
  0.4389172336664083  0.9378279884723535  0.4258786406985307
  0.9331673014240446  0.1927754933167586  0.0712451005104956
  0.9453111074183906  0.4359677684794036  0.0750674158823985
  0.9360309212972469  0.6929994294650923  0.0704355511725872
  0.9321137382114119  0.9358433847580185  0.0728824775028838
 
             NaN             NaN             NaN
             NaN             NaN             NaN
             NaN             NaN             NaN
             NaN             NaN             NaN
             NaN             NaN             NaN
             NaN             NaN             NaN
             NaN             NaN             NaN
             NaN             NaN             NaN
             NaN             NaN             NaN
             NaN             NaN             NaN
             NaN             NaN             NaN
             NaN             NaN             NaN
             NaN             NaN             NaN
             NaN             NaN             NaN
             NaN             NaN             NaN
             NaN             NaN             NaN
             NaN             NaN             NaN
             NaN             NaN             NaN
             NaN             NaN             NaN
             NaN             NaN             NaN
             NaN             NaN             NaN
             NaN             NaN             NaN
             NaN             NaN             NaN
             NaN             NaN             NaN
             NaN             NaN             NaN
             NaN             NaN             NaN
             NaN             NaN             NaN
             NaN             NaN             NaN
             NaN             NaN             NaN
             NaN             NaN             NaN
             NaN             NaN             NaN
             NaN             NaN             NaN
             NaN             NaN             NaN
             NaN             NaN             NaN
             NaN             NaN             NaN
             NaN             NaN             NaN
             NaN             NaN             NaN
             NaN             NaN             NaN
             NaN             NaN             NaN
             NaN             NaN             NaN
             NaN             NaN             NaN
             NaN             NaN             NaN
             NaN             NaN             NaN
             NaN             NaN             NaN
             NaN             NaN             NaN
             NaN             NaN             NaN
             NaN             NaN             NaN
             NaN             NaN             NaN
             NaN             NaN             NaN
             NaN             NaN             NaN
             NaN             NaN             NaN
             NaN             NaN             NaN
             NaN             NaN             NaN
             NaN             NaN             NaN
             NaN             NaN             NaN
             NaN             NaN             NaN
             NaN             NaN             NaN
             NaN             NaN             NaN
             NaN             NaN             NaN
             NaN             NaN             NaN
             NaN             NaN             NaN
             NaN             NaN             NaN
             NaN             NaN             NaN
             NaN             NaN             NaN
             NaN             NaN             NaN
             NaN             NaN             NaN
             NaN             NaN             NaN
             NaN             NaN             NaN
             NaN             NaN             NaN
             NaN             NaN             NaN
             NaN             NaN             NaN
             NaN             NaN             NaN
             NaN             NaN             NaN
             NaN             NaN             NaN
             NaN             NaN             NaN
             NaN             NaN             NaN
             NaN             NaN             NaN
             NaN             NaN             NaN
             NaN             NaN             NaN
             NaN             NaN             NaN
             NaN             NaN             NaN
             NaN             NaN             NaN
             NaN             NaN             NaN
             NaN             NaN             NaN
             NaN             NaN             NaN
             NaN             NaN             NaN
             NaN             NaN             NaN
             NaN             NaN             NaN
             NaN             NaN             NaN
             NaN             NaN             NaN
             NaN             NaN             NaN
             NaN             NaN             NaN
             NaN             NaN             NaN
             NaN             NaN             NaN
             NaN             NaN             NaN
             NaN             NaN             NaN
             NaN             NaN             NaN
             NaN             NaN             NaN
             NaN             NaN             NaN
             NaN             NaN             NaN
             NaN             NaN             NaN
             NaN             NaN             NaN
             NaN             NaN             NaN
             NaN             NaN             NaN
             NaN             NaN             NaN
             NaN             NaN             NaN
             NaN             NaN             NaN
             NaN             NaN             NaN
             NaN             NaN             NaN
             NaN             NaN             NaN
             NaN             NaN             NaN
