Na15 V32 O64
1.0
9.253334 -0.003928 0.001684
-0.005121 11.840923 0.029709
0.001397 0.027731 10.796971
Na V O
15 32 64
direct
0.748527 0.437386 0.152991 Na
0.743361 0.071841 0.152590 Na
0.744124 0.802495 0.153361 Na
0.242838 0.063861 0.348630 Na
0.244713 0.313873 0.348833 Na
0.244174 0.563213 0.348298 Na
0.243819 0.812845 0.348881 Na
0.256122 0.187653 0.845460 Na
0.256062 0.438252 0.853653 Na
0.256975 0.688168 0.845977 Na
0.253709 0.938273 0.851204 Na
0.756910 0.187401 0.652486 Na
0.755749 0.437166 0.649602 Na
0.758263 0.686906 0.652383 Na
0.756018 0.937155 0.648788 Na
0.581803 0.061359 0.895888 V
0.581680 0.312225 0.895523 V
0.583732 0.563969 0.899115 V
0.582590 0.812845 0.896432 V
0.081618 0.062337 0.603270 V
0.081851 0.312954 0.603707 V
0.082126 0.561650 0.603855 V
0.080040 0.814196 0.602273 V
0.417222 0.185596 0.101658 V
0.417338 0.437494 0.109029 V
0.418093 0.688883 0.101540 V
0.417811 0.937770 0.105588 V
0.917538 0.189492 0.396568 V
0.919126 0.437727 0.395679 V
0.919050 0.687606 0.395439 V
0.917622 0.939070 0.393799 V
0.564016 0.064149 0.389296 V
0.566012 0.313367 0.385734 V
0.566485 0.563344 0.385978 V
0.565261 0.811213 0.387210 V
0.063749 0.061498 0.111911 V
0.063180 0.311035 0.111795 V
0.060989 0.565128 0.112904 V
0.063880 0.812224 0.111963 V
0.435686 0.187631 0.614131 V
0.436147 0.438689 0.612569 V
0.437764 0.686354 0.613298 V
0.434473 0.934520 0.611191 V
0.937647 0.187937 0.886786 V
0.933950 0.437823 0.887496 V
0.938618 0.687520 0.886203 V
0.931405 0.937527 0.887446 V
0.791540 0.067194 0.847321 O
0.792640 0.306260 0.848828 O
0.793937 0.566832 0.847689 O
0.792221 0.806482 0.847214 O
0.294056 0.064959 0.648760 O
0.295279 0.309668 0.649835 O
0.294101 0.561010 0.651125 O
0.294897 0.813765 0.650374 O
0.207849 0.186719 0.150134 O
0.212123 0.434911 0.149152 O
0.207114 0.686975 0.150101 O
0.205877 0.937242 0.150467 O
0.705988 0.186420 0.354574 O
0.706944 0.437181 0.353633 O
0.708199 0.687670 0.353305 O
0.705771 0.937583 0.349999 O
0.886155 0.063757 0.518920 O
0.886252 0.313468 0.520808 O
0.887693 0.562564 0.519468 O
0.886410 0.813900 0.518582 O
0.384630 0.065551 0.979414 O
0.386053 0.307061 0.983204 O
0.385431 0.566870 0.983639 O
0.385102 0.808559 0.980650 O
0.113099 0.188710 0.481459 O
0.115087 0.437971 0.479848 O
0.114544 0.688705 0.482632 O
0.113690 0.938711 0.478218 O
0.610859 0.186283 0.015600 O
0.607296 0.439048 0.017468 O
0.611952 0.689928 0.019157 O
0.613790 0.937881 0.019743 O
0.976493 0.062200 0.281430 O
0.980480 0.312043 0.284511 O
0.980764 0.562791 0.282945 O
0.977611 0.811011 0.281641 O
0.477123 0.071022 0.217442 O
0.473582 0.309803 0.219176 O
0.473742 0.566319 0.217478 O
0.476832 0.806179 0.217939 O
0.023181 0.186715 0.718823 O
0.024413 0.436490 0.716015 O
0.023420 0.687171 0.718045 O
0.022759 0.937351 0.715096 O
0.518803 0.187754 0.777630 O
0.522202 0.434540 0.783913 O
0.521535 0.684635 0.783043 O
0.520294 0.936686 0.784002 O
0.574140 0.061384 0.573649 O
0.574686 0.311595 0.572236 O
0.577936 0.562260 0.571786 O
0.577382 0.811800 0.572286 O
0.074825 0.066311 0.927033 O
0.076856 0.308163 0.927205 O
0.076553 0.568168 0.926981 O
0.075818 0.809122 0.927017 O
0.421907 0.187640 0.433236 O
0.425321 0.438593 0.427900 O
0.424018 0.687494 0.429393 O
0.424524 0.937901 0.426669 O
0.924187 0.186733 0.070065 O
0.931110 0.436754 0.071812 O
0.922943 0.687793 0.069699 O
0.923967 0.936624 0.071921 O
