Na15 V32 O64                            
   1.00000000000000     
     9.2533340000000006   -0.0039280000000000    0.0016840000000000
    -0.0051210000000000   11.8409230000000001    0.0297090000000000
     0.0013970000000000    0.0277310000000000   10.7969709999999992
   Na   V    O 
    15    32    64
Direct
  0.7391959170198155  0.3564037541658632  0.1606349278824995
  0.7449914498847336  0.0705747713005956  0.1519481613745022
  0.7434368373624608  0.7993014091647510  0.1547845430144015
  0.2418699008906097  0.0688134058970280  0.3495682854160682
  0.2447440590125972  0.3202707766519435  0.3453785461404171
  0.2440874178532514  0.5706160360233409  0.3497096772438434
  0.2442361752664586  0.8192166855034011  0.3454040109335819
  0.2568480865525464  0.1877527502661971  0.8455861024188569
  0.2549368247910008  0.4379310758325876  0.8492271217248670
  0.2584819272917906  0.6885731699993720  0.8460163933001851
  0.2570337237668932  0.9374896297749420  0.8554087991453411
  0.7586436731331573  0.1920577839424713  0.6523989695341639
  0.7518777923070451  0.4419476520343942  0.6455195412779889
  0.7588458266408629  0.6909630638370260  0.6535893593622667
  0.7560742385282548  0.9419832816590324  0.6480189906675766
  0.5836039309401874  0.0658911634268422  0.8964143657077783
  0.5799520791768478  0.3147763326687993  0.8941507904363385
  0.5857364418763221  0.5675041833520302  0.8964829865243692
  0.5814626166018264  0.8140484966556577  0.8994585273071048
  0.0843476423863596  0.0682344150957708  0.6062251691661168
  0.0810319871343210  0.3156927957889702  0.5995149418750153
  0.0831144689776968  0.5675974778805822  0.6063286036842476
  0.0847301081085265  0.8182031620942192  0.6015787487921207
  0.4241217576011664  0.1966371400529925  0.1002470033775322
  0.4159812313634497  0.4412852965638178  0.1020626272130725
  0.4189251054703375  0.6862269488232893  0.1028690055355092
  0.4221789947915747  0.9393284451516122  0.1108359423675096
  0.9185774329820676  0.1918826786594107  0.3977444248694026
  0.9147463752477747  0.4434353621067044  0.3931164072915853
  0.9190823844819357  0.6908917607484971  0.3969887296710622
  0.9179897039313506  0.9440295959269298  0.3935708536634533
  0.5638583441209609  0.0710459871227224  0.3889656429941090
  0.5647076424063547  0.3120019230696645  0.3883499158185351
  0.5678026885476547  0.5696570990252617  0.3841400501916153
  0.5630549599098362  0.8118590842071045  0.3892686859186009
  0.0670285161510115  0.0644905123284976  0.1124290789252855
  0.0589932575602015  0.3077868799743589  0.1110781804339442
  0.0584895250881818  0.5619015541737851  0.1127971734872250
  0.0654479347236237  0.8143421085752232  0.1134658757894085
  0.4382071308462451  0.1868997400478199  0.6147615648447131
  0.4317502137731986  0.4393863567471851  0.6086464788540714
  0.4397422625612117  0.6923976926159239  0.6146183742788324
  0.4352381265184816  0.9398485931260698  0.6154603159448132
  0.9359872682407979  0.1903318609950116  0.8824351650907355
  0.9325354378074667  0.4362674082207502  0.8841879801438211
  0.9386295094275794  0.6895995102611110  0.8854746905282553
  0.9331049270722160  0.9355387578457720  0.8856038402600728
  0.7951107993519390  0.0663581401664183  0.8479354073041663
  0.7903408389116956  0.3065554674945051  0.8467746163188596
  0.7971909947997865  0.5675858447874474  0.8441827926935980
  0.7916871372170886  0.8060524082619916  0.8495298293616939
  0.2952534935384529  0.0685495959737707  0.6532400978769154
  0.2907995656883928  0.3094581363136346  0.6486448789987658
  0.2949131190525301  0.5682701310152148  0.6523268976237476
  0.2917786422489531  0.8079038341297706  0.6512369959559432
  0.2053465192802115  0.2008964111212540  0.1500552369791606
  0.1951075619350536  0.4451469284696863  0.1475031431857107
  0.2035544101783985  0.6954955215441909  0.1494286621593016
  0.2079946325144287  0.9332844636816882  0.1523034599196065
  0.7093474654040122  0.1828013909474341  0.3525153691325774
  0.7040521366705990  0.4407392902028446  0.3555452059632362
  0.7104192503708935  0.7039005804284110  0.3562132761177754
  0.7031300412805310  0.9435033856283318  0.3538415469246082
  0.8888962052861569  0.0703538614181259  0.5195150022810194
  0.8865037942141640  0.3137165409733500  0.5182733946868202
  0.8881967456741103  0.5713333295011266  0.5204446155938767
  0.8876752262068712  0.8138760471485740  0.5188394744075957
  0.3845008556231629  0.0702839008950152  0.9861215815399554
  0.3860910172284956  0.3109248981034767  0.9760044002763614
  0.3836692230453929  0.5691517832368879  0.9772833491074949
  0.3879858576751592  0.8114578779495040  0.9834887903837873
  0.1122781619945338  0.2002502982991664  0.4790286953039626
  0.1155749834592508  0.4384170723344040  0.4790680898930901
  0.1134808434945398  0.7001687663389862  0.4808840636180144
  0.1164340891008451  0.9378962433400794  0.4783734043970715
  0.6122095987498358  0.1959407652933307  0.0185623339990749
  0.6112842963851085  0.4374975290540234  0.0143777457457708
  0.6122999281711833  0.6955086699632986  0.0179453657180469
  0.6150196464349577  0.9377367821533757  0.0227163085740415
  0.9794540169916670  0.0701363167702456  0.2807987658647148
  0.9730014210291963  0.3127225969118014  0.2792554410786089
  0.9832055530163680  0.5738950070843655  0.2861412257921797
  0.9765976155513748  0.8158225121432350  0.2792909308580154
  0.4773211914037086  0.0713693009897416  0.2209511420630751
  0.4743628287474029  0.3092120190644299  0.2153654102234187
  0.4672238384818503  0.5758978940185612  0.2171799955379146
  0.4789449702517984  0.8125016362806037  0.2210786702129581
  0.0224728157431427  0.1942532987264569  0.7181411398708292
  0.0245688700715773  0.4290534990300227  0.7154192958521186
  0.0244250737895251  0.6940564945385624  0.7191459591457354
  0.0235111700034341  0.9284385102434873  0.7158949612166420
  0.5209590910875296  0.1895170441871048  0.7814077305824159
  0.5220302684441829  0.4322214678625323  0.7804500219333311
  0.5229558352808988  0.6899881091031177  0.7826009150472597
  0.5220686347537684  0.9327996251400058  0.7877655017489742
  0.5781358239990761  0.0693795196134466  0.5719652078167832
  0.5745160010567258  0.3096891442643797  0.5738010804703045
  0.5758625001246190  0.5712830182186447  0.5723765694295488
  0.5775187391912858  0.8124070654139040  0.5726504569991655
  0.0753452441193823  0.0667557973843012  0.9256395432729203
  0.0763381771729754  0.3082196314187601  0.9285926033605838
  0.0760504795174600  0.5667453120270146  0.9270474259553295
  0.0784917937158400  0.8102724653340981  0.9306045284308624
  0.4196940658803533  0.1839452501714072  0.4306142706198821
  0.4235262643575426  0.4416635374289103  0.4292053539122426
  0.4207533853096942  0.6979623210679705  0.4308524634436713
  0.4288110630598602  0.9412719267404023  0.4269186610501534
  0.9198247042497825  0.1928107638054527  0.0691399611642074
  0.9301389436652721  0.4351020470927645  0.0691067022140939
  0.9316043623440838  0.6875136675271420  0.0716359155965647
  0.9233906759417133  0.9319043236322415  0.0720951518356962
 
             NaN             NaN             NaN
             NaN             NaN             NaN
             NaN             NaN             NaN
             NaN             NaN             NaN
             NaN             NaN             NaN
             NaN             NaN             NaN
             NaN             NaN             NaN
             NaN             NaN             NaN
             NaN             NaN             NaN
             NaN             NaN             NaN
             NaN             NaN             NaN
             NaN             NaN             NaN
             NaN             NaN             NaN
             NaN             NaN             NaN
             NaN             NaN             NaN
             NaN             NaN             NaN
             NaN             NaN             NaN
             NaN             NaN             NaN
             NaN             NaN             NaN
             NaN             NaN             NaN
             NaN             NaN             NaN
             NaN             NaN             NaN
             NaN             NaN             NaN
             NaN             NaN             NaN
             NaN             NaN             NaN
             NaN             NaN             NaN
             NaN             NaN             NaN
             NaN             NaN             NaN
             NaN             NaN             NaN
             NaN             NaN             NaN
             NaN             NaN             NaN
             NaN             NaN             NaN
             NaN             NaN             NaN
             NaN             NaN             NaN
             NaN             NaN             NaN
             NaN             NaN             NaN
             NaN             NaN             NaN
             NaN             NaN             NaN
             NaN             NaN             NaN
             NaN             NaN             NaN
             NaN             NaN             NaN
             NaN             NaN             NaN
             NaN             NaN             NaN
             NaN             NaN             NaN
             NaN             NaN             NaN
             NaN             NaN             NaN
             NaN             NaN             NaN
             NaN             NaN             NaN
             NaN             NaN             NaN
             NaN             NaN             NaN
             NaN             NaN             NaN
             NaN             NaN             NaN
             NaN             NaN             NaN
             NaN             NaN             NaN
             NaN             NaN             NaN
             NaN             NaN             NaN
             NaN             NaN             NaN
             NaN             NaN             NaN
             NaN             NaN             NaN
             NaN             NaN             NaN
             NaN             NaN             NaN
             NaN             NaN             NaN
             NaN             NaN             NaN
             NaN             NaN             NaN
             NaN             NaN             NaN
             NaN             NaN             NaN
             NaN             NaN             NaN
             NaN             NaN             NaN
             NaN             NaN             NaN
             NaN             NaN             NaN
             NaN             NaN             NaN
             NaN             NaN             NaN
             NaN             NaN             NaN
             NaN             NaN             NaN
             NaN             NaN             NaN
             NaN             NaN             NaN
             NaN             NaN             NaN
             NaN             NaN             NaN
             NaN             NaN             NaN
             NaN             NaN             NaN
             NaN             NaN             NaN
             NaN             NaN             NaN
             NaN             NaN             NaN
             NaN             NaN             NaN
             NaN             NaN             NaN
             NaN             NaN             NaN
             NaN             NaN             NaN
             NaN             NaN             NaN
             NaN             NaN             NaN
             NaN             NaN             NaN
             NaN             NaN             NaN
             NaN             NaN             NaN
             NaN             NaN             NaN
             NaN             NaN             NaN
             NaN             NaN             NaN
             NaN             NaN             NaN
             NaN             NaN             NaN
             NaN             NaN             NaN
             NaN             NaN             NaN
             NaN             NaN             NaN
             NaN             NaN             NaN
             NaN             NaN             NaN
             NaN             NaN             NaN
             NaN             NaN             NaN
             NaN             NaN             NaN
             NaN             NaN             NaN
             NaN             NaN             NaN
             NaN             NaN             NaN
             NaN             NaN             NaN
             NaN             NaN             NaN
             NaN             NaN             NaN
