Li46 P16 O64                            
   1.00000000000000     
    10.5801420000000004    0.0096380000000000    0.0005900000000000
     0.0112450000000000   12.3343270000000000    0.0025170000000000
     0.0005200000000000    0.0020060000000000    9.9991959999999995
   Li   P    O 
    46    16    64
Direct
  0.5762419897168262  0.2684142053521181  0.0794074569068608
  0.6637858467745009  0.2486903553110935  0.5981851709536498
  0.6636622549063089  0.7495702166237344  0.0984594077077848
  0.6631967255636294  0.7509490277094529  0.5991401692307901
  0.1674640934331061  0.4898728938242280  0.1545139561759735
  0.1630938510892775  0.5017699391440795  0.6513001948279756
  0.1661567639500348  0.9960799968506838  0.1527053422416141
  0.1622852823019218  0.9994518439885420  0.6522272239945387
  0.3353722632650160  0.0002734865480534  0.4025131605102703
  0.3347139490906527  0.0010504060458895  0.9006016077331939
  0.3373668644612967  0.4998454426540598  0.3991109835247392
  0.3344314701391857  0.4989165300603281  0.9062741448688528
  0.8345886442578523  0.2479548658649837  0.3499267929408740
  0.8295840105429456  0.2493263987126376  0.8546517368489102
  0.8362162753912439  0.7485562601001581  0.3497458352744515
  0.8361347290896407  0.7485377615550404  0.8491791866889019
  0.3365111236057651  0.2517665623741168  0.3883064246763541
  0.3324691439603641  0.2547713712070793  0.9080664580639359
  0.3355772017690568  0.7494149025864526  0.4004644118567225
  0.3356464390333438  0.7502740968621290  0.9022230310817638
  0.8359868797289485  0.0011095064578035  0.3518367943088794
  0.8364498013290266  0.0004083754058992  0.8479759780010823
  0.8348439513222480  0.5016716596494406  0.3487864194718390
  0.8328856301470594  0.5021288773100763  0.8493406234204158
  0.6581821616222244  0.4981180988000425  0.0969541550561458
  0.6648111950793931  0.5026897890982225  0.5994334050135179
  0.6651588213954918  0.9942957545216146  0.0962355131566962
  0.6631516969126999  0.9983678470175705  0.5989143305686455
  0.1616646265357456  0.2505165508543844  0.6462077732450352
  0.1625696798908503  0.7498576526999380  0.1520192478997597
  0.1632507465353664  0.7519552669300815  0.6517527050527774
  0.9245430170938245  0.3732716721788474  0.1510220402704266
  0.9185257532455686  0.3753832968947032  0.6504103340419088
  0.9249074482872199  0.8734228511725365  0.1503852257503026
  0.9248847781404467  0.8751628835060248  0.6493208184583293
  0.4235185462771554  0.3753216224901655  0.6072264459585157
  0.4285004028129941  0.8762526198923616  0.1003967507632790
  0.4248307899464572  0.8751578236945464  0.6009349852156028
  0.0764065385792056  0.1275005049299760  0.3460033172733217
  0.0738714038280134  0.1265524549351033  0.8560775230716441
  0.0747589613321455  0.6229322923120364  0.3511096574311701
  0.0741365528418577  0.6252525546024920  0.8519795775061539
  0.5744459406682360  0.1247732647623006  0.3977013328398685
  0.5745371927287668  0.1205646537146566  0.8951504914456291
  0.5731869201318003  0.6250414618025492  0.4003015333129074
  0.5704062866274869  0.6246936135282151  0.8973519254829513
  0.9094571491965699  0.1222407272884886  0.0984197984411119
  0.9106622801809173  0.1243519920569379  0.5985066285076932
  0.9104430106353794  0.6238383533146071  0.0978182024776749
  0.9112950818078817  0.6265454980634226  0.5971630199246575
  0.4121984952521052  0.1186134231842166  0.1522456418428771
  0.4096306101104319  0.1250802194394225  0.6535676843360865
  0.4089730430547699  0.6297361951529192  0.1525166684040935
  0.4092070171535164  0.6263578536012816  0.6535014115748108
  0.0864255308306628  0.3744267511214716  0.4088869372887929
  0.0827444827221975  0.3769890898244991  0.9014841549826135
  0.0879415478371219  0.8743645141004944  0.4041423345154247
  0.0876036806572162  0.8746883159155834  0.9045532913562145
  0.5907561518223292  0.3768476333107085  0.3516716464555169
  0.5845088190093165  0.3763830559739443  0.8372407709143875
  0.5890696034426235  0.8742519741983226  0.3474250562993288
  0.5887108855252137  0.8737982551258879  0.8450072749386311
  0.8369459646883248  0.0202267669920425  0.1495103226111232
  0.8408249533765114  0.0205494388925879  0.6486754703090500
  0.8380886957969682  0.5218748626739136  0.1486775304195797
  0.8407018552355303  0.5244877236163842  0.6502157954869986
  0.3586486524356967  0.2244668905041849  0.0943439593792373
  0.3405296938828566  0.2284232314510651  0.6011736936747980
  0.3429438607092212  0.7372060470732170  0.1068031839308603
  0.3398680861546358  0.7299356261847867  0.6013052111031173
  0.1556395685900633  0.2676095150158018  0.3731150007275428
  0.1534447121765198  0.2730124416385958  0.8535077833232961
  0.1570115721613680  0.7703639432473324  0.3532889147309746
  0.1582510564750902  0.7715602658884562  0.8533915134522578
  0.6600873060900140  0.4796992201936676  0.4053854076418684
  0.6532840801319889  0.4782276242894875  0.8944826822928835
  0.6587506323781870  0.9774157411278692  0.3991663349463085
  0.6601174767118028  0.9763165760512348  0.8960405608609116
  0.1590052691505077  0.4749073123210264  0.3543509215218195
  0.1546106992390368  0.4786230929060447  0.8479685329792795
  0.1587466793455913  0.9768842103216411  0.3526445451082032
  0.1572353913563125  0.9780888301983371  0.8535903112429591
  0.6587845564784784  0.2719586522485734  0.4021020697147811
  0.6474091583776607  0.2719012449741881  0.8960223002263348
  0.6587760741003141  0.7707409202040455  0.3990813404567584
  0.6579942370798438  0.7700778241752768  0.8964422458097540
  0.8494934826983038  0.2273557229867827  0.1543787496263562
  0.8393005828294483  0.2267247492606636  0.6507784840379770
  0.8412410475758515  0.7282151748551737  0.1483774876118027
  0.8410520308615476  0.7303264210751764  0.6470431875508721
  0.3397129899450154  0.0165670016503236  0.1025241376565256
  0.3397106686407299  0.0216598840100897  0.6021838635388503
  0.3306594525394460  0.5351131241464632  0.0952901013595456
  0.3400391774688437  0.5234733345796453  0.6003116561839357
  0.5521762781085929  0.1139719240329745  0.1025157868365553
  0.5486264826117611  0.1240941140216437  0.6019537807931293
  0.5469446808631006  0.6267060274108557  0.0988015042440698
  0.5483724001243584  0.6265401681224154  0.6029257571986824
  0.0466508903515293  0.1141147970630171  0.1512754289449443
  0.0486229485871137  0.1248935503740539  0.6522422800638954
  0.0486463694093300  0.6229174566875537  0.1509059814496601
  0.0496768444698065  0.6273325254057559  0.6492662365682389
  0.4519778419045814  0.3758379853980418  0.4029438543718467
  0.4423604384255411  0.3773849968435358  0.8716732839906266
  0.4503396963014299  0.8745811950175579  0.3989095275347846
  0.4504271296867948  0.8753725252226564  0.8975092248229083
  0.9489928725688835  0.3743063106966475  0.3534947005833964
  0.9445750796849606  0.3750278846552549  0.8473681890315590
  0.9493591833094838  0.8750481424657399  0.3517505996326324
  0.9492171344765135  0.8744434297018406  0.8519941177956495
  0.5952495180914062  0.3801020734137863  0.1976465391381012
  0.5976126823689234  0.3757975510158357  0.6819742526396649
  0.5908779321660643  0.8734778910522564  0.1913014457563342
  0.5888030530953664  0.8743494396273980  0.6890109548944671
  0.0794542440201099  0.3822402337455352  0.0555317352446676
  0.0826253870069923  0.3802039551094602  0.5650640647148761
  0.0874946549004648  0.8739429856416404  0.0606674612729765
  0.0882839005310115  0.8751839663371443  0.5602623303615132
  0.4099749378773824  0.1213409949559833  0.3083736829749285
  0.4083169923722064  0.1250255752293695  0.8096059536817831
  0.4103504047996746  0.6253301446048707  0.3086841174682803
  0.4067948833242840  0.6262850125513656  0.8094233940830226
  0.9108018892576775  0.1247925653177161  0.4425067219131918
  0.9069612586032662  0.1241714277038400  0.9426440188154792
  0.9109648357913519  0.6247794602773262  0.4409640639013624
  0.9102274575351702  0.6243554342384851  0.9414861253987289
 
             NaN             NaN             NaN
             NaN             NaN             NaN
             NaN             NaN             NaN
             NaN             NaN             NaN
             NaN             NaN             NaN
             NaN             NaN             NaN
             NaN             NaN             NaN
             NaN             NaN             NaN
             NaN             NaN             NaN
             NaN             NaN             NaN
             NaN             NaN             NaN
             NaN             NaN             NaN
             NaN             NaN             NaN
             NaN             NaN             NaN
             NaN             NaN             NaN
             NaN             NaN             NaN
             NaN             NaN             NaN
             NaN             NaN             NaN
             NaN             NaN             NaN
             NaN             NaN             NaN
             NaN             NaN             NaN
             NaN             NaN             NaN
             NaN             NaN             NaN
             NaN             NaN             NaN
             NaN             NaN             NaN
             NaN             NaN             NaN
             NaN             NaN             NaN
             NaN             NaN             NaN
             NaN             NaN             NaN
             NaN             NaN             NaN
             NaN             NaN             NaN
             NaN             NaN             NaN
             NaN             NaN             NaN
             NaN             NaN             NaN
             NaN             NaN             NaN
             NaN             NaN             NaN
             NaN             NaN             NaN
             NaN             NaN             NaN
             NaN             NaN             NaN
             NaN             NaN             NaN
             NaN             NaN             NaN
             NaN             NaN             NaN
             NaN             NaN             NaN
             NaN             NaN             NaN
             NaN             NaN             NaN
             NaN             NaN             NaN
             NaN             NaN             NaN
             NaN             NaN             NaN
             NaN             NaN             NaN
             NaN             NaN             NaN
             NaN             NaN             NaN
             NaN             NaN             NaN
             NaN             NaN             NaN
             NaN             NaN             NaN
             NaN             NaN             NaN
             NaN             NaN             NaN
             NaN             NaN             NaN
             NaN             NaN             NaN
             NaN             NaN             NaN
             NaN             NaN             NaN
             NaN             NaN             NaN
             NaN             NaN             NaN
             NaN             NaN             NaN
             NaN             NaN             NaN
             NaN             NaN             NaN
             NaN             NaN             NaN
             NaN             NaN             NaN
             NaN             NaN             NaN
             NaN             NaN             NaN
             NaN             NaN             NaN
             NaN             NaN             NaN
             NaN             NaN             NaN
             NaN             NaN             NaN
             NaN             NaN             NaN
             NaN             NaN             NaN
             NaN             NaN             NaN
             NaN             NaN             NaN
             NaN             NaN             NaN
             NaN             NaN             NaN
             NaN             NaN             NaN
             NaN             NaN             NaN
             NaN             NaN             NaN
             NaN             NaN             NaN
             NaN             NaN             NaN
             NaN             NaN             NaN
             NaN             NaN             NaN
             NaN             NaN             NaN
             NaN             NaN             NaN
             NaN             NaN             NaN
             NaN             NaN             NaN
             NaN             NaN             NaN
             NaN             NaN             NaN
             NaN             NaN             NaN
             NaN             NaN             NaN
             NaN             NaN             NaN
             NaN             NaN             NaN
             NaN             NaN             NaN
             NaN             NaN             NaN
             NaN             NaN             NaN
             NaN             NaN             NaN
             NaN             NaN             NaN
             NaN             NaN             NaN
             NaN             NaN             NaN
             NaN             NaN             NaN
             NaN             NaN             NaN
             NaN             NaN             NaN
             NaN             NaN             NaN
             NaN             NaN             NaN
             NaN             NaN             NaN
             NaN             NaN             NaN
             NaN             NaN             NaN
             NaN             NaN             NaN
             NaN             NaN             NaN
             NaN             NaN             NaN
             NaN             NaN             NaN
             NaN             NaN             NaN
             NaN             NaN             NaN
             NaN             NaN             NaN
             NaN             NaN             NaN
             NaN             NaN             NaN
             NaN             NaN             NaN
             NaN             NaN             NaN
             NaN             NaN             NaN
             NaN             NaN             NaN
             NaN             NaN             NaN
             NaN             NaN             NaN
