Na15 V32 O64
1.0
9.105162 0.000420 -0.003541
0.001266 11.442469 0.000142
-0.000099 0.001355 10.604070
Na V O
15 32 64
direct
0.742411 0.490899 0.153855 Na
0.742349 0.077672 0.153588 Na
0.742237 0.808655 0.152469 Na
0.242852 0.062835 0.347726 Na
0.243182 0.312718 0.347037 Na
0.243054 0.562166 0.348029 Na
0.242549 0.812567 0.347636 Na
0.257830 0.187899 0.848991 Na
0.258179 0.437750 0.848943 Na
0.257616 0.688048 0.849352 Na
0.257262 0.937417 0.849385 Na
0.757585 0.186996 0.650538 Na
0.757602 0.437650 0.650387 Na
0.757641 0.686877 0.649939 Na
0.757518 0.937770 0.649864 Na
0.584580 0.062281 0.896171 V
0.588603 0.311928 0.900193 V
0.585561 0.561839 0.896845 V
0.584768 0.811851 0.896981 V
0.087663 0.061789 0.603211 V
0.085449 0.311810 0.603196 V
0.087228 0.562183 0.603225 V
0.084503 0.811836 0.603056 V
0.412532 0.188636 0.104809 V
0.413583 0.436943 0.104620 V
0.416126 0.686455 0.104995 V
0.416291 0.938510 0.104526 V
0.915245 0.188415 0.395592 V
0.914667 0.436894 0.395177 V
0.914393 0.686697 0.394929 V
0.914771 0.937856 0.395265 V
0.561400 0.062651 0.387779 V
0.565228 0.311847 0.383200 V
0.561961 0.561842 0.386566 V
0.561686 0.811977 0.386977 V
0.061692 0.059792 0.112538 V
0.057005 0.313167 0.112789 V
0.060968 0.565846 0.113436 V
0.061467 0.812364 0.113221 V
0.438712 0.189544 0.615891 V
0.439039 0.434827 0.615350 V
0.437685 0.688702 0.615838 V
0.437482 0.935472 0.616294 V
0.938497 0.187711 0.883441 V
0.938705 0.439315 0.883754 V
0.937144 0.688284 0.883943 V
0.936820 0.938231 0.883428 V
0.791171 0.063525 0.849713 O
0.793685 0.312649 0.850398 O
0.791755 0.562154 0.849354 O
0.791256 0.813044 0.849885 O
0.293702 0.062176 0.648922 O
0.292110 0.312249 0.650200 O
0.293793 0.562353 0.648593 O
0.290545 0.812060 0.650500 O
0.205566 0.188599 0.147467 O
0.205825 0.436575 0.147177 O
0.207954 0.686478 0.149402 O
0.207664 0.939287 0.149132 O
0.707925 0.185723 0.355962 O
0.707999 0.438694 0.357122 O
0.707439 0.688150 0.354304 O
0.706862 0.937135 0.353627 O
0.888391 0.062992 0.519518 O
0.887710 0.312137 0.520149 O
0.888294 0.561827 0.519760 O
0.887124 0.812491 0.519249 O
0.385921 0.062542 0.980425 O
0.385685 0.312395 0.980173 O
0.386036 0.562494 0.980403 O
0.386706 0.812573 0.981569 O
0.114496 0.187409 0.479272 O
0.114093 0.437032 0.479318 O
0.113655 0.687282 0.478804 O
0.113854 0.937269 0.478822 O
0.610375 0.187666 0.019116 O
0.610085 0.437150 0.018281 O
0.612875 0.686445 0.020024 O
0.613555 0.938038 0.020653 O
0.978440 0.062620 0.282001 O
0.980617 0.312606 0.284014 O
0.980054 0.562502 0.282528 O
0.979156 0.812568 0.281287 O
0.478680 0.063345 0.218703 O
0.475588 0.312592 0.218627 O
0.477915 0.561942 0.218897 O
0.479651 0.812533 0.217839 O
0.021271 0.186871 0.715917 O
0.021324 0.437687 0.715844 O
0.019865 0.687286 0.716269 O
0.019781 0.937628 0.715937 O
0.520558 0.188082 0.783626 O
0.521036 0.436416 0.783567 O
0.518958 0.687766 0.783884 O
0.518422 0.936551 0.783929 O
0.577141 0.061928 0.573509 O
0.581138 0.312003 0.570874 O
0.577109 0.562630 0.572991 O
0.579945 0.812129 0.572793 O
0.078932 0.062149 0.926435 O
0.077934 0.313026 0.925740 O
0.079328 0.564081 0.926814 O
0.078060 0.813206 0.927589 O
0.422006 0.187723 0.429931 O
0.422523 0.436658 0.429689 O
0.421195 0.688034 0.429758 O
0.421235 0.936590 0.430062 O
0.926406 0.187319 0.069271 O
0.926954 0.438616 0.068984 O
0.920653 0.687043 0.069491 O
0.919950 0.938864 0.069641 O
