Li47 P16 O64
1.0
10.436341 0.001786 0.005203
0.002060 12.152550 0.004094
0.004893 0.003291 9.797585
Li P O
47 16 64
direct
0.389823 0.360693 0.109218 Li
0.663359 0.251283 0.098607 Li
0.663751 0.250252 0.597674 Li
0.664689 0.749824 0.098292 Li
0.663918 0.750839 0.597584 Li
0.165085 0.494404 0.153994 Li
0.164189 0.502207 0.651795 Li
0.165879 0.001051 0.150445 Li
0.163754 0.000339 0.652421 Li
0.335876 0.001237 0.402294 Li
0.336165 0.001131 0.901770 Li
0.336362 0.500281 0.401767 Li
0.334630 0.500659 0.902744 Li
0.836322 0.248167 0.349101 Li
0.834804 0.249169 0.847208 Li
0.836292 0.749160 0.347811 Li
0.836295 0.749171 0.848138 Li
0.336626 0.249529 0.398710 Li
0.333331 0.249836 0.904776 Li
0.335889 0.749181 0.401978 Li
0.335773 0.749114 0.902251 Li
0.836392 0.001010 0.348226 Li
0.835999 0.000799 0.847163 Li
0.836439 0.500693 0.347422 Li
0.835152 0.501592 0.847913 Li
0.664011 0.498628 0.097982 Li
0.664042 0.499854 0.597959 Li
0.664061 0.995446 0.095564 Li
0.664191 0.998504 0.598182 Li
0.163436 0.251069 0.646621 Li
0.164185 0.750485 0.152379 Li
0.164142 0.752107 0.651612 Li
0.927422 0.371250 0.151369 Li
0.919156 0.375955 0.648643 Li
0.924464 0.874394 0.148588 Li
0.924078 0.875614 0.648862 Li
0.423539 0.374997 0.602457 Li
0.424176 0.874519 0.101066 Li
0.423335 0.875246 0.601118 Li
0.078777 0.128926 0.343517 Li
0.076571 0.126655 0.854394 Li
0.076859 0.624556 0.350982 Li
0.076359 0.625945 0.850590 Li
0.577399 0.124603 0.399338 Li
0.576344 0.124447 0.898331 Li
0.576286 0.624689 0.398759 Li
0.575540 0.624687 0.899059 Li
0.909539 0.123733 0.095292 P
0.912097 0.124791 0.595152 P
0.912715 0.623761 0.095489 P
0.911476 0.626234 0.595107 P
0.414655 0.123831 0.154668 P
0.411976 0.125227 0.654956 P
0.411540 0.625490 0.154771 P
0.411637 0.625218 0.654710 P
0.087321 0.375152 0.409362 P
0.086260 0.376624 0.901532 P
0.088585 0.875622 0.404365 P
0.088599 0.875360 0.904917 P
0.589059 0.375120 0.345848 P
0.587476 0.375188 0.844577 P
0.588362 0.874553 0.345384 P
0.588061 0.874294 0.844881 P
0.838131 0.019872 0.145623 O
0.841454 0.021245 0.646639 O
0.842143 0.520311 0.146872 O
0.840472 0.523408 0.647520 O
0.351564 0.227945 0.099389 O
0.342666 0.228869 0.602732 O
0.341986 0.729603 0.103739 O
0.341430 0.728801 0.603046 O
0.158480 0.269403 0.371814 O
0.157083 0.273368 0.850427 O
0.158403 0.771460 0.353606 O
0.158966 0.772060 0.852567 O
0.659349 0.478564 0.397750 O
0.657674 0.478402 0.896915 O
0.658861 0.977841 0.397040 O
0.658554 0.977844 0.895819 O
0.158763 0.476979 0.354662 O
0.157425 0.479834 0.849338 O
0.159211 0.978605 0.352049 O
0.158587 0.979150 0.853681 O
0.658931 0.271355 0.397627 O
0.656642 0.271441 0.897569 O
0.658516 0.770898 0.396877 O
0.658491 0.770945 0.896938 O
0.840132 0.227109 0.148473 O
0.840585 0.228106 0.646091 O
0.842393 0.727513 0.147089 O
0.841296 0.730059 0.646029 O
0.343948 0.020823 0.102855 O
0.341437 0.021823 0.603303 O
0.340019 0.523300 0.102361 O
0.341588 0.521838 0.602575 O
0.554681 0.121767 0.104238 O
0.551102 0.124449 0.603103 O
0.550457 0.624875 0.102561 O
0.550596 0.625201 0.602689 O
0.046616 0.119432 0.148451 O
0.049992 0.125461 0.649540 O
0.051497 0.623734 0.147828 O
0.050224 0.626930 0.647213 O
0.450247 0.375304 0.398052 O
0.447820 0.375713 0.893084 O
0.449453 0.874908 0.397570 O
0.449324 0.874670 0.897410 O
0.949611 0.373930 0.354108 O
0.947649 0.375479 0.847984 O
0.949710 0.875327 0.352054 O
0.949644 0.875169 0.852976 O
0.590339 0.375315 0.188782 O
0.590722 0.374968 0.687247 O
0.589039 0.873938 0.188003 O
0.588498 0.874207 0.687605 O
0.084625 0.379351 0.057403 O
0.084238 0.380433 0.566799 O
0.089693 0.874745 0.062217 O
0.089078 0.876163 0.561784 O
0.412648 0.124277 0.311844 O
0.410834 0.125379 0.812286 O
0.410933 0.624927 0.312159 O
0.410559 0.625012 0.812046 O
0.912604 0.124526 0.437930 O
0.908562 0.125310 0.937919 O
0.911201 0.625108 0.437724 O
0.911728 0.624633 0.938026 O
