Mg15 Mn32 O64
1.0
11.434706 -0.000910 0.000691
-0.000660 11.418993 -0.000009
0.001006 0.000409 9.238620
Mg Mn O
15 32 64
direct
0.500322 0.565473 0.561671 Mg
0.999652 0.250227 0.747048 Mg
1.000561 0.750112 0.749298 Mg
0.499752 0.251555 0.751991 Mg
0.999962 0.500328 0.502005 Mg
0.000028 -0.000141 0.502849 Mg
0.500065 -0.004802 0.498278 Mg
0.248023 0.001252 0.250745 Mg
0.248509 0.498723 0.251689 Mg
0.752208 0.000979 0.250469 Mg
0.751554 0.499008 0.251755 Mg
0.248167 0.249663 0.999505 Mg
0.251964 0.750396 0.996233 Mg
0.749978 0.249657 0.999427 Mg
0.750304 0.750476 0.997209 Mg
0.123383 0.249556 0.377150 Mn
0.124991 0.750549 0.375227 Mn
0.623138 0.250353 0.377041 Mn
0.627354 0.749377 0.371171 Mn
0.374037 0.250190 0.376814 Mn
0.373188 0.749358 0.370733 Mn
0.873220 0.249553 0.375918 Mn
0.876752 0.750592 0.374799 Mn
0.125615 0.001560 0.873883 Mn
0.124517 0.498644 0.874211 Mn
0.625037 0.998090 0.875686 Mn
0.625411 0.501792 0.877496 Mn
0.375945 0.998191 0.874719 Mn
0.374605 0.501699 0.877499 Mn
0.875484 1.001401 0.873723 Mn
0.875019 0.498748 0.874366 Mn
-0.000984 0.125196 0.125000 Mn
1.001116 0.625167 0.123908 Mn
0.498997 0.124841 0.126120 Mn
0.500576 0.623927 0.124469 Mn
0.999225 0.374987 0.125543 Mn
0.001963 0.874937 0.123401 Mn
0.499326 0.373819 0.127678 Mn
0.500590 0.875881 0.123472 Mn
0.252106 0.375822 0.625332 Mn
0.252381 0.873577 0.624217 Mn
0.747648 0.375967 0.625521 Mn
0.747928 0.873828 0.624570 Mn
0.252223 0.124757 0.625214 Mn
0.252217 0.625422 0.624669 Mn
0.747606 0.124841 0.625168 Mn
0.748801 0.626695 0.624811 Mn
0.138673 0.249808 0.621544 O
0.137409 0.750037 0.620720 O
0.635243 0.250329 0.621305 O
0.639749 0.750072 0.604826 O
0.364243 0.250174 0.621250 O
0.360770 0.749683 0.604959 O
0.860687 0.249931 0.621360 O
0.863586 0.750909 0.620847 O
0.139010 0.000520 0.628776 O
0.138150 0.499337 0.629020 O
0.634964 0.999508 0.630235 O
0.636743 0.501198 0.635533 O
0.365213 0.999581 0.630284 O
0.363869 0.500281 0.635566 O
0.861159 0.000867 0.628903 O
0.861926 0.499589 0.629172 O
0.000308 0.114162 0.877878 O
0.999993 0.611783 0.877677 O
0.500340 0.111279 0.879066 O
0.500130 0.611981 0.917564 O
0.999715 0.385984 0.878358 O
0.000665 0.888572 0.877270 O
0.499953 0.388431 0.886352 O
0.500391 0.887979 0.910155 O
0.998583 0.362526 0.372726 O
0.000899 0.863722 0.371144 O
0.498799 0.362746 0.362328 O
0.500255 0.863280 0.351044 O
0.998551 0.136792 0.372514 O
1.000792 0.637373 0.371406 O
0.498751 0.136918 0.372685 O
0.500470 0.636315 0.340647 O
0.388206 -0.001815 0.126948 O
0.389027 0.501063 0.127892 O
0.887777 0.999786 0.120473 O
0.887450 0.500176 0.121616 O
0.113065 0.001213 0.120300 O
0.112760 0.499224 0.121436 O
0.611674 -0.000928 0.127112 O
0.611076 0.500423 0.127934 O
0.386694 0.250040 0.126732 O
0.390457 0.749436 0.124632 O
0.885945 0.250034 0.129332 O
0.888621 0.750384 0.126200 O
0.111824 0.249930 0.129251 O
0.114455 0.750084 0.126155 O
0.611275 0.249993 0.126609 O
0.610794 0.749423 0.124552 O
0.249066 0.362131 0.379358 O
0.250045 0.862884 0.374508 O
0.748350 0.362304 0.379145 O
0.750998 0.862638 0.374270 O
0.249363 0.137356 0.379491 O
0.249554 0.637456 0.374397 O
0.747990 0.137280 0.379115 O
0.751647 0.637750 0.374384 O
0.251784 0.112813 0.871259 O
0.249562 0.611909 0.872886 O
0.748925 0.112607 0.871535 O
0.750511 0.612157 0.873288 O
0.250779 0.387342 0.873065 O
0.250409 0.888138 0.871161 O
0.748882 0.387337 0.873025 O
0.750576 0.888042 0.871624 O
