Li7 Mn16 O32
1.0
8.221347 -0.016386 0.030221
-0.015081 8.616458 -0.066764
0.025527 -0.069205 8.256964
Li Mn O
7 16 32
direct
0.129295 0.615924 0.620953 Li
0.870306 0.878248 0.875947 Li
0.131391 0.118825 0.122553 Li
0.873551 0.380695 0.372186 Li
0.371631 0.883714 0.381031 Li
0.625290 0.122431 0.623505 Li
0.624280 0.621276 0.125135 Li
0.500733 0.242807 0.254639 Mn
0.252113 0.497509 0.244902 Mn
0.246628 0.254759 0.502629 Mn
0.499799 0.492576 0.501925 Mn
0.494763 0.742999 0.744236 Mn
0.746451 0.500330 0.750476 Mn
0.754979 0.742519 0.496276 Mn
0.251744 0.004575 0.748689 Mn
0.250509 0.748881 0.996881 Mn
0.503169 0.992987 0.002818 Mn
0.750568 -0.000954 0.254847 Mn
0.745744 0.254507 0.004574 Mn
0.002986 0.260965 0.749287 Mn
0.000180 0.508470 0.996631 Mn
0.002926 0.750916 0.250587 Mn
0.998846 0.004169 0.500827 Mn
0.733387 -0.003042 0.020076 O
0.013790 0.735374 0.009000 O
0.009758 0.036617 0.745563 O
0.735729 0.728522 0.732411 O
0.263579 0.976244 0.982014 O
0.991183 0.282453 0.986672 O
0.989676 0.973423 0.256905 O
0.266265 0.244629 0.270066 O
0.729896 0.492381 0.518838 O
0.014756 0.258076 0.516903 O
0.013877 0.522181 0.231221 O
0.733990 0.254285 0.235785 O
0.263873 0.479920 0.484033 O
0.998234 0.750902 0.479314 O
-0.015554 0.489114 0.761224 O
0.264608 0.742750 0.764010 O
0.234920 0.028630 0.514583 O
0.504682 0.718065 0.510114 O
0.516253 0.024602 0.266914 O
0.236442 0.755726 0.228637 O
0.769925 0.993344 0.490038 O
0.484900 0.267792 0.493510 O
0.485438 0.963853 0.737918 O
0.760677 0.274048 0.766448 O
0.234538 0.525919 0.011290 O
0.509678 0.221579 0.025728 O
0.514110 0.516271 0.735693 O
0.229124 0.259915 0.731481 O
0.768555 0.509355 0.980644 O
0.485296 0.758259 0.980533 O
0.489006 0.474723 0.264892 O
0.770039 0.742067 0.267473 O
