Li15 Fe16 P16 O64                       
   1.00000000000000     
    10.2421279999999992   -0.0018180000000000    0.0240440000000000
    -0.0019450000000000   11.9643440000000005    0.0048890000000000
     0.0087920000000000    0.0056780000000000    9.3727560000000008
   Li   Fe   P    O 
    15    16    16    64
Direct
  0.5175454024439677  0.2825415313665303  0.7320065195523414
  0.5004173019603748  0.9994350843227040  0.2484070690298394
  0.4995875325665083  0.0046276793400078  0.7515991750461272
  0.5006774297644391  0.5031255492823929  0.2526423257698304
  0.9989320788767122  0.2502306707970170  0.4961954621311359
  0.9972924661225419  0.2476224737649114  0.0008507080708797
  0.9988126588368844  0.7490130020324858  0.5008410081510356
  0.9986713068047127  0.7506456414892962  0.0023572413730278
  0.4997023555873636  0.2494325411334613  0.2514074928302907
  0.5015699867294889  0.7496963591893090  0.2516425317193952
  0.4994425662645242  0.7404242955159663  0.7536921711989292
  0.9984371135593459  0.5008380653501784  0.4963074979954253
  0.9964963713690537  0.5035568943239005  0.0014973286135133
  0.9995591470038201  0.0009443325511087  0.5006003418249788
  0.9996245209989284  0.9985207297047447  0.0020855183392725
  0.7809303943111341  0.1248263563853527  0.2641163951069764
  0.7811637667575144  0.1249106854829602  0.7638641298471830
  0.7783060078463531  0.6262743643234849  0.2669297417448227
  0.7777742647470989  0.6248527775677293  0.7614681104437394
  0.2816110178178280  0.1250904047767875  0.4852653160640613
  0.2819203283909519  0.1248131735976774  0.9846821951104375
  0.2818462691235757  0.6253995378169358  0.4858032364662447
  0.2814814605714688  0.6254947585345528  0.9857294178261189
  0.2166906543651646  0.3751015786317022  0.2314357897176894
  0.2245410755462469  0.3761862355288511  0.7461454450160369
  0.2190498422203528  0.8750495535270916  0.2361854676733566
  0.2192688520907925  0.8750389910122079  0.7359114395735405
  0.7197585011146993  0.3759465785304555  0.0123688220097923
  0.7203862618984835  0.3793219575628466  0.5115265905402084
  0.7185939811042502  0.8748984008711885  0.0144831309108485
  0.7174886815639355  0.8750745830608879  0.5172511745082300
  0.5954204874481617  0.1257249365645497  0.0416096236912861
  0.5932907977152287  0.1283040540907454  0.5425973341393856
  0.5955950604527549  0.6272343853913543  0.0422720790994646
  0.5917047460729634  0.6235475725836114  0.5429103751593466
  0.0936254998136243  0.1246194151487872  0.2069719943574715
  0.0943103553718689  0.1282096474381633  0.7100732407572156
  0.0926624274979218  0.6257739739814916  0.2091425476984567
  0.0939938537933907  0.6223830769298521  0.7110892404508727
  0.3974010245024135  0.3746507553071132  0.4566177189753954
  0.4063896740655876  0.3763297840838775  0.9597417317708207
  0.4057219860750119  0.8760418867465471  0.4572608887832523
  0.4071998561126786  0.8755371690430959  0.9568667002481392
  0.9068707398935398  0.3750289481874238  0.2883358619329413
  0.9101682306514014  0.3751629773882794  0.7881696338477062
  0.9063782176386131  0.8753565354209321  0.2942136029840676
  0.9075959323762058  0.8747657089813254  0.7932293129970763
  0.5956152634918624  0.1282666488441446  0.3803954483733356
  0.5995797712433322  0.1243952329435312  0.8801138959411710
  0.5940652195802878  0.6238059098233089  0.3794012982574446
  0.6017729069692702  0.6333454598068606  0.8822736685818722
  0.0951921260102776  0.1261227755771555  0.3691536355503996
  0.0944172707678129  0.1264167563402424  0.8718178382300176
  0.0947162124366959  0.6245387254576749  0.3714100073090946
  0.0940428530964310  0.6237960082143618  0.8728688418467354
  0.4026465356992763  0.3752580113839225  0.1216295962626711
  0.3837846176529577  0.3709139339023201  0.6185784250221494
  0.4049352490242220  0.8758905060197278  0.1189006523236685
  0.4019832763489382  0.8769782393417946  0.6190380687988378
  0.9069167139217127  0.3745907160406506  0.1261282852078084
  0.9083402284972715  0.3753564775671717  0.6266014988784476
  0.9050027977995030  0.8755013922799247  0.1320250016947205
  0.9063235561869464  0.8754764813757583  0.6311507111218647
  0.9550917687985979  0.1245501114781481  0.1447000508081422
  0.9573502817116216  0.1275161878533135  0.6443782603496228
  0.9542116264004700  0.6261418550573277  0.1468664388953824
  0.9574414044083595  0.6229308679489129  0.6449322374981294
  0.4559991406084982  0.1271036226899188  0.1030521057601851
  0.4548311901340349  0.1292056318219256  0.6045843393207982
  0.4558144735574389  0.6240729788278060  0.1033964904948273
  0.4530343757900291  0.6256980972038223  0.6007682719743966
  0.0447000622921690  0.3744739816813933  0.3523021908798812
  0.0517661938908504  0.3744704708634991  0.8486229112575332
  0.0448549174714436  0.8758350441530220  0.3570350350148408
  0.0462930729687812  0.8753775009458610  0.8556899432199374
  0.5385649978970717  0.3754743193532825  0.4033019813350870
  0.5439370095337699  0.3738451039447129  0.9004916507668957
  0.5445945535718674  0.8761918892960024  0.3951073728793559
  0.5453200658121942  0.8763320098557581  0.8937276949623854
  0.6647178623829825  0.0233311470076441  0.1104368764987729
  0.6654428255846505  0.0264666646143034  0.6085297400932651
  0.6673339914150441  0.5244660381149807  0.1072713748587149
  0.6721835510422687  0.5250571329903063  0.6035456087419899
  0.1648908295962943  0.2261758423560847  0.1384243016811036
  0.1652394650880916  0.2337057156080145  0.6478089763475174
  0.1644932767428141  0.7276538563438303  0.1429568431515551
  0.1684185055800322  0.7225456783512363  0.6440986156710822
  0.3302402026401679  0.2722306932497623  0.3864389965803865
  0.3295382702279334  0.2763981799994077  0.8895746041455246
  0.3338854095861702  0.7743428073735339  0.3905017706862043
  0.3350156228549193  0.7733830427502872  0.8916274121342568
  0.8360244824376182  0.4772200047668723  0.3544099006299982
  0.8415214000269154  0.4766030312900966  0.8574487472482465
  0.8346859756611088  0.9774439475998415  0.3605625655625762
  0.8360546867026940  0.9769197858950877  0.8594104960250246
  0.3286050320895669  0.4770156471154595  0.3898049506762095
  0.3234615700439737  0.4729913670860127  0.8946691499411575
  0.3348100003078255  0.9781874294872289  0.3897688063052005
  0.3349197110804589  0.9776072786259301  0.8907100798188384
  0.8343125731065788  0.2738122882354234  0.3556961962422370
  0.8409611118936461  0.2730127053321894  0.8564342332989625
  0.8355111458002865  0.7732890144606185  0.3611467970808573
  0.8370543135523297  0.7722330540686455  0.8590971154711063
  0.6673122309294374  0.2276198267112664  0.1079042746299619
  0.6656620948655108  0.2309369056232234  0.6079662338413955
  0.6637123806816575  0.7291838320238053  0.1148253910019823
  0.6627348561487695  0.7273966300601944  0.6077721695890957
  0.1648500622238122  0.0224139943943296  0.1414931257237185
  0.1684797000395852  0.0280551876252277  0.6429669805866803
  0.1636356897205725  0.5240808964782069  0.1410487048324761
  0.1652382141646233  0.5168565401418486  0.6488025110664584
 
             NaN             NaN             NaN
             NaN             NaN             NaN
             NaN             NaN             NaN
             NaN             NaN             NaN
             NaN             NaN             NaN
             NaN             NaN             NaN
             NaN             NaN             NaN
             NaN             NaN             NaN
             NaN             NaN             NaN
             NaN             NaN             NaN
             NaN             NaN             NaN
             NaN             NaN             NaN
             NaN             NaN             NaN
             NaN             NaN             NaN
             NaN             NaN             NaN
             NaN             NaN             NaN
             NaN             NaN             NaN
             NaN             NaN             NaN
             NaN             NaN             NaN
             NaN             NaN             NaN
             NaN             NaN             NaN
             NaN             NaN             NaN
             NaN             NaN             NaN
             NaN             NaN             NaN
             NaN             NaN             NaN
             NaN             NaN             NaN
             NaN             NaN             NaN
             NaN             NaN             NaN
             NaN             NaN             NaN
             NaN             NaN             NaN
             NaN             NaN             NaN
             NaN             NaN             NaN
             NaN             NaN             NaN
             NaN             NaN             NaN
             NaN             NaN             NaN
             NaN             NaN             NaN
             NaN             NaN             NaN
             NaN             NaN             NaN
             NaN             NaN             NaN
             NaN             NaN             NaN
             NaN             NaN             NaN
             NaN             NaN             NaN
             NaN             NaN             NaN
             NaN             NaN             NaN
             NaN             NaN             NaN
             NaN             NaN             NaN
             NaN             NaN             NaN
             NaN             NaN             NaN
             NaN             NaN             NaN
             NaN             NaN             NaN
             NaN             NaN             NaN
             NaN             NaN             NaN
             NaN             NaN             NaN
             NaN             NaN             NaN
             NaN             NaN             NaN
             NaN             NaN             NaN
             NaN             NaN             NaN
             NaN             NaN             NaN
             NaN             NaN             NaN
             NaN             NaN             NaN
             NaN             NaN             NaN
             NaN             NaN             NaN
             NaN             NaN             NaN
             NaN             NaN             NaN
             NaN             NaN             NaN
             NaN             NaN             NaN
             NaN             NaN             NaN
             NaN             NaN             NaN
             NaN             NaN             NaN
             NaN             NaN             NaN
             NaN             NaN             NaN
             NaN             NaN             NaN
             NaN             NaN             NaN
             NaN             NaN             NaN
             NaN             NaN             NaN
             NaN             NaN             NaN
             NaN             NaN             NaN
             NaN             NaN             NaN
             NaN             NaN             NaN
             NaN             NaN             NaN
             NaN             NaN             NaN
             NaN             NaN             NaN
             NaN             NaN             NaN
             NaN             NaN             NaN
             NaN             NaN             NaN
             NaN             NaN             NaN
             NaN             NaN             NaN
             NaN             NaN             NaN
             NaN             NaN             NaN
             NaN             NaN             NaN
             NaN             NaN             NaN
             NaN             NaN             NaN
             NaN             NaN             NaN
             NaN             NaN             NaN
             NaN             NaN             NaN
             NaN             NaN             NaN
             NaN             NaN             NaN
             NaN             NaN             NaN
             NaN             NaN             NaN
             NaN             NaN             NaN
             NaN             NaN             NaN
             NaN             NaN             NaN
             NaN             NaN             NaN
             NaN             NaN             NaN
             NaN             NaN             NaN
             NaN             NaN             NaN
             NaN             NaN             NaN
             NaN             NaN             NaN
             NaN             NaN             NaN
             NaN             NaN             NaN
             NaN             NaN             NaN
