Li7 Mn16 O32                            
   1.00000000000000     
     8.2213189999999994   -0.0163010000000000    0.0299560000000000
    -0.0149940000000000    8.6162530000000004   -0.0669160000000000
     0.0252390000000000   -0.0694220000000000    8.2565410000000004
   Li   Mn   O 
     7    16    32
Direct
  0.2841432608162761  0.4762006369634437  0.7831578263273183
  0.8737275608084691  0.8772292454610612  0.8769244756848186
  0.1286702814291793  0.1185714187467774  0.1178472095609892
  0.8768488459640442  0.3781117899203437  0.3751089778170416
  0.3707080067128564  0.8809601191191263  0.3807438946960525
  0.6270243127485179  0.1223443184823222  0.6229891093207064
  0.6233810118209439  0.6212616005886448  0.1258911294624432
  0.4984690095045851  0.2445228557599337  0.2518093638938458
  0.2492299022327827  0.5005209542982587  0.2524274286099044
  0.2484997108342358  0.2504791320180475  0.5021550365512425
  0.5023159667378142  0.4914505281898727  0.5008273648734368
  0.4991186808559570  0.7426942686434993  0.7469754756297334
  0.7518251606476642  0.4998514482119978  0.7496451120065408
  0.7564667907739375  0.7437540777226958  0.4952034406469398
  0.2493699572700878  0.9984974356080599  0.7502003497044728
  0.2527112122703155  0.7481951816866200  0.9982605634874278
  0.5018481509233453  0.9952209196016710  0.0009004977873146
  0.7493667031815296 -0.0000046776468716  0.2484763355386973
  0.7431833114267219  0.2574511918477021  0.0048552591951807
  0.0011246790026836  0.2560060614158951  0.7545754278397918
 -0.0028163421951524  0.5084793093778748  0.9992275166561166
  0.0008171778678716  0.7571846291560397  0.2467475867512871
  0.9972682906701695  0.0058981858632359  0.4975437403523549
  0.7292792908709416  0.0006612067316627  0.0138445292729769
  0.0147574702684717  0.7333928723542483  0.0075869470530209
  0.0142820012796424  0.0363778358112070  0.7622316903318366
  0.7402876366956093  0.7270813082277647  0.7329716732874200
  0.2654344577900659  0.9734914123892493  0.9837269275157342
  0.9899988859723233  0.2822215635994125  0.9899402741741400
  0.9848647335647639  0.9747049092420219  0.2345504486084730
  0.2634446777088643  0.2451929868980261  0.2710790611160269
  0.7336352168412501  0.4912397812511759  0.5200701846459613
  0.0130731988483729  0.2414531221466849  0.5183602960725869
  0.0134844112533291  0.5240427873499519  0.2351721477543316
  0.7310531129052051  0.2577622264166447  0.2347721721551195
  0.2675130207402284  0.4744243600615259  0.4924905099824251
  0.9935437188726765  0.7765868614775657  0.4747616577162215
  0.9856241070216422  0.4841618846527153  0.7646250979224376
  0.2717918116950279  0.7326682059584927  0.7685654147851391
  0.2352994707752646  0.0245920331111189  0.5170200344293646
  0.5097521116080331  0.7176604852619014  0.5111426198664695
  0.5128383804518140  0.0259085020248679  0.2584487363959975
  0.2356655269153200  0.7547226642047136  0.2296836498037828
  0.7684440442678384  1.0007669069901042  0.4827848794961472
  0.4857102318325794  0.2655240967937656  0.4919313308477294
  0.4862129785616809  0.9625620190221184  0.7422265091108310
  0.7612919932707212  0.2724775763724179  0.7665708100005457
  0.2332528367347257  0.5230511453589022  0.0110086983876127
  0.5061127228228779  0.2310305778426178  0.0242623433475890
  0.5157750105797773  0.5139365841153846  0.7362771251578840
  0.2306206146612987  0.2611754660105782  0.7339102563026373
  0.7671803898213768  0.5096246505312413  0.9795926264851731
  0.4870391044340329  0.7539273194236100  0.9825446571556338
  0.4853331212999522  0.4770097947199109  0.2663380730894070
  0.7682033036792788  0.7428142220536911  0.2650857267856040
 
             NaN             NaN             NaN
             NaN             NaN             NaN
             NaN             NaN             NaN
             NaN             NaN             NaN
             NaN             NaN             NaN
             NaN             NaN             NaN
             NaN             NaN             NaN
             NaN             NaN             NaN
             NaN             NaN             NaN
             NaN             NaN             NaN
             NaN             NaN             NaN
             NaN             NaN             NaN
             NaN             NaN             NaN
             NaN             NaN             NaN
             NaN             NaN             NaN
             NaN             NaN             NaN
             NaN             NaN             NaN
             NaN             NaN             NaN
             NaN             NaN             NaN
             NaN             NaN             NaN
             NaN             NaN             NaN
             NaN             NaN             NaN
             NaN             NaN             NaN
             NaN             NaN             NaN
             NaN             NaN             NaN
             NaN             NaN             NaN
             NaN             NaN             NaN
             NaN             NaN             NaN
             NaN             NaN             NaN
             NaN             NaN             NaN
             NaN             NaN             NaN
             NaN             NaN             NaN
             NaN             NaN             NaN
             NaN             NaN             NaN
             NaN             NaN             NaN
             NaN             NaN             NaN
             NaN             NaN             NaN
             NaN             NaN             NaN
             NaN             NaN             NaN
             NaN             NaN             NaN
             NaN             NaN             NaN
             NaN             NaN             NaN
             NaN             NaN             NaN
             NaN             NaN             NaN
             NaN             NaN             NaN
             NaN             NaN             NaN
             NaN             NaN             NaN
             NaN             NaN             NaN
             NaN             NaN             NaN
             NaN             NaN             NaN
             NaN             NaN             NaN
             NaN             NaN             NaN
             NaN             NaN             NaN
             NaN             NaN             NaN
             NaN             NaN             NaN
