Li7 Mn16 O32
1.0
8.221319 -0.016301 0.029956
-0.014994 8.616253 -0.066916
0.025239 -0.069422 8.256541
Li Mn O
7 16 32
direct
0.280181 0.471055 0.782266 Li
0.873061 0.877818 0.876318 Li
0.129490 0.117245 0.120355 Li
0.874925 0.379434 0.373895 Li
0.369705 0.882133 0.378741 Li
0.628032 0.121992 0.623865 Li
0.625627 0.620025 0.126757 Li
0.498438 0.246771 0.251370 Mn
0.249456 0.500631 0.251310 Mn
0.248438 0.252476 0.502941 Mn
0.499804 0.491916 0.502852 Mn
0.496177 0.740530 0.748336 Mn
0.750931 0.499912 0.749869 Mn
0.754476 0.744401 0.495709 Mn
0.249549 -0.001169 0.750319 Mn
0.252281 0.746615 0.997184 Mn
0.501882 0.994816 0.000538 Mn
0.749871 0.000263 0.248778 Mn
0.745307 0.256372 0.004031 Mn
0.004429 0.258450 0.753323 Mn
0.000239 0.507790 0.997537 Mn
0.000605 0.754827 0.247331 Mn
0.997598 0.005919 0.498518 Mn
0.731311 0.003088 0.013736 O
0.014595 0.733371 0.007432 O
0.012753 0.036282 0.755815 O
0.737978 0.726906 0.733113 O
0.264485 0.973192 0.984144 O
0.993836 0.282092 0.988644 O
0.985966 0.974643 0.242004 O
0.264574 0.244447 0.270886 O
0.730863 0.491281 0.519190 O
0.014741 0.247876 0.518498 O
0.012057 0.524052 0.233656 O
0.731468 0.256618 0.233711 O
0.264875 0.476286 0.487014 O
0.993244 0.768050 0.476142 O
-0.014587 0.485726 0.763146 O
0.268525 0.741055 0.766845 O
0.235825 0.025554 0.516664 O
0.507267 0.717766 0.512157 O
0.512527 0.025875 0.252032 O
0.234713 0.755470 0.229477 O
0.767897 0.999459 0.483708 O
0.485733 0.265817 0.491949 O
0.488439 0.963586 0.748259 O
0.762969 0.272439 0.767144 O
0.235530 0.522268 0.014242 O
0.504672 0.238836 0.022578 O
0.515050 0.512909 0.737653 O
0.233076 0.258222 0.734293 O
0.769566 0.508214 0.980944 O
0.485269 0.748073 0.982175 O
0.487185 0.476701 0.267337 O
0.767474 0.744341 0.265400 O
