Na47 P16 S64                            
   1.00000000000000     
    13.6824779999999997   -0.0082700000000000    0.0000210000000000
    -0.0083170000000000   13.6966149999999995   -0.0002150000000000
    -0.0000510000000000    0.0001670000000000   14.0667310000000008
   Na   P    S 
    47    16    64
Direct
  0.6111705156949525  0.7546992656857799  0.7464962678284062
  0.9997894530994783  0.2503500306316178  0.2066743385541155
  0.9995908654821126  0.2502082584407164  0.7058840825500386
  0.9987553066441747  0.7506528637273100  0.2116081331361642
  0.9852348665839111  0.7519580073695067  0.7164789626487780
  0.5000402864714663  0.2495228553842724  0.2081156357646967
  0.5008592668683191  0.2500535317674382  0.7069486684181427
  0.5003919155002807  0.7496000656775599  0.2117007720777533
  0.2493952265067584  0.9995847221621641  0.2908674236015457
  0.2488960547848281  0.9980905113094279  0.7910132461659026
  0.2510522401995947  0.5006015523005010  0.2943470768554102
  0.2508119629719794  0.5019870624981770  0.7929816904747398
  0.7488981882963424  0.9988834406432430  0.2916747493268400
  0.7487589961843802  0.9871432907412218  0.7862216118149025
  0.7505082867128774  0.5008460432283216  0.2885209610513792
  0.7537613383902156  0.5136841558898344  0.7836840122496129
  0.2519390339230916  0.9991195744150319  0.0403836307241434
  0.2440301589029970  0.0001196599061394  0.5410554335667269
  0.2465114592503779  0.4997482276418185  0.0447832788384009
  0.2551893279893651  0.5039933513817183  0.5458341973647431
  0.7514218009102474  0.0000002244548381  0.0399067230553806
  0.7463166656536679  0.9988509821438770  0.5393659811158589
  0.7463411603572473  0.5000782971131723  0.0364033386749502
  0.7566660750781059  0.4991113951966964  0.5360135359296788
  0.5003459514697108  0.2519113729469714  0.4578221916575708
  0.5009755507826144  0.2474404364132762  0.9560568918894946
  0.5004385913503968  0.7517736830463988  0.4721403341172907
  0.4979099398040288  0.7460373296144773  0.9613660851415388
  1.0000376035770924  0.2485283655994666  0.4559710272339527
  0.9987177354976857  0.2524180904544113  0.9555179939007870
  1.0001452032829974  0.7480220403936225  0.4644005998792792
  1.0000102715493238  0.7527190968397689  0.9608293149579196
  0.9943432222412596  0.9982473184356913  0.5012656655920168
  0.0030298966719524  0.0084119426209132  0.0005595429980725
  0.0097225961648298  0.4952937358736479  0.4991864203181572
  0.9971792524289542  0.5007950722987888  0.9983982708019529
  0.4895589809346388  0.0037492445410415  0.4981915622928211
  0.5040605946319434  0.9977778929953078  0.9982974302261682
  0.5044734734041919  0.5040937851119937  0.5022615890817670
  0.4905357374930689  0.4911491038907289  0.0028702025417268
  0.2493009756803712  0.2512482055904529  0.2499738999462884
  0.2496105118738090  0.2514709165167709  0.7499212646851009
  0.2507695869719976  0.7493012043849268  0.2505404697814765
  0.2814533507470552  0.7481748537370091  0.7489310934511367
  0.7508512467342580  0.2486728899344202  0.2491297294901879
  0.7508205030238840  0.2485152779472035  0.7500343718121696
  0.7484651785422793  0.7507494643274828  0.2484191782329485
  0.4999135529965117  0.4997621162483553  0.2506018892611124
  0.5001277095595674  0.4977860289329871  0.7525866376115187
  0.4997510401538231 -0.0001661198645712  0.2495750518082533
  0.4968575837630025  1.0011608880042200  0.7476176900955420
  0.0005597605831928  0.4998128543509581  0.2498814562622050
  0.0030447878740190  0.4984954002516962  0.7479424290246879
  0.9993931022678166  0.0005493009294296  0.2496298564781034
  0.9997879362673056  0.0029477940820923  0.7518425600908307
  0.2499474921566219  0.2502203574707108  1.0002582462742369
  0.2498179016387583  0.2509696403566836  0.4993747356035559
  0.2499639089644426  0.7483626090382589  0.0011899573591777
  0.2496065169268061  0.7525914026294757  0.4995510388768063
  0.7498699736219456  0.2492482379166772  0.9993501517891142
  0.7504472145964428  0.2493671309797026  0.4988143701225783
  0.7496040494012332  0.7493026407474438 -0.0001265576120666
  0.7516909672002762  0.7488344699206986  0.4973971387362984
  0.1538886585265742  0.1736983149234364  0.0833863385019169
  0.1529334000495865  0.1749138258839875  0.5816812729626624
  0.1519531264655281  0.6750571730161280  0.0847735687795833
  0.1560206844122874  0.6772231841873699  0.5856567841367082
  0.6535973829318561  0.1734531781533956  0.0831100138271924
  0.6534756450111376  0.1746566095051302  0.5818326334327575
  0.6532581857439347  0.6735839221937704  0.0836216642590353
  0.6567256401207492  0.6682713954915389  0.5772306326081581
  0.3467166867661005  0.3260070949254791  0.0835346068651141
  0.3466081288714479  0.3264048534202555  0.5822025916074884
  0.3464770893689136  0.8250138763159711  0.0838325114267553
  0.3457876394809885  0.8309498214733518  0.5791429645321942
  0.8457648526318953  0.3265500864825496  0.0824317047422752
  0.8475629026596356  0.3247930171573571  0.5814044936748241
  0.8450121684206098  0.8264015083322388  0.0834697697313011
  0.8461300750306210  0.8270246608605544  0.5795155379914527
  0.1739692860791246  0.3477693344083270  0.4167507403698396
  0.1739455673166934  0.3472661262443291  0.9184503619853548
  0.1707871426825627  0.8451626526691904  0.4143752077664346
  0.1766804627129928  0.8429624230269299  0.9149228798779701
  0.6754970527801946  0.3459040434885232  0.4151674897774575
  0.6746793788763847  0.3449084634326425  0.9158531979672890
  0.6728973711106589  0.8440014049105491  0.4150240518676521
  0.6710336845134898  0.8467934465259035  0.9196380262715803
  0.3256000876844164  0.1546087726078614  0.4159961535949345
  0.3254866846710303  0.1541399768143321  0.9171007488651128
  0.3267752935039162  0.6556727396611405  0.4173668605981878
  0.3260280732947098  0.6488954002715547  0.9218653428558430
  0.8257215298481997  0.1519249498867487  0.4162694177002435
  0.8257376209683738  0.1521141363088565  0.9174943026523914
  0.8286735072036611  0.6549435217653471  0.4122805405409450
  0.8268093905592977  0.6542768172646602  0.9182418655635317
  0.0969239365034336  0.4235935301749337  0.1671148827494558
  0.1026592346377917  0.4213150392489176  0.6692441478731083
  0.0950901941099189  0.9247893742029494  0.1657121088316514
  0.0928648513699361  0.9242623308614758  0.6683077156151948
  0.5953580566372050  0.4237255397367736  0.1665785368486282
  0.5977832553838714  0.4248043635997241  0.6681385222558490
  0.5965686517841112  0.9240036123047695  0.1671668215390295
  0.5895949380636705  0.9291111222176358  0.6582633550197121
  0.4041391991026977  0.0756545788764990  0.1656207609767876
  0.3980038680006517  0.0789577217181047  0.6689529581253288
  0.4025649392160546  0.5755087103567770  0.1684280030971348
  0.4091304299275152  0.5804608511839536  0.6711320662420318
  0.9027101262860199  0.0768755933248911  0.1672187156665778
  0.9010534562825867  0.0763143943405709  0.6689754872193711
  0.9049616571170079  0.5755015482070456  0.1661671498166027
  0.9108902768471988  0.5725642397756695  0.6599674555497800
  0.0759487479008268  0.0964317117212372  0.3328056944036183
  0.0784494924151885  0.1017762418436439  0.8303447277445486
  0.0766395499473144  0.5958891331661325  0.3332058806519680
  0.0753447703152215  0.5954273008863168  0.8329022031035791
  0.5752304282987477  0.0964298664795315  0.3330044699227880
  0.5771163310378868  0.0953591163894531  0.8296897165029018
  0.5761003468782039  0.5959987641346500  0.3330282026465744
  0.5755021519490429  0.5842322431276356  0.8457860782050299
  0.4245417018771404  0.4034167756337875  0.3342639457068669
  0.4209184028665137  0.3980613686933330  0.8295798415113487
  0.4235706634539467  0.9036261683301081  0.3323909038864825
  0.4247828203358808  0.9043699283557375  0.8327612128100970
  0.9241820221378823  0.4034529909766857  0.3326814055989664
  0.9228576901767347  0.4036750507538431  0.8293921982625757
  0.9237720797020729  0.9043364562704731  0.3327309012055431
  0.9267276881057351  0.9100921784719759  0.8400384747920520
 
             NaN             NaN             NaN
             NaN             NaN             NaN
             NaN             NaN             NaN
             NaN             NaN             NaN
             NaN             NaN             NaN
             NaN             NaN             NaN
             NaN             NaN             NaN
             NaN             NaN             NaN
             NaN             NaN             NaN
             NaN             NaN             NaN
             NaN             NaN             NaN
             NaN             NaN             NaN
             NaN             NaN             NaN
             NaN             NaN             NaN
             NaN             NaN             NaN
             NaN             NaN             NaN
             NaN             NaN             NaN
             NaN             NaN             NaN
             NaN             NaN             NaN
             NaN             NaN             NaN
             NaN             NaN             NaN
             NaN             NaN             NaN
             NaN             NaN             NaN
             NaN             NaN             NaN
             NaN             NaN             NaN
             NaN             NaN             NaN
             NaN             NaN             NaN
             NaN             NaN             NaN
             NaN             NaN             NaN
             NaN             NaN             NaN
             NaN             NaN             NaN
             NaN             NaN             NaN
             NaN             NaN             NaN
             NaN             NaN             NaN
             NaN             NaN             NaN
             NaN             NaN             NaN
             NaN             NaN             NaN
             NaN             NaN             NaN
             NaN             NaN             NaN
             NaN             NaN             NaN
             NaN             NaN             NaN
             NaN             NaN             NaN
             NaN             NaN             NaN
             NaN             NaN             NaN
             NaN             NaN             NaN
             NaN             NaN             NaN
             NaN             NaN             NaN
             NaN             NaN             NaN
             NaN             NaN             NaN
             NaN             NaN             NaN
             NaN             NaN             NaN
             NaN             NaN             NaN
             NaN             NaN             NaN
             NaN             NaN             NaN
             NaN             NaN             NaN
             NaN             NaN             NaN
             NaN             NaN             NaN
             NaN             NaN             NaN
             NaN             NaN             NaN
             NaN             NaN             NaN
             NaN             NaN             NaN
             NaN             NaN             NaN
             NaN             NaN             NaN
             NaN             NaN             NaN
             NaN             NaN             NaN
             NaN             NaN             NaN
             NaN             NaN             NaN
             NaN             NaN             NaN
             NaN             NaN             NaN
             NaN             NaN             NaN
             NaN             NaN             NaN
             NaN             NaN             NaN
             NaN             NaN             NaN
             NaN             NaN             NaN
             NaN             NaN             NaN
             NaN             NaN             NaN
             NaN             NaN             NaN
             NaN             NaN             NaN
             NaN             NaN             NaN
             NaN             NaN             NaN
             NaN             NaN             NaN
             NaN             NaN             NaN
             NaN             NaN             NaN
             NaN             NaN             NaN
             NaN             NaN             NaN
             NaN             NaN             NaN
             NaN             NaN             NaN
             NaN             NaN             NaN
             NaN             NaN             NaN
             NaN             NaN             NaN
             NaN             NaN             NaN
             NaN             NaN             NaN
             NaN             NaN             NaN
             NaN             NaN             NaN
             NaN             NaN             NaN
             NaN             NaN             NaN
             NaN             NaN             NaN
             NaN             NaN             NaN
             NaN             NaN             NaN
             NaN             NaN             NaN
             NaN             NaN             NaN
             NaN             NaN             NaN
             NaN             NaN             NaN
             NaN             NaN             NaN
             NaN             NaN             NaN
             NaN             NaN             NaN
             NaN             NaN             NaN
             NaN             NaN             NaN
             NaN             NaN             NaN
             NaN             NaN             NaN
             NaN             NaN             NaN
             NaN             NaN             NaN
             NaN             NaN             NaN
             NaN             NaN             NaN
             NaN             NaN             NaN
             NaN             NaN             NaN
             NaN             NaN             NaN
             NaN             NaN             NaN
             NaN             NaN             NaN
             NaN             NaN             NaN
             NaN             NaN             NaN
             NaN             NaN             NaN
             NaN             NaN             NaN
             NaN             NaN             NaN
             NaN             NaN             NaN
             NaN             NaN             NaN
             NaN             NaN             NaN
