Li47 P16 O64                            
   1.00000000000000     
    10.4200569999999999    0.0010190000000000    0.0000810000000000
     0.0011750000000000   12.1777499999999996    0.0023470000000000
     0.0000530000000000    0.0018840000000000    9.7941000000000003
   Li   P    O 
    47    16    64
Direct
  0.2773944298146460  0.3515957016712083  0.1605738782473230
  0.6604714044979371  0.2517619980195938  0.0967174774073057
  0.6672501318598443  0.2480459897030828  0.5972742250761550
  0.6587117035089026  0.7474207360358819  0.0972775842548294
  0.6641071813626995  0.7501858292753086  0.5984123142857930
  0.1538110261711996  0.5123110866610059  0.1497762041118720
  0.1651990782925052  0.5011495336814854  0.6514074206024689
  0.1652143587222188  1.0004860970153331  0.1506048709553316
  0.1643907406963192  1.0005290776262854  0.6525777242488345
  0.3360884183599997  0.0002435422284673  0.4009938649692777
  0.3363125804997825 -0.0009051475073093  0.9024097219481296
  0.3369045849722605  0.5011826210715967  0.4031427962043104
  0.3373220404121168  0.4978149675860352  0.9070635481189183
  0.8369349867750724  0.2496983293091767  0.3473336177695180
  0.8363268588468634  0.2499553580196787  0.8500935300275564
  0.8348593906070660  0.7486184606797069  0.3481232143463527
  0.8353212635015961  0.7498426983756543  0.8475095252124666
  0.3394568388210601  0.2454841821403953  0.4076731938799903
  0.3370201063551998  0.2486088459904452  0.9010734868771876
  0.3363917060613945  0.7482390428420660  0.4018119081213606
  0.3346428066615113  0.7473600975756488  0.9025529063301645
  0.8374998550460656  0.0020503761646551  0.3495202019911254
  0.8356581216743494  0.0009141406199268  0.8456205567620093
  0.8362346355187660  0.4988165785518381  0.3453868417431543
  0.8356602500486230  0.5009477447755254  0.8521029499136185
  0.6591998754238954  0.4954591817493665  0.0963262434460875
  0.6671997224725797  0.5002060060615205  0.5974990570555305
  0.6634694565163705  0.9938156434090425  0.0963419721521035
  0.6652132056533147  0.9974922837564831  0.5974577156494164
  0.1649046037873264  0.2527072976395019  0.6507194649966562
  0.1632314442120931  0.7534578298303343  0.1535188219480522
  0.1645396103655957  0.7525872454920434  0.6514386494821230
  0.9332050007820492  0.3709616788933862  0.1459854964680275
  0.9253598278403774  0.3758552285382779  0.6532102489129099
  0.9216159963765315  0.8740557470509042  0.1480975325121772
  0.9238805320661791  0.8756390558526641  0.6484204627852362
  0.4236670367372443  0.3745250324703243  0.6078822792388955
  0.4227408845558349  0.8709001785650288  0.1018647072689535
  0.4236177488551610  0.8743082542664758  0.6001964155016951
  0.0817874723173076  0.1335652349608137  0.3413431457163184
  0.0784612548320243  0.1276752458917824  0.8551728154816192
  0.0754073477724228  0.6275885098833305  0.3539427612463524
  0.0755763024270603  0.6262843887161336  0.8494146630792717
  0.5781115242033903  0.1237335131973435  0.3985543419275935
  0.5770873200767034  0.1228016821232399  0.8981082721996073
  0.5758426099005244  0.6237195757442401  0.3990657026476033
  0.5742922609681144  0.6227605563328149  0.8979730551377902
  0.9092359519767681  0.1235047428076311  0.0948201143484067
  0.9145589043944193  0.1261391935592973  0.5952015096488060
  0.9078841917185592  0.6267486391917456  0.0954399913978723
  0.9121523231605538  0.6253272095220149  0.5954853436312759
  0.4145163475540862  0.1213198347180730  0.1542110599834982
  0.4130245240620604  0.1230768956762245  0.6549973088282226
  0.4075314836134695  0.6216433403161203  0.1548773078495180
  0.4118272147377580  0.6244809956474759  0.6548803494877622
  0.0909879236247886  0.3767321047050555  0.4039148672908440
  0.0922957318440139  0.3772202104051433  0.9059262150221075
  0.0884549212355445  0.8766845125225546  0.4045089547398067
  0.0877298820539768  0.8757301001224626  0.9046297835115245
  0.5892027204367934  0.3737500402292386  0.3456261806963198
  0.5876449867682433  0.3738587101220563  0.8397057287400359
  0.5880207637649864  0.8735513543121621  0.3453457156362857
  0.5875629048640924  0.8728812670577462  0.8449481540025524
  0.8375334198967315  0.0204691758635993  0.1465417126155717
  0.8429074873993816  0.0225086572509191  0.6450484336291042
  0.8411715069413545  0.5211708207981721  0.1450936711292320
  0.8436402316388302  0.5222549284565142  0.6504786731500859
  0.3476894299334790  0.2221024419346997  0.0945936091299539
  0.3436166804573262  0.2271912240357654  0.6044124523028789
  0.3391780626754289  0.7266095084138698  0.1035031764962332
  0.3420110353200849  0.7280308390160311  0.6028283152454881
  0.1678691650209640  0.2764260619945819  0.3561244395851961
  0.1598230308871554  0.2742692543096272  0.8500172114251514
  0.1593145825391280  0.7731458475114200  0.3541314048877500
  0.1579078824237924  0.7724244641186522  0.8526088975929403
  0.6580682302412622  0.4774784334488606  0.3995812914959033
  0.6556875479375542  0.4766649467860037  0.8954342730936149
  0.6589056795836243  0.9769126764286802  0.3961514349299302
  0.6586832096050578  0.9758589311618704  0.8965941334788167
  0.1589294096073735  0.4811486821683688  0.3500591703653631
  0.1584692529242926  0.4810011086132663  0.8488487163508247
  0.1581874726528257  0.9798930958432205  0.3520690551224276
  0.1585866331424110  0.9790178584334134  0.8537138843055735
  0.6584668176951376  0.2703596544428306  0.4000448141155660
  0.6548278679927643  0.2703617034332788  0.8956642940521700
  0.6577320970297604  0.7703114728390059  0.3980047764660589
  0.6572686811237032  0.7691552352763428  0.8961746925411528
  0.8406810490552570  0.2275396284853283  0.1463524257213426
  0.8441268520189930  0.2291037851367355  0.6484405294641770
  0.8348160372898032  0.7286940696704820  0.1467730059693360
  0.8418382356353310  0.7289449071314161  0.6464888314272370
  0.3447559415142025  0.0171217708387164  0.1047568581693170
  0.3421131018298915  0.0206683366082238  0.6015857736642313
  0.3320716459078892  0.5202967911187701  0.1068162983463793
  0.3426014033627390  0.5214272658766065  0.6010587408098081
  0.5543460744996581  0.1205549415921054  0.1037031962522296
  0.5521947286931866  0.1230561027238892  0.6027855860304633
  0.5457013801548029  0.6207838937016238  0.0998281489014668
  0.5514902534714856  0.6246594338355681  0.6041540108409307
  0.0465293994684446  0.1186275212340208  0.1481181217319379
  0.0528303255417532  0.1258662579962160  0.6490481873635624
  0.0457814696366551  0.6316548664417009  0.1504737461028792
  0.0520157972931982  0.6270292291624985  0.6449562852956113
  0.4488309408437837  0.3736053365960186  0.3956215220577131
  0.4445017393641707  0.3736881472115046  0.8737020091141777
  0.4489101790560819  0.8743897911388723  0.3973579074342706
  0.4486877494787946  0.8729880023032355  0.8975375222915730
  0.9525648763878968  0.3735938863823050  0.3496996507001300
  0.9502554204075081  0.3756843522813746  0.8610964031955151
  0.9493260181529570  0.8751140898634281  0.3518684335383936
  0.9487578237534098  0.8757563114637407  0.8519535558093878
  0.5952601850768982  0.3733395552186399  0.1901998692779930
  0.5977446217180583  0.3739757668382486  0.6823631592579772
  0.5881192729060553  0.8722960793695889  0.1879801754507852
  0.5885389455207818  0.8738487237318260  0.6875551757195477
  0.1018754302528515  0.3807639834379113  0.0626681407636594
  0.0886420348119247  0.3787705045509216  0.5615433627971381
  0.0878968190000156  0.8755650133141083  0.0620169603156315
  0.0889570000804537  0.8769958550338134  0.5619133297715679
  0.4122721274270880  0.1243339924445785  0.3113351508218418
  0.4118959844204029  0.1217794012945698  0.8121174268226015
  0.4106328511614181  0.6239854987590339  0.3124145083630339
  0.4092502413631348  0.6237631350436227  0.8120769537816707
  0.9146401017706178  0.1270704725895537  0.4377580680984693
  0.9086172274860759  0.1240918196372933  0.9374545900017938
  0.9090320135697094  0.6236232785967795  0.4380454336917602
  0.9101742898760494  0.6269296683084057  0.9380487709463260
 
             NaN             NaN             NaN
             NaN             NaN             NaN
             NaN             NaN             NaN
             NaN             NaN             NaN
             NaN             NaN             NaN
             NaN             NaN             NaN
             NaN             NaN             NaN
             NaN             NaN             NaN
             NaN             NaN             NaN
             NaN             NaN             NaN
             NaN             NaN             NaN
             NaN             NaN             NaN
             NaN             NaN             NaN
             NaN             NaN             NaN
             NaN             NaN             NaN
             NaN             NaN             NaN
             NaN             NaN             NaN
             NaN             NaN             NaN
             NaN             NaN             NaN
             NaN             NaN             NaN
             NaN             NaN             NaN
             NaN             NaN             NaN
             NaN             NaN             NaN
             NaN             NaN             NaN
             NaN             NaN             NaN
             NaN             NaN             NaN
             NaN             NaN             NaN
             NaN             NaN             NaN
             NaN             NaN             NaN
             NaN             NaN             NaN
             NaN             NaN             NaN
             NaN             NaN             NaN
             NaN             NaN             NaN
             NaN             NaN             NaN
             NaN             NaN             NaN
             NaN             NaN             NaN
             NaN             NaN             NaN
             NaN             NaN             NaN
             NaN             NaN             NaN
             NaN             NaN             NaN
             NaN             NaN             NaN
             NaN             NaN             NaN
             NaN             NaN             NaN
             NaN             NaN             NaN
             NaN             NaN             NaN
             NaN             NaN             NaN
             NaN             NaN             NaN
             NaN             NaN             NaN
             NaN             NaN             NaN
             NaN             NaN             NaN
             NaN             NaN             NaN
             NaN             NaN             NaN
             NaN             NaN             NaN
             NaN             NaN             NaN
             NaN             NaN             NaN
             NaN             NaN             NaN
             NaN             NaN             NaN
             NaN             NaN             NaN
             NaN             NaN             NaN
             NaN             NaN             NaN
             NaN             NaN             NaN
             NaN             NaN             NaN
             NaN             NaN             NaN
             NaN             NaN             NaN
             NaN             NaN             NaN
             NaN             NaN             NaN
             NaN             NaN             NaN
             NaN             NaN             NaN
             NaN             NaN             NaN
             NaN             NaN             NaN
             NaN             NaN             NaN
             NaN             NaN             NaN
             NaN             NaN             NaN
             NaN             NaN             NaN
             NaN             NaN             NaN
             NaN             NaN             NaN
             NaN             NaN             NaN
             NaN             NaN             NaN
             NaN             NaN             NaN
             NaN             NaN             NaN
             NaN             NaN             NaN
             NaN             NaN             NaN
             NaN             NaN             NaN
             NaN             NaN             NaN
             NaN             NaN             NaN
             NaN             NaN             NaN
             NaN             NaN             NaN
             NaN             NaN             NaN
             NaN             NaN             NaN
             NaN             NaN             NaN
             NaN             NaN             NaN
             NaN             NaN             NaN
             NaN             NaN             NaN
             NaN             NaN             NaN
             NaN             NaN             NaN
             NaN             NaN             NaN
             NaN             NaN             NaN
             NaN             NaN             NaN
             NaN             NaN             NaN
             NaN             NaN             NaN
             NaN             NaN             NaN
             NaN             NaN             NaN
             NaN             NaN             NaN
             NaN             NaN             NaN
             NaN             NaN             NaN
             NaN             NaN             NaN
             NaN             NaN             NaN
             NaN             NaN             NaN
             NaN             NaN             NaN
             NaN             NaN             NaN
             NaN             NaN             NaN
             NaN             NaN             NaN
             NaN             NaN             NaN
             NaN             NaN             NaN
             NaN             NaN             NaN
             NaN             NaN             NaN
             NaN             NaN             NaN
             NaN             NaN             NaN
             NaN             NaN             NaN
             NaN             NaN             NaN
             NaN             NaN             NaN
             NaN             NaN             NaN
             NaN             NaN             NaN
             NaN             NaN             NaN
             NaN             NaN             NaN
             NaN             NaN             NaN
             NaN             NaN             NaN
