Li47 P16 O64
1.0
10.420057 0.001019 0.000081
0.001175 12.177750 0.002347
0.000053 0.001884 9.794100
Li P O
47 16 64
direct
0.292964 0.314542 0.127550 Li
0.660874 0.251691 0.097896 Li
0.665294 0.249289 0.598050 Li
0.664726 0.750312 0.097951 Li
0.664330 0.751017 0.597925 Li
0.164546 0.495509 0.153132 Li
0.164270 0.500762 0.652040 Li
0.164555 -0.000017 0.151270 Li
0.164161 -0.000417 0.652497 Li
0.335945 0.000934 0.401918 Li
0.336057 0.000901 0.902143 Li
0.336766 0.499970 0.400996 Li
0.335660 0.499178 0.904530 Li
0.836634 0.248330 0.348423 Li
0.834818 0.248991 0.847939 Li
0.836457 0.748982 0.348038 Li
0.836403 0.749083 0.847873 Li
0.336920 0.249921 0.399245 Li
0.334921 0.251110 0.905695 Li
0.335948 0.749296 0.401735 Li
0.335831 0.749241 0.902422 Li
0.836511 0.001112 0.348276 Li
0.836234 0.000901 0.847319 Li
0.836703 0.501020 0.347464 Li
0.835020 0.501448 0.848339 Li
0.661250 0.498262 0.097531 Li
0.665460 0.500774 0.598219 Li
0.664364 0.996983 0.096392 Li
0.664487 0.998605 0.598268 Li
0.163844 0.251111 0.649077 Li
0.163587 0.750897 0.152371 Li
0.164382 0.751818 0.652038 Li
0.924132 0.372857 0.149982 Li
0.920445 0.375546 0.648776 Li
0.923436 0.874655 0.148906 Li
0.923926 0.875352 0.648646 Li
0.423408 0.374999 0.606655 Li
0.425623 0.874722 0.100640 Li
0.423494 0.875138 0.600964 Li
0.078341 0.127433 0.346788 Li
0.077011 0.126131 0.853466 Li
0.077249 0.624555 0.351047 Li
0.076892 0.625360 0.851295 Li
0.577291 0.124702 0.399593 Li
0.575806 0.124608 0.898115 Li
0.576649 0.624890 0.399262 Li
0.575344 0.624900 0.898530 Li
0.910100 0.124332 0.095344 P
0.912710 0.124626 0.595297 P
0.911919 0.624236 0.095450 P
0.912357 0.625961 0.595273 P
0.412980 0.122721 0.154561 P
0.411791 0.125002 0.654917 P
0.411203 0.626892 0.154631 P
0.411595 0.625252 0.654777 P
0.087631 0.375087 0.407400 P
0.086173 0.375928 0.902926 P
0.088348 0.875356 0.404586 P
0.088182 0.875211 0.905014 P
0.590040 0.375067 0.347467 P
0.587686 0.375110 0.842162 P
0.588662 0.874741 0.345466 P
0.588326 0.874596 0.844866 P
0.839521 0.020591 0.146287 O
0.842056 0.021228 0.646602 O
0.840765 0.521177 0.146671 O
0.841776 0.523210 0.647934 O
0.343618 0.223182 0.098519 O
0.342480 0.228360 0.602163 O
0.342628 0.731945 0.105170 O
0.341701 0.728723 0.602693 O
0.158497 0.270494 0.363892 O
0.156896 0.272806 0.851617 O
0.158246 0.771623 0.353332 O
0.158727 0.771989 0.853231 O
0.659833 0.478645 0.399494 O
0.656309 0.478243 0.896628 O
0.658900 0.978002 0.397360 O
0.658605 0.978004 0.896217 O
0.158657 0.477436 0.354088 O
0.157088 0.479027 0.850999 O
0.158713 0.978413 0.352441 O
0.158511 0.978709 0.853866 O
0.659594 0.271309 0.399419 O
0.655718 0.271674 0.897008 O
0.658702 0.771267 0.397263 O
0.658569 0.771302 0.896855 O
0.839611 0.227349 0.147584 O
0.841839 0.227656 0.647119 O
0.841965 0.727917 0.147129 O
0.841966 0.729518 0.646250 O
0.343753 0.018290 0.104666 O
0.341714 0.021632 0.602841 O
0.337026 0.527527 0.100210 O
0.341858 0.522042 0.602080 O
0.552511 0.122436 0.102931 O
0.551358 0.124447 0.603673 O
0.550089 0.625644 0.101970 O
0.551067 0.625352 0.603440 O
0.048126 0.122105 0.148264 O
0.051288 0.124885 0.648555 O
0.050916 0.623989 0.147905 O
0.051422 0.626483 0.647228 O
0.451016 0.375176 0.399465 O
0.446163 0.375410 0.882593 O
0.449459 0.874941 0.397230 O
0.449252 0.874809 0.896944 O
0.949188 0.374390 0.353275 O
0.947171 0.375276 0.849850 O
0.949142 0.875185 0.352577 O
0.949214 0.875096 0.852501 O
0.592973 0.375185 0.190896 O
0.595247 0.374982 0.684909 O
0.590078 0.874389 0.188035 O
0.589070 0.874543 0.687519 O
0.084990 0.377485 0.059427 O
0.086060 0.378108 0.564889 O
0.088690 0.874858 0.062369 O
0.089325 0.875662 0.562037 O
0.412246 0.124502 0.311851 O
0.410045 0.125158 0.812235 O
0.411261 0.625035 0.312024 O
0.409883 0.625070 0.812097 O
0.912322 0.124751 0.437948 O
0.909386 0.125113 0.937881 O
0.911528 0.625039 0.437832 O
0.911200 0.624859 0.937937 O
