Li46 P16 O64                            
   1.00000000000000     
    10.6469839999999998   -0.0041360000000000   -0.0042930000000000
    -0.0048490000000000   12.4458040000000008   -0.0001610000000000
    -0.0040880000000000   -0.0001530000000000   10.0843349999999994
   Li   P    O 
    46    16    64
Direct
  0.5828220418333321  0.2664101722785455  0.0832637318536737
  0.6644069474541491  0.2497607849615482  0.5980317388601476
  0.6627194324329695  0.7495611222364672  0.0989336486911460
  0.6633078195528257  0.7507467513685273  0.5990003086948338
  0.1659866756902204  0.4892465814730669  0.1527837327027834
  0.1627249231305646  0.5008776766411729  0.6519117752486177
  0.1652314884936121 -0.0022068987366569  0.1500579217551602
  0.1630032445663946  0.0012234528157504  0.6515814612882557
  0.3372693257729318  0.0015740858110770  0.4003575860779494
  0.3363582119742543  0.0015926927148069  0.9035337427627917
  0.3383119275850543  0.4980584492363022  0.3956651058296376
  0.3335556396849798  0.4970225411745033  0.9082710427816604
  0.8347928195911285  0.2477051677841885  0.3464551187130596
  0.8316773618007146  0.2497432644763260  0.8573868492415845
  0.8377415209698855  0.7490051492300116  0.3487231998439654
  0.8372897554110470  0.7486516252063239  0.8497437407847166
  0.3362445368548729  0.2519183328861501  0.3847026888901222
  0.3311934525379677  0.2559160005741722  0.9122326687228335
  0.3371156135790106  0.7489464293643552  0.3993237174121942
  0.3365871863848667  0.7494037572631500  0.9036980203041144
  0.8386786949272422  0.0023315702109531  0.3473502079161191
  0.8383142685800017  0.0014343231321612  0.8496075950642008
  0.8361038231297983  0.4992814478884722  0.3485071231383303
  0.8341536121290535  0.5006514030033747  0.8515798466410872
  0.6567589532819668  0.4967167685495683  0.0986713386181765
  0.6645239535596268  0.5011124715283912  0.5991427908131567
  0.6655797255567980  0.9969337655829891  0.0992895964290255
  0.6640054856063925  0.9993299328809775  0.5993217433077930
  0.1621362821548177  0.2533015060005541  0.6482479994845081
  0.1634499988132912  0.7497490513904044  0.1520300989941115
  0.1638189112079952  0.7518930417977820  0.6509442970026331
  0.9314608894914740  0.3646557389691946  0.1526586701031299
  0.9220058259142933  0.3751363549072155  0.6514686190333022
  0.9263469443126787  0.8764634050104565  0.1495821451472189
  0.9268478196815952  0.8760555654786086  0.6490220279071565
  0.4266379364928118  0.3735179840610958  0.6036715356791938
  0.4292021964797857  0.8763337927611050  0.1022574779200593
  0.4260588761289271  0.8757303749321628  0.6003975248049130
  0.0774579409993971  0.1340651735412515  0.3357829227036333
  0.0737142144864671  0.1305245777041004  0.8602662517197662
  0.0741378497055428  0.6216551235719491  0.3505492370926589
  0.0738258085845921  0.6233513722088907  0.8522425883176042
  0.5736142901175662  0.1267664160881727  0.3968109534922170
  0.5733435263946139  0.1218719819422707  0.8999683651337484
  0.5729699274609948  0.6231350879732094  0.3997058178841342
  0.5697289169992545  0.6228585394908269  0.8993216070560530
  0.9110041319820485  0.1204366698902234  0.0992076420151972
  0.9117878738887832  0.1242774250216084  0.5980047435227352
  0.9096548912750702  0.6252003006284451  0.0991070029460914
  0.9109499305123433  0.6272504886188145  0.5974068104506065
  0.4121976733056011  0.1185568491752380  0.1504362040976041
  0.4108466865150898  0.1244176353599201  0.6537123783499341
  0.4075662787732469  0.6301372523580581  0.1514467439947708
  0.4098606680584881  0.6262399239495124  0.6528744429468819
  0.0876191048620723  0.3745747060963864  0.4095889572740010
  0.0832114904715855  0.3783237296540264  0.9006524991144900
  0.0899283623375823  0.8745896675950229  0.4038201468239893
  0.0892018368942712  0.8739819749164246  0.9032209073811961
  0.5914754762115746  0.3765150274960453  0.3516429328888128
  0.5839719750969391  0.3764119582506094  0.8384039835443613
  0.5905873513082814  0.8740217453570271  0.3483199110181182
  0.5895865076296567  0.8737343458677457  0.8451072415057408
  0.8368152468876597  0.0176374479829593  0.1467461693886385
  0.8422654951471553  0.0206474695652888  0.6478851935043350
  0.8373698138776476  0.5245052255898227  0.1497428728595789
  0.8405098026239562  0.5263941882570782  0.6507020613404551
  0.3547937155229828  0.2200793988731050  0.0929114182727540
  0.3423153924557190  0.2266098879558580  0.6023893008528930
  0.3442223091006357  0.7384660369731619  0.1076258439980711
  0.3412275262733028  0.7293924824093202  0.6012168708176134
  0.1574838547695620  0.2704973368394435  0.3728937514161325
  0.1536026424031106  0.2758573783961707  0.8501270328127248
  0.1578808472498770  0.7705475744583126  0.3545387738448602
  0.1592554153186101  0.7718241059060323  0.8513911248470043
  0.6603910499148499  0.4792522155830117  0.4062222114305636
  0.6535612516391482  0.4778678213157005  0.8948680776441533
  0.6603294066163575  0.9763538171589533  0.3995914018805706
  0.6604386599046711  0.9755613859958275  0.8953209940549610
  0.1584734045009833  0.4760224754095908  0.3551634591664432
  0.1541153384690201  0.4798086287019966  0.8455555358904242
  0.1611882066974180  0.9753730694307958  0.3524940014509305
  0.1586677459524848  0.9767699854070611  0.8533384179662367
  0.6595846432647781  0.2730632865656615  0.4039798100300783
  0.6476234672707345  0.2730840402925321  0.8964148380552999
  0.6597490018017480  0.7712416685702814  0.3997707961410761
  0.6585863378179807  0.7707893830803856  0.8960108921150509
  0.8486181645372434  0.2231283397725678  0.1547898987415652
  0.8401665381227362  0.2252197497117575  0.6500234882351005
  0.8405672762133837  0.7292706009928704  0.1480659444586215
  0.8414342004584967  0.7305596102137369  0.6468830990447402
  0.3421146365413439  0.0139410087795097  0.1041191924605429
  0.3413897608730266  0.0213618468470277  0.6017912312314964
  0.3291680831307710  0.5369041682962545  0.0959429905238911
  0.3409504991370992  0.5245544346005635  0.5995949695300917
  0.5521427279985818  0.1128601111083539  0.1019583436839515
  0.5491027072376951  0.1232460857007929  0.6016501859290697
  0.5454257754653753  0.6273194021375358  0.0980229548321192
  0.5483556064748257  0.6268486968024756  0.6023718424136449
  0.0476536051155834  0.1101252166488586  0.1470677916426430
  0.0485895946398041  0.1246522932788310  0.6525150713110633
  0.0467476439765749  0.6254000911148300  0.1526115949444128
  0.0486006993371345  0.6286006082306986  0.6492243350470011
  0.4537367244355243  0.3757016774606239  0.4044022449716576
  0.4434276347172163  0.3779580717188289  0.8732922122543064
  0.4528153349743931  0.8742548798979799  0.4003620256689433
  0.4520805012581094  0.8744779055999533  0.8971210033858514
  0.9505660547716411  0.3747876818896625  0.3540453081884203
  0.9453829089988419  0.3760699586439698  0.8450586611569468
  0.9519443573825823  0.8747758635183229  0.3517320379387300
  0.9515908290307302  0.8739398519808350  0.8499860139023716
  0.5973457471324537  0.3796999661692835  0.1995327213217482
  0.5981958587545066  0.3757973883959582  0.6839753466843057
  0.5917490841294953  0.8728701463481384  0.1935024789300895
  0.5897241599490508  0.8739036283948636  0.6899312050234592
  0.0788213686086115  0.3848104524941436  0.0524561234935095
  0.0829275055628077  0.3819114978482057  0.5648635750329803
  0.0885936491728709  0.8717916354392006  0.0579088714874414
  0.0897473676007562  0.8754166717146356  0.5592220430435515
  0.4115693721416429  0.1211369083452214  0.3066222523093298
  0.4101288831742941  0.1229496944583253  0.8085826794901855
  0.4108448393981699  0.6260672491357899  0.3071781656308930
  0.4078707489598929  0.6265417407221531  0.8077647136423419
  0.9120264199051551  0.1244824578613030  0.4430571130879952
  0.9066487402910883  0.1236540500554731  0.9429491615668931
  0.9103313281462574  0.6255262647351443  0.4423096444513696
  0.9100618794488355  0.6255015881898983  0.9435003683298441
 
             NaN             NaN             NaN
             NaN             NaN             NaN
             NaN             NaN             NaN
             NaN             NaN             NaN
             NaN             NaN             NaN
             NaN             NaN             NaN
             NaN             NaN             NaN
             NaN             NaN             NaN
             NaN             NaN             NaN
             NaN             NaN             NaN
             NaN             NaN             NaN
             NaN             NaN             NaN
             NaN             NaN             NaN
             NaN             NaN             NaN
             NaN             NaN             NaN
             NaN             NaN             NaN
             NaN             NaN             NaN
             NaN             NaN             NaN
             NaN             NaN             NaN
             NaN             NaN             NaN
             NaN             NaN             NaN
             NaN             NaN             NaN
             NaN             NaN             NaN
             NaN             NaN             NaN
             NaN             NaN             NaN
             NaN             NaN             NaN
             NaN             NaN             NaN
             NaN             NaN             NaN
             NaN             NaN             NaN
             NaN             NaN             NaN
             NaN             NaN             NaN
             NaN             NaN             NaN
             NaN             NaN             NaN
             NaN             NaN             NaN
             NaN             NaN             NaN
             NaN             NaN             NaN
             NaN             NaN             NaN
             NaN             NaN             NaN
             NaN             NaN             NaN
             NaN             NaN             NaN
             NaN             NaN             NaN
             NaN             NaN             NaN
             NaN             NaN             NaN
             NaN             NaN             NaN
             NaN             NaN             NaN
             NaN             NaN             NaN
             NaN             NaN             NaN
             NaN             NaN             NaN
             NaN             NaN             NaN
             NaN             NaN             NaN
             NaN             NaN             NaN
             NaN             NaN             NaN
             NaN             NaN             NaN
             NaN             NaN             NaN
             NaN             NaN             NaN
             NaN             NaN             NaN
             NaN             NaN             NaN
             NaN             NaN             NaN
             NaN             NaN             NaN
             NaN             NaN             NaN
             NaN             NaN             NaN
             NaN             NaN             NaN
             NaN             NaN             NaN
             NaN             NaN             NaN
             NaN             NaN             NaN
             NaN             NaN             NaN
             NaN             NaN             NaN
             NaN             NaN             NaN
             NaN             NaN             NaN
             NaN             NaN             NaN
             NaN             NaN             NaN
             NaN             NaN             NaN
             NaN             NaN             NaN
             NaN             NaN             NaN
             NaN             NaN             NaN
             NaN             NaN             NaN
             NaN             NaN             NaN
             NaN             NaN             NaN
             NaN             NaN             NaN
             NaN             NaN             NaN
             NaN             NaN             NaN
             NaN             NaN             NaN
             NaN             NaN             NaN
             NaN             NaN             NaN
             NaN             NaN             NaN
             NaN             NaN             NaN
             NaN             NaN             NaN
             NaN             NaN             NaN
             NaN             NaN             NaN
             NaN             NaN             NaN
             NaN             NaN             NaN
             NaN             NaN             NaN
             NaN             NaN             NaN
             NaN             NaN             NaN
             NaN             NaN             NaN
             NaN             NaN             NaN
             NaN             NaN             NaN
             NaN             NaN             NaN
             NaN             NaN             NaN
             NaN             NaN             NaN
             NaN             NaN             NaN
             NaN             NaN             NaN
             NaN             NaN             NaN
             NaN             NaN             NaN
             NaN             NaN             NaN
             NaN             NaN             NaN
             NaN             NaN             NaN
             NaN             NaN             NaN
             NaN             NaN             NaN
             NaN             NaN             NaN
             NaN             NaN             NaN
             NaN             NaN             NaN
             NaN             NaN             NaN
             NaN             NaN             NaN
             NaN             NaN             NaN
             NaN             NaN             NaN
             NaN             NaN             NaN
             NaN             NaN             NaN
             NaN             NaN             NaN
             NaN             NaN             NaN
             NaN             NaN             NaN
             NaN             NaN             NaN
             NaN             NaN             NaN
             NaN             NaN             NaN
             NaN             NaN             NaN
             NaN             NaN             NaN
