Li46 P16 O64
1.0
10.646984 -0.004136 -0.004293
-0.004849 12.445804 -0.000161
-0.004088 -0.000153 10.084335
Li P O
46 16 64
direct
0.593422 0.251400 0.106071 Li
0.665410 0.249554 0.599259 Li
0.662748 0.749224 0.098803 Li
0.663450 0.750771 0.599055 Li
0.166270 0.489845 0.151458 Li
0.163497 0.500635 0.651789 Li
0.165981 0.001182 0.149242 Li
0.164409 0.001041 0.651214 Li
0.338379 0.002351 0.398713 Li
0.337770 0.002317 0.905163 Li
0.339852 0.497291 0.395169 Li
0.335835 0.495879 0.907494 Li
0.836158 0.247897 0.349013 Li
0.833704 0.249426 0.851638 Li
0.837980 0.748845 0.348894 Li
0.837378 0.748981 0.849576 Li
0.338276 0.253059 0.381635 Li
0.334176 0.256616 0.914846 Li
0.337676 0.749107 0.398954 Li
0.337029 0.749566 0.903539 Li
0.838441 0.001743 0.347601 Li
0.837313 0.001349 0.849172 Li
0.836478 0.499610 0.348161 Li
0.833948 0.500607 0.851691 Li
0.654446 0.494460 0.097399 Li
0.665434 0.500861 0.598700 Li
0.662273 0.997258 0.098020 Li
0.663997 0.999635 0.599769 Li
0.163935 0.253526 0.647809 Li
0.163820 0.750894 0.151443 Li
0.164347 0.752183 0.650962 Li
0.929695 0.367405 0.151666 Li
0.922498 0.375970 0.650638 Li
0.925862 0.875906 0.149133 Li
0.927419 0.876024 0.648879 Li
0.429469 0.373270 0.605149 Li
0.429633 0.875894 0.102920 Li
0.426403 0.876176 0.600301 Li
0.078014 0.132492 0.339590 Li
0.075221 0.130349 0.858181 Li
0.075096 0.622081 0.349852 Li
0.074488 0.623598 0.852596 Li
0.573380 0.127359 0.398334 Li
0.570335 0.128586 0.904058 Li
0.573363 0.622402 0.399240 Li
0.570123 0.622584 0.899167 Li
0.908600 0.120730 0.098157 P
0.913005 0.123963 0.597537 P
0.910020 0.625116 0.098638 P
0.911912 0.627366 0.597427 P
0.411875 0.120077 0.150540 P
0.411243 0.124820 0.653549 P
0.407573 0.629918 0.151130 P
0.410214 0.626102 0.652456 P
0.088297 0.374467 0.408113 P
0.083875 0.377899 0.900381 P
0.090155 0.875182 0.403041 P
0.089394 0.874954 0.903394 P
0.594372 0.375331 0.350503 P
0.586516 0.375425 0.839481 P
0.591146 0.874032 0.348360 P
0.589625 0.874246 0.845198 P
0.835609 0.017770 0.145552 O
0.843089 0.020754 0.647746 O
0.838364 0.524013 0.149064 O
0.841507 0.526507 0.650604 O
0.342076 0.215858 0.094388 O
0.343256 0.227090 0.601641 O
0.344243 0.738252 0.107403 O
0.341442 0.729245 0.600798 O
0.158227 0.270481 0.370892 O
0.154296 0.275685 0.849695 O
0.158410 0.771460 0.353440 O
0.159380 0.772619 0.852063 O
0.661983 0.478835 0.405790 O
0.654067 0.477924 0.896294 O
0.660979 0.976308 0.399746 O
0.659819 0.976258 0.895804 O
0.158986 0.475877 0.353734 O
0.154807 0.479648 0.846438 O
0.160750 0.976466 0.351882 O
0.159075 0.977638 0.853454 O
0.661924 0.272264 0.405835 O
0.653568 0.273133 0.895162 O
0.660167 0.771169 0.399819 O
0.658869 0.771289 0.896122 O
0.840538 0.223068 0.151047 O
0.842147 0.225292 0.649135 O
0.840737 0.728879 0.148152 O
0.842212 0.730636 0.646724 O
0.345507 0.012259 0.106389 O
0.341854 0.021782 0.601173 O
0.329420 0.536674 0.095237 O
0.341512 0.524273 0.599103 O
0.551453 0.116914 0.101019 O
0.549627 0.123351 0.601916 O
0.545490 0.627048 0.097981 O
0.548686 0.626804 0.601920 O
0.044103 0.114632 0.150218 O
0.049948 0.124314 0.651539 O
0.047276 0.625686 0.151857 O
0.049511 0.628687 0.649552 O
0.456108 0.375432 0.402052 O
0.445201 0.376397 0.870525 O
0.453372 0.874376 0.400276 O
0.451992 0.874318 0.896674 O
0.951237 0.374087 0.352222 O
0.946136 0.376114 0.844802 O
0.952096 0.875035 0.351012 O
0.951866 0.874613 0.849880 O
0.604287 0.375645 0.198887 O
0.601752 0.375910 0.684699 O
0.592572 0.872850 0.193549 O
0.590326 0.874227 0.689948 O
0.079126 0.383303 0.052632 O
0.083405 0.381678 0.563256 O
0.088399 0.873690 0.058153 O
0.090161 0.875682 0.558446 O
0.413310 0.122536 0.306988 O
0.409823 0.123467 0.808326 O
0.410750 0.625820 0.306865 O
0.408069 0.626433 0.807347 O
0.912909 0.123943 0.442545 O
0.907480 0.123792 0.942288 O
0.911618 0.625592 0.442306 O
0.910340 0.625733 0.943090 O
