Li47 P16 O64
1.0
10.601064 -0.001271 -0.011116
-0.001470 12.382572 -0.001897
-0.010483 -0.001517 10.023874
Li P O
47 16 64
direct
0.571515 0.296190 0.097721 Li
0.664508 0.251051 0.600064 Li
0.662959 0.750224 0.098708 Li
0.663657 0.751082 0.599512 Li
0.164565 0.497757 0.150104 Li
0.164566 0.498796 0.651251 Li
0.163847 0.997455 0.151395 Li
0.164404 0.998866 0.651226 Li
0.337280 0.000977 0.400050 Li
0.337277 0.001021 0.903429 Li
0.339094 0.499213 0.396972 Li
0.338541 0.497389 0.906120 Li
0.833993 0.249090 0.346583 Li
0.834078 0.249009 0.852481 Li
0.836770 0.748648 0.349234 Li
0.836624 0.748891 0.849194 Li
0.338926 0.250885 0.397184 Li
0.338333 0.251621 0.905771 Li
0.337392 0.749122 0.399872 Li
0.337176 0.749362 0.902881 Li
0.836931 0.001762 0.348881 Li
0.836897 0.001677 0.849536 Li
0.834847 0.500712 0.349094 Li
0.834383 0.500414 0.850286 Li
0.657130 0.494675 0.097415 Li
0.664691 0.500735 0.598392 Li
0.663766 1.001377 0.099844 Li
0.663520 1.000265 0.599448 Li
0.164213 0.251128 0.149502 Li
0.164522 0.251152 0.651161 Li
0.164202 0.751000 0.150911 Li
0.164233 0.751066 0.651569 Li
0.922295 0.374293 0.148211 Li
0.924815 0.374625 0.649366 Li
0.924909 0.875401 0.149310 Li
0.925736 0.875343 0.649185 Li
0.427472 0.375384 0.603648 Li
0.428665 0.875523 0.102029 Li
0.426611 0.875429 0.600987 Li
0.074788 0.125756 0.349678 Li
0.075177 0.125694 0.852538 Li
0.074677 0.623984 0.350574 Li
0.074941 0.623953 0.852187 Li
0.574000 0.127868 0.396999 Li
0.573676 0.128797 0.903673 Li
0.573936 0.623675 0.399252 Li
0.572589 0.623443 0.899139 Li
0.912249 0.124928 0.097622 P
0.912523 0.124785 0.597010 P
0.910409 0.625057 0.097152 P
0.912303 0.625456 0.597335 P
0.408338 0.120601 0.152196 P
0.410893 0.124532 0.653240 P
0.409470 0.627853 0.151933 P
0.410583 0.626001 0.653279 P
0.088392 0.375206 0.403169 P
0.087365 0.375026 0.902969 P
0.088552 0.874692 0.403904 P
0.088533 0.874672 0.903531 P
0.590865 0.376070 0.349485 P
0.587751 0.374738 0.840294 P
0.590336 0.875094 0.347401 P
0.589827 0.875255 0.846411 P
0.842146 0.021561 0.148513 O
0.842378 0.021635 0.647829 O
0.839761 0.522655 0.147754 O
0.842729 0.522973 0.649423 O
0.333764 0.218368 0.097546 O
0.340950 0.226994 0.600807 O
0.343102 0.734412 0.105073 O
0.341264 0.729540 0.601854 O
0.158114 0.272291 0.351855 O
0.157233 0.272238 0.851582 O
0.158188 0.771682 0.352594 O
0.158609 0.771678 0.852694 O
0.660145 0.479382 0.404084 O
0.656205 0.477375 0.896651 O
0.659722 0.978286 0.398976 O
0.660017 0.977818 0.898030 O
0.158589 0.478109 0.352195 O
0.157312 0.477915 0.851712 O
0.158296 0.977609 0.353106 O
0.158811 0.977493 0.852752 O
0.659962 0.272670 0.402982 O
0.656242 0.271261 0.889502 O
0.659864 0.772012 0.399310 O
0.659160 0.771741 0.897321 O
0.845079 0.227677 0.149346 O
0.843238 0.227350 0.649014 O
0.841077 0.728547 0.148071 O
0.842276 0.728628 0.648019 O
0.340656 0.014243 0.106178 O
0.341467 0.021008 0.601490 O
0.334381 0.530373 0.097923 O
0.340852 0.523704 0.600232 O
0.545680 0.120322 0.099602 O
0.549227 0.124499 0.601381 O
0.547737 0.626467 0.099138 O
0.549236 0.626751 0.602288 O
0.051282 0.122761 0.148574 O
0.051057 0.124108 0.649059 O
0.048750 0.625076 0.149609 O
0.050786 0.625773 0.649286 O
0.452682 0.375390 0.403208 O
0.447544 0.374484 0.880971 O
0.451889 0.874920 0.398902 O
0.451408 0.875143 0.897544 O
0.949887 0.375709 0.351548 O
0.948806 0.375136 0.850756 O
0.950042 0.874740 0.351867 O
0.950392 0.874824 0.850410 O
0.595190 0.378135 0.196625 O
0.595358 0.377743 0.684761 O
0.592366 0.874782 0.191680 O
0.590806 0.875397 0.690383 O
0.087179 0.375045 0.058728 O
0.089255 0.375115 0.559249 O
0.087840 0.874199 0.059277 O
0.089245 0.874575 0.559851 O
0.409434 0.124070 0.308655 O
0.409428 0.124207 0.808926 O
0.410989 0.625804 0.308250 O
0.408940 0.625666 0.809035 O
0.911617 0.125011 0.441114 O
0.911350 0.124427 0.941387 O
0.911390 0.625119 0.441424 O
0.910326 0.625260 0.941087 O
