Li7 Mn16 O32                            
   1.00000000000000     
     8.0357409999999998   -0.0000300000000000   -0.0000440000000000
    -0.0000230000000000    8.0357330000000005   -0.0000140000000000
    -0.0000510000000000    0.0000230000000000    8.0326850000000007
   Li   Mn   O 
     7    16    32
Direct
  0.2806650819471848  0.4693447648318216  0.7805960086031422
  0.8770061492365215  0.8730215719197938  0.8733558387591783
  0.1260066731268706  0.1265492278731986  0.1234300827416738
  0.8770142494713467  0.3766565173874744  0.3769900681107806
  0.3733135172270946  0.8729629543393695  0.3770231638084483
  0.6234184391131449  0.1266040339118421  0.6260516234507670
  0.6234381323834622  0.6239470708127930  0.1234011170848833
  0.5000428290870929  0.2499350255926392  0.2480376749312232
  0.2499335017678406  0.5000129106462031  0.2515131150153803
  0.2496877954351313  0.2491969541427570  0.4985009594974922
  0.5007215090185427  0.5002600073687691  0.4984606965207498
  0.5007140890433022  0.7515583205496605  0.7497519808500513
  0.7514978653024595  0.4999976991164637  0.7499454962124105
  0.7520983952584389  0.7500160519889943  0.5000335580216270
  0.2499565580178955  0.9984849701525812  0.7499657990035600
  0.2496927792060846  0.7515266192850771  1.0007416994437668
  0.5000648054730127  0.0019677355869844  1.0000568041843199
  0.7497109092203993 -0.0000243170882284  0.2500958396585295
  0.7480044098026756  0.2498725043037725  1.0001244556788880
 -0.0015589951399906  0.2492683885296791  0.7497590644300794
 -0.0015662785351521  0.5002447395370282  1.0006823376089455
 -0.0000891161999106  0.7500437732814461  0.2521146189041776
  0.9999126586451943  0.9978737426039407  0.4999664250479271
  0.7379035188896483  0.0120944236337038  0.0123381445087985
  0.0122045115801943  0.7378191566005875  0.0135350414090862
  0.0124056359382218  0.0114681050268059  0.7372333078345316
  0.7385948510799801  0.7376182243908541  0.7372218851288701
  0.2626122755253590  0.9884130630275586  0.9876088656882041
  0.9863427811071954  0.2622792196869919  0.9877443980269763
  0.9875875889972869  0.9878407369108386  0.2621432994333042
  0.2626061952686182  0.2624061542019196  0.2615707318098862
  0.7385935697184711  0.5128170825188371  0.5123410939725654
  0.0122244961740913  0.2364187784971606  0.5121503557557388
  0.0123781592178400  0.5128222662732776  0.2385422951430600
  0.7378816029482519  0.2376788862768089  0.2379327630550188
  0.2653588220871512  0.4846932392445514  0.4890872869194989
  0.9858273301333313  0.7642132267603893  0.4858320625198813
  0.9890610275424084  0.4846931722761200  0.7652396746782932
  0.2653554022213982  0.7609614409639044  0.7652358036114760
  0.2372290677674641  0.0114560789190624  0.5123353090844602
  0.5136419744850045  0.7378116895936425  0.5121472036101680
  0.5122267304941633  0.0121237475963457  0.2379330139880154
  0.2372033890248513  0.7376348064383160  0.2385357501113891
  0.7621440824080310  0.9878431388891695  0.4877876436819948
  0.4877915977817861  0.2622801363405288  0.4863019181919645
  0.4876429057959042  0.9884014161032593  0.7625349621231449
  0.7616480156215736  0.2624091747951804  0.7625386682725867
  0.2352754569823509  0.5147837266601184  0.0125062650098951
  0.5139381397518713  0.2361495952779268  0.0138242963376374
  0.5126069379164914  0.5147809183659036  0.7352806888679979
  0.2352866689790271  0.2374449291989535  0.7352801712274537
  0.7616478527519148  0.4873960889049193  0.9876075127799612
  0.4877927296580994  0.7637337358716114  0.9877348481580014
  0.4876309326541689  0.4874305595189561  0.2615924663921277
  0.7621505309474069  0.7623070466506443  0.2621542986082930
 
             NaN             NaN             NaN
             NaN             NaN             NaN
             NaN             NaN             NaN
             NaN             NaN             NaN
             NaN             NaN             NaN
             NaN             NaN             NaN
             NaN             NaN             NaN
             NaN             NaN             NaN
             NaN             NaN             NaN
             NaN             NaN             NaN
             NaN             NaN             NaN
             NaN             NaN             NaN
             NaN             NaN             NaN
             NaN             NaN             NaN
             NaN             NaN             NaN
             NaN             NaN             NaN
             NaN             NaN             NaN
             NaN             NaN             NaN
             NaN             NaN             NaN
             NaN             NaN             NaN
             NaN             NaN             NaN
             NaN             NaN             NaN
             NaN             NaN             NaN
             NaN             NaN             NaN
             NaN             NaN             NaN
             NaN             NaN             NaN
             NaN             NaN             NaN
             NaN             NaN             NaN
             NaN             NaN             NaN
             NaN             NaN             NaN
             NaN             NaN             NaN
             NaN             NaN             NaN
             NaN             NaN             NaN
             NaN             NaN             NaN
             NaN             NaN             NaN
             NaN             NaN             NaN
             NaN             NaN             NaN
             NaN             NaN             NaN
             NaN             NaN             NaN
             NaN             NaN             NaN
             NaN             NaN             NaN
             NaN             NaN             NaN
             NaN             NaN             NaN
             NaN             NaN             NaN
             NaN             NaN             NaN
             NaN             NaN             NaN
             NaN             NaN             NaN
             NaN             NaN             NaN
             NaN             NaN             NaN
             NaN             NaN             NaN
             NaN             NaN             NaN
             NaN             NaN             NaN
             NaN             NaN             NaN
             NaN             NaN             NaN
             NaN             NaN             NaN
