Li7 Mn16 O32
1.0
8.035741 -0.000030 -0.000044
-0.000023 8.035733 -0.000014
-0.000051 0.000023 8.032685
Li Mn O
7 16 32
direct
0.280677 0.469363 0.780638 Li
0.876443 0.873585 0.873581 Li
0.125813 0.125822 0.124156 Li
0.876445 0.376422 0.376415 Li
0.373555 0.873546 0.376441 Li
0.624163 0.125850 0.625851 Li
0.624176 0.624150 0.124145 Li
0.499838 0.250002 0.249286 Mn
0.249934 0.500050 0.250469 Mn
0.249933 0.251226 0.500828 Mn
0.498740 0.500034 0.500790 Mn
0.498742 0.749204 0.749982 Mn
0.750464 0.500040 0.749927 Mn
0.751112 0.749941 0.500124 Mn
0.249937 -0.000470 0.749927 Mn
0.249930 0.749182 0.998764 Mn
0.499867 0.000751 0.999946 Mn
0.749777 1.000025 0.250028 Mn
0.749150 0.250032 0.999966 Mn
0.000783 0.251242 0.749979 Mn
0.000786 0.500036 0.998737 Mn
1.000010 0.749907 0.251198 Mn
0.999989 0.998818 0.500079 Mn
0.737769 0.012231 0.012335 O
0.012595 0.737459 0.012583 O
0.012605 0.012505 0.737377 O
0.737553 0.737447 0.737362 O
0.262615 0.987601 0.987588 O
0.987456 0.262443 0.987590 O
0.987551 0.987760 0.262216 O
0.262600 0.262436 0.262361 O
0.737544 0.512679 0.512516 O
0.012604 0.237378 0.512509 O
0.012594 0.512656 0.237514 O
0.737753 0.237656 0.237801 O
0.263806 0.486263 0.486338 O
0.986474 0.763564 0.486481 O
0.986366 0.486229 0.763705 O
0.263815 0.763683 0.763693 O
0.237367 0.012528 0.512512 O
0.512662 0.737450 0.512514 O
0.512281 0.012204 0.237826 O
0.237361 0.737449 0.237494 O
0.762224 0.987794 0.487683 O
0.487611 0.262436 0.487458 O
0.487618 0.987599 0.762573 O
0.762442 0.262429 0.762549 O
0.236730 0.513339 0.013281 O
0.513003 0.237015 0.012959 O
0.513373 0.513323 0.736710 O
0.236737 0.236676 0.736703 O
0.762450 0.487403 0.987589 O
0.487611 0.762580 0.987593 O
0.487604 0.487381 0.262371 O
0.762238 0.762396 0.262205 O
