Li16 Co18 O36                           
   1.00000000000000     
     8.1718779999999995   -0.0021550000000000    2.4305780000000001
     3.7284860000000002    7.2739289999999999    2.4214920000000002
     0.0160380000000000   -0.0026020000000000    9.9901640000000000
   Li   Co   O 
    16    18    36
Direct
  0.2657316253323941  0.4622520863331487  0.5158818417109117
  0.3339821443878342  0.3326616864736454  0.0010641944480802
  0.3331248394532049  0.6675508254340619  0.9999593153478518
  0.3333509363830476  1.0002797471497729  0.0005411446431107
  0.3322875008920874  0.9978851684148824  0.5015844102675332
  0.6670981420432270  0.3336476283453068  0.9993913503910010
  0.6543399584280521  0.3418121573652835  0.4993184979750175
  0.6664962672061254  0.6672253226900017  0.0005628439397601
  0.6659634044106862  0.6671182174994517  0.5011791080985442
  0.6662847231574670  0.9999341408260761  0.0009312303407914
  0.6689906348789587  0.9980656895798797  0.5017659383627092
  0.9995174758852573  0.3330283139270818  0.0005756292562646
  0.0062601380418793  0.3434309494595976  0.4997571803853936
 -0.0010398339560849  0.6678025106471535  0.0011000549978750
  0.0001689612762658  1.0005755514311068  0.9993447880121588
  0.0193913997226239  0.9614559176916618  0.4999433893807127
  0.1658043817189549  0.1693480305419837  0.2470900761468288
  0.1678365674513192  0.1649783851460253  0.7529499877703137
  0.1654639801248621  0.5022220412812756  0.2467668886099824
  0.1655195611945513  0.4994968726544202  0.7567439683493974
  0.1655768647242114  0.8366819544813980  0.2473029425789716
  0.1679360136082604  0.8318968414702016  0.7522789770901290
  0.4985015749161151  0.1686036052345581  0.2510395382988049
  0.5002147540991397  0.1649431220243165  0.7530150430426061
  0.5006303501530057  0.5021823443918694  0.2467385018547306
  0.5001039976721734  0.5002979279809264  0.7517733362971348
  0.4986842609458744  0.8342376666366300  0.2507060276902771
  0.4995083745618031  0.8319525910596142  0.7558931739654413
  0.8329145336309175  0.1693193073182013  0.2470616472907696
  0.8344031737370198  0.1662192787295199  0.7496743016448726
  0.8335731153379887  0.5017807567448678  0.2459346711879404
  0.8333479303667578  0.5004059173273282  0.7516484882574180
  0.8327752630441242  0.8343080725419257  0.2507584042932082
  0.8334835295188794  0.8319269796438946  0.7522222338401046
  0.2506817672002704  0.2569153901668282  0.3539699813894167
  0.2540743171755835  0.2513036338628948  0.8628782173084356
  0.2553356190689627  0.5938279253838089  0.3416122320348677
  0.2545613104841155  0.5867015123997275  0.8626271338276958
  0.2510398819804591  0.9269549785237826  0.3523615814989283
  0.2516285042035881  0.9198857779839550  0.8635187331254196
  0.5887304591190534  0.2569918158579059  0.3540459581176106
  0.5887024848809067  0.2529174674946617  0.8593954267633434
  0.5911834091415907  0.5868821144880124  0.3519830344041526
  0.5878103427272948  0.5840303109614767  0.8619112286593711
  0.5856408746545376  0.9214278556112144  0.3595465985216708
  0.5871487047881977  0.9199814655620591  0.8635620176571678
  0.9197691666462541  0.2573886327507481  0.3529032452691505
  0.9198177491362931  0.2530120124364357  0.8590936425553136
  0.9195586953017856  0.5869087387631761  0.3520853195909920
  0.9181285487379814  0.5868814390040403  0.8623844796793931
  0.9194055818105096  0.9270358662576736  0.3524829442562132
  0.9199638650400970  0.9211851584390727  0.8596365211826891
  0.0795013597817533  0.0821436812625158  0.1379136297102214
  0.0820303753901405  0.0776607968212208  0.6437321403546976
  0.0804456317064678  0.4149632492591066  0.1366415984378184
  0.0800450686518084  0.4094559749692122  0.6501386285918199
  0.0771563305981009  0.7495078546674899  0.1390693406192696
  0.0787229994964700  0.7428926450423975  0.6526451723010301
  0.4137629373415581  0.0805339209690300  0.1418157262279382
  0.4143622156557443  0.0737949036920296  0.6494114931305580
  0.4138778195445504  0.4126364521518153  0.1393631140260447
  0.4127961655364049  0.4093713783839049  0.6502723266748042
  0.4138160968406619  0.7493707123758623  0.1391190343198688
  0.4145738501427364  0.7467383461230518  0.6495094985207741
  0.7447357963328208  0.0804578656909282  0.1415269688114857
  0.7465741267892971  0.0776635338813243  0.6436003451382459
  0.7469207338486247  0.4148058500000529  0.1367102925451087
  0.7467487823039686  0.4135695707261455  0.6424814209976247
  0.7450972163741871  0.7495349101635133  0.1409458436224813
  0.7410119330607879  0.7467873391648392  0.6494866380844753
 
             NaN             NaN             NaN
             NaN             NaN             NaN
             NaN             NaN             NaN
             NaN             NaN             NaN
             NaN             NaN             NaN
             NaN             NaN             NaN
             NaN             NaN             NaN
             NaN             NaN             NaN
             NaN             NaN             NaN
             NaN             NaN             NaN
             NaN             NaN             NaN
             NaN             NaN             NaN
             NaN             NaN             NaN
             NaN             NaN             NaN
             NaN             NaN             NaN
             NaN             NaN             NaN
             NaN             NaN             NaN
             NaN             NaN             NaN
             NaN             NaN             NaN
             NaN             NaN             NaN
             NaN             NaN             NaN
             NaN             NaN             NaN
             NaN             NaN             NaN
             NaN             NaN             NaN
             NaN             NaN             NaN
             NaN             NaN             NaN
             NaN             NaN             NaN
             NaN             NaN             NaN
             NaN             NaN             NaN
             NaN             NaN             NaN
             NaN             NaN             NaN
             NaN             NaN             NaN
             NaN             NaN             NaN
             NaN             NaN             NaN
             NaN             NaN             NaN
             NaN             NaN             NaN
             NaN             NaN             NaN
             NaN             NaN             NaN
             NaN             NaN             NaN
             NaN             NaN             NaN
             NaN             NaN             NaN
             NaN             NaN             NaN
             NaN             NaN             NaN
             NaN             NaN             NaN
             NaN             NaN             NaN
             NaN             NaN             NaN
             NaN             NaN             NaN
             NaN             NaN             NaN
             NaN             NaN             NaN
             NaN             NaN             NaN
             NaN             NaN             NaN
             NaN             NaN             NaN
             NaN             NaN             NaN
             NaN             NaN             NaN
             NaN             NaN             NaN
             NaN             NaN             NaN
             NaN             NaN             NaN
             NaN             NaN             NaN
             NaN             NaN             NaN
             NaN             NaN             NaN
             NaN             NaN             NaN
             NaN             NaN             NaN
             NaN             NaN             NaN
             NaN             NaN             NaN
             NaN             NaN             NaN
             NaN             NaN             NaN
             NaN             NaN             NaN
             NaN             NaN             NaN
             NaN             NaN             NaN
             NaN             NaN             NaN
