Li16 Co18 O36
1.0
8.171878 -0.002155 2.430578
3.728486 7.273929 2.421492
0.016038 -0.002602 9.990164
Li Co O
16 18 36
direct
0.258285 0.459637 0.535568 Li
0.333091 0.333368 0.000046 Li
0.333335 0.667072 0.999727 Li
0.332991 0.999721 0.000395 Li
0.332367 -0.000029 0.501417 Li
0.666930 0.333960 0.999473 Li
0.657319 0.338485 0.498560 Li
0.666597 0.666241 0.000243 Li
0.671302 0.666164 0.500695 Li
0.666460 0.999724 1.000294 Li
0.671339 0.995338 0.500700 Li
0.999822 0.333410 0.000058 Li
0.012244 0.349745 0.499004 Li
1.000057 0.666363 0.000089 Li
0.000689 -0.000054 0.999729 Li
0.012101 0.972291 0.499066 Li
0.166216 0.167668 0.247938 Co
0.167324 0.165547 0.751968 Co
0.166107 0.500880 0.249168 Co
0.166976 0.499860 0.749906 Co
0.166092 0.833656 0.249118 Co
0.167312 0.832405 0.751904 Co
0.499175 0.167293 0.250629 Co
0.500151 0.166003 0.750785 Co
0.500060 0.500600 0.248163 Co
0.500116 0.499930 0.750753 Co
0.499195 0.833227 0.250624 Co
0.499297 0.832098 0.754690 Co
0.833548 0.168098 0.246598 Co
0.834163 0.166420 0.749251 Co
0.833593 0.500703 0.246642 Co
0.833694 0.500137 0.750691 Co
0.833298 0.833218 0.250527 Co
0.833723 0.832339 0.750657 Co
0.251969 0.254960 0.354562 O
0.254178 0.253330 0.859563 O
0.256359 0.589529 0.346984 O
0.254038 0.586101 0.859713 O
0.251904 0.923516 0.354520 O
0.251991 0.919535 0.862923 O
0.589592 0.254998 0.353674 O
0.588125 0.253173 0.858019 O
0.589595 0.586323 0.353713 O
0.587044 0.584863 0.861220 O
0.586473 0.920574 0.358744 O
0.587215 0.920380 0.861370 O
0.919847 0.255848 0.352802 O
0.919700 0.253129 0.858497 O
0.919329 0.586408 0.352296 O
0.920249 0.586881 0.859226 O
0.919324 0.926210 0.352210 O
0.919685 0.921179 0.858746 O
0.080542 0.080323 0.138668 O
0.081437 0.077917 0.643974 O
0.080685 0.413638 0.138447 O
0.079167 0.408427 0.650023 O
0.078533 0.747089 0.140693 O
0.079155 0.745707 0.649946 O
0.413662 0.079311 0.142049 O
0.413728 0.074614 0.647904 O
0.413362 0.412079 0.140638 O
0.414080 0.410603 0.646917 O
0.413410 0.747387 0.140863 O
0.413735 0.746375 0.647837 O
0.745279 0.079303 0.141114 O
0.746667 0.078094 0.642626 O
0.746957 0.414254 0.137089 O
0.746666 0.413403 0.642660 O
0.745403 0.748047 0.141171 O
0.741003 0.746640 0.648607 O
