Li7 Mn16 O32
1.0
8.391659 0.067072 -0.007593
0.041352 8.179557 0.010753
-0.017736 -0.026605 8.250126
Li Mn O
7 16 32
direct
0.120681 0.622707 0.618670 Li
0.879320 0.876381 0.879857 Li
0.119876 0.128944 0.123228 Li
0.882626 0.370006 0.379609 Li
0.378896 0.874949 0.380168 Li
0.615285 0.129971 0.627156 Li
0.619356 0.624152 0.119276 Li
0.501564 0.253274 0.248530 Mn
0.251226 0.493549 0.239894 Mn
0.252532 0.251326 0.504266 Mn
0.503774 0.501425 0.499801 Mn
0.502570 0.749454 0.752012 Mn
0.762412 0.504205 0.743970 Mn
0.753181 0.752092 0.497588 Mn
0.240739 0.996604 0.754531 Mn
0.243964 0.746364 0.996112 Mn
0.492677 0.001810 0.004338 Mn
0.745235 0.004325 0.255259 Mn
0.751952 0.249513 0.001623 Mn
0.002297 0.246717 0.751535 Mn
0.003953 0.495847 0.997240 Mn
0.998077 0.750144 0.247447 Mn
0.995474 0.006786 0.499025 Mn
0.751521 0.011716 0.026805 O
0.013123 0.729487 0.013040 O
0.010833 0.013313 0.737136 O
0.759713 0.738345 0.729150 O
0.236074 0.975216 0.986713 O
0.984214 0.263114 0.983173 O
0.971018 0.010229 0.269010 O
0.275280 0.263490 0.239662 O
0.762204 0.520135 0.514439 O
0.018474 0.242154 0.522170 O
0.022596 0.489093 0.225107 O
0.727302 0.235651 0.262361 O
0.248732 0.486305 0.469809 O
0.981803 0.766216 0.479867 O
0.993636 0.483496 0.764438 O
0.244295 0.761207 0.766811 O
0.251625 0.013640 0.525920 O
0.524697 0.735770 0.510055 O
0.513486 0.016400 0.239702 O
0.236698 0.730691 0.232024 O
0.740461 0.981980 0.486333 O
0.484631 0.267201 0.483027 O
0.471757 0.986804 0.769671 O
0.773535 0.271012 0.743547 O
0.231647 0.512457 0.008235 O
0.525201 0.238505 0.021134 O
0.538245 0.517352 0.736941 O
0.223380 0.224828 0.762040 O
0.773870 0.495484 0.980196 O
0.470796 0.759760 0.991501 O
0.482313 0.486754 0.255826 O
0.758741 0.766768 0.263184 O
