Li46 P16 O64                            
   1.00000000000000     
    10.6525330000000000   -0.0067910000000000   -0.0205770000000000
    -0.0079260000000000   12.4503609999999991   -0.0118360000000000
    -0.0193740000000000   -0.0095710000000000   10.0792660000000005
   Li   P    O 
    46    16    64
Direct
  0.2123421814059566  0.2905793861020244  0.1591392023828833
  0.6650652984238855  0.2520738819165073  0.5990580433373772
  0.6610526227551256  0.7470666798518000  0.0972397739871217
  0.6636460826025133  0.7510314524939256  0.6001894387299864
  0.1604547031047875  0.5071159410444838  0.1489657176246714
  0.1656725346828878  0.5001240685170435  0.6507520966367381
  0.1648381324648290  0.9947027973757665  0.1512057223942632
  0.1650642860920556  0.9996755177966429  0.6518929583523128
  0.3384392020619587  0.0002755827921802  0.3992762398597851
  0.3399228742753856  0.0005167697331263  0.9061253958993918
  0.3414780291956906  0.4991838277659318  0.3972460924400289
  0.3408967316165824  0.4953259957525484  0.9074620014738175
  0.8318912561101407  0.2490824845552730  0.3430259507163045
  0.8329530960273933  0.2486275296743600  0.8584558923371501
  0.8365185520939420  0.7481888179735205  0.3493606090502847
  0.8369010162116356  0.7486993689597563  0.8489010944248120
  0.3440552433704994  0.2484983374959204  0.4048804707489076
  0.3441690158591943  0.2510494444110906  0.9047903785208739
  0.3386511539192467  0.7489807054453208  0.3992668677232953
  0.3380096314178851  0.7494357985516579  0.9032307256478126
  0.8394847389920157  0.0031453033855667  0.3477265792669554
  0.8382701224888015  0.0026362482526215  0.8492043577063545
  0.8324689291844777  0.4984308999332182  0.3468652435962485
  0.8335848021466684  0.4991094826454517  0.8528012585071330
  0.6513450329116224  0.4854097240427829  0.0925413836825350
  0.6655471377966012  0.5018062925426304  0.5963925977965523
  0.6665798645706201 -0.0015567640647569  0.1000852299836528
  0.6641390251682049  0.0013511477015962  0.5986670504503006
  0.1657888522136443  0.2511973768553836  0.6529525620157202
  0.1643779503162834  0.7519050368783424  0.1517121507478054
  0.1646716020145839  0.7517889441074130  0.6510697478473131
  0.9291751663249300  0.3683499937437931  0.1475937782429534
  0.9266045358677184  0.3739113897453086  0.6514772605082438
  0.9248149664442864  0.8759506904765698  0.1492908864863665
  0.9263040615413825  0.8762984036579727  0.6488620557459472
  0.4287026928768140  0.3763203937925272  0.6053947395739083
  0.4305829641413541  0.8743527133259605  0.1027676306924704
  0.4283869127770908  0.8758183530802117  0.6005763874739110
  0.0779040002133862  0.1314035947384469  0.3377415381327002
  0.0770900562014943  0.1271236941870853  0.8597973821409700
  0.0729802700682625  0.6255793268898054  0.3523096657679437
  0.0742932236458449  0.6242758729102358  0.8505609913337533
  0.5753963355056968  0.1301672610776541  0.3889241113479852
  0.5761015424852896  0.1362579962891958  0.9169431502650782
  0.5741989085334727  0.6218300100055612  0.3987990677757780
  0.5717303236421940  0.6209290627178883  0.8977386068590171
  0.9166168183484356  0.1221396614032296  0.0989956007592996
  0.9152524451705337  0.1258140796748195  0.5967122220790899
  0.9087866013659717  0.6249978902146769  0.0974837655676366
  0.9124244730363414  0.6252779855530677  0.5974372441172373
  0.4093880781211715  0.1145950995672741  0.1516145532942480
  0.4127250754473240  0.1226616864315133  0.6538241314951189
  0.4078688474393995  0.6278936712466584  0.1507393524757828
  0.4103467810794062  0.6273194034828929  0.6530182941827811
  0.0909733849066068  0.3780504795627689  0.4031488282770751
  0.0908038328831447  0.3769731298909357  0.9032206629363430
  0.0892871869460871  0.8746317544936513  0.4046489010671376
  0.0890844511324497  0.8736942086500020  0.9027187705937717
  0.5892474618751694  0.3767173072504569  0.3496391104788406
  0.5874310585343626  0.3741069227639391  0.8328967587134063
  0.5921206173956038  0.8735256127720541  0.3479104074959207
  0.5917545332370044  0.8739868335701122  0.8463612543044284
  0.8422229647495360  0.0203025941119003  0.1483311096580999
  0.8441510339831111  0.0230535949150296  0.6460198395110768
  0.8408462585044899  0.5218588710065823  0.1462411399122471
  0.8447044775585374  0.5232839853247099  0.6509287460125573
  0.3392297010156753  0.2104546171147602  0.0899840913790446
  0.3411437844221304  0.2243594961466580  0.6033518071280840
  0.3432270724341833  0.7354913425385626  0.1058731670486406
  0.3416552653285876  0.7306807437193293  0.6020623168914406
  0.1651197905236425  0.2783829883444481  0.3504433816528267
  0.1593936267014814  0.2748120443172393  0.8513104941080544
  0.1584990526993941  0.7715484846118362  0.3544012360449642
  0.1589151161160684  0.7712764317715960  0.8515184875366829
  0.6595189161406367  0.4796941223640027  0.4066422846224442
  0.6549182596330503  0.4760593602767627  0.8927100389966560
  0.6616175294360840  0.9765452098186675  0.3978817334228867
  0.6640100511508481  0.9741721042787513  0.8984251238163649
  0.1587497698555290  0.4818489430983717  0.3530442029202574
  0.1577567488141870  0.4795011333965475  0.8486288072017737
  0.1594756144046138  0.9762326226169588  0.3546481585822833
  0.1599949952099143  0.9758997040587196  0.8538045298201691
  0.6595077297773094  0.2740429848311260  0.4038458989409519
  0.6558263837327539  0.2707336305108923  0.8765038990458985
  0.6609394248575516  0.7713271291138536  0.4014228604274831
  0.6592793847296721  0.7693848489533403  0.8950192507432417
  0.8581920047386927  0.2257491658809928  0.1540715251216267
  0.8463780225756450  0.2279066840401043  0.6482563716484195
  0.8383807902681119  0.7273521064190189  0.1479943438600383
  0.8427487098098644  0.7279744660935999  0.6478604892166107
  0.3388052616207397  0.0081650780086668  0.1100111998027106
  0.3426132142120545  0.0196312706220245  0.6022191776591260
  0.3286958209109158  0.5336250898691995  0.0972937094123255
  0.3403619501182183  0.5261942396396965  0.5991235213821950
  0.5453456189237947  0.1073781869938679  0.1026461521759196
  0.5488595246625259  0.1235435577555910  0.5982719873437787
  0.5444540446606668  0.6247394607665592  0.0956970231444122
  0.5483173641400921  0.6281925023654771  0.6024273049437469
  0.0549460839060741  0.1128798641694915  0.1458156159030168
  0.0523985956443083  0.1244735309756798  0.6515024927943792
  0.0462477327306704  0.6280705945680435  0.1514333276965143
  0.0508917534109267  0.6267543974570601  0.6479234512701488
  0.4524824088123948  0.3752207183867873  0.4085998721169362
  0.4463439477722496  0.3746374965646426  0.8678188975734872
  0.4542483202935114  0.8740712430878780  0.3994190289660318
  0.4541604839409498  0.8741211899397826  0.8980479933800839
  0.9535322059033786  0.3763017923525543  0.3512496810430911
  0.9512167003430639  0.3756115749852482  0.8556195605631847
  0.9514885424663591  0.8738678055180613  0.3517934479829919
  0.9518850242377838  0.8743022295550175  0.8481823564573013
  0.5895483554122332  0.3806830550429460  0.1999460895645280
  0.5970113587610036  0.3807096270888180  0.6776635323012415
  0.5938392761271334  0.8705976147640454  0.1931660059053638
  0.5917202435140788  0.8752614525379543  0.6908247365378427
  0.0958762249597390  0.3800496762449769  0.0583402852862818
  0.0915237646252159  0.3762946215770478  0.5585152441182890
  0.0867401220900171  0.8714244758775648  0.0575174884684807
  0.0889853693879858  0.8745728838440135  0.5599776302046086
  0.4071029105864374  0.1231726912291163  0.3077125615740010
  0.4133021416060496  0.1216524233262527  0.8085639299556280
  0.4117315638373341  0.6260221851203432  0.3065490602151515
  0.4084075433406807  0.6265006184548219  0.8079489976578846
  0.9162260114807509  0.1260559375668782  0.4414881297317569
  0.9118760736194612  0.1231786880732316  0.9427723910045257
  0.9101554719309664  0.6242894496638737  0.4422445255398664
  0.9106163465509828  0.6257626998552264  0.9419837202519717
 
             NaN             NaN             NaN
             NaN             NaN             NaN
             NaN             NaN             NaN
             NaN             NaN             NaN
             NaN             NaN             NaN
             NaN             NaN             NaN
             NaN             NaN             NaN
             NaN             NaN             NaN
             NaN             NaN             NaN
             NaN             NaN             NaN
             NaN             NaN             NaN
             NaN             NaN             NaN
             NaN             NaN             NaN
             NaN             NaN             NaN
             NaN             NaN             NaN
             NaN             NaN             NaN
             NaN             NaN             NaN
             NaN             NaN             NaN
             NaN             NaN             NaN
             NaN             NaN             NaN
             NaN             NaN             NaN
             NaN             NaN             NaN
             NaN             NaN             NaN
             NaN             NaN             NaN
             NaN             NaN             NaN
             NaN             NaN             NaN
             NaN             NaN             NaN
             NaN             NaN             NaN
             NaN             NaN             NaN
             NaN             NaN             NaN
             NaN             NaN             NaN
             NaN             NaN             NaN
             NaN             NaN             NaN
             NaN             NaN             NaN
             NaN             NaN             NaN
             NaN             NaN             NaN
             NaN             NaN             NaN
             NaN             NaN             NaN
             NaN             NaN             NaN
             NaN             NaN             NaN
             NaN             NaN             NaN
             NaN             NaN             NaN
             NaN             NaN             NaN
             NaN             NaN             NaN
             NaN             NaN             NaN
             NaN             NaN             NaN
             NaN             NaN             NaN
             NaN             NaN             NaN
             NaN             NaN             NaN
             NaN             NaN             NaN
             NaN             NaN             NaN
             NaN             NaN             NaN
             NaN             NaN             NaN
             NaN             NaN             NaN
             NaN             NaN             NaN
             NaN             NaN             NaN
             NaN             NaN             NaN
             NaN             NaN             NaN
             NaN             NaN             NaN
             NaN             NaN             NaN
             NaN             NaN             NaN
             NaN             NaN             NaN
             NaN             NaN             NaN
             NaN             NaN             NaN
             NaN             NaN             NaN
             NaN             NaN             NaN
             NaN             NaN             NaN
             NaN             NaN             NaN
             NaN             NaN             NaN
             NaN             NaN             NaN
             NaN             NaN             NaN
             NaN             NaN             NaN
             NaN             NaN             NaN
             NaN             NaN             NaN
             NaN             NaN             NaN
             NaN             NaN             NaN
             NaN             NaN             NaN
             NaN             NaN             NaN
             NaN             NaN             NaN
             NaN             NaN             NaN
             NaN             NaN             NaN
             NaN             NaN             NaN
             NaN             NaN             NaN
             NaN             NaN             NaN
             NaN             NaN             NaN
             NaN             NaN             NaN
             NaN             NaN             NaN
             NaN             NaN             NaN
             NaN             NaN             NaN
             NaN             NaN             NaN
             NaN             NaN             NaN
             NaN             NaN             NaN
             NaN             NaN             NaN
             NaN             NaN             NaN
             NaN             NaN             NaN
             NaN             NaN             NaN
             NaN             NaN             NaN
             NaN             NaN             NaN
             NaN             NaN             NaN
             NaN             NaN             NaN
             NaN             NaN             NaN
             NaN             NaN             NaN
             NaN             NaN             NaN
             NaN             NaN             NaN
             NaN             NaN             NaN
             NaN             NaN             NaN
             NaN             NaN             NaN
             NaN             NaN             NaN
             NaN             NaN             NaN
             NaN             NaN             NaN
             NaN             NaN             NaN
             NaN             NaN             NaN
             NaN             NaN             NaN
             NaN             NaN             NaN
             NaN             NaN             NaN
             NaN             NaN             NaN
             NaN             NaN             NaN
             NaN             NaN             NaN
             NaN             NaN             NaN
             NaN             NaN             NaN
             NaN             NaN             NaN
             NaN             NaN             NaN
             NaN             NaN             NaN
             NaN             NaN             NaN
             NaN             NaN             NaN
             NaN             NaN             NaN
