Li46 P16 O64
1.0
10.652533 -0.006791 -0.020577
-0.007926 12.450361 -0.011836
-0.019374 -0.009571 10.079266
Li P O
46 16 64
direct
0.225651 0.249538 0.141434 Li
0.664432 0.252349 0.600508 Li
0.662220 0.748948 0.098269 Li
0.663562 0.751582 0.600014 Li
0.164330 0.496305 0.149935 Li
0.164789 0.499184 0.651255 Li
0.163802 -0.005094 0.152410 Li
0.165058 -0.000932 0.651589 Li
0.338056 0.001100 0.399569 Li
0.339093 0.001895 0.906280 Li
0.340677 0.498289 0.394673 Li
0.339442 0.495484 0.908197 Li
0.831746 0.249440 0.344873 Li
0.832358 0.248924 0.855698 Li
0.836906 0.748165 0.349515 Li
0.836935 0.748666 0.849443 Li
0.340119 0.252303 0.392431 Li
0.340617 0.253946 0.910754 Li
0.338209 0.749659 0.399098 Li
0.338184 0.750457 0.903928 Li
0.837749 0.002363 0.348654 Li
0.837936 0.002370 0.850269 Li
0.832532 0.500033 0.348625 Li
0.833014 0.499633 0.851238 Li
0.650926 0.488703 0.093438 Li
0.664893 0.502686 0.597562 Li
0.664317 1.002357 0.100366 Li
0.663291 1.001867 0.599910 Li
0.165159 0.251434 0.650945 Li
0.164326 0.750839 0.150974 Li
0.164383 0.751350 0.651979 Li
0.921696 0.372066 0.148259 Li
0.924709 0.374313 0.649670 Li
0.924582 0.875422 0.149600 Li
0.925994 0.875803 0.649592 Li
0.428645 0.375773 0.603186 Li
0.431259 0.876078 0.103182 Li
0.428001 0.876457 0.601181 Li
0.075456 0.126940 0.346895 Li
0.075972 0.126667 0.854978 Li
0.074074 0.622998 0.350346 Li
0.074752 0.623302 0.852676 Li
0.572867 0.131474 0.393759 Li
0.572674 0.136669 0.912656 Li
0.573226 0.622377 0.399091 Li
0.571015 0.622196 0.898326 Li
0.915161 0.123586 0.099256 P
0.913510 0.124695 0.597446 P
0.909601 0.624749 0.097695 P
0.912627 0.625909 0.597817 P
0.405654 0.115828 0.151565 P
0.410981 0.124395 0.653248 P
0.407648 0.630396 0.150624 P
0.409727 0.627595 0.652858 P
0.088063 0.375546 0.403610 P
0.086451 0.375549 0.902083 P
0.088473 0.874139 0.404796 P
0.088823 0.874084 0.903463 P
0.591222 0.377315 0.350253 P
0.586790 0.375049 0.834305 P
0.591975 0.874802 0.348445 P
0.591548 0.875250 0.846732 P
0.843076 0.021105 0.148932 O
0.843308 0.022002 0.647909 O
0.839095 0.523040 0.147127 O
0.843588 0.524291 0.650270 O
0.329623 0.209537 0.093496 O
0.340577 0.225647 0.600487 O
0.344250 0.738807 0.107241 O
0.341057 0.731010 0.601866 O
0.156880 0.272897 0.353695 O
0.156096 0.273459 0.850811 O
0.157721 0.771557 0.353672 O
0.158825 0.771641 0.852878 O
0.660031 0.480610 0.407704 O
0.654394 0.477189 0.893440 O
0.661024 0.977644 0.399652 O
0.663092 0.976015 0.898647 O
0.158508 0.477742 0.352577 O
0.155988 0.477939 0.850400 O
0.158068 0.976378 0.355131 O
0.159339 0.976304 0.853840 O
0.660160 0.274576 0.405910 O
0.655479 0.271771 0.878792 O
0.660880 0.772243 0.400858 O
0.659420 0.771091 0.896132 O
0.854409 0.226464 0.153568 O
0.844813 0.226683 0.649046 O
0.840528 0.727988 0.148173 O
0.842817 0.728703 0.647988 O
0.337993 0.007613 0.111181 O
0.341836 0.020661 0.601935 O
0.328220 0.537453 0.094988 O
0.340022 0.526334 0.598899 O
0.541174 0.111799 0.098879 O
0.548143 0.124382 0.599949 O
0.544762 0.627070 0.096596 O
0.547815 0.628821 0.602363 O
0.054135 0.117032 0.147872 O
0.051338 0.123552 0.650250 O
0.047247 0.625383 0.150833 O
0.050616 0.626747 0.649687 O
0.453623 0.376119 0.406150 O
0.446051 0.375175 0.869927 O
0.454094 0.874746 0.399737 O
0.453841 0.875497 0.897883 O
0.950016 0.376917 0.352657 O
0.948293 0.375378 0.849632 O
0.950599 0.874037 0.352274 O
0.951579 0.874404 0.849108 O
0.595756 0.380298 0.200302 O
0.596599 0.380969 0.679081 O
0.594580 0.873397 0.193610 O
0.591854 0.875860 0.691206 O
0.085785 0.376405 0.056675 O
0.089111 0.376200 0.559144 O
0.086410 0.872503 0.058332 O
0.088699 0.873949 0.560091 O
0.407616 0.123176 0.307773 O
0.410090 0.124006 0.808074 O
0.410891 0.626666 0.306443 O
0.407800 0.627046 0.807836 O
0.912986 0.124585 0.442290 O
0.912388 0.123894 0.943330 O
0.911647 0.625217 0.442613 O
0.910351 0.625460 0.942164 O
