Li17 Co18 O36
1.0
8.136189 0.000092 2.409965
3.711441 7.240363 2.409958
-0.009950 -0.006076 9.994611
Li Co O
17 18 36
direct
0.333318 0.655349 0.500032 Li
0.333318 0.333317 1.000013 Li
0.333656 0.666472 0.000291 Li
0.332995 1.000203 -0.000294 Li
0.333339 1.011305 0.499979 Li
0.666471 0.333656 0.000291 Li
0.655349 0.333318 0.500033 Li
0.666314 0.666314 0.000554 Li
0.666367 0.666367 0.501448 Li
0.666607 1.000039 -0.000012 Li
0.655376 1.011283 0.499996 Li
0.000203 0.332995 0.999706 Li
0.011305 0.333339 0.499979 Li
0.000039 0.666607 0.999988 Li
0.011282 0.655377 0.499996 Li
0.000347 1.000347 0.999422 Li
0.000315 1.000315 0.498552 Li
0.166769 0.166769 0.247862 Co
0.167220 0.167220 0.749161 Co
0.167190 0.499462 0.250821 Co
0.167208 0.499479 0.749172 Co
0.166721 0.834605 0.247902 Co
0.166936 0.833315 0.749525 Co
0.499462 0.167190 0.250821 Co
0.499479 0.167208 0.749172 Co
0.499448 0.499449 0.250816 Co
0.499896 0.499896 0.752137 Co
0.499738 0.833344 0.250483 Co
0.499957 0.832053 0.752100 Co
0.834605 0.166721 0.247902 Co
0.833315 0.166936 0.749525 Co
0.833344 0.499738 0.250483 Co
0.832053 0.499957 0.752101 Co
0.833317 0.833317 0.250500 Co
0.833354 0.833354 0.749514 Co
0.252567 0.252567 0.354383 O
0.253693 0.253693 0.858618 O
0.252542 0.591950 0.354362 O
0.252476 0.587299 0.859601 O
0.253205 0.920963 0.357436 O
0.252540 0.920375 0.859428 O
0.591950 0.252542 0.354362 O
0.587299 0.252476 0.859601 O
0.586468 0.586468 0.359523 O
0.585918 0.585919 0.863175 O
0.586453 0.920751 0.359570 O
0.587385 0.920451 0.859549 O
0.920963 0.253205 0.357436 O
0.920374 0.252540 0.859428 O
0.920751 0.586454 0.359570 O
0.920451 0.587385 0.859549 O
0.920902 0.920903 0.357479 O
0.920365 0.920365 0.858300 O
0.080747 0.080747 0.136842 O
0.080203 0.080202 0.640463 O
0.079350 0.414169 0.140402 O
0.074707 0.414116 0.645634 O
0.079290 0.746226 0.140441 O
0.080211 0.745938 0.640447 O
0.414170 0.079350 0.140402 O
0.414117 0.074707 0.645634 O
0.412961 0.412960 0.141356 O
0.414120 0.414119 0.645597 O
0.414137 0.746310 0.140571 O
0.413494 0.745700 0.642582 O
0.746226 0.079290 0.140441 O
0.745938 0.080210 0.640447 O
0.746310 0.414137 0.140571 O
0.745700 0.413494 0.642582 O
0.746308 0.746306 0.141728 O
0.745763 0.745763 0.642517 O
