Mg1 Ti16 S32
1.0
9.863818 -0.001962 0.003095
-0.001962 9.863792 -0.003097
0.003078 -0.003080 9.866250
Mg Ti S
1 16 32
direct
0.249697 0.500303 0.749729 Mg
0.249604 0.759799 0.009868 Ti
0.502817 0.000865 0.002989 Ti
0.749133 0.247181 0.002991 Ti
0.990201 0.500394 0.009867 Ti
0.502586 0.247413 0.249537 Ti
0.249964 0.500036 0.250013 Ti
0.249837 0.240125 0.490204 Ti
0.509874 0.500160 0.490204 Ti
0.509555 0.759889 0.750455 Ti
0.749807 0.499785 0.750171 Ti
0.750420 0.752665 0.497810 Ti
0.250214 0.000192 0.750170 Ti
0.750042 0.999957 0.250408 Ti
0.990110 0.240446 0.750455 Ti
0.997045 0.752954 0.251216 Ti
0.997333 0.999578 0.497810 Ti
0.747867 0.002134 0.002874 S
0.002792 0.747208 0.004520 S
0.002699 0.999544 0.747671 S
0.750456 0.747301 0.747671 S
0.252334 0.000678 0.997261 S
0.995475 0.252972 0.997057 S
0.997094 0.997934 0.252227 S
0.252472 0.252747 0.249305 S
0.750513 0.502499 0.502642 S
0.002934 0.245501 0.502954 S
0.002575 0.502444 0.250421 S
0.747934 0.247371 0.247921 S
0.254822 0.495178 0.495082 S
0.997097 0.752902 0.497153 S
0.995036 0.495113 0.754793 S
0.254887 0.754964 0.754793 S
0.247501 0.999487 0.502642 S
0.504499 0.747066 0.502955 S
0.502628 0.002066 0.247921 S
0.247552 0.747428 0.250423 S
0.751930 0.998070 0.497443 S
0.497099 0.252901 0.495384 S
0.497377 0.000564 0.752374 S
0.749436 0.252623 0.752374 S
0.244958 0.505043 0.004585 S
0.502899 0.247102 0.002873 S
0.504557 0.504855 0.744929 S
0.245145 0.245442 0.744928 S
0.749322 0.497666 0.997262 S
0.497027 0.754527 0.997058 S
0.497253 0.497528 0.249306 S
0.752065 0.752905 0.252227 S
