Li17 Co18 O36                           
   1.00000000000000     
     8.0544659999999997   -0.0037840000000000    2.3755920000000001
     3.6784240000000001    7.1660839999999997    2.3744260000000001
    -0.0116200000000000   -0.0056770000000000    9.8909939999999992
   Li   Co   O 
    17    18    36
Direct
  0.3234983056229862  0.3779301098200255  0.5056891423424563
  0.3338179086491855  0.3345218567348390  0.9989447173664328
  0.3348412888181499  0.6676304005369110  0.9959355203539993
  0.3334094409003943  0.9973007097342198  0.5056676591981933
  0.3358805797157459  0.0024540428559358  0.9966604952934212
  0.6597067687434824  0.3420757124105921  0.5031371004646850
  0.6660038114781797  0.3347764842383343  0.9982925709577088
  0.6504632547167196  0.6676135080116691  0.5035691941368260
  0.6679134484161755  0.6689162521294821  0.9974304460360290
  0.6544052685992304  0.0095384000842859  0.5061303239508098
  0.6653106461367396  0.0020618439665650  0.9998424729737071
  0.0023401131702717  0.3345226249889772  0.5016476868600821
  0.9989282685271533  0.3384511736669680  0.9968164620626814
  0.9903822671154718  0.6751250061768599  0.5057047735957527
  0.9983703906342375  0.6680481162383376  0.9971043415062106
  0.0075863246818136  0.9904378465237542  0.5053471790238854
  0.9973925942091983  0.0034795338086294  0.9958161524834216
  0.1644463053861770  0.1717102587989439  0.2489104356357663
  0.1658812490350998  0.1683814591342172  0.7512340812597295
  0.1639953922399896  0.5033581662325023  0.2480664056130807
  0.1661912669074300  0.5021353947595307  0.7524045414013094
  0.1651629060096090  0.8368292957161426  0.2512203252084861
  0.1667274192475320  0.8341375596464576  0.7493757434074225
  0.4969595477740379  0.1713667737277811  0.2516131631515647
  0.4989965257807860  0.1668977814080294  0.7542215934656944
  0.4985988711848042  0.5037468236065626  0.2492799911545248
  0.4990930441659615  0.5011905740597890  0.7505879638165284
  0.4981362360700818  0.8358630444451054  0.2513753407220807
  0.4985066427768932  0.8339279445166050  0.7531474923204446
  0.8294956390573591  0.1705384444597324  0.2507765779763269
  0.8326796764168100  0.1676680958296831  0.7503584538436538
  0.8317148551770012  0.5036558775005182  0.2496193925875608
  0.8328299731903412  0.5011855039109863  0.7513455478066622
  0.8298171807164326  0.8375655147243788  0.2523496328817768
  0.8317755573012958  0.8344120332058639  0.7537811677811288
  0.2494475191300864  0.2585881741879976  0.3584171961212943
  0.2514132555966151  0.2540971749469991  0.8634504469941863
  0.2486155371412493  0.5964419976438007  0.3532738801134622
  0.2526786701531976  0.5886492367849800  0.8622987150564081
  0.2484493522377355  0.9248409429602097  0.3547494911487109
  0.2511553277194093  0.9218209737178025  0.8620231575759474
  0.5836515597986411  0.2591675119520288  0.3605065325047333
  0.5874595594104413  0.2538965615656837  0.8624724296604535
  0.5891148607736307  0.5882954774606780  0.3561372309983104
  0.5870125357274717  0.5863258779828924  0.8622970263530634
  0.5836395935926281  0.9237002268730463  0.3614893779928209
  0.5851736564540366  0.9199910665685905  0.8653384460837442
  0.9184124990729013  0.2566954871850323  0.3586838745305057
  0.9195206185097137  0.2543570357211807  0.8610528350780546
  0.9187698772565177  0.5903225375853012  0.3594980508830185
  0.9188916499113173  0.5870796619672516  0.8629773863324955
  0.9203381578061555  0.9229030953862999  0.3604046091266727
  0.9198665522835211  0.9215900259212094  0.8621181884740108
  0.0781661930169326  0.0773738081202509  0.1414529426631040
  0.0798436973781885  0.0813463525746097  0.6398520501972849
  0.0788867541955134  0.4166924014237940  0.1380133753186274
  0.0798867163375636  0.4157604997529024  0.6412269892143918
  0.0775770996597186  0.7547976048876891  0.1417662819541151
  0.0739627046757133  0.7481691319499889  0.6448137198613275
  0.4116858109919287  0.0832928764568757  0.1410354701357966
  0.4123738224986274  0.0802777180395424  0.6437515279868931
  0.4114035997185302  0.4168444730013315  0.1396101229456450
  0.4140676914696777  0.4095460769677656  0.6465829892650469
  0.4088735773273716  0.7513621842230270  0.1407752370944548
  0.4138537692676285  0.7488374816047407  0.6443876903743521
  0.7434496609672345  0.0830693509969191  0.1419871915436561
  0.7451273582178416  0.0802833181998679  0.6423391027015232
  0.7446365320914001  0.4156498578709793  0.1398336438229831
  0.7464152161772767  0.4143006035543891  0.6407609693346801
  0.7445635037271685  0.7511912226980488  0.1412831163689755
  0.7450107709961781  0.7481054859318398  0.6427889582697049
 
             NaN             NaN             NaN
             NaN             NaN             NaN
             NaN             NaN             NaN
             NaN             NaN             NaN
             NaN             NaN             NaN
             NaN             NaN             NaN
             NaN             NaN             NaN
             NaN             NaN             NaN
             NaN             NaN             NaN
             NaN             NaN             NaN
             NaN             NaN             NaN
             NaN             NaN             NaN
             NaN             NaN             NaN
             NaN             NaN             NaN
             NaN             NaN             NaN
             NaN             NaN             NaN
             NaN             NaN             NaN
             NaN             NaN             NaN
             NaN             NaN             NaN
             NaN             NaN             NaN
             NaN             NaN             NaN
             NaN             NaN             NaN
             NaN             NaN             NaN
             NaN             NaN             NaN
             NaN             NaN             NaN
             NaN             NaN             NaN
             NaN             NaN             NaN
             NaN             NaN             NaN
             NaN             NaN             NaN
             NaN             NaN             NaN
             NaN             NaN             NaN
             NaN             NaN             NaN
             NaN             NaN             NaN
             NaN             NaN             NaN
             NaN             NaN             NaN
             NaN             NaN             NaN
             NaN             NaN             NaN
             NaN             NaN             NaN
             NaN             NaN             NaN
             NaN             NaN             NaN
             NaN             NaN             NaN
             NaN             NaN             NaN
             NaN             NaN             NaN
             NaN             NaN             NaN
             NaN             NaN             NaN
             NaN             NaN             NaN
             NaN             NaN             NaN
             NaN             NaN             NaN
             NaN             NaN             NaN
             NaN             NaN             NaN
             NaN             NaN             NaN
             NaN             NaN             NaN
             NaN             NaN             NaN
             NaN             NaN             NaN
             NaN             NaN             NaN
             NaN             NaN             NaN
             NaN             NaN             NaN
             NaN             NaN             NaN
             NaN             NaN             NaN
             NaN             NaN             NaN
             NaN             NaN             NaN
             NaN             NaN             NaN
             NaN             NaN             NaN
             NaN             NaN             NaN
             NaN             NaN             NaN
             NaN             NaN             NaN
             NaN             NaN             NaN
             NaN             NaN             NaN
             NaN             NaN             NaN
             NaN             NaN             NaN
             NaN             NaN             NaN
