Li7 Mn16 O32                            
   1.00000000000000     
     8.0356190000000005   -0.0000370000000000   -0.0000440000000000
    -0.0000300000000000    8.0355960000000000    0.0000170000000000
    -0.0000500000000000    0.0000300000000000    8.0325609999999994
   Li   Mn   O 
     7    16    32
Direct
  0.2500051456867267  0.5000079179211032  0.7499816328332682
  0.8768692234031692  0.8731675272613721  0.8736355572996691
  0.1263795153910152  0.1268282658069814  0.1231526599366548
  0.8768796575523414  0.3763836460893837  0.3768430842653573
  0.3736013119289529  0.8731146727748839  0.3768739804541760
  0.6231483006090169  0.1268893783434848  0.6263993346114957
  0.6231690476943627  0.6235995502360575  0.1231206643801846
  0.5000202102139142  0.2499549500574763  0.2479434748194232
  0.2499108228269921  0.5000047472699043  0.2499904924323505
  0.2499513840559098  0.2487575979633844  0.4988794840996394
  0.5011353379472867  0.4999944291867263  0.4987970820228787
  0.5011403745298998  0.7512179057392790  0.7500210608749799
  0.7499469680266903  0.5000041874474590  0.7499485964122530
  0.7520422366753087  0.7500742636819738  0.4999709589286339
  0.2499326872868456  1.0000004241564266  0.7499872882382813
  0.2499573243855558  0.7511633255716718  1.0011793882422324
  0.5000441314243411  0.0020604004087380  1.0000375641235033
  0.7497541566634151 -0.0000394145895659  0.2500997371319260
  0.7479178608109706  0.2498922025626873  1.0001023812808509
 -0.0012073936578261  0.2488323774634427  0.7500208451794607
 -0.0012345049305028  0.4999938687401770  1.0011063857911715
  0.9998623276135390  0.7501122995450927  0.2520556711020179
  0.9998612167717522  0.9979301379871904  0.4998941522556207
  0.7379069799172697  0.0121008844596375  0.0123269608815238
  0.0122267704742965  0.7378159411438696  0.0136647914792934
  0.0124648212877092  0.0115162505345834  0.7373296125396017
  0.7385371139539045  0.7375722879545105  0.7373246657358813
  0.2627483739730737  0.9884868984572909  0.9875951252291729
  0.9863436032263624  0.2622060836931827  0.9878156491755891
  0.9876402452882003  0.9878767699266845  0.2621063500453931
  0.2627366114461320  0.2624279181048465  0.2615017577738012
  0.7385301403289553  0.5127212144101818  0.5123868202054324
  0.0122472309271078  0.2362788836676970  0.5121624631905641
  0.0124420588623369  0.5127282910883914  0.2384750776033704
  0.7378840223126995  0.2376828224529988  0.2379231265028285
  0.2651215339252308  0.4848856823920646  0.4893687666507987
  0.9858875811789132  0.7641744209988682  0.4858664130030901
  0.9893718212735811  0.4849087780615406  0.7650125442116817
  0.2651343203548252  0.7606689311288458  0.7650373421462460
  0.2373180639954704  0.0114955545028496  0.5123992382876621
  0.5137655493495390  0.7377980015848354  0.5121647259037855
  0.5122290501509893  0.0121350330728830  0.2379171822385513
  0.2373003377101600  0.7375708068522179  0.2384901882245908
  0.7621195392836555  0.9878857904716032  0.4878068781132054
  0.4878553403394879  0.2621916450160637  0.4862865625094080
  0.4875998042387451  0.9884905486373801  0.7626642492980220
  0.7615727327649640  0.2624357454165146  0.7626653704295816
  0.2349297281410704  0.5151127311781867  0.0106437051904767
  0.5142063276174532  0.2358758541147423  0.0140967608980789
  0.5107396955975032  0.5151097915268308  0.7349453481163283
  0.2349497793976412  0.2392924365813628  0.7349645085733233
  0.7615590636556484  0.4872711898940429  0.9875866880052920
  0.4878629588180931  0.7637463817241801  0.9878257282339371
  0.4875855443917145  0.4873046042300628  0.2614954802940408
  0.7621284793061870  0.7622805985856339  0.2621110095523731
 
             NaN             NaN             NaN
             NaN             NaN             NaN
             NaN             NaN             NaN
             NaN             NaN             NaN
             NaN             NaN             NaN
             NaN             NaN             NaN
             NaN             NaN             NaN
             NaN             NaN             NaN
             NaN             NaN             NaN
             NaN             NaN             NaN
             NaN             NaN             NaN
             NaN             NaN             NaN
             NaN             NaN             NaN
             NaN             NaN             NaN
             NaN             NaN             NaN
             NaN             NaN             NaN
             NaN             NaN             NaN
             NaN             NaN             NaN
             NaN             NaN             NaN
             NaN             NaN             NaN
             NaN             NaN             NaN
             NaN             NaN             NaN
             NaN             NaN             NaN
             NaN             NaN             NaN
             NaN             NaN             NaN
             NaN             NaN             NaN
             NaN             NaN             NaN
             NaN             NaN             NaN
             NaN             NaN             NaN
             NaN             NaN             NaN
             NaN             NaN             NaN
             NaN             NaN             NaN
             NaN             NaN             NaN
             NaN             NaN             NaN
             NaN             NaN             NaN
             NaN             NaN             NaN
             NaN             NaN             NaN
             NaN             NaN             NaN
             NaN             NaN             NaN
             NaN             NaN             NaN
             NaN             NaN             NaN
             NaN             NaN             NaN
             NaN             NaN             NaN
             NaN             NaN             NaN
             NaN             NaN             NaN
             NaN             NaN             NaN
             NaN             NaN             NaN
             NaN             NaN             NaN
             NaN             NaN             NaN
             NaN             NaN             NaN
             NaN             NaN             NaN
             NaN             NaN             NaN
             NaN             NaN             NaN
             NaN             NaN             NaN
             NaN             NaN             NaN
