Li7 Mn16 O32
1.0
8.035619 -0.000037 -0.000044
-0.000030 8.035596 0.000017
-0.000050 0.000030 8.032561
Li Mn O
7 16 32
direct
0.249993 0.500045 0.749954 Li
0.876156 0.873867 0.873866 Li
0.126101 0.126098 0.123877 Li
0.876157 0.376139 0.376131 Li
0.373834 0.873836 0.376152 Li
0.623883 0.126134 0.626134 Li
0.623897 0.623866 0.123862 Li
0.499824 0.250043 0.249060 Mn
0.249981 0.500003 0.250002 Mn
0.249979 0.251014 0.501034 Mn
0.498949 0.499987 0.500999 Mn
0.498952 0.748995 0.750031 Mn
0.749999 0.499996 0.749975 Mn
0.750865 0.749979 0.500093 Mn
0.249981 -0.000006 0.749975 Mn
0.249977 0.748973 0.998975 Mn
0.499854 0.000968 0.999913 Mn
0.749796 1.000008 0.250040 Mn
0.748948 0.250060 0.999937 Mn
0.000994 0.251030 0.750029 Mn
0.000996 0.499993 0.998944 Mn
0.999964 0.749930 0.250972 Mn
0.999935 0.999050 0.500052 Mn
0.737781 0.012229 0.012373 O
0.012530 0.737524 0.012564 O
0.012536 0.012445 0.737406 O
0.737607 0.737513 0.737387 O
0.262658 0.987550 0.987524 O
0.987452 0.262508 0.987526 O
0.987585 0.987760 0.262215 O
0.262641 0.262500 0.262410 O
0.737597 0.512656 0.512453 O
0.012537 0.237400 0.512446 O
0.012530 0.512628 0.237572 O
0.737762 0.237616 0.237801 O
0.263607 0.486457 0.486545 O
0.986723 0.763300 0.486744 O
0.986580 0.486427 0.763509 O
0.263619 0.763473 0.763498 O
0.237379 0.012469 0.512450 O
0.512630 0.737514 0.512452 O
0.512326 0.012209 0.237821 O
0.237377 0.737510 0.237554 O
0.762208 0.987802 0.487717 O
0.487546 0.262502 0.487436 O
0.487554 0.987545 0.762604 O
0.762497 0.262497 0.762584 O
0.236533 0.513540 0.013482 O
0.513280 0.236752 0.013219 O
0.513577 0.513517 0.736516 O
0.236539 0.236470 0.736504 O
0.762505 0.487368 0.987525 O
0.487550 0.762596 0.987529 O
0.487543 0.487352 0.262424 O
0.762225 0.762360 0.262202 O
