Mg15 Mn32 O64
1.0
11.499962 -0.000010 0.000717
-0.000026 11.515774 -0.000001
0.000256 0.000000 9.170131
Mg Mn O
15 32 64
direct
0.499930 0.532798 0.534559 Mg
0.500342 0.250238 0.749638 Mg
1.000254 0.249971 0.751993 Mg
0.999574 0.750023 0.748496 Mg
0.499962 -0.001782 0.503872 Mg
0.000051 0.000224 0.500132 Mg
0.999981 0.499775 0.500711 Mg
0.249070 1.002156 0.249871 Mg
0.249537 0.497845 0.249406 Mg
0.751210 0.002249 0.249292 Mg
0.750395 0.497751 0.249016 Mg
0.250917 0.249682 -0.002043 Mg
0.253893 0.750323 0.001063 Mg
0.750375 0.249659 -0.000991 Mg
0.745009 0.750337 0.000138 Mg
0.127036 0.250244 0.375046 Mn
0.124002 0.749757 0.372476 Mn
0.626559 0.250067 0.375985 Mn
0.625111 0.749934 0.375384 Mn
0.376969 0.250204 0.377297 Mn
0.373913 0.749800 0.375311 Mn
0.877153 0.250221 0.375156 Mn
0.874102 0.749779 0.371876 Mn
0.125196 -0.001673 0.874436 Mn
0.124780 0.501672 0.874801 Mn
0.622665 -0.000393 0.875087 Mn
0.622470 0.500393 0.875160 Mn
0.376011 -0.001457 0.876164 Mn
0.375554 0.501470 0.876423 Mn
0.873550 -0.000500 0.874968 Mn
0.873103 0.500494 0.875446 Mn
0.001339 0.125010 0.124057 Mn
0.999501 0.625427 0.122271 Mn
0.500188 0.125850 0.125940 Mn
0.499772 0.623017 0.127113 Mn
1.001138 0.375055 0.124261 Mn
-0.000303 0.874496 0.122050 Mn
0.500146 0.373616 0.125448 Mn
0.499813 0.877522 0.127604 Mn
0.249386 0.375131 0.626705 Mn
0.251487 0.874531 0.623541 Mn
0.751120 0.375064 0.625808 Mn
0.748299 0.874595 0.623635 Mn
0.248989 0.124952 0.626370 Mn
0.251884 0.625388 0.623872 Mn
0.751602 0.125001 0.625524 Mn
0.747817 0.625339 0.623919 Mn
0.136408 0.250184 0.621499 O
0.138168 0.749816 0.619073 O
0.638537 0.249957 0.621556 O
0.638069 0.750043 0.585400 O
0.362178 0.249999 0.622280 O
0.361504 0.750003 0.585436 O
0.864484 0.250194 0.621076 O
0.861153 0.749805 0.619082 O
0.137285 0.501143 0.629213 O
0.136996 0.998857 0.628876 O
0.637950 0.499721 0.633802 O
0.638020 0.000279 0.628604 O
0.361926 0.500061 0.634164 O
0.361999 -0.000059 0.628931 O
0.862580 0.501170 0.629191 O
0.863052 -0.001170 0.628879 O
0.499295 0.114607 0.880231 O
0.499380 0.608515 0.895207 O
-0.000072 0.112039 0.879328 O
0.998763 0.613432 0.878370 O
0.499022 0.385843 0.880289 O
0.499644 0.891047 0.895149 O
0.999555 0.388039 0.879315 O
-0.000864 0.886482 0.878377 O
0.501414 0.362714 0.371426 O
0.499521 0.860350 0.372943 O
1.001783 0.363397 0.370497 O
0.999181 0.862570 0.370423 O
0.501372 0.136448 0.373668 O
0.499562 0.640492 0.370701 O
1.001846 0.136912 0.370379 O
0.999118 0.637119 0.370541 O
0.386708 0.498891 0.122294 O
0.386927 1.001110 0.125261 O
0.887283 0.499957 0.120510 O
0.887599 1.000039 0.120338 O
0.113151 -0.000788 0.120227 O
0.112984 0.500782 0.120368 O
0.612989 1.001074 0.125145 O
0.612989 0.498929 0.122156 O
0.386968 0.249822 0.129846 O
0.385367 0.750180 0.149994 O
0.888098 0.250015 0.128574 O
0.885759 0.749980 0.127217 O
0.114367 0.250103 0.128647 O
0.112945 0.749893 0.127417 O
0.613883 0.249822 0.129830 O
0.613958 0.750181 0.149885 O
0.251181 0.363278 0.380705 O
0.251163 0.861376 0.372866 O
0.752016 0.363089 0.380166 O
0.747545 0.861564 0.372628 O
0.251053 0.137218 0.380486 O
0.251291 0.638131 0.373085 O
0.752272 0.137278 0.379948 O
0.747287 0.638069 0.372844 O
0.249228 0.111692 0.870656 O
0.249987 0.614967 0.870124 O
0.749961 0.112615 0.870388 O
0.748107 0.614063 0.870149 O
0.249253 0.388498 0.871729 O
0.249963 0.884851 0.869051 O
0.749280 0.387535 0.871445 O
0.748782 0.885777 0.869089 O
