Li46 P16 O64
1.0
10.490602 -0.001181 -0.005486
-0.001352 12.278390 0.001280
-0.005100 0.001035 9.891133
Li P O
46 16 64
direct
0.594363 0.251438 0.105212 Li
0.665635 0.249036 0.598523 Li
0.663524 0.749324 0.097947 Li
0.663914 0.750683 0.598233 Li
0.166599 0.489390 0.152708 Li
0.164030 0.500724 0.652161 Li
0.166357 0.000899 0.150334 Li
0.164750 0.000803 0.652801 Li
0.337646 0.002072 0.400691 Li
0.336964 0.002685 0.906581 Li
0.339245 0.497232 0.396646 Li
0.335462 0.495421 0.909014 Li
0.836071 0.247992 0.347242 Li
0.833498 0.249444 0.849433 Li
0.837364 0.748889 0.347256 Li
0.836870 0.748909 0.847922 Li
0.337886 0.252767 0.385027 Li
0.333676 0.256413 0.915551 Li
0.337109 0.749227 0.400700 Li
0.336375 0.749179 0.905570 Li
0.837650 0.001915 0.345812 Li
0.836613 0.001427 0.847497 Li
0.836140 0.499851 0.346711 Li
0.833563 0.500605 0.849629 Li
0.655861 0.494934 0.096529 Li
0.665813 0.501353 0.597952 Li
0.662523 0.997325 0.096916 Li
0.664355 0.999534 0.598947 Li
0.163986 0.253377 0.647752 Li
0.164491 0.750528 0.152682 Li
0.164820 0.752234 0.652287 Li
0.925953 0.369162 0.150748 Li
0.919333 0.375877 0.649130 Li
0.924058 0.875729 0.149038 Li
0.925500 0.876093 0.648766 Li
0.427382 0.373811 0.606423 Li
0.428512 0.876129 0.102279 Li
0.424507 0.876015 0.600900 Li
0.079869 0.131619 0.338837 Li
0.077448 0.129670 0.857952 Li
0.077266 0.622187 0.349595 Li
0.076725 0.623716 0.851802 Li
0.575947 0.126988 0.398652 Li
0.572315 0.128069 0.904255 Li
0.575419 0.622597 0.399712 Li
0.572063 0.622876 0.899857 Li
0.909142 0.121268 0.095674 P
0.913658 0.123943 0.595217 P
0.911135 0.624673 0.096152 P
0.912533 0.627361 0.595251 P
0.412167 0.120996 0.153285 P
0.411510 0.125078 0.655150 P
0.408704 0.629484 0.153573 P
0.410672 0.625857 0.654694 P
0.087374 0.374474 0.409175 P
0.083670 0.377462 0.900935 P
0.089313 0.875309 0.404578 P
0.088673 0.874899 0.905090 P
0.593487 0.375263 0.349485 P
0.586327 0.375253 0.838349 P
0.590372 0.874143 0.347289 P
0.588852 0.874393 0.844512 P
0.836250 0.018091 0.143903 O
0.843308 0.020726 0.645907 O
0.839142 0.523381 0.146755 O
0.841800 0.526522 0.648892 O
0.342312 0.217456 0.097760 O
0.343471 0.227093 0.601466 O
0.344912 0.737783 0.108849 O
0.341919 0.729337 0.602730 O
0.157406 0.270305 0.371876 O
0.154428 0.275325 0.849500 O
0.157824 0.771459 0.354561 O
0.158780 0.772382 0.853340 O
0.661791 0.478930 0.404455 O
0.653768 0.477963 0.895590 O
0.660427 0.976496 0.399023 O
0.659003 0.976706 0.895246 O
0.158365 0.476080 0.354811 O
0.154977 0.479507 0.847332 O
0.159864 0.976815 0.352949 O
0.158525 0.977641 0.854619 O
0.661748 0.272064 0.404677 O
0.653562 0.272796 0.894337 O
0.659651 0.771039 0.398925 O
0.658395 0.771350 0.895914 O
0.840504 0.223585 0.148917 O
0.842488 0.225439 0.646928 O
0.841718 0.728515 0.146457 O
0.842714 0.730808 0.645122 O
0.345607 0.013279 0.107718 O
0.342258 0.021549 0.603089 O
0.330898 0.535723 0.097634 O
0.341906 0.524140 0.600290 O
0.552145 0.117542 0.103428 O
0.550584 0.123310 0.604234 O
0.547185 0.627028 0.100586 O
0.549768 0.626658 0.604519 O
0.045303 0.115228 0.147242 O
0.050856 0.124132 0.649707 O
0.048867 0.624960 0.149433 O
0.050644 0.628625 0.647286 O
0.455353 0.375553 0.402322 O
0.444391 0.376088 0.868431 O
0.452210 0.874435 0.399343 O
0.450735 0.874514 0.896043 O
0.949834 0.374424 0.353163 O
0.945577 0.376086 0.844943 O
0.950770 0.875086 0.352526 O
0.950625 0.874688 0.851580 O
0.602580 0.375597 0.196657 O
0.602059 0.375895 0.682600 O
0.592234 0.873083 0.191397 O
0.589933 0.874195 0.688291 O
0.078719 0.382300 0.054320 O
0.082595 0.381695 0.565367 O
0.088264 0.873642 0.060885 O
0.089856 0.875767 0.561012 O
0.413681 0.122234 0.310738 O
0.409267 0.124543 0.811044 O
0.411276 0.625948 0.310358 O
0.407935 0.625844 0.810634 O
0.913639 0.123806 0.439171 O
0.907485 0.123982 0.938800 O
0.911833 0.625632 0.439090 O
0.910933 0.625545 0.939614 O
