Mg1 Ti16 S32                            
   1.00000000000000     
     9.8250620000000009   -0.0006350000000000   -0.0003300000000000
    -0.0000980000000000    9.8249410000000008    0.0003590000000000
    -0.0003350000000000    0.0003210000000000    9.8247640000000001
   Mg   Ti   S 
     1    16    32
Direct
  0.4381650878156590  0.3118481401432320  0.8090990356583769
  0.2482916804717205  0.7503526879822748  0.0005793676831876
  0.4993666838842333  0.9902457106598288  0.0091601190307032
  0.7597344207551280  0.2505597851501419  0.0092131952996887
  0.9995722400869275  0.5015266676379847  0.0003975263147658
  0.5026110122182883  0.2473013089785233  0.2682907447374490
  0.2474442611002613  0.5025143504126393  0.2496206689794729
  0.2380749084809849  0.2500712772622452  0.4882381680100295
  0.4998919146408418  0.5120118548282339  0.4881479466492394
  0.5028266093238530  0.7699931742466687  0.7447949001272561
  0.7604925368751352  0.5115838984775908  0.7475130014667286
  0.7527643870284366  0.7521350269886808  0.4946146550587571
  0.2384225002074404  0.9894968732065185  0.7475324808844828
  0.7524036291955173  0.9976014639497484  0.2492385345698952
  0.9799883278382202  0.2471410721714034  0.7447451455687036
  0.9989325892189804  0.7510138024366219  0.2473709489619358
  0.9978070766502384  0.9972361622823219  0.4945712395383844
  0.7459661772091938  0.0040529205222220  0.0031266791376946
  0.0036721543962911  0.7463230019078705 -0.0010537449268686
 -0.0047320884742663  0.0004178258808286  0.7436783344412737
  0.7495962107812155  0.7547473296993910  0.7436739287835036
  0.2514083066347292  0.9953710043177102  0.9958334099638493
  0.9981543068551806  0.2514178624136887  0.9928558156378636
  0.9979730631419403  0.9964079738975163  0.2488476344557491
  0.2546160382940496  0.2519591278434546  0.2499497952069642
  0.7464284107965524  0.5058567570248053  0.5010452322007259
 -0.0047304768733694  0.2464981774787912  0.4983565814160640
  0.0030391333238665  0.5021934061589852  0.2445042466901275
  0.7489913748002157  0.2467901287701306  0.2522313988092854
  0.2515634989412266  0.4984753699772096  0.4939775476957166
  0.9981376783516727  0.7518894769663854  0.4930648596072752
  0.9987451494180333  0.4947897086662529  0.7494505828393351
  0.2552252038381007  0.7512738754888383  0.7494693423810377
  0.2441661493073242  0.0035960995134601  0.5010469639343876
  0.5035404828771656  0.7548048877596258  0.4983595040716933
  0.5032134427050249  0.0009914125287067  0.2522357232854588
  0.2477920318608118  0.7469743439148063  0.2445256905881533
  0.7524022144913737  0.9976263062287326  0.4947427137687730
  0.4908352601814364  0.2592256731930094  0.5075621855581555
  0.4907511947106435  1.0097351186554695  0.7566385253323834
  0.7402774153720485  0.2592571751384151  0.7566242689995816
  0.2484653071066659  0.5015579031352578  0.0001809227671607
  0.5079085284148429  0.2421235771072578  0.0216584877817716
  0.5087747770273993  0.5242130533762165  0.7398775846521396
  0.2258006873381968  0.2412444009004387  0.7399023690897188
  0.7546636832721649  0.4985995079644659  0.9958282976399181
  0.4985843911939531  0.7518856369631581  0.9928683157613546
  0.4980416994827919  0.4953802745418819  0.2499335693151125
  0.7535948730707921  0.7520255838300682  0.2488380024371439
 
             NaN             NaN             NaN
             NaN             NaN             NaN
             NaN             NaN             NaN
             NaN             NaN             NaN
             NaN             NaN             NaN
             NaN             NaN             NaN
             NaN             NaN             NaN
             NaN             NaN             NaN
             NaN             NaN             NaN
             NaN             NaN             NaN
             NaN             NaN             NaN
             NaN             NaN             NaN
             NaN             NaN             NaN
             NaN             NaN             NaN
             NaN             NaN             NaN
             NaN             NaN             NaN
             NaN             NaN             NaN
             NaN             NaN             NaN
             NaN             NaN             NaN
             NaN             NaN             NaN
             NaN             NaN             NaN
             NaN             NaN             NaN
             NaN             NaN             NaN
             NaN             NaN             NaN
             NaN             NaN             NaN
             NaN             NaN             NaN
             NaN             NaN             NaN
             NaN             NaN             NaN
             NaN             NaN             NaN
             NaN             NaN             NaN
             NaN             NaN             NaN
             NaN             NaN             NaN
             NaN             NaN             NaN
             NaN             NaN             NaN
             NaN             NaN             NaN
             NaN             NaN             NaN
             NaN             NaN             NaN
             NaN             NaN             NaN
             NaN             NaN             NaN
             NaN             NaN             NaN
             NaN             NaN             NaN
             NaN             NaN             NaN
             NaN             NaN             NaN
             NaN             NaN             NaN
             NaN             NaN             NaN
             NaN             NaN             NaN
             NaN             NaN             NaN
             NaN             NaN             NaN
             NaN             NaN             NaN
