Mg1 Ti16 S32
1.0
9.825062 -0.000635 -0.000330
-0.000098 9.824941 0.000359
-0.000335 0.000321 9.824764
Mg Ti S
1 16 32
direct
0.437552 0.312452 0.749836 Mg
0.248111 0.752014 0.004481 Ti
0.500648 -0.006753 0.007570 Ti
0.756738 0.249320 0.007592 Ti
0.997955 0.501864 0.004457 Ti
0.500671 0.249322 0.249959 Ti
0.248012 0.501977 0.249819 Ti
0.243064 0.247601 0.490872 Ti
0.502339 0.506892 0.490858 Ti
0.502282 0.752307 0.750051 Ti
0.756857 0.506839 0.750034 Ti
0.752220 0.750931 0.497504 Ti
0.243159 -0.006862 0.750040 Ti
0.752020 -0.002027 0.250218 Ti
0.997689 0.247717 0.750054 Ti
0.999313 0.750676 0.250100 Ti
0.999018 0.997727 0.497498 Ti
0.747300 0.002716 0.004058 S
0.002473 0.747547 0.003373 S
0.000729 1.002077 0.747561 S
0.747926 0.749286 0.747546 S
0.252935 -0.003222 0.997140 S
0.998971 0.252576 0.997124 S
0.997681 0.997193 0.252287 S
0.252898 0.252596 0.249916 S
0.747896 0.503944 0.503013 S
0.000679 0.246828 0.502968 S
0.002461 0.502732 0.248514 S
0.747280 0.247294 0.249569 S
0.253509 0.496500 0.495606 S
0.997694 0.752308 0.497124 S
0.998968 0.496458 0.753299 S
0.253545 0.751041 0.753290 S
0.246068 1.002112 0.503011 S
0.503181 0.749335 0.502970 S
0.502720 0.002730 0.249575 S
0.247263 0.747553 0.248506 S
0.752954 0.997063 0.496967 S
0.495581 0.254423 0.495494 S
0.495598 -0.003384 0.754397 S
0.753392 0.254411 0.754389 S
0.246368 0.503654 0.003588 S
0.504535 0.245484 0.004161 S
0.504870 0.504575 0.745062 S
0.245427 0.245135 0.745047 S
0.753252 0.497089 0.997138 S
0.497439 0.751046 0.997125 S
0.497412 0.497116 0.249928 S
0.752810 0.752319 0.252272 S
