Mg8 Sc16 Se32                           
   1.00000000000000     
    11.1278329352488736   -0.0000138384909536   -0.0000249686619114
    -0.0000141408295882   11.1278394234945797   -0.0000422244997700
    -0.0000251908132829    0.0000033014254647   11.1280163027669374
   Mg   Sc   Se
     7    16    32
Direct
  0.3773005264385461  0.3773038294181887  0.3772956433152288
  0.6250030259553085  0.1250020787678281  0.1250007228049625
  0.1250035976578303  0.6250015947862693  0.1250008195260506
  0.1250034175803876  0.1250014991826731  0.6249999111412805
  0.3773017530897675  0.8727004318649136  0.8727013382154567
  0.8727008386887718  0.3773010757988189  0.8727029986783350
  0.8727026759208130  0.8727032945161426  0.3772988471221481
  0.9937378272599275  0.7497458641399959  0.7497463728868041
  0.7497477856114116  0.9937361055106919  0.7497469188278032
  0.7497486475942736  0.7497453328303862  0.9937339855431944
  0.0000531638762169  0.0000492748983305  0.0000493219054363
  0.0000537659322788  0.2499507530946303  0.2499502137715197
  0.2499550312254826  0.0000496370473897  0.2499513840912257
  0.2499546492323859  0.2499505402342308  0.0000490436934655
  0.7497512528575143  0.5002534992735690  0.2562654942232854
  0.7497467951993215  0.2562656229038751  0.5002533812844092
  0.9937380157145199  0.5002497533114365  0.5002493909851893
  0.2562645926792513  0.5002515038352087  0.7497468214899641
  0.2562653398260437  0.7497469582696397  0.5002536490123006
  0.5002564820234454  0.7497480340170668  0.2562645309641809
  0.5002525397689297  0.9937379798623738  0.5002499773800508
  0.5002526689719318  0.2562628832853022  0.7497489973758462
  0.5002535156390451  0.5002510209895377  0.9937365380889744
  0.7576605909238410  0.9932639076081529  0.9932633682889573
  0.9932623897799289  0.7576619690015747  0.9932657156265563
  0.9932636419156537  0.9932635352924493  0.7576590483528349
  0.7554555418137809  0.7554536642872307  0.7554594256317486
  0.2434363091331520  0.0065619499066756  0.0065591187280063
  0.0065600393064500  0.2434372042217916  0.0065600134524004
  0.0065610968482943  0.0065632801721378  0.2434387092311070
  0.2434369123033591  0.2434386453461457  0.2434412073358558
  0.7554555237033469  0.4945464235307497  0.4945392759067104
  0.9932636058778499  0.2567342962106594  0.4923402407316715
  0.9932652195991594  0.4923364680638471  0.2567300134431036
  0.7576600045561008  0.2567364463776940  0.2567371502216389
  0.2404360092107822  0.5067302951527353  0.5067206619117428
  0.0095689483253096  0.7432733359470021  0.5067226634574240
  0.0095668839681906  0.5067217372630068  0.7432711936601635
  0.2404331515863944  0.7432649920981689  0.7432851184629854
  0.2567322100743041  0.9932659888559883  0.4923377793990582
  0.4945487080458904  0.7554534576806731  0.4945399561172366
  0.4923353064608662  0.9932666008158719  0.2567305676378098
  0.2567353850108347  0.7576627974498464  0.2567356876763185
  0.7432701181443022  0.0095706175081673  0.5067213197170304
  0.5067197186067247  0.2404359141458983  0.5067285115736553
  0.5067202368307235  0.0095657707781882  0.7432711556670029
  0.7432640781493589  0.2404329458175951  0.7432850958722170
  0.2567313646564884  0.4923361221757716  0.9932670894941751
  0.4923342898606933  0.2567338295531201  0.9932701260274044
  0.4945472361691827  0.4945473659290300  0.7554601877303426
  0.2567321103613267  0.2567336564417673  0.7576627096564437
  0.7432704096497673  0.5067242337061870  0.0095666099450824
  0.5067231433514365  0.7432720780370872  0.0095690752622346
  0.5067269147178237  0.5067275068246744  0.2404338318810275
  0.7432746905111500  0.7432743977764673  0.2404310789660968
 
  0.00000000E+00  0.00000000E+00  0.00000000E+00
  0.00000000E+00  0.00000000E+00  0.00000000E+00
  0.00000000E+00  0.00000000E+00  0.00000000E+00
  0.00000000E+00  0.00000000E+00  0.00000000E+00
  0.00000000E+00  0.00000000E+00  0.00000000E+00
  0.00000000E+00  0.00000000E+00  0.00000000E+00
  0.00000000E+00  0.00000000E+00  0.00000000E+00
  0.00000000E+00  0.00000000E+00  0.00000000E+00
  0.00000000E+00  0.00000000E+00  0.00000000E+00
  0.00000000E+00  0.00000000E+00  0.00000000E+00
  0.00000000E+00  0.00000000E+00  0.00000000E+00
  0.00000000E+00  0.00000000E+00  0.00000000E+00
  0.00000000E+00  0.00000000E+00  0.00000000E+00
  0.00000000E+00  0.00000000E+00  0.00000000E+00
  0.00000000E+00  0.00000000E+00  0.00000000E+00
  0.00000000E+00  0.00000000E+00  0.00000000E+00
  0.00000000E+00  0.00000000E+00  0.00000000E+00
  0.00000000E+00  0.00000000E+00  0.00000000E+00
  0.00000000E+00  0.00000000E+00  0.00000000E+00
  0.00000000E+00  0.00000000E+00  0.00000000E+00
  0.00000000E+00  0.00000000E+00  0.00000000E+00
  0.00000000E+00  0.00000000E+00  0.00000000E+00
  0.00000000E+00  0.00000000E+00  0.00000000E+00
  0.00000000E+00  0.00000000E+00  0.00000000E+00
  0.00000000E+00  0.00000000E+00  0.00000000E+00
  0.00000000E+00  0.00000000E+00  0.00000000E+00
  0.00000000E+00  0.00000000E+00  0.00000000E+00
  0.00000000E+00  0.00000000E+00  0.00000000E+00
  0.00000000E+00  0.00000000E+00  0.00000000E+00
  0.00000000E+00  0.00000000E+00  0.00000000E+00
  0.00000000E+00  0.00000000E+00  0.00000000E+00
  0.00000000E+00  0.00000000E+00  0.00000000E+00
  0.00000000E+00  0.00000000E+00  0.00000000E+00
  0.00000000E+00  0.00000000E+00  0.00000000E+00
  0.00000000E+00  0.00000000E+00  0.00000000E+00
  0.00000000E+00  0.00000000E+00  0.00000000E+00
  0.00000000E+00  0.00000000E+00  0.00000000E+00
  0.00000000E+00  0.00000000E+00  0.00000000E+00
  0.00000000E+00  0.00000000E+00  0.00000000E+00
  0.00000000E+00  0.00000000E+00  0.00000000E+00
  0.00000000E+00  0.00000000E+00  0.00000000E+00
  0.00000000E+00  0.00000000E+00  0.00000000E+00
  0.00000000E+00  0.00000000E+00  0.00000000E+00
  0.00000000E+00  0.00000000E+00  0.00000000E+00
  0.00000000E+00  0.00000000E+00  0.00000000E+00
  0.00000000E+00  0.00000000E+00  0.00000000E+00
  0.00000000E+00  0.00000000E+00  0.00000000E+00
  0.00000000E+00  0.00000000E+00  0.00000000E+00
  0.00000000E+00  0.00000000E+00  0.00000000E+00
  0.00000000E+00  0.00000000E+00  0.00000000E+00
  0.00000000E+00  0.00000000E+00  0.00000000E+00
  0.00000000E+00  0.00000000E+00  0.00000000E+00
  0.00000000E+00  0.00000000E+00  0.00000000E+00
  0.00000000E+00  0.00000000E+00  0.00000000E+00
  0.00000000E+00  0.00000000E+00  0.00000000E+00
