Li48 P16 O64                            
   1.00000000000000     
    10.4417682812291268    0.0020415483194611    0.0069109932991273
     0.0023551866969883   12.1441507708055525    0.0046760349353083
     0.0065063495297981    0.0037595962481322    9.7987461398476849
   Li   P    O 
    47    16    64
Direct
  0.4221098374129468  0.3760771256510154  0.1031073885630676
  0.6641873072646689  0.2511469127525601  0.0988446360898152
  0.6632362664704559  0.2505726241273081  0.5975482517274386
  0.6646764543139980  0.7496613231597848  0.0984053199170987
  0.6637806617184481  0.7507793145348032  0.5974709623276766
  0.1652646917092255  0.4940357070971686  0.1542810627944959
  0.1641617939148858  0.5026892127474270  0.6517131340417137
  0.1663206171463045  0.0014064513257352  0.1501694334251482
  0.1636187412361068  0.0005908637276661  0.6523951420844654
  0.3358523136552520  0.0013375473858446  0.4024189944399197
  0.3362013898197418  0.0012076945502955  0.9016455481913468
  0.3362274345836411  0.5003846345509047  0.4020243527722869
  0.3342862528014976  0.5011521717419285  0.9021488460206228
  0.8362177530881780  0.2481133340589281  0.3493265574910112
  0.8347996645404905  0.2492278547621538  0.8469637474831586
  0.8362366323202224  0.7492197121814996  0.3477357977285749
  0.8362592736731500  0.7492007937180887  0.8482259813729556
  0.3365278362762112  0.2493983029103433  0.3985317760218123
  0.3328010276723319  0.2494109954296420  0.9044701092214780
  0.3358688242665835  0.7491422354442108  0.4020584984271167
  0.3357542543301548  0.7490709212585003  0.9021936587507682
  0.8363525682141741  0.0009761322632542  0.3482096384572557
  0.8359206666255261  0.0007647392993135  0.8471111778674043
  0.8363512750016113  0.5005844583622405  0.3474077900731700
  0.8351960685666526  0.5016404573029121  0.8477704895905234
  0.6649316360669033  0.4987504181910154  0.0981318631962651
  0.6635688113509204  0.4995472741835343  0.5978723562031547
  0.6639601433121101  0.9949344193491712  0.0952877993968144
  0.6640920935844150  0.9984700863340663  0.5981527594515939
  0.1633005858193712  0.2510543662847482  0.6458019256120977
  0.1643842647390557  0.7503478252751705  0.1523812552462473
  0.1640627444857046  0.7522026930824026  0.6514697702012739
  0.9285188105303916  0.3707146764347442  0.1518314720233533
  0.9187261604242423  0.3760916165519461  0.6485989018233269
  0.9248063302397611  0.8743072097339493  0.1484824210164533
  0.9241290013304777  0.8757010926520152  0.6489336595284811
  0.4235821324116671  0.3749962770334179  0.6010582970016216
  0.4236936884793536  0.8744514968343893  0.1012077586212357
  0.4232815592713308  0.8752816492245898  0.6011692904101196
  0.0789226265224627  0.1294237960445770  0.3424261637853263
  0.0764239830138536  0.1268302913650103  0.8547041372853172
  0.0767293429733584  0.6245567669865650  0.3509606457530694
  0.0761813617150864  0.6261392383921915  0.8503548386724802
  0.5774353023339600  0.1245702763280079  0.3992526462346220
  0.5765238340109562  0.1243927525856066  0.8984028333260525
  0.5761643651783217  0.6246223842261500  0.3985911837879073
  0.5756053649336081  0.6246153553535905  0.8992349914466899
  0.9093517351304925  0.1235331475128163  0.0952744645137855
  0.9118929926466137  0.1248453715560061  0.5951033072039493
  0.9129809528568913  0.6236031578633572  0.0955016426562025
  0.9111817296437934  0.6263244723363783  0.5950510336910142
  0.4152130376319292  0.1242015272327919  0.1547043142876419
  0.4120371725849949  0.1253017780735846  0.6549691186028923
  0.4116516650515081  0.6250228483184657  0.1548174663706092
  0.4116511134163687  0.6252065674277461  0.6546868908327426
  0.0872178047053964  0.3751737832405553  0.4100160990687769
  0.0862890172219508  0.3768563834884020  0.9010674030441379
  0.0886642651522678  0.8757103728787783  0.4042919087911585
  0.0887382145843887  0.8754101719178493  0.9048841790222042
  0.5887320959517979  0.3751375152843792  0.3453085841021917
  0.5874054007888532  0.3752134928483954  0.8453814039785783
  0.5882614434931313  0.8744896480868221  0.3453564789995056
  0.5879726158374936  0.8741929126432950  0.8448861177148714
  0.8376671555979698  0.0196327793753284  0.1454018379206090
  0.8412531687433713  0.0212504252116119  0.6466506770647413
  0.8426017043508836  0.5200223423062980  0.1469392224165347
  0.8400370115273788  0.5234743191511768  0.6473816688611294
  0.3542123620835724  0.2295331826970468  0.0996785733204391
  0.3427277755086990  0.2290381849555274  0.6029217134027505
  0.3417712247496425  0.7288222411346581  0.1032621891226384
  0.3413393292822420  0.7288267933654922  0.6031640968869212
  0.1584744377847258  0.2690388289366084  0.3744553555864982
  0.1571458181517116  0.2735553662590817  0.8500302903124251
  0.1584554527086368  0.7714054008486571  0.3536970206728967
  0.1590457725687671  0.7720833342711231  0.8523451523245598
  0.6591872809948356  0.4785376684286575  0.3971681775107356
  0.6581285760904407  0.4784549106469242  0.8970105247895646
  0.6588484552754252  0.9777871176245867  0.3969336327480377
  0.6585375593252039  0.9777909568890237  0.8956870273917303
  0.1587978975782036  0.4768267391470786  0.3548533490119681
  0.1575377595022260  0.4801030533872961  0.8487841971652301
  0.1593766650243538  0.9786695706318227  0.3519179845547171
  0.1586127446805961  0.9792965209984956  0.8536191201594718
  0.6587104497033920  0.2713703885363259  0.3970290436979127
  0.6569502415292732  0.2713638078696974  0.8977553232824533
  0.6584539138672767  0.7707747843052246  0.3967479780607093
  0.6584650857300360  0.7708253557752869  0.8969658234253970
  0.8403050267502721  0.2270295783869045  0.1487696707223023
  0.8401672054811158  0.2282561737166233  0.6457479960844168
  0.8425351100234764  0.7273781295742054  0.1470762304227478
  0.8410733311992473  0.7302388295379671  0.6459546375126521
  0.3440127247371123  0.0216679766011509  0.1022520715798336
  0.3413448887362378  0.0218859768194903  0.6034567588969253
  0.3410163994349276  0.5218913634928271  0.1030775450957719
  0.3414986364990256  0.5217695478743423  0.6027406864821785
  0.5554043160736271  0.1215444916067909  0.1046744270011146
  0.5510165076646913  0.1244497175972441  0.6029128144277252
  0.5505801371304386  0.6246192707336178  0.1027585097489663
  0.5504387986600179  0.6251511171790867  0.6024393889409225
  0.0461123214981356  0.1185405086908204  0.1485126069475626
  0.0495597064488251  0.1256525905983850  0.6498679595076666
  0.0516901232821567  0.6236493683407787  0.1478023242495539
  0.0498242929594355  0.6270788815078774  0.6472084235039546
  0.4499913496361359  0.3753460987538020  0.3975813828060168
  0.4483724597010976  0.3758137364034511  0.8965812407075262
  0.4494510481239047  0.8748965123401860  0.3976834680479655
  0.4493475390613426  0.8746235425877416  0.8975657688990708
  0.9497524085223432  0.3737762099001216  0.3543862231618675
  0.9478082348977566  0.3755463058070205  0.8473623350107999
  0.9498990560148641  0.8753740765862617  0.3518796265343553
  0.9497868816430994  0.8751936238336242  0.8531340196669532
  0.5894609524760384  0.3753582633432160  0.1880778627276243
  0.5892132352838786  0.3749626789308564  0.6880260715680038
  0.5886921881294924  0.8737868569400575  0.1879917830965852
  0.5883067403976128  0.8740945586811861  0.6876334727189288
  0.0845038251904739  0.3799734053542068  0.0567278079236075
  0.0836304985156886  0.3812080703476894  0.5674361387850624
  0.0900267043144822  0.8747069876084410  0.0621663554448375
  0.0889954076555739  0.8763296724706393  0.5616996283817102
  0.4127825922222570  0.1242015677541204  0.3118423443782987
  0.4110964655855511  0.1254530345205325  0.8123033142186458
  0.4108238089419913  0.6248905984186450  0.3122042594303949
  0.4107842000139570  0.6249931881810156  0.8120285827129194
  0.9126982780979276  0.1244514570163204  0.4379243283897125
  0.9082869171511874  0.1253762702981547  0.9379314889124828
  0.9110922229368725  0.6251314443629212  0.4376884461073089
  0.9119046105011961  0.6245576110486155  0.9380563417708032
 
  0.00000000E+00  0.00000000E+00  0.00000000E+00
  0.00000000E+00  0.00000000E+00  0.00000000E+00
  0.00000000E+00  0.00000000E+00  0.00000000E+00
  0.00000000E+00  0.00000000E+00  0.00000000E+00
  0.00000000E+00  0.00000000E+00  0.00000000E+00
  0.00000000E+00  0.00000000E+00  0.00000000E+00
  0.00000000E+00  0.00000000E+00  0.00000000E+00
  0.00000000E+00  0.00000000E+00  0.00000000E+00
  0.00000000E+00  0.00000000E+00  0.00000000E+00
  0.00000000E+00  0.00000000E+00  0.00000000E+00
  0.00000000E+00  0.00000000E+00  0.00000000E+00
  0.00000000E+00  0.00000000E+00  0.00000000E+00
  0.00000000E+00  0.00000000E+00  0.00000000E+00
  0.00000000E+00  0.00000000E+00  0.00000000E+00
  0.00000000E+00  0.00000000E+00  0.00000000E+00
  0.00000000E+00  0.00000000E+00  0.00000000E+00
  0.00000000E+00  0.00000000E+00  0.00000000E+00
  0.00000000E+00  0.00000000E+00  0.00000000E+00
  0.00000000E+00  0.00000000E+00  0.00000000E+00
  0.00000000E+00  0.00000000E+00  0.00000000E+00
  0.00000000E+00  0.00000000E+00  0.00000000E+00
  0.00000000E+00  0.00000000E+00  0.00000000E+00
  0.00000000E+00  0.00000000E+00  0.00000000E+00
  0.00000000E+00  0.00000000E+00  0.00000000E+00
  0.00000000E+00  0.00000000E+00  0.00000000E+00
  0.00000000E+00  0.00000000E+00  0.00000000E+00
  0.00000000E+00  0.00000000E+00  0.00000000E+00
  0.00000000E+00  0.00000000E+00  0.00000000E+00
  0.00000000E+00  0.00000000E+00  0.00000000E+00
  0.00000000E+00  0.00000000E+00  0.00000000E+00
  0.00000000E+00  0.00000000E+00  0.00000000E+00
  0.00000000E+00  0.00000000E+00  0.00000000E+00
  0.00000000E+00  0.00000000E+00  0.00000000E+00
  0.00000000E+00  0.00000000E+00  0.00000000E+00
  0.00000000E+00  0.00000000E+00  0.00000000E+00
  0.00000000E+00  0.00000000E+00  0.00000000E+00
  0.00000000E+00  0.00000000E+00  0.00000000E+00
  0.00000000E+00  0.00000000E+00  0.00000000E+00
  0.00000000E+00  0.00000000E+00  0.00000000E+00
  0.00000000E+00  0.00000000E+00  0.00000000E+00
  0.00000000E+00  0.00000000E+00  0.00000000E+00
  0.00000000E+00  0.00000000E+00  0.00000000E+00
  0.00000000E+00  0.00000000E+00  0.00000000E+00
  0.00000000E+00  0.00000000E+00  0.00000000E+00
  0.00000000E+00  0.00000000E+00  0.00000000E+00
  0.00000000E+00  0.00000000E+00  0.00000000E+00
  0.00000000E+00  0.00000000E+00  0.00000000E+00
  0.00000000E+00  0.00000000E+00  0.00000000E+00
  0.00000000E+00  0.00000000E+00  0.00000000E+00
  0.00000000E+00  0.00000000E+00  0.00000000E+00
  0.00000000E+00  0.00000000E+00  0.00000000E+00
  0.00000000E+00  0.00000000E+00  0.00000000E+00
  0.00000000E+00  0.00000000E+00  0.00000000E+00
  0.00000000E+00  0.00000000E+00  0.00000000E+00
  0.00000000E+00  0.00000000E+00  0.00000000E+00
  0.00000000E+00  0.00000000E+00  0.00000000E+00
  0.00000000E+00  0.00000000E+00  0.00000000E+00
  0.00000000E+00  0.00000000E+00  0.00000000E+00
  0.00000000E+00  0.00000000E+00  0.00000000E+00
  0.00000000E+00  0.00000000E+00  0.00000000E+00
  0.00000000E+00  0.00000000E+00  0.00000000E+00
  0.00000000E+00  0.00000000E+00  0.00000000E+00
  0.00000000E+00  0.00000000E+00  0.00000000E+00
  0.00000000E+00  0.00000000E+00  0.00000000E+00
  0.00000000E+00  0.00000000E+00  0.00000000E+00
  0.00000000E+00  0.00000000E+00  0.00000000E+00
  0.00000000E+00  0.00000000E+00  0.00000000E+00
  0.00000000E+00  0.00000000E+00  0.00000000E+00
  0.00000000E+00  0.00000000E+00  0.00000000E+00
  0.00000000E+00  0.00000000E+00  0.00000000E+00
  0.00000000E+00  0.00000000E+00  0.00000000E+00
  0.00000000E+00  0.00000000E+00  0.00000000E+00
  0.00000000E+00  0.00000000E+00  0.00000000E+00
  0.00000000E+00  0.00000000E+00  0.00000000E+00
  0.00000000E+00  0.00000000E+00  0.00000000E+00
  0.00000000E+00  0.00000000E+00  0.00000000E+00
  0.00000000E+00  0.00000000E+00  0.00000000E+00
  0.00000000E+00  0.00000000E+00  0.00000000E+00
  0.00000000E+00  0.00000000E+00  0.00000000E+00
  0.00000000E+00  0.00000000E+00  0.00000000E+00
  0.00000000E+00  0.00000000E+00  0.00000000E+00
  0.00000000E+00  0.00000000E+00  0.00000000E+00
  0.00000000E+00  0.00000000E+00  0.00000000E+00
  0.00000000E+00  0.00000000E+00  0.00000000E+00
  0.00000000E+00  0.00000000E+00  0.00000000E+00
  0.00000000E+00  0.00000000E+00  0.00000000E+00
  0.00000000E+00  0.00000000E+00  0.00000000E+00
  0.00000000E+00  0.00000000E+00  0.00000000E+00
  0.00000000E+00  0.00000000E+00  0.00000000E+00
  0.00000000E+00  0.00000000E+00  0.00000000E+00
  0.00000000E+00  0.00000000E+00  0.00000000E+00
  0.00000000E+00  0.00000000E+00  0.00000000E+00
  0.00000000E+00  0.00000000E+00  0.00000000E+00
  0.00000000E+00  0.00000000E+00  0.00000000E+00
  0.00000000E+00  0.00000000E+00  0.00000000E+00
  0.00000000E+00  0.00000000E+00  0.00000000E+00
  0.00000000E+00  0.00000000E+00  0.00000000E+00
  0.00000000E+00  0.00000000E+00  0.00000000E+00
  0.00000000E+00  0.00000000E+00  0.00000000E+00
  0.00000000E+00  0.00000000E+00  0.00000000E+00
  0.00000000E+00  0.00000000E+00  0.00000000E+00
  0.00000000E+00  0.00000000E+00  0.00000000E+00
  0.00000000E+00  0.00000000E+00  0.00000000E+00
  0.00000000E+00  0.00000000E+00  0.00000000E+00
  0.00000000E+00  0.00000000E+00  0.00000000E+00
  0.00000000E+00  0.00000000E+00  0.00000000E+00
  0.00000000E+00  0.00000000E+00  0.00000000E+00
  0.00000000E+00  0.00000000E+00  0.00000000E+00
  0.00000000E+00  0.00000000E+00  0.00000000E+00
  0.00000000E+00  0.00000000E+00  0.00000000E+00
  0.00000000E+00  0.00000000E+00  0.00000000E+00
  0.00000000E+00  0.00000000E+00  0.00000000E+00
  0.00000000E+00  0.00000000E+00  0.00000000E+00
  0.00000000E+00  0.00000000E+00  0.00000000E+00
  0.00000000E+00  0.00000000E+00  0.00000000E+00
  0.00000000E+00  0.00000000E+00  0.00000000E+00
  0.00000000E+00  0.00000000E+00  0.00000000E+00
  0.00000000E+00  0.00000000E+00  0.00000000E+00
  0.00000000E+00  0.00000000E+00  0.00000000E+00
  0.00000000E+00  0.00000000E+00  0.00000000E+00
  0.00000000E+00  0.00000000E+00  0.00000000E+00
  0.00000000E+00  0.00000000E+00  0.00000000E+00
  0.00000000E+00  0.00000000E+00  0.00000000E+00
  0.00000000E+00  0.00000000E+00  0.00000000E+00
  0.00000000E+00  0.00000000E+00  0.00000000E+00
  0.00000000E+00  0.00000000E+00  0.00000000E+00
  0.00000000E+00  0.00000000E+00  0.00000000E+00
