Li47 P16 O64
1.0
10.441768 0.002042 0.006911
0.002355 12.144151 0.004676
0.006506 0.003760 9.798746
Li P O
47 16 64
direct
0.422110 0.376077 0.103107 Li
0.664187 0.251147 0.098845 Li
0.663236 0.250573 0.597548 Li
0.664676 0.749661 0.098405 Li
0.663781 0.750779 0.597471 Li
0.165265 0.494036 0.154281 Li
0.164162 0.502689 0.651713 Li
0.166321 0.001406 0.150169 Li
0.163619 0.000591 0.652395 Li
0.335852 0.001338 0.402419 Li
0.336201 0.001208 0.901646 Li
0.336227 0.500385 0.402024 Li
0.334286 0.501152 0.902149 Li
0.836218 0.248113 0.349327 Li
0.834800 0.249228 0.846964 Li
0.836237 0.749220 0.347736 Li
0.836259 0.749201 0.848226 Li
0.336528 0.249398 0.398532 Li
0.332801 0.249411 0.904470 Li
0.335869 0.749142 0.402058 Li
0.335754 0.749071 0.902194 Li
0.836353 0.000976 0.348210 Li
0.835921 0.000765 0.847111 Li
0.836351 0.500584 0.347408 Li
0.835196 0.501640 0.847770 Li
0.664932 0.498750 0.098132 Li
0.663569 0.499547 0.597872 Li
0.663960 0.994934 0.095288 Li
0.664092 0.998470 0.598153 Li
0.163301 0.251054 0.645802 Li
0.164384 0.750348 0.152381 Li
0.164063 0.752203 0.651470 Li
0.928519 0.370715 0.151831 Li
0.918726 0.376092 0.648599 Li
0.924806 0.874307 0.148482 Li
0.924129 0.875701 0.648934 Li
0.423582 0.374996 0.601058 Li
0.423694 0.874451 0.101208 Li
0.423282 0.875282 0.601169 Li
0.078923 0.129424 0.342426 Li
0.076424 0.126830 0.854704 Li
0.076729 0.624557 0.350961 Li
0.076181 0.626139 0.850355 Li
0.577435 0.124570 0.399253 Li
0.576524 0.124393 0.898403 Li
0.576164 0.624622 0.398591 Li
0.575605 0.624615 0.899235 Li
0.909352 0.123533 0.095274 P
0.911893 0.124845 0.595103 P
0.912981 0.623603 0.095502 P
0.911182 0.626324 0.595051 P
0.415213 0.124202 0.154704 P
0.412037 0.125302 0.654969 P
0.411652 0.625023 0.154817 P
0.411651 0.625207 0.654687 P
0.087218 0.375174 0.410016 P
0.086289 0.376856 0.901067 P
0.088664 0.875710 0.404292 P
0.088738 0.875410 0.904884 P
0.588732 0.375138 0.345309 P
0.587405 0.375213 0.845381 P
0.588261 0.874490 0.345356 P
0.587973 0.874193 0.844886 P
0.837667 0.019633 0.145402 O
0.841253 0.021250 0.646651 O
0.842602 0.520022 0.146939 O
0.840037 0.523474 0.647382 O
0.354212 0.229533 0.099679 O
0.342728 0.229038 0.602922 O
0.341771 0.728822 0.103262 O
0.341339 0.728827 0.603164 O
0.158474 0.269039 0.374455 O
0.157146 0.273555 0.850030 O
0.158455 0.771405 0.353697 O
0.159046 0.772083 0.852345 O
0.659187 0.478538 0.397168 O
0.658129 0.478455 0.897011 O
0.658848 0.977787 0.396934 O
0.658538 0.977791 0.895687 O
0.158798 0.476827 0.354853 O
0.157538 0.480103 0.848784 O
0.159377 0.978670 0.351918 O
0.158613 0.979297 0.853619 O
0.658710 0.271370 0.397029 O
0.656950 0.271364 0.897755 O
0.658454 0.770775 0.396748 O
0.658465 0.770825 0.896966 O
0.840305 0.227030 0.148770 O
0.840167 0.228256 0.645748 O
0.842535 0.727378 0.147076 O
0.841073 0.730239 0.645955 O
0.344013 0.021668 0.102252 O
0.341345 0.021886 0.603457 O
0.341016 0.521891 0.103078 O
0.341499 0.521770 0.602741 O
0.555404 0.121544 0.104674 O
0.551017 0.124450 0.602913 O
0.550580 0.624619 0.102759 O
0.550439 0.625151 0.602439 O
0.046112 0.118541 0.148513 O
0.049560 0.125653 0.649868 O
0.051690 0.623649 0.147802 O
0.049824 0.627079 0.647208 O
0.449991 0.375346 0.397581 O
0.448372 0.375814 0.896581 O
0.449451 0.874897 0.397683 O
0.449348 0.874624 0.897566 O
0.949752 0.373776 0.354386 O
0.947808 0.375546 0.847362 O
0.949899 0.875374 0.351880 O
0.949787 0.875194 0.853134 O
0.589461 0.375358 0.188078 O
0.589213 0.374963 0.688026 O
0.588692 0.873787 0.187992 O
0.588307 0.874095 0.687633 O
0.084504 0.379973 0.056728 O
0.083630 0.381208 0.567436 O
0.090027 0.874707 0.062166 O
0.088995 0.876330 0.561700 O
0.412783 0.124202 0.311842 O
0.411096 0.125453 0.812303 O
0.410824 0.624891 0.312204 O
0.410784 0.624993 0.812029 O
0.912698 0.124451 0.437924 O
0.908287 0.125376 0.937931 O
0.911092 0.625131 0.437688 O
0.911905 0.624558 0.938056 O
