Mg15 Mn32 O64
1.0
11.498354 -0.000014 -0.001005
-0.000016 11.514766 0.000000
-0.000182 0.000003 9.172025
Mg Mn O
15 32 64
direct
0.499892 0.717356 0.715286 Mg
0.499951 0.251649 0.746010 Mg
0.999953 0.249814 0.750111 Mg
0.999856 0.750186 0.749611 Mg
0.500108 -0.000254 0.500476 Mg
0.000166 0.000032 0.497949 Mg
0.999688 0.499968 0.502010 Mg
0.250878 1.000308 0.252188 Mg
0.254184 0.499692 0.248947 Mg
0.750382 0.000322 0.251630 Mg
0.744693 0.499679 0.249697 Mg
0.248850 0.247753 0.000199 Mg
0.249276 0.752247 0.000641 Mg
0.751362 0.247634 0.000759 Mg
0.750596 0.752366 0.000921 Mg
0.125389 0.251702 0.375626 Mn
0.124956 0.748298 0.375259 Mn
0.622761 0.250466 0.374756 Mn
0.622554 0.749534 0.374670 Mn
0.376129 0.251421 0.373724 Mn
0.375692 0.748580 0.373440 Mn
0.874291 0.251542 0.375258 Mn
0.873856 0.748458 0.374790 Mn
0.126818 -0.000239 0.875107 Mn
0.123916 0.500239 0.877664 Mn
0.626530 -0.000056 0.873976 Mn
0.625173 0.500056 0.874489 Mn
0.376888 -0.000208 0.872689 Mn
0.373706 0.500207 0.874572 Mn
0.877030 -0.000071 0.874867 Mn
0.873939 0.500071 0.878214 Mn
0.001117 0.124951 0.126448 Mn
0.999532 0.624516 0.127705 Mn
0.500199 0.124012 0.124126 Mn
0.499869 0.627297 0.120910 Mn
0.999765 0.375554 0.127989 Mn
0.000883 0.874979 0.126160 Mn
0.499923 0.372221 0.120673 Mn
0.500145 0.876469 0.124363 Mn
0.251483 0.375459 0.626506 Mn
0.249055 0.874813 0.623746 Mn
0.748280 0.375412 0.626337 Mn
0.751176 0.874899 0.624074 Mn
0.248698 0.125114 0.624151 Mn
0.251841 0.624614 0.626103 Mn
0.751648 0.125044 0.624344 Mn
0.747808 0.624646 0.626067 Mn
0.136793 0.251289 0.621321 O
0.137046 0.748711 0.620975 O
0.638000 0.249701 0.621329 O
0.637933 0.750302 0.616166 O
0.361897 0.249987 0.621209 O
0.361801 0.750013 0.615946 O
0.863161 0.251360 0.621181 O
0.862685 0.748640 0.620895 O
0.138184 0.500163 0.631171 O
0.136152 0.999837 0.628806 O
0.638050 0.499960 0.664614 O
0.638537 0.000040 0.628239 O
0.361437 0.500008 0.664617 O
0.361939 -0.000008 0.627971 O
0.861186 0.500167 0.631139 O
0.864482 -0.000167 0.628959 O
0.501318 0.113489 0.876249 O
0.499506 0.609574 0.878797 O
0.001680 0.113177 0.879904 O
0.998976 0.612822 0.879697 O
0.499455 0.389618 0.876666 O
0.501367 0.887320 0.878380 O
0.999088 0.387388 0.879832 O
0.001566 0.886612 0.879768 O
0.499685 0.358849 0.354002 O
0.499127 0.864267 0.369596 O
0.999643 0.363975 0.371723 O
0.999703 0.861729 0.370897 O
0.499391 0.135275 0.369700 O
0.499421 0.641609 0.353898 O
1.000083 0.138197 0.370891 O
0.999262 0.636099 0.371729 O
0.385360 0.499841 0.099347 O
0.386877 1.000158 0.120112 O
0.885720 0.499994 0.122937 O
0.887898 1.000005 0.121722 O
0.114184 -0.000112 0.121691 O
0.113061 0.500112 0.122687 O
0.613970 1.000153 0.120340 O
0.613995 0.499847 0.099407 O
0.386917 0.248749 0.124292 O
0.386689 0.751250 0.127170 O
0.887578 0.250128 0.129894 O
0.887244 0.749871 0.129700 O
0.113110 0.250733 0.129989 O
0.112908 0.749269 0.129814 O
0.613057 0.248737 0.124478 O
0.613068 0.751263 0.127340 O
0.250142 0.365202 0.381097 O
0.249265 0.861531 0.378469 O
0.748790 0.364629 0.381137 O
0.749912 0.861894 0.378571 O
0.249249 0.138267 0.379559 O
0.250157 0.634998 0.380010 O
0.750587 0.137941 0.379617 O
0.748114 0.635537 0.380091 O
0.250851 0.112732 0.869692 O
0.251143 0.611923 0.876983 O
0.752136 0.112782 0.870006 O
0.747241 0.611919 0.877211 O
0.251036 0.388569 0.877211 O
0.250955 0.886774 0.869463 O
0.747408 0.388310 0.877396 O
0.751967 0.886989 0.869820 O
