Mg1 Ti16 S32                            
   1.00000000000000     
     9.8250209999999996   -0.0006410000000000   -0.0005370000000000
    -0.0000970000000000    9.8248879999999996    0.0005640000000000
    -0.0005160000000000    0.0005110000000000    9.8245869999999993
   Mg   Ti   S 
     1    16    32
Direct
  0.4727569206834656  0.2772524276890467  0.7750527977977900
  0.2474480265982891  0.7503464094155703  0.0016357691077047
  0.4975033145465882  0.9934699493046938  0.0099998647405066
  0.7565180317936100  0.2524601680029422  0.0100558443286105
  0.9995861640593943  0.5025040728712695  0.0015992627074281
  0.5007184837282522  0.2492341748185493  0.2626784704393632
  0.2470710997518276  0.5029330076240942  0.2491026446420936
  0.2368055964124707  0.2518331180905874  0.4907080528130198
  0.4980879288109967  0.5131544921847490  0.4907258454316180
  0.5013140658362345  0.7636402511935744  0.7470443299956805
  0.7585717900397780  0.5128397159871391  0.7481429847711595
  0.7522159263471790  0.7524943334928691  0.4948168052217260
  0.2370986451194577  0.9914350829514782  0.7482023488233652
  0.7520183576162885  0.9979863611827967  0.2489664371434331
  0.9863713645851032  0.2486705278634875  0.7470418217351353
  0.9988812499134239  0.7510822601616540  0.2476680322840083
  0.9974500255056501  0.9977517028492210  0.4947698960089349
  0.7446481536205534  0.0053888509900510  0.0034945157188047
  0.0025308941911548  0.7474912544351267  0.0003352306557626
 -0.0047572039047990  0.0019679029119243  0.7446878013071538
  0.7480372898312244  0.7547550599540517  0.7446767630561706
  0.2505097934239213  0.9962045305664623  0.9964924050713040
  0.9965608734852500  0.2523131247815899  0.9942745579278720
  0.9973868510430480  0.9971572384576689  0.2496079533674544
  0.2535303480309893  0.2526256587342622  0.2510503813443118
  0.7452756841705450  0.5063811824704727  0.5020423464177303
 -0.0046512827116411  0.2475436089325773  0.5000308760584929
  0.0022041040651168  0.5028955291289898  0.2459002818134505
  0.7475556888546571  0.2476272465076517  0.2520795882873665
  0.2508587991893834  0.4991309303320936  0.4948033511670852
  0.9973482197008066  0.7526686115575479  0.4942799231096217
  0.9977523045355468  0.4961474761991107  0.7506183020683473
  0.2538559398047471  0.7522587757021577  0.7506150333460681
  0.2436379470752793  0.0047128563610928  0.5020521038674124
  0.5024737234003841  0.7546970277265995  0.5000448747084715
  0.5023944119199759  0.0024390015344094  0.2520778749002459
  0.2471015811677828  0.7478182272572429  0.2458926839787157
  0.7519424527952014  0.9980946952980546  0.4950976213495410
  0.4912329447662081  0.2587821387519191  0.5056322819472393
  0.4909449113549665  1.0072855029796066  0.7561294094450334
  0.7427366506898178  0.2590573401463355  0.7561169177948133
  0.2468409676870859  0.5031827033482819  0.0018291325083400
  0.5034999251405815  0.2465388216114185  0.0156472734529682
  0.5047752648838928  0.5177321218371688  0.7439080030428068
  0.2322816150575897  0.2452273577124524  0.7438818419661093
  0.7538296699499306  0.4995178860117397  0.9964797871404091
  0.4977103178280224  0.7534758889159363  0.9942822955292200
  0.4973701606205001  0.4964777027558460  0.2510858314690590
  0.7528503236686763  0.7526237107776984  0.2496040396977369
 
             NaN             NaN             NaN
             NaN             NaN             NaN
             NaN             NaN             NaN
             NaN             NaN             NaN
             NaN             NaN             NaN
             NaN             NaN             NaN
             NaN             NaN             NaN
             NaN             NaN             NaN
             NaN             NaN             NaN
             NaN             NaN             NaN
             NaN             NaN             NaN
             NaN             NaN             NaN
             NaN             NaN             NaN
             NaN             NaN             NaN
             NaN             NaN             NaN
             NaN             NaN             NaN
             NaN             NaN             NaN
             NaN             NaN             NaN
             NaN             NaN             NaN
             NaN             NaN             NaN
             NaN             NaN             NaN
             NaN             NaN             NaN
             NaN             NaN             NaN
             NaN             NaN             NaN
             NaN             NaN             NaN
             NaN             NaN             NaN
             NaN             NaN             NaN
             NaN             NaN             NaN
             NaN             NaN             NaN
             NaN             NaN             NaN
             NaN             NaN             NaN
             NaN             NaN             NaN
             NaN             NaN             NaN
             NaN             NaN             NaN
             NaN             NaN             NaN
             NaN             NaN             NaN
             NaN             NaN             NaN
             NaN             NaN             NaN
             NaN             NaN             NaN
             NaN             NaN             NaN
             NaN             NaN             NaN
             NaN             NaN             NaN
             NaN             NaN             NaN
             NaN             NaN             NaN
             NaN             NaN             NaN
             NaN             NaN             NaN
             NaN             NaN             NaN
             NaN             NaN             NaN
             NaN             NaN             NaN
