Mg1 Ti16 S32
1.0
9.825021 -0.000641 -0.000537
-0.000097 9.824888 0.000564
-0.000516 0.000511 9.824587
Mg Ti S
1 16 32
direct
0.468820 0.281184 0.749838 Mg
0.247813 0.750825 0.003706 Ti
0.500346 -0.007947 0.008347 Ti
0.757935 0.249619 0.008370 Ti
0.999141 0.502163 0.003681 Ti
0.500347 0.249646 0.249980 Ti
0.247687 0.502301 0.249785 Ti
0.241930 0.248751 0.490881 Ti
0.501186 0.508029 0.490868 Ti
0.501139 0.751156 0.750045 Ti
0.758001 0.507983 0.750033 Ti
0.752548 0.750598 0.497494 Ti
0.242014 -0.008007 0.750039 Ti
0.752364 -0.002371 0.250248 Ti
0.998840 0.248860 0.750048 Ti
0.999662 0.750328 0.250062 Ti
0.999351 0.997399 0.497488 Ti
0.747242 0.002774 0.004226 S
0.002408 0.747613 0.003202 S
0.000385 1.002423 0.747556 S
0.747578 0.749632 0.747541 S
0.253020 -0.003781 0.997148 S
0.999535 0.252495 0.997121 S
0.997807 0.997068 0.252280 S
0.252967 0.252530 0.249921 S
0.747518 0.504134 0.503025 S
0.000315 0.247021 0.502958 S
0.002390 0.502737 0.248252 S
0.747207 0.247301 0.249837 S
0.253262 0.496749 0.495639 S
0.997859 0.752142 0.497158 S
0.999557 0.496686 0.753026 S
0.253316 0.750453 0.753016 S
0.245880 1.002490 0.503023 S
0.502986 0.749700 0.502961 S
0.502714 0.002802 0.249843 S
0.247257 0.747624 0.248244 S
0.753125 0.996893 0.496920 S
0.495342 0.254661 0.495468 S
0.495372 -0.003979 0.754678 S
0.753985 0.254639 0.754671 S
0.246596 0.503428 0.003448 S
0.504766 0.245252 0.004306 S
0.504939 0.504499 0.745067 S
0.245502 0.245066 0.745051 S
0.753812 0.497006 0.997146 S
0.497520 0.750482 0.997123 S
0.497477 0.497046 0.249933 S
0.752935 0.752193 0.252265 S
