Li17 Co18 O36                           
   1.00000000000000     
     8.2794699999999999    0.6362880000000000    1.3377230000000000
     3.4778910000000001    7.5384700000000002    1.3447600000000000
     1.2050419999999999    0.8420760000000000    9.7550220000000003
   Li   Co   O 
    17    18    36
Direct
  0.3265972244231922  0.3767574729243653  0.5026305520089891
  0.3321536405631677  0.3351104098766117  0.0015689024273702
  0.3322404492565757  0.6690769059361934  0.0006695018123358
  0.3326359345437178  1.0017769494673157  1.0013274475434433
  0.3318815652546250  0.9970617222226862  0.5011804083564020
  0.6657855328228185  0.3351993339380708  1.0008233825123483
  0.6615456830656158  0.3419061959238769  0.5012289196755416
  0.6652967049003488  0.6689452031705602  1.0014116237300665
  0.6517560780954991  0.6687085350752713  0.5010737398341462
  0.6649015480368651  1.0018994987788368  0.0019547978146754
  0.6588618600185372  1.0084848527990273  0.5023320946907416
 -0.0008182070259988  0.3352526071667819  1.0010172933273740
  0.0034367202943136  0.3358803208115546  0.5000894710581688
 -0.0013477358859396  0.6686612076370214  0.0012134005559009
 -0.0034469646750447  0.6753729678897343  0.5006944978312062
 -0.0010455395563562  0.0025060829718211  1.0002684803050463
  0.0116200220094827  0.9892253834013032  0.5009295749129744
  0.1632791826869721  0.1709318474892075  0.2498849308519305
  0.1666927428895967  0.1687049119863735  0.7504604303673306
  0.1627643584317859  0.5041326065775811  0.2481369357800884
  0.1668798014123979  0.5023976441080745  0.7518103478807817
  0.1627969455931154  0.8372607853179516  0.2504525339656400
  0.1666507624368396  0.8341726755532889  0.7497640855265156
  0.4959360927604251  0.1711388173697029  0.2523561758567583
  0.5000693668496315  0.1666566625334945  0.7537837275940332
  0.4950980476348126  0.5048754714774326  0.2509104461425777
  0.4990750537466211  0.5018549269523531  0.7502828926956840
  0.4959949809332665  0.8359057788914200  0.2527061373134946
  0.4991584420738074  0.8343474438033764  0.7524488776232062
  0.8293817138428633  0.1703095210496638  0.2507839768005430
  0.8336892978619738  0.1672875304719169  0.7501206802102479
  0.8309343769486908  0.5030483779672512  0.2501142460280226
  0.8334901370352273  0.5015736445933864  0.7507324127657448
  0.8293335366062339  0.8368970408308264  0.2502332202819755
  0.8323097021800824  0.8344387847247937  0.7535657010375260
  0.2491747738906743  0.2581715601952624  0.3585946436630591
  0.2526384226988901  0.2545598413395507  0.8617208195247867
  0.2473671736979521  0.5917727483974280  0.3545106200023012
  0.2534876421614299  0.5885913435097117  0.8610375124620834
  0.2489569207750114  0.9279707458985871  0.3558821314867480
  0.2520967381363051  0.9219782983426948  0.8605305328067581
  0.5825703731019709  0.2586759536363637  0.3609084009928929
  0.5879386608806607  0.2543616755179772  0.8614029208965919
  0.5878347139248924  0.5884038316334456  0.3564922552262065
  0.5873427275390293  0.5866996184494415  0.8609400263476953
  0.5832973770644689  0.9232462545098113  0.3610875980527343
  0.5857314384417678  0.9201795889574103  0.8642509040210393
  0.9175200320040774  0.2565621148305089  0.3593275024848202
  0.9202748819550988  0.2545992862403351  0.8595543457539044
  0.9174121185776074  0.5901626416191528  0.3589201852785419
  0.9199010427782193  0.5872005154644173  0.8616232464084265
  0.9165272942837610  0.9234153373422355  0.3598458134540034
  0.9204014602558632  0.9217177491538332  0.8611273724345226
  0.0756419546072454  0.0839645629386072  0.1404759748827773
  0.0803735592680716  0.0810709488491038  0.6407118218232640
  0.0770123281772081  0.4170968528916207  0.1381719277247187
  0.0805138461609753  0.4161299060382034  0.6416155322316452
  0.0753721518196469  0.7516419955475002  0.1396219468246473
  0.0748077263403910  0.7483626884549208  0.6460350237180329
  0.4107915239068871  0.0832696925271313  0.1420653060219632
  0.4135206818956122  0.0803152022663668  0.6440932743328489
  0.4103038673426197  0.4166381820437252  0.1405183082122543
  0.4144513508399014  0.4100864688884295  0.6473395382588132
  0.4096749578383455  0.7506803244945824  0.1413949735288463
  0.4135084279635263  0.7488423710718749  0.6456803649542235
  0.7421356135611927  0.0838890846600844  0.1417944271416654
  0.7457310269998790  0.0802303836949581  0.6430304231844843
  0.7428951571309726  0.4165826211956221  0.1411268351412207
  0.7461969629623781  0.4148404433141504  0.6412482831992887
  0.7426676891203282  0.7502258420490768  0.1413245289578067
  0.7456101171514469  0.7485752467604337  0.6432307557873314
 
             NaN             NaN             NaN
             NaN             NaN             NaN
             NaN             NaN             NaN
             NaN             NaN             NaN
             NaN             NaN             NaN
             NaN             NaN             NaN
             NaN             NaN             NaN
             NaN             NaN             NaN
             NaN             NaN             NaN
             NaN             NaN             NaN
             NaN             NaN             NaN
             NaN             NaN             NaN
             NaN             NaN             NaN
             NaN             NaN             NaN
             NaN             NaN             NaN
             NaN             NaN             NaN
             NaN             NaN             NaN
             NaN             NaN             NaN
             NaN             NaN             NaN
             NaN             NaN             NaN
             NaN             NaN             NaN
             NaN             NaN             NaN
             NaN             NaN             NaN
             NaN             NaN             NaN
             NaN             NaN             NaN
             NaN             NaN             NaN
             NaN             NaN             NaN
             NaN             NaN             NaN
             NaN             NaN             NaN
             NaN             NaN             NaN
             NaN             NaN             NaN
             NaN             NaN             NaN
             NaN             NaN             NaN
             NaN             NaN             NaN
             NaN             NaN             NaN
             NaN             NaN             NaN
             NaN             NaN             NaN
             NaN             NaN             NaN
             NaN             NaN             NaN
             NaN             NaN             NaN
             NaN             NaN             NaN
             NaN             NaN             NaN
             NaN             NaN             NaN
             NaN             NaN             NaN
             NaN             NaN             NaN
             NaN             NaN             NaN
             NaN             NaN             NaN
             NaN             NaN             NaN
             NaN             NaN             NaN
             NaN             NaN             NaN
             NaN             NaN             NaN
             NaN             NaN             NaN
             NaN             NaN             NaN
             NaN             NaN             NaN
             NaN             NaN             NaN
             NaN             NaN             NaN
             NaN             NaN             NaN
             NaN             NaN             NaN
             NaN             NaN             NaN
             NaN             NaN             NaN
             NaN             NaN             NaN
             NaN             NaN             NaN
             NaN             NaN             NaN
             NaN             NaN             NaN
             NaN             NaN             NaN
             NaN             NaN             NaN
             NaN             NaN             NaN
             NaN             NaN             NaN
             NaN             NaN             NaN
             NaN             NaN             NaN
             NaN             NaN             NaN
