Li17 Co18 O36
1.0
8.279470 0.636288 1.337723
3.477891 7.538470 1.344760
1.205042 0.842076 9.755022
Li Co O
17 18 36
direct
0.301981 0.392756 0.518193 Li
0.333034 0.333705 0.000273 Li
0.333369 0.666806 0.000037 Li
0.333661 0.999659 0.999871 Li
0.333223 0.989707 0.499162 Li
0.666863 0.333446 0.999833 Li
0.655823 0.343951 0.500123 Li
0.666367 0.667130 0.999779 Li
0.655482 0.666621 0.499436 Li
0.666719 0.999721 0.000494 Li
0.666419 0.999728 0.501101 Li
0.000300 0.333680 0.999563 Li
0.000516 0.333874 0.498388 Li
0.000390 0.666266 0.000262 Li
0.011115 0.667003 0.500810 Li
0.000059 0.000081 0.999991 Li
0.010861 0.989644 0.499792 Li
0.166911 0.165438 0.247189 Co
0.166537 0.169172 0.749811 Co
0.166913 0.498429 0.248672 Co
0.167369 0.502510 0.750386 Co
0.166989 0.830883 0.251630 Co
0.166741 0.834494 0.749169 Co
0.500032 0.164902 0.249555 Co
0.499874 0.167636 0.752732 Co
0.499118 0.498997 0.251176 Co
0.499485 0.501888 0.749074 Co
0.499023 0.830453 0.249998 Co
0.499345 0.834885 0.751400 Co
0.833573 0.165117 0.250455 Co
0.833416 0.168626 0.748820 Co
0.834072 0.498065 0.247404 Co
0.833690 0.501961 0.749927 Co
0.833750 0.830557 0.250102 Co
0.832162 0.835332 0.752710 Co
0.253522 0.251730 0.357447 O
0.252604 0.255110 0.860575 O
0.252525 0.583916 0.355951 O
0.253957 0.588529 0.859741 O
0.252703 0.923172 0.354940 O
0.252331 0.922194 0.859715 O
0.586608 0.251918 0.359684 O
0.587849 0.255030 0.860215 O
0.591726 0.583899 0.354857 O
0.587194 0.587273 0.859786 O
0.586545 0.917641 0.358857 O
0.585651 0.920605 0.863281 O
0.921179 0.252355 0.357749 O
0.920220 0.255023 0.858744 O
0.920760 0.584077 0.357751 O
0.920240 0.587502 0.860586 O
0.920300 0.917982 0.360048 O
0.920314 0.922602 0.860195 O
0.079288 0.077844 0.139722 O
0.080352 0.081471 0.639862 O
0.080780 0.412705 0.136830 O
0.080406 0.415947 0.640770 O
0.079866 0.745670 0.140311 O
0.074666 0.749233 0.645414 O
0.414121 0.078076 0.139370 O
0.413402 0.081600 0.642322 O
0.413898 0.411730 0.140100 O
0.413834 0.410159 0.645351 O
0.412334 0.744711 0.140654 O
0.413689 0.749076 0.644611 O
0.746884 0.078056 0.140996 O
0.745506 0.081094 0.642012 O
0.745961 0.411191 0.139656 O
0.746092 0.415654 0.639948 O
0.746442 0.745540 0.139567 O
0.745938 0.748886 0.642437 O
