Li47 P16 O64                            
   1.00000000000000     
    10.4097760000000008    0.0002110000000000   -0.0066870000000000
     0.0002430000000000   12.1937750000000005   -0.0011920000000000
    -0.0063340000000000   -0.0009570000000000    9.7923150000000003
   Li   P    O 
    47    16    64
Direct
  0.5917240329094211  0.2670016701274000  0.0787090900203397
  0.6662857190706934  0.2494479238300006  0.5984591768098027
  0.6652201081258609  0.7517811761828670  0.0973799159776917
  0.6648805223391583  0.7519777400196282  0.5985453093800032
  0.1643013468646676  0.4969395024643634  0.1520902273288330
  0.1642517909619142  0.4990591680430766  0.6528576172779379
  0.1626511143703651  0.9964161126736406  0.1538964865603465
  0.1643047942520141  0.9986560231337329  0.6523829883484007
  0.3354370199236892 -0.0002767550447617  0.4026539862219062
  0.3354895317112424  0.0007194898284873  0.9030520893237707
  0.3362895892769412  0.5007518901642979  0.4009707231417193
  0.3370885954955943  0.4973464037173511  0.9076407212537326
  0.8346776009886292  0.2490143708066933  0.3459394246197938
  0.8331414305811065  0.2497568008170590  0.8525338014647282
  0.8364296848005442  0.7488325008475532  0.3483023677954200
  0.8364976978600746  0.7488940843255317  0.8477072070945116
  0.3371464756868145  0.2503193492756570  0.3994090849823899
  0.3358002306227071  0.2526352644378182  0.9066971573014325
  0.3359626638353626  0.7495431418426474  0.4020078793038277
  0.3359290768882561  0.7497666490934988  0.9026157739604015
  0.8363502077297291  0.0014804563033114  0.3487501003710404
  0.8367359138630375  0.0009430789194223  0.8476344916885259
  0.8361187751783912  0.5017907123711067  0.3480456745911038
  0.8357065133748632  0.5014590526479394  0.8486158978169891
  0.6602075592068951  0.4995182969900844  0.0956717382186215
  0.6667189847759788  0.5034246907478105  0.6005620096049353
  0.6651919419613952  1.0009882080170835  0.0991225452498058
  0.6644613576723990  0.9993951293969621  0.5975803166308977
  0.1659530892862368  0.2529187769912688  0.1509035345008399
  0.1638796196406349  0.2509039786841364  0.6525646385914594
  0.1631923673189772  0.7512097955305914  0.1524155802686454
  0.1643784940697977  0.7514916842469803  0.6529231501486618
  0.9194081370085893  0.3755806068319762  0.1469496726280793
  0.9222066341329879  0.3746372167968115  0.6495064461251215
  0.9223006234866096  0.8752476707725674  0.1493322628934046
  0.9234663808625720  0.8752319301144733  0.6486141600532369
  0.4217878807192694  0.3757954581474784  0.6097936387065847
  0.4272188243532138  0.8755521219427997  0.1003244732001543
  0.4239922073609816  0.8752351487780480  0.6013161759944714
  0.0770760454350657  0.1251008802565448  0.3515699631677870
  0.0771402380119294  0.1253686286787832  0.8518613512011389
  0.0771322211639024  0.6245215767568453  0.3509110196782702
  0.0776475803665422  0.6245217581264263  0.8523623068301854
  0.5762542684550637  0.1257182337270183  0.3973124092308251
  0.5777172909624362  0.1221095613380284  0.8955166787410930
  0.5770165644524656  0.6260944753742647  0.4016536707415736
  0.5749182631242098  0.6256336252715805  0.8973199317803049
  0.9121835503542501  0.1254844192874409  0.0957018529081843
  0.9124547609204237  0.1248913070565738  0.5957484961958059
  0.9114545053944278  0.6252396490211161  0.0954443725622607
  0.9134283245913910  0.6256581484438586  0.5956434313147224
  0.4070746426681956  0.1191182166619283  0.1543793931295584
  0.4115300316788448  0.1250239946107872  0.6549286798566184
  0.4117538724292466  0.6287313130967667  0.1546550451281450
  0.4109619592768494  0.6260355537679223  0.6554257273441718
  0.0875641112542409  0.3750429108747629  0.4048155494957102
  0.0864027291355443  0.3750177549018844  0.9048703999468030
  0.0876708036102765  0.8746557257647397  0.4051991563059542
  0.0876092380547652  0.8748858245672806  0.9050303639328531
  0.5897278526511557  0.3780509331232927  0.3512112306724845
  0.5866934669008076  0.3764017779496482  0.8368961681594115
  0.5889286998511273  0.8753358844273662  0.3456083492455306
  0.5890504067354068  0.8749086446610572  0.8450077213956637
  0.8423216220641667  0.0222414376459629  0.1480909407705323
  0.8421353142041098  0.0213453151985270  0.6467032829774163
  0.8395497903215189  0.5227682963491198  0.1468051941534364
  0.8436685922967704  0.5228178924473353  0.6486395317454050
  0.3359030083328959  0.2186372806558252  0.0985500842755485
  0.3415903294658043  0.2280025003742969  0.6019128641969586
  0.3435618929673054  0.7347100171395190  0.1071017162417204
  0.3414244882823205  0.7295053369826908  0.6031369240580726
  0.1574773137845691  0.2716936243174414  0.3529678650629939
  0.1565496532931068  0.2718606349708959  0.8529789634268912
  0.1579240762880346  0.7715307950910076  0.3531534812033538
  0.1583502616987887  0.7716000576617943  0.8541679073637068
  0.6601072089276759  0.4805610967760653  0.4047331828889532
  0.6555329087110170  0.4788109784462076  0.8937107973627578
  0.6585509105416408  0.9788850294427258  0.3975345764805203
  0.6598787740615396  0.9776075500012286  0.8973627770341320
  0.1581580617673037  0.4780484235335652  0.3532476164815744
  0.1570536123404169  0.4780331821290377  0.8532310731112379
  0.1576282650914949  0.9780268520425643  0.3538983749150875
  0.1581499789306249  0.9779767769009002  0.8535862362041431
  0.6586244112944969  0.2731871006631844  0.4001994510699004
  0.6524879317989131  0.2723164903944066  0.8932563168230268
  0.6592792073762747  0.7721866648416967  0.3978608906333234
  0.6587560269416460  0.7712478710105479  0.8962562288792841
  0.8457282881898889  0.2292828219084884  0.1482391587869634
  0.8424099780132899  0.2274876732117863  0.6492987613070963
  0.8419252338555284  0.7289452011983412  0.1470686911716144
  0.8426267798410316  0.7288879392320557  0.6467244091165544
  0.3393646363467028  0.0133687403852380  0.1069723590502001
  0.3419650029192460  0.0214323591451633  0.6029557295130618
  0.3339135213717658  0.5327534124276729  0.0982313951137943
  0.3414873942519812  0.5231170301731427  0.6017656098380311
  0.5459807617375170  0.1200678299419105  0.1003848233937485
  0.5511925012454848  0.1251655518430703  0.6034593518538098
  0.5500679338204721  0.6271448575021907  0.1007379651380351
  0.5509288724095988  0.6268172863079867  0.6051849117508812
  0.0524122555884617  0.1241112639738524  0.1465857881643399
  0.0519796869746604  0.1243468643472924  0.6471484996583073
  0.0506064713116518  0.6244897423995649  0.1478783002922819
  0.0527239597156115  0.6259878547611646  0.6474463523749933
  0.4506967158105794  0.3765243153115767  0.4032412365310915
  0.4449396486298968  0.3755902884604672  0.8754506534173009
  0.4496677985955972  0.8747719475592443  0.3972642655035313
  0.4497882061351346  0.8752089678152437  0.8966628316740508
  0.9480640773166061  0.3753062590221413  0.3530666220928785
  0.9469588192102064  0.3752399274557789  0.8527152423264780
  0.9483118077668465  0.8748582768800695  0.3532730932467406
  0.9486853938915215  0.8748668777885638  0.8519192028086351
  0.5917803745064669  0.3816992079137342  0.1954929171308978
  0.5968035065247993  0.3764839047943478  0.6800671375454381
  0.5911602207912781  0.8753652467721862  0.1882129647318850
  0.5899430281885693  0.8755860527324895  0.6876150316647353
  0.0862418081468818  0.3750909131415440  0.0621069949280019
  0.0886025702136394  0.3749690390305070  0.5622941779875620
  0.0871561411175096  0.8745579104985843  0.0623681574266167
  0.0890211866528390  0.8745992707441306  0.5625921048993988
  0.4093135363208640  0.1229709501281613  0.3119739542621554
  0.4100226368118775  0.1251091418644231  0.8122511395262526
  0.4126946391493410  0.6254283044448217  0.3119759836524436
  0.4085805578544284  0.6253043290665322  0.8126742275555486
  0.9107725996486867  0.1257953276612351  0.4382569901629766
  0.9105937794231096  0.1247573124157936  0.9381748199077554
  0.9119228931148089  0.6250575385123652  0.4381788877919888
  0.9109065209594488  0.6252934839502358  0.9379677674688482
 
             NaN             NaN             NaN
             NaN             NaN             NaN
             NaN             NaN             NaN
             NaN             NaN             NaN
             NaN             NaN             NaN
             NaN             NaN             NaN
             NaN             NaN             NaN
             NaN             NaN             NaN
             NaN             NaN             NaN
             NaN             NaN             NaN
             NaN             NaN             NaN
             NaN             NaN             NaN
             NaN             NaN             NaN
             NaN             NaN             NaN
             NaN             NaN             NaN
             NaN             NaN             NaN
             NaN             NaN             NaN
             NaN             NaN             NaN
             NaN             NaN             NaN
             NaN             NaN             NaN
             NaN             NaN             NaN
             NaN             NaN             NaN
             NaN             NaN             NaN
             NaN             NaN             NaN
             NaN             NaN             NaN
             NaN             NaN             NaN
             NaN             NaN             NaN
             NaN             NaN             NaN
             NaN             NaN             NaN
             NaN             NaN             NaN
             NaN             NaN             NaN
             NaN             NaN             NaN
             NaN             NaN             NaN
             NaN             NaN             NaN
             NaN             NaN             NaN
             NaN             NaN             NaN
             NaN             NaN             NaN
             NaN             NaN             NaN
             NaN             NaN             NaN
             NaN             NaN             NaN
             NaN             NaN             NaN
             NaN             NaN             NaN
             NaN             NaN             NaN
             NaN             NaN             NaN
             NaN             NaN             NaN
             NaN             NaN             NaN
             NaN             NaN             NaN
             NaN             NaN             NaN
             NaN             NaN             NaN
             NaN             NaN             NaN
             NaN             NaN             NaN
             NaN             NaN             NaN
             NaN             NaN             NaN
             NaN             NaN             NaN
             NaN             NaN             NaN
             NaN             NaN             NaN
             NaN             NaN             NaN
             NaN             NaN             NaN
             NaN             NaN             NaN
             NaN             NaN             NaN
             NaN             NaN             NaN
             NaN             NaN             NaN
             NaN             NaN             NaN
             NaN             NaN             NaN
             NaN             NaN             NaN
             NaN             NaN             NaN
             NaN             NaN             NaN
             NaN             NaN             NaN
             NaN             NaN             NaN
             NaN             NaN             NaN
             NaN             NaN             NaN
             NaN             NaN             NaN
             NaN             NaN             NaN
             NaN             NaN             NaN
             NaN             NaN             NaN
             NaN             NaN             NaN
             NaN             NaN             NaN
             NaN             NaN             NaN
             NaN             NaN             NaN
             NaN             NaN             NaN
             NaN             NaN             NaN
             NaN             NaN             NaN
             NaN             NaN             NaN
             NaN             NaN             NaN
             NaN             NaN             NaN
             NaN             NaN             NaN
             NaN             NaN             NaN
             NaN             NaN             NaN
             NaN             NaN             NaN
             NaN             NaN             NaN
             NaN             NaN             NaN
             NaN             NaN             NaN
             NaN             NaN             NaN
             NaN             NaN             NaN
             NaN             NaN             NaN
             NaN             NaN             NaN
             NaN             NaN             NaN
             NaN             NaN             NaN
             NaN             NaN             NaN
             NaN             NaN             NaN
             NaN             NaN             NaN
             NaN             NaN             NaN
             NaN             NaN             NaN
             NaN             NaN             NaN
             NaN             NaN             NaN
             NaN             NaN             NaN
             NaN             NaN             NaN
             NaN             NaN             NaN
             NaN             NaN             NaN
             NaN             NaN             NaN
             NaN             NaN             NaN
             NaN             NaN             NaN
             NaN             NaN             NaN
             NaN             NaN             NaN
             NaN             NaN             NaN
             NaN             NaN             NaN
             NaN             NaN             NaN
             NaN             NaN             NaN
             NaN             NaN             NaN
             NaN             NaN             NaN
             NaN             NaN             NaN
             NaN             NaN             NaN
             NaN             NaN             NaN
             NaN             NaN             NaN
             NaN             NaN             NaN
             NaN             NaN             NaN
             NaN             NaN             NaN
