Li47 P16 O64
1.0
10.409776 0.000211 -0.006687
0.000243 12.193775 -0.001192
-0.006334 -0.000957 9.792315
Li P O
47 16 64
direct
0.600318 0.281883 0.097250 Li
0.666365 0.248780 0.599928 Li
0.664667 0.750806 0.097560 Li
0.664666 0.751522 0.598427 Li
0.164132 0.497416 0.151921 Li
0.164163 0.499034 0.652280 Li
0.163097 0.997670 0.152900 Li
0.164543 0.998544 0.652388 Li
0.336008 0.000608 0.401774 Li
0.336040 0.000674 0.902418 Li
0.336755 0.500073 0.400594 Li
0.336904 0.498025 0.905757 Li
0.835989 0.248771 0.347037 Li
0.835256 0.248915 0.849550 Li
0.836430 0.748833 0.348214 Li
0.836361 0.749012 0.847628 Li
0.336657 0.250159 0.400802 Li
0.336862 0.251632 0.905282 Li
0.336071 0.749361 0.401512 Li
0.335985 0.749334 0.902559 Li
0.836562 0.001215 0.348357 Li
0.836371 0.001092 0.847553 Li
0.836348 0.501380 0.347598 Li
0.835187 0.501015 0.848681 Li
0.659489 0.496824 0.096649 Li
0.666568 0.502232 0.598463 Li
0.665158 0.999625 0.098115 Li
0.664527 0.999210 0.598209 Li
0.163959 0.252553 0.151747 Li
0.164071 0.251017 0.652369 Li
0.163270 0.750949 0.152143 Li
0.164460 0.751262 0.652568 Li
0.920380 0.375240 0.147832 Li
0.922524 0.375005 0.648934 Li
0.922511 0.874837 0.149191 Li
0.923645 0.875068 0.648465 Li
0.422140 0.375282 0.609800 Li
0.426809 0.874806 0.100479 Li
0.423794 0.875164 0.600829 Li
0.077429 0.125185 0.351207 Li
0.077530 0.125207 0.851840 Li
0.077179 0.624579 0.351002 Li
0.077204 0.624585 0.852000 Li
0.576943 0.125347 0.398775 Li
0.576055 0.125985 0.900306 Li
0.576855 0.625431 0.399854 Li
0.575487 0.625027 0.898178 Li
0.911949 0.124888 0.095392 P
0.913147 0.124601 0.595384 P
0.911047 0.624887 0.095350 P
0.913048 0.625525 0.595456 P
0.410429 0.121867 0.154494 P
0.411628 0.124734 0.654882 P
0.411307 0.627401 0.154432 P
0.411441 0.625570 0.654899 P
0.087892 0.375074 0.404724 P
0.086776 0.375034 0.904731 P
0.088045 0.874787 0.404889 P
0.087823 0.874859 0.904998 P
0.590035 0.375493 0.349507 P
0.587840 0.375069 0.839182 P
0.588966 0.875102 0.345468 P
0.588644 0.875172 0.845109 P
0.842044 0.021552 0.147315 O
0.842445 0.021349 0.646533 O
0.839437 0.522183 0.146513 O
0.842997 0.522659 0.648179 O
0.334960 0.219483 0.098314 O
0.341690 0.227830 0.602166 O
0.343221 0.733073 0.105975 O
0.341783 0.729027 0.602683 O
0.158145 0.271831 0.353039 O
0.157196 0.271875 0.853150 O
0.158181 0.771570 0.352954 O
0.158438 0.771589 0.853873 O
0.659723 0.479135 0.401677 O
0.655507 0.477764 0.896025 O
0.658845 0.978512 0.397429 O
0.658844 0.978339 0.897104 O
0.158435 0.478179 0.353245 O
0.157313 0.478114 0.853129 O
0.158196 0.978074 0.353285 O
0.158539 0.978038 0.853850 O
0.659640 0.271838 0.401346 O
0.655448 0.271266 0.891110 O
0.658967 0.771849 0.397756 O
0.658622 0.771679 0.896655 O
0.842740 0.228113 0.147415 O
0.843308 0.227538 0.648127 O
0.841458 0.728511 0.147092 O
0.842452 0.728822 0.646623 O
0.342048 0.016146 0.106410 O
0.341865 0.021338 0.602501 O
0.335515 0.529752 0.098776 O
0.341669 0.522602 0.601752 O
0.548764 0.122156 0.101306 O
0.551134 0.124770 0.603324 O
0.550126 0.625897 0.101474 O
0.551185 0.625971 0.603983 O
0.051452 0.124628 0.147331 O
0.052491 0.124187 0.647218 O
0.050233 0.624387 0.147796 O
0.052348 0.625708 0.647323 O
0.450976 0.375150 0.401804 O
0.445422 0.374706 0.875157 O
0.449551 0.875033 0.396804 O
0.449352 0.875072 0.896840 O
0.948571 0.375220 0.352468 O
0.947446 0.375082 0.852321 O
0.948665 0.874889 0.353039 O
0.948884 0.874967 0.851971 O
0.593341 0.376287 0.193646 O
0.596989 0.376582 0.681970 O
0.591068 0.874914 0.188042 O
0.589579 0.875336 0.687684 O
0.086479 0.375080 0.062029 O
0.088680 0.375001 0.562216 O
0.087719 0.874669 0.062392 O
0.089334 0.874757 0.562316 O
0.410850 0.124993 0.311891 O
0.409948 0.124729 0.812142 O
0.411730 0.624995 0.311853 O
0.409542 0.625162 0.812204 O
0.911737 0.125154 0.437923 O
0.911047 0.124679 0.937938 O
0.911644 0.624965 0.437996 O
0.910550 0.625096 0.937838 O
