Li17 Co18 O36                           
   1.00000000000000     
     8.0548859999999998   -0.0036910000000000    2.3749280000000002
     3.6789820000000000    7.1664630000000002    2.3731179999999998
    -0.0120540000000000   -0.0051530000000000    9.8902020000000004
   Li   Co   O 
    17    18    36
Direct
  0.3084480565505864  0.4239087086626025  0.5113709069136939
  0.3331739238587786  0.3332878669623913  0.9979482103612717
  0.3306968779980540  0.6706670445576186  0.9969891109158876
  0.3313945651484761  0.0002163117682553  0.5035591667966298
  0.3333492693767386  0.0026526159850618  0.9972208500972496
  0.6644125907808550  0.3352839631135059  0.5060930505079188
  0.6686518958728903  0.3324284837258655  0.9966105029859612
  0.6508181183531440  0.6677217569215268  0.5064613081532249
  0.6666367560568272  0.6705336580600609  0.9966793465135423
  0.6520130008503936  0.0125716518877028  0.5054681297362765
  0.6662740290708978  0.0014709789098055  0.9988509339637517
  0.0088841843833550  0.3323905803647925  0.5015851595807517
  0.0028151827244566  0.3328803162041068  0.9971370943030941
  0.9794846886957952  0.6817915183890234  0.5034069154065649
  0.0007355701273225  0.6683652640763618  0.9984813330013652
  0.0118954522983510  0.9869580819440835  0.5030205140012455
 -0.0005092485858139  0.0013529443816783  0.9976925114023313
  0.1625988371521288  0.1707057730299991  0.2472238888573284
  0.1689474403387777  0.1654627882163241  0.7510424692527282
  0.1623942192100047  0.5042011197026799  0.2476936700073466
  0.1672227219547754  0.4995150730664017  0.7546349763610101
  0.1624680837695033  0.8400856024473748  0.2479036578571394
  0.1684801219845999  0.8313901307293556  0.7500307904546361
  0.4955631861463257  0.1709253864343879  0.2514471662862110
  0.5010732582131425  0.1641206706667686  0.7551293470268875
  0.4962796645170889  0.5061575071082893  0.2497192502875094
  0.5016004061344040  0.4999099418174062  0.7537574886612081
  0.4954901219901069  0.8378137598908483  0.2513445699826344
  0.4999713785052676  0.8315822121275780  0.7541475221130520
  0.8291985643425597  0.1702698035161499  0.2505251861257283
  0.8350409619580085  0.1651621343159790  0.7504203443288490
  0.8313465267477170  0.5030515568377615  0.2496131006721839
  0.8346197463830703  0.4998778103963371  0.7511004737858342
  0.8290245008498962  0.8369156711738134  0.2501802697112854
  0.8339414237503994  0.8322513214059279  0.7533893527226329
  0.2484055202929195  0.2580466984805214  0.3560144949049217
  0.2533368586255314  0.2515823106176286  0.8641404800924397
  0.2528161785032222  0.5945409360205861  0.3497320771178482
  0.2541453212820459  0.5862959712045944  0.8640885523514890
  0.2485865070975177  0.9291595522433136  0.3546216955644979
  0.2523662089572292  0.9198583500227919  0.8624616589833580
  0.5814820517988686  0.2625471032240564  0.3594056168610940
  0.5897011372889204  0.2514425560926508  0.8639231233527616
  0.5839856872686595  0.5872399742778821  0.3557885032857809
  0.5895887162757649  0.5843034317227385  0.8642156230496317
  0.5823240970797019  0.9245103594539584  0.3612523553878194
  0.5874118559551977  0.9180461585482879  0.8651703612545808
  0.9170343506957063  0.2570047730545069  0.3584600191634295
  0.9214473499591744  0.2529649927117765  0.8604623237386712
  0.9177612542124001  0.5895118049620681  0.3593182761928462
  0.9199564249465569  0.5852498301248041  0.8633830005560393
  0.9169414675546493  0.9241200140466503  0.3592560987371382
  0.9213178735546609  0.9195630627011361  0.8614115639339839
  0.0738040614430324  0.0847937598610388  0.1378587160224314
  0.0818453501820020  0.0788101823799723  0.6403096293233911
  0.0755018996504309  0.4189387840020009  0.1376198032783563
  0.0821284271091421  0.4148161015803690  0.6413273749732508
  0.0749562116514092  0.7514094651663444  0.1386770996946851
  0.0769503148436924  0.7441187157970197  0.6446229492161163
  0.4114493785940275  0.0836035083936887  0.1394667429349847
  0.4149806765967284  0.0763049289545589  0.6455104848089117
  0.4138066882088860  0.4185935123236836  0.1406397702858261
  0.4172766249380815  0.4084012661541542  0.6505916858105891
  0.4113247563445895  0.7494893316988597  0.1392348751998447
  0.4155617733923738  0.7461233735620734  0.6458395019712128
  0.7421790087966728  0.0836293904511977  0.1413539241975826
  0.7466749535387107  0.0785816757781721  0.6422388944981261
  0.7378549567910555  0.4180160073775135  0.1413105788372265
  0.7475946402951147  0.4130054729013409  0.6413056801212478
  0.7420653211143745  0.7500534667749250  0.1411850093922808
  0.7456303644649027  0.7465318032989120  0.6427904108911466
 
             NaN             NaN             NaN
             NaN             NaN             NaN
             NaN             NaN             NaN
             NaN             NaN             NaN
             NaN             NaN             NaN
             NaN             NaN             NaN
             NaN             NaN             NaN
             NaN             NaN             NaN
             NaN             NaN             NaN
             NaN             NaN             NaN
             NaN             NaN             NaN
             NaN             NaN             NaN
             NaN             NaN             NaN
             NaN             NaN             NaN
             NaN             NaN             NaN
             NaN             NaN             NaN
             NaN             NaN             NaN
             NaN             NaN             NaN
             NaN             NaN             NaN
             NaN             NaN             NaN
             NaN             NaN             NaN
             NaN             NaN             NaN
             NaN             NaN             NaN
             NaN             NaN             NaN
             NaN             NaN             NaN
             NaN             NaN             NaN
             NaN             NaN             NaN
             NaN             NaN             NaN
             NaN             NaN             NaN
             NaN             NaN             NaN
             NaN             NaN             NaN
             NaN             NaN             NaN
             NaN             NaN             NaN
             NaN             NaN             NaN
             NaN             NaN             NaN
             NaN             NaN             NaN
             NaN             NaN             NaN
             NaN             NaN             NaN
             NaN             NaN             NaN
             NaN             NaN             NaN
             NaN             NaN             NaN
             NaN             NaN             NaN
             NaN             NaN             NaN
             NaN             NaN             NaN
             NaN             NaN             NaN
             NaN             NaN             NaN
             NaN             NaN             NaN
             NaN             NaN             NaN
             NaN             NaN             NaN
             NaN             NaN             NaN
             NaN             NaN             NaN
             NaN             NaN             NaN
             NaN             NaN             NaN
             NaN             NaN             NaN
             NaN             NaN             NaN
             NaN             NaN             NaN
             NaN             NaN             NaN
             NaN             NaN             NaN
             NaN             NaN             NaN
             NaN             NaN             NaN
             NaN             NaN             NaN
             NaN             NaN             NaN
             NaN             NaN             NaN
             NaN             NaN             NaN
             NaN             NaN             NaN
             NaN             NaN             NaN
             NaN             NaN             NaN
             NaN             NaN             NaN
             NaN             NaN             NaN
             NaN             NaN             NaN
             NaN             NaN             NaN
