Na15 V32 O64                            
   1.00000000000000     
     9.2557510000000001    0.0051170000000000    0.0000450000000000
     0.0064150000000000   11.8412480000000002    0.0129800000000000
    -0.0004710000000000    0.0126150000000000   10.7941520000000004
   Na   V    O 
    15    32    64
Direct
  0.7399010368094324  0.3580176760446210  0.1608344496204411
  0.7490732008512095  0.0566329134265675  0.1509923076562733
  0.7432978930024308  0.7867563620507011  0.1552909453424491
  0.2455462844215264  0.0533875431000302  0.3527146734937520
  0.2427138672509562  0.3028577605907777  0.3435945932443085
  0.2461669454235757  0.5536628993407344  0.3520209760054964
  0.2438737475515693  0.8021500187860564  0.3446426628309259
  0.2568017312233913  0.1745440520061413  0.8462438228580839
  0.2549052147988604  0.4239017156795081  0.8493582638207918
  0.2571970991807639  0.6747153222170278  0.8482301583203962
  0.2568272181377999  0.9228607876250839  0.8506155192242738
  0.7564696733023974  0.1768743145850637  0.6478503439442438
  0.7556779669288120  0.4283022557548081  0.6496418674620680
  0.7574577801360493  0.6761583483817740  0.6498873389473687
  0.7577774707199559  0.9272785105881736  0.6513259677053765
  0.5803041265683361  0.0457059447465354  0.8988617370372547
  0.5844585041943613  0.2986926344130149  0.8882212951889712
  0.5840368060563391  0.5552406822996835  0.9006962318315767
  0.5849987258510921  0.7986439845682936  0.8980659997073067
  0.0809311775435177  0.0506435012121427  0.6057498303999299
  0.0826397472400983  0.3042859983764791  0.6015723313243708
  0.0819528558633601  0.5508875093324526  0.6069740146688196
  0.0835703960392061  0.8045085909941699  0.6017452867666889
  0.4212742053292809  0.1740433236709751  0.1021275456631738
  0.4158278718157640  0.4247300556570617  0.1032068248719097
  0.4197274822360115  0.6733609899478985  0.1039301996904015
  0.4198245759781777  0.9243446434545304  0.1083630521451952
  0.9187242845616056  0.1793862991854072  0.3933013065040262
  0.9200250491292029  0.4298858090889954  0.3973841112792855
  0.9188484165407987  0.6788160174210437  0.3953082169683961
  0.9192825976208557  0.9280771307635421  0.3962820203292577
  0.5682720075370864  0.0526416591731400  0.3879629455415742
  0.5627310807053416  0.2996227074653363  0.3879438057866545
  0.5695158563394496  0.5522694469448419  0.3845086908731938
  0.5635995532108442  0.8002199112155546  0.3888152636505084
  0.0697586722458704  0.0491683444187037  0.1129236961406930
  0.0606509258054831  0.2994666960822509  0.1109087445129784
  0.0626677303199504  0.5501798513250981  0.1128531092078860
  0.0637221211656891  0.7999321249853697  0.1130285834355018
  0.4329421860155851  0.1764143811477150  0.6136306359873898
  0.4371419586659190  0.4270560366125750  0.6108891938792586
  0.4341148565143547  0.6757206800315989  0.6133814343881987
  0.4367322236830219  0.9281170013722230  0.6105538354277144
  0.9387488107087368  0.1710016858674176  0.8868726259512056
  0.9311083824730586  0.4257795786646385  0.8859157863308974
  0.9400126771479760  0.6766175059823982  0.8875802078312491
  0.9348152000170367  0.9230351105065356  0.8882345581456985
  0.7932804979870584  0.0550227157837189  0.8496445283000112
  0.7834635887121670  0.2947062853444279  0.8493154542412882
  0.7937666921190218  0.5546741958230877  0.8462122603991704
  0.7948966105534176  0.7936926540697450  0.8487265865469622
  0.2941449679541402  0.0433809950027893  0.6509232924327264
  0.2919136570856678  0.3040468405554245  0.6529505724019917
  0.2956403926025724  0.5418130446115449  0.6511794160120701
  0.2940093232673152  0.8053262647808971  0.6540969388163899
  0.2113203745890330  0.1811475739265026  0.1484100907648488
  0.2063984618512531  0.4183437957228998  0.1451315490284506
  0.2075027554100824  0.6818694190622957  0.1519586111520992
  0.2091824607189556  0.9206620601031900  0.1510336096055098
  0.7070070829170215  0.1834415258621525  0.3539621395548219
  0.7090562562109668  0.4214093776367439  0.3569049208671831
  0.7072956686229308  0.6855920808592069  0.3579125547930672
  0.7090769499280312  0.9229869243245217  0.3511611854176954
  0.8870927163304108  0.0491427046416819  0.5189502400953317
  0.8882141743533631  0.3087510401898744  0.5184845043102764
  0.8881917705802244  0.5501024353721085  0.5209206423618667
  0.8879184419380840  0.8086438213936733  0.5198531222047635
  0.3861099253151316  0.0517551904940668  0.9797110490134345
  0.3933805388571647  0.2935520704781686  0.9761113997775053
  0.3846474753069155  0.5541839584707431  0.9789682946656475
  0.3896795414114412  0.7942538546351804  0.9833844590134790
  0.1141996920476016  0.1835155302320238  0.4833622488788478
  0.1161184189350126  0.4244242166651145  0.4790421883871836
  0.1154833886064646  0.6843107419649199  0.4843151946081168
  0.1152217816420806  0.9247118532794221  0.4776785690418438
  0.6134673176022405  0.1696738847090545  0.0136266668762453
  0.6094958132781955  0.4280001047548097  0.0078260571245849
  0.6144997326004336  0.6714051140650767  0.0224827146342323
  0.6164312409589177  0.9282054718414217  0.0219786310286034
  0.9794637134818530  0.0463166143149304  0.2833827910234416
  0.9785641039385171  0.3064033920439488  0.2788488190448258
  0.9843316052024856  0.5451675950747445  0.2879898958619869
  0.9784059670291135  0.8060978050625056  0.2804348078170382
  0.4785967065083935  0.0597422104831103  0.2167598861294231
  0.4822086194398147  0.2981167196405323  0.2166152194159937
  0.4690951017071113  0.5572205528786862  0.2169249411084268
  0.4811535120690518  0.7972663311179377  0.2213369592121132
  0.0211949047601009  0.1779657394490178  0.7185376951367528
  0.0211786626725089  0.4160416537767229  0.7161494260697451
  0.0257372238523760  0.6787455294816396  0.7189171646283785
  0.0225598634078665  0.9174292475109492  0.7164575761297711
  0.5239058592230453  0.1736334395759471  0.7832170420875503
  0.5252249056291580  0.4232352576004361  0.7813248175297142
  0.5237175184462202  0.6667969262342841  0.7850233709020896
  0.5238040706628223  0.9317830808986173  0.7843766432512475
  0.5762274114407560  0.0475149609612066  0.5724557044012323
  0.5760843537796650  0.3055531769381550  0.5720859062862866
  0.5756244031012241  0.5474580783506748  0.5706649591945915
  0.5763226020777777  0.8070168102731272  0.5753362885129031
  0.0771913919642209  0.0529246468218803  0.9258080780134399
  0.0741540519386775  0.2936557143906674  0.9259530589422743
  0.0751294077539572  0.5545619666050944  0.9253760142446257
  0.0807593671177465  0.7965283078538800  0.9290079022955829
  0.4234962414290740  0.1807656674999953  0.4287063472094894
  0.4243877238918742  0.4222526902195344  0.4268817227104769
  0.4247918291249055  0.6812736014442562  0.4296902163522778
  0.4236086993093515  0.9232756283305026  0.4284259313843305
  0.9247013860645728  0.1773608096870186  0.0707201636860121
  0.9292545182256042  0.4206287762344774  0.0674041112452153
  0.9268099466290330  0.6803700249146468  0.0703537345978240
  0.9265951960137635  0.9205882873290798  0.0715548299884264
 
             NaN             NaN             NaN
             NaN             NaN             NaN
             NaN             NaN             NaN
             NaN             NaN             NaN
             NaN             NaN             NaN
             NaN             NaN             NaN
             NaN             NaN             NaN
             NaN             NaN             NaN
             NaN             NaN             NaN
             NaN             NaN             NaN
             NaN             NaN             NaN
             NaN             NaN             NaN
             NaN             NaN             NaN
             NaN             NaN             NaN
             NaN             NaN             NaN
             NaN             NaN             NaN
             NaN             NaN             NaN
             NaN             NaN             NaN
             NaN             NaN             NaN
             NaN             NaN             NaN
             NaN             NaN             NaN
             NaN             NaN             NaN
             NaN             NaN             NaN
             NaN             NaN             NaN
             NaN             NaN             NaN
             NaN             NaN             NaN
             NaN             NaN             NaN
             NaN             NaN             NaN
             NaN             NaN             NaN
             NaN             NaN             NaN
             NaN             NaN             NaN
             NaN             NaN             NaN
             NaN             NaN             NaN
             NaN             NaN             NaN
             NaN             NaN             NaN
             NaN             NaN             NaN
             NaN             NaN             NaN
             NaN             NaN             NaN
             NaN             NaN             NaN
             NaN             NaN             NaN
             NaN             NaN             NaN
             NaN             NaN             NaN
             NaN             NaN             NaN
             NaN             NaN             NaN
             NaN             NaN             NaN
             NaN             NaN             NaN
             NaN             NaN             NaN
             NaN             NaN             NaN
             NaN             NaN             NaN
             NaN             NaN             NaN
             NaN             NaN             NaN
             NaN             NaN             NaN
             NaN             NaN             NaN
             NaN             NaN             NaN
             NaN             NaN             NaN
             NaN             NaN             NaN
             NaN             NaN             NaN
             NaN             NaN             NaN
             NaN             NaN             NaN
             NaN             NaN             NaN
             NaN             NaN             NaN
             NaN             NaN             NaN
             NaN             NaN             NaN
             NaN             NaN             NaN
             NaN             NaN             NaN
             NaN             NaN             NaN
             NaN             NaN             NaN
             NaN             NaN             NaN
             NaN             NaN             NaN
             NaN             NaN             NaN
             NaN             NaN             NaN
             NaN             NaN             NaN
             NaN             NaN             NaN
             NaN             NaN             NaN
             NaN             NaN             NaN
             NaN             NaN             NaN
             NaN             NaN             NaN
             NaN             NaN             NaN
             NaN             NaN             NaN
             NaN             NaN             NaN
             NaN             NaN             NaN
             NaN             NaN             NaN
             NaN             NaN             NaN
             NaN             NaN             NaN
             NaN             NaN             NaN
             NaN             NaN             NaN
             NaN             NaN             NaN
             NaN             NaN             NaN
             NaN             NaN             NaN
             NaN             NaN             NaN
             NaN             NaN             NaN
             NaN             NaN             NaN
             NaN             NaN             NaN
             NaN             NaN             NaN
             NaN             NaN             NaN
             NaN             NaN             NaN
             NaN             NaN             NaN
             NaN             NaN             NaN
             NaN             NaN             NaN
             NaN             NaN             NaN
             NaN             NaN             NaN
             NaN             NaN             NaN
             NaN             NaN             NaN
             NaN             NaN             NaN
             NaN             NaN             NaN
             NaN             NaN             NaN
             NaN             NaN             NaN
             NaN             NaN             NaN
             NaN             NaN             NaN
             NaN             NaN             NaN
             NaN             NaN             NaN
