Na15 V32 O64
1.0
9.255751 0.005117 0.000045
0.006415 11.841248 0.012980
-0.000471 0.012615 10.794152
Na V O
15 32 64
direct
0.748307 0.489718 0.152893 Na
0.744485 0.076817 0.152525 Na
0.743269 0.807746 0.153228 Na
0.243356 0.064399 0.350413 Na
0.243981 0.314156 0.346121 Na
0.244292 0.563709 0.350083 Na
0.243456 0.813255 0.346499 Na
0.255942 0.186951 0.845714 Na
0.256203 0.437180 0.852777 Na
0.256652 0.687395 0.847236 Na
0.254223 0.937349 0.851550 Na
0.756524 0.187290 0.651524 Na
0.756071 0.437650 0.651103 Na
0.758903 0.686627 0.651549 Na
0.756683 0.938050 0.650465 Na
0.581356 0.059532 0.896963 V
0.582666 0.311223 0.893852 V
0.582945 0.563481 0.899629 V
0.583419 0.811017 0.897164 V
0.081946 0.062995 0.604099 V
0.081987 0.313683 0.602354 V
0.081964 0.561979 0.604742 V
0.079304 0.815533 0.600990 V
0.416269 0.186238 0.101387 V
0.417003 0.436763 0.107898 V
0.418304 0.687523 0.102393 V
0.417883 0.937425 0.106604 V
0.916317 0.190313 0.395942 V
0.919358 0.437450 0.396605 V
0.919050 0.688616 0.394226 V
0.917771 0.940182 0.394487 V
0.564557 0.063512 0.388972 V
0.565754 0.313823 0.384796 V
0.566494 0.563519 0.386544 V
0.564488 0.810734 0.387040 V
0.065314 0.061841 0.111460 V
0.058793 0.312373 0.111982 V
0.064515 0.563932 0.112913 V
0.062867 0.812756 0.112457 V
0.435039 0.187503 0.614184 V
0.437568 0.439680 0.612620 V
0.437173 0.686549 0.613715 V
0.435975 0.933578 0.611265 V
0.937596 0.188629 0.886662 V
0.933622 0.436865 0.886805 V
0.938801 0.687981 0.886839 V
0.931737 0.936769 0.887441 V
0.790779 0.065664 0.846663 O
0.793529 0.304724 0.847011 O
0.793336 0.565717 0.846916 O
0.793154 0.805166 0.847521 O
0.295444 0.063194 0.647301 O
0.296111 0.311005 0.649400 O
0.294727 0.557581 0.650607 O
0.295445 0.817138 0.651261 O
0.206721 0.190587 0.150455 O
0.209098 0.433870 0.148912 O
0.207778 0.690910 0.151463 O
0.206240 0.934850 0.150362 O
0.704776 0.189791 0.356133 O
0.707226 0.435970 0.353641 O
0.707709 0.691410 0.352762 O
0.706600 0.936017 0.350597 O
0.886111 0.061975 0.519340 O
0.886008 0.315904 0.521677 O
0.887934 0.560495 0.518914 O
0.886492 0.816786 0.518741 O
0.383451 0.064531 0.979684 O
0.387223 0.305954 0.982439 O
0.384148 0.566424 0.982157 O
0.386905 0.807031 0.982089 O
0.112688 0.192295 0.481637 O
0.114978 0.436853 0.479145 O
0.114599 0.692573 0.483281 O
0.113474 0.937794 0.477514 O
0.609827 0.181967 0.013555 O
0.608722 0.441506 0.014908 O
0.613618 0.685942 0.021420 O
0.614010 0.939071 0.020057 O
0.975937 0.060722 0.282191 O
0.980474 0.316624 0.284520 O
0.978900 0.561495 0.282749 O
0.977253 0.815389 0.280744 O
0.475650 0.071429 0.217471 O
0.473330 0.309441 0.220435 O
0.474603 0.568150 0.217203 O
0.478659 0.807817 0.219375 O
0.024146 0.187963 0.718504 O
0.025411 0.431712 0.716024 O
0.023823 0.688422 0.717776 O
0.023733 0.932773 0.715416 O
0.517499 0.185482 0.775983 O
0.522493 0.436213 0.782214 O
0.521234 0.681911 0.784527 O
0.520026 0.939141 0.784449 O
0.572724 0.059185 0.574015 O
0.574465 0.313790 0.572209 O
0.577934 0.560682 0.571925 O
0.578729 0.813684 0.573024 O
0.073824 0.066214 0.925876 O
0.077543 0.307990 0.928021 O
0.075273 0.567715 0.926131 O
0.077266 0.808613 0.928168 O
0.422029 0.189654 0.434745 O
0.424737 0.436675 0.428018 O
0.424082 0.689846 0.429826 O
0.424075 0.934959 0.427617 O
0.924363 0.188737 0.069908 O
0.928973 0.435004 0.070563 O
0.923389 0.689703 0.070575 O
0.924225 0.934880 0.071273 O
