Li47 P16 O64                            
   1.00000000000000     
    10.6269489999999998   -0.0029070000000000    0.0056590000000000
    -0.0033630000000000   12.3424429999999994    0.0044260000000000
     0.0053010000000000    0.0035470000000000   10.0319760000000002
   Li   P    O 
    47    16    64
Direct
  0.3951960455994197  0.3699729146152251  0.1232984527199363
  0.6593903843387778  0.2497745762991883  0.0996649937081813
  0.6641783542782633  0.2496730878153741  0.5989183230782231
  0.6614769644350389  0.7484014965494552  0.0985616175912014
  0.6634126542302923  0.7503439585675551  0.5988996867217367
  0.1575133189543578  0.4987509219714639  0.1534214302865919
  0.1624495419469199  0.5013079866909464  0.6510030398656994
  0.1641268570364502  0.0031588329372880  0.1485586411717748
  0.1631718184544511  0.0014198632891009  0.6509211321588353
  0.3368494872345309  0.0010803873920224  0.3986595377076085
  0.3367337915833772  0.0003443116971624  0.9029241250987781
  0.3348338761810226  0.5000654623936569  0.4025630614162807
  0.3340298896285816  0.4992435536231383  0.8996920110827702
  0.8368319637035100  0.2484866852837868  0.3487312260661781
  0.8353310284499997  0.2498120967246535  0.8513152319209070
  0.8365594398271270  0.7491492918824747  0.3486521216505452
  0.8365025054714152  0.7492663622254483  0.8492697908197400
  0.3351877308889755  0.2461878960415760  0.4007174718472157
  0.3334080765029483  0.2482966043311947  0.9035003676516169
  0.3361866047350901  0.7487404234312720  0.4007528841031842
  0.3353544529127745  0.7483472937412046  0.9011999111441114
  0.8381446882212771  0.0019147880113053  0.3473359051015450
  0.8363948847679197  0.0011978934609829  0.8483627284706046
  0.8369552990767488  0.4984198916691653  0.3471691989899881
  0.8353439324480547  0.5001631626425862  0.8523482344504814
  0.6595786653618632  0.4950329802625220  0.0979450172124103
  0.6640867637307224  0.4987208907435274  0.5989161466280635
  0.6622254998330064  0.9950331245263797  0.0979123347962840
  0.6643570270067087  0.9983176359131392  0.5988776724303833
  0.1621963162569386  0.2534586954413314  0.6480013448969117
  0.1617410633919576  0.7516432172722034  0.1523837476150831
  0.1633184932256455  0.7523632513408955  0.6503457974645457
  0.9372063173939367  0.3651370651825303  0.1506046602143769
  0.9247028583806483  0.3759540927510514  0.6529584698753510
  0.9251497684523997  0.8761820317136326  0.1484815471821079
  0.9266628850101668  0.8761391860304713  0.6485432450950270
  0.4258218364518171  0.3736581267260632  0.6038165508978821
  0.4254713081008816  0.8738513770629694  0.1017990078560871
  0.4257583954361976  0.8752050967566376  0.6000638604022157
  0.0779589805473080  0.1342110642720300  0.3379432257800943
  0.0742881070902968  0.1297736122562370  0.8578051131997100
  0.0731124643120111  0.6246495578503115  0.3531291263354177
  0.0729528702680966  0.6248260635861129  0.8502920059091039
  0.5743130364968252  0.1240273943609438  0.3968718450973867
  0.5733592613516549  0.1241918323018112  0.9016278435853593
  0.5736060570268435  0.6234851582196796  0.3989818098247611
  0.5722172874091029  0.6228550933555397  0.8985603723036562
  0.9074936398869582  0.1213930586926182  0.0970734610857207
  0.9119363438591606  0.1252290690913398  0.5968293199563632
  0.9087880002769637  0.6250666176493027  0.0980743852005688
  0.9100651873746699  0.6262484313352843  0.5969040750283980
  0.4138969836920197  0.1225573120383530  0.1515816428296830
  0.4119634690240019  0.1236802507989267  0.6535569486392063
  0.4084811694113952  0.6240568613526349  0.1533404500051532
  0.4108781348799084  0.6250818762143098  0.6530105976916900
  0.0890898007350671  0.3749711658024850  0.4079457068086398
  0.0881976747200710  0.3782555160768055  0.9018905480530321
  0.0897094435460843  0.8760015227705296  0.4027619040129480
  0.0889502410273266  0.8752890248288949  0.9030469469175841
  0.5872194852239190  0.3741129312238343  0.3471088450627846
  0.5857068320237246  0.3745209658715041  0.8446831577648410
  0.5890641995187877  0.8732552458864404  0.3470050622109540
  0.5882966709403590  0.8731912771187424  0.8457651236501462
  0.8341151854245226  0.0181629059152542  0.1455039900031991
  0.8415747323451725  0.0213809864342096  0.6471470670043331
  0.8388083425916477  0.5217148109468681  0.1481213106359434
  0.8400244765398952  0.5239830230597988  0.6503307537716623
  0.3498984868158388  0.2241427600152193  0.0954598647052123
  0.3429478468847265  0.2273164923209876  0.6035013959240061
  0.3394760440905600  0.7279815640519800  0.1027824797852048
  0.3412072364253689  0.7284250141369100  0.6016294527343646
  0.1611528379942584  0.2712806665758762  0.3706097044152301
  0.1577982568672667  0.2753144428778498  0.8488670680173627
  0.1589271875322424  0.7715298417581522  0.3534560329120850
  0.1588626135082762  0.7721179182621825  0.8511820597369351
  0.6576376119953551  0.4774364225165186  0.3981669232604688
  0.6557385034039100  0.4775813344803623  0.8972841553487285
  0.6595149996281364  0.9762865731984931  0.3975010560190526
  0.6585855086700363  0.9760620038450369  0.8962215181252304
  0.1581975244386342  0.4785738304539606  0.3541902412962585
  0.1574333472981877  0.4812530570441140  0.8457085908509256
  0.1604663083174742  0.9780038575434986  0.3509174888355133
  0.1590031120645321  0.9786434166459017  0.8525888114800324
  0.6577800785868178  0.2713267915599999  0.3987966128778311
  0.6546827285515064  0.2714883872621243  0.8980764781151152
  0.6586758167458697  0.7700286575845823  0.3987636858991834
  0.6579712291394841  0.7696834986205872  0.8967675295240412
  0.8380945980430212  0.2251258251478490  0.1490973983989718
  0.8406726356012797  0.2277458568406843  0.6483244128550183
  0.8381433971457426  0.7285920607531366  0.1480870853482088
  0.8405370238971202  0.7300821422883175  0.6471867641619085
  0.3440149187943646  0.0178438968474595  0.1028601196456123
  0.3415803938854722  0.0209031443047820  0.6011751796149980
  0.3361000434648389  0.5219555840213275  0.1035415143728216
  0.3414394315144307  0.5221052070646550  0.6012433079044683
  0.5537678869469929  0.1184531273994835  0.1030218868940054
  0.5499731498112084  0.1231748759392133  0.6007092573402417
  0.5459162548783780  0.6231153663651838  0.0995322297638381
  0.5491283980522610  0.6250456529508668  0.6013322595318229
  0.0427118880889807  0.1166945101051979  0.1493317332023949
  0.0488051826144797  0.1255897814527742  0.6513244098487263
  0.0460254333256387  0.6269149069757134  0.1522068438437145
  0.0482543524979988  0.6279049990705374  0.6477249604832949
  0.4491259509054970  0.3743328565380395  0.3996561762757693
  0.4461623955999343  0.3756062927515060  0.8891983100154803
  0.4511758296585242  0.8738407471400791  0.3996333538889374
  0.4505157850453188  0.8730138755401882  0.8984910795446197
  0.9522443888278005  0.3734300923247957  0.3510028018085407
  0.9492561412392178  0.3760926495757744  0.8494834482679607
  0.9516827838420809  0.8750813295684736  0.3504462960652930
  0.9511146757681104  0.8750012209460536  0.8502891511855921
  0.5849359492950867  0.3738004703004378  0.1918591789056805
  0.5922473507807382  0.3744262706618926  0.6885739900667502
  0.5884961138187634  0.8715346336425327  0.1914237987463565
  0.5885379391437979  0.8734548068421830  0.6899557988769871
  0.0883596228475128  0.3838380998245015  0.0548228092008927
  0.0836678265585817  0.3817542503711309  0.5638212327712608
  0.0889376155086552  0.8743746944997781  0.0586053359435539
  0.0895054059289961  0.8764578395770712  0.5587542028526755
  0.4122932334768166  0.1237365662827585  0.3079999946609178
  0.4115551195978782  0.1223726917542649  0.8091450627674917
  0.4099976825096405  0.6243364066147450  0.3092079012470137
  0.4096890695163609  0.6251721416398084  0.8086785967468160
  0.9122075278171167  0.1253013667720282  0.4411873492362375
  0.9063971894948182  0.1240741031007460  0.9406897841592610
  0.9086165342090666  0.6246081500391440  0.4411229160638470
  0.9100389924509500  0.6257544325005355  0.9421008552219803
 
             NaN             NaN             NaN
             NaN             NaN             NaN
             NaN             NaN             NaN
             NaN             NaN             NaN
             NaN             NaN             NaN
             NaN             NaN             NaN
             NaN             NaN             NaN
             NaN             NaN             NaN
             NaN             NaN             NaN
             NaN             NaN             NaN
             NaN             NaN             NaN
             NaN             NaN             NaN
             NaN             NaN             NaN
             NaN             NaN             NaN
             NaN             NaN             NaN
             NaN             NaN             NaN
             NaN             NaN             NaN
             NaN             NaN             NaN
             NaN             NaN             NaN
             NaN             NaN             NaN
             NaN             NaN             NaN
             NaN             NaN             NaN
             NaN             NaN             NaN
             NaN             NaN             NaN
             NaN             NaN             NaN
             NaN             NaN             NaN
             NaN             NaN             NaN
             NaN             NaN             NaN
             NaN             NaN             NaN
             NaN             NaN             NaN
             NaN             NaN             NaN
             NaN             NaN             NaN
             NaN             NaN             NaN
             NaN             NaN             NaN
             NaN             NaN             NaN
             NaN             NaN             NaN
             NaN             NaN             NaN
             NaN             NaN             NaN
             NaN             NaN             NaN
             NaN             NaN             NaN
             NaN             NaN             NaN
             NaN             NaN             NaN
             NaN             NaN             NaN
             NaN             NaN             NaN
             NaN             NaN             NaN
             NaN             NaN             NaN
             NaN             NaN             NaN
             NaN             NaN             NaN
             NaN             NaN             NaN
             NaN             NaN             NaN
             NaN             NaN             NaN
             NaN             NaN             NaN
             NaN             NaN             NaN
             NaN             NaN             NaN
             NaN             NaN             NaN
             NaN             NaN             NaN
             NaN             NaN             NaN
             NaN             NaN             NaN
             NaN             NaN             NaN
             NaN             NaN             NaN
             NaN             NaN             NaN
             NaN             NaN             NaN
             NaN             NaN             NaN
             NaN             NaN             NaN
             NaN             NaN             NaN
             NaN             NaN             NaN
             NaN             NaN             NaN
             NaN             NaN             NaN
             NaN             NaN             NaN
             NaN             NaN             NaN
             NaN             NaN             NaN
             NaN             NaN             NaN
             NaN             NaN             NaN
             NaN             NaN             NaN
             NaN             NaN             NaN
             NaN             NaN             NaN
             NaN             NaN             NaN
             NaN             NaN             NaN
             NaN             NaN             NaN
             NaN             NaN             NaN
             NaN             NaN             NaN
             NaN             NaN             NaN
             NaN             NaN             NaN
             NaN             NaN             NaN
             NaN             NaN             NaN
             NaN             NaN             NaN
             NaN             NaN             NaN
             NaN             NaN             NaN
             NaN             NaN             NaN
             NaN             NaN             NaN
             NaN             NaN             NaN
             NaN             NaN             NaN
             NaN             NaN             NaN
             NaN             NaN             NaN
             NaN             NaN             NaN
             NaN             NaN             NaN
             NaN             NaN             NaN
             NaN             NaN             NaN
             NaN             NaN             NaN
             NaN             NaN             NaN
             NaN             NaN             NaN
             NaN             NaN             NaN
             NaN             NaN             NaN
             NaN             NaN             NaN
             NaN             NaN             NaN
             NaN             NaN             NaN
             NaN             NaN             NaN
             NaN             NaN             NaN
             NaN             NaN             NaN
             NaN             NaN             NaN
             NaN             NaN             NaN
             NaN             NaN             NaN
             NaN             NaN             NaN
             NaN             NaN             NaN
             NaN             NaN             NaN
             NaN             NaN             NaN
             NaN             NaN             NaN
             NaN             NaN             NaN
             NaN             NaN             NaN
             NaN             NaN             NaN
             NaN             NaN             NaN
             NaN             NaN             NaN
             NaN             NaN             NaN
             NaN             NaN             NaN
             NaN             NaN             NaN
             NaN             NaN             NaN
             NaN             NaN             NaN
