Li15 Fe16 P16 O64
1.0
10.242128 -0.001818 0.024044
-0.001945 11.964344 0.004889
0.008792 0.005678 9.372756
Li Fe P O
15 16 16 64
direct
0.505689 0.285303 0.748439 Li
0.500242 -0.000565 0.248591 Li
0.500072 0.000207 0.748684 Li
0.501228 0.501927 0.252610 Li
0.998064 0.249900 0.496562 Li
0.996933 0.247636 0.001588 Li
0.999384 0.748724 0.500670 Li
0.999187 0.750282 0.001696 Li
0.499748 0.249403 0.251477 Li
0.501826 0.749309 0.251110 Li
0.499446 0.740857 0.752563 Li
0.997490 0.500363 0.496435 Li
0.996633 0.502774 0.001910 Li
0.999770 0.000816 0.500419 Li
0.999496 0.998498 0.001663 Li
0.780696 0.124816 0.264187 Fe
0.780726 0.124890 0.763529 Fe
0.779421 0.625732 0.266600 Fe
0.777972 0.624859 0.761417 Fe
0.281494 0.124900 0.485528 Fe
0.281087 0.124449 0.986025 Fe
0.281963 0.625055 0.485667 Fe
0.281642 0.625104 0.985727 Fe
0.217592 0.374881 0.232113 Fe
0.224678 0.375600 0.744941 Fe
0.219092 0.874968 0.236168 Fe
0.219308 0.874862 0.736097 Fe
0.719869 0.375764 0.011746 Fe
0.718338 0.376485 0.517002 Fe
0.718809 0.874711 0.014012 Fe
0.718365 0.874831 0.514518 Fe
0.594632 0.125658 0.041449 P
0.593579 0.126029 0.542502 P
0.595604 0.626557 0.041838 P
0.592789 0.624024 0.541392 P
0.093335 0.124526 0.207444 P
0.094129 0.127617 0.710269 P
0.093222 0.625347 0.208891 P
0.094236 0.622106 0.710925 P
0.398045 0.373723 0.458149 P
0.407761 0.375324 0.957602 P
0.405734 0.875524 0.456861 P
0.407067 0.875266 0.956985 P
0.906061 0.374689 0.289592 P
0.910533 0.374795 0.788825 P
0.907034 0.875142 0.293550 P
0.907551 0.874647 0.792253 P
0.595403 0.126410 0.380248 O
0.597430 0.124835 0.879651 O
0.594669 0.624044 0.378069 O
0.601082 0.631941 0.881533 O
0.094915 0.125847 0.369594 O
0.094348 0.126103 0.872012 O
0.095055 0.624240 0.371127 O
0.094569 0.623351 0.872723 O
0.403236 0.374671 0.119625 O
0.383002 0.369697 0.619657 O
0.404964 0.875503 0.119009 O
0.402412 0.876139 0.618765 O
0.906041 0.374290 0.127232 O
0.908161 0.374606 0.627280 O
0.905644 0.875111 0.131380 O
0.906938 0.875225 0.630205 O
0.954971 0.124445 0.144825 O
0.957232 0.126724 0.644588 O
0.954781 0.625384 0.146522 O
0.957643 0.622833 0.645018 O
0.455524 0.126539 0.103671 O
0.454963 0.126788 0.604719 O
0.455947 0.623776 0.103178 O
0.454129 0.624810 0.600051 O
0.044349 0.374258 0.352739 O
0.052388 0.374349 0.848835 O
0.045262 0.875677 0.356752 O
0.046035 0.875239 0.855312 O
0.539289 0.374653 0.405098 O
0.544862 0.372172 0.898078 O
0.544306 0.875697 0.394026 O
0.545162 0.875872 0.893605 O
0.664750 0.023281 0.108890 O
0.664504 0.023491 0.608347 O
0.667227 0.523890 0.106918 O
0.673487 0.525981 0.603003 O
0.164779 0.226091 0.139000 O
0.164960 0.233062 0.647611 O
0.164769 0.727359 0.142739 O
0.168639 0.722292 0.644042 O
0.331229 0.271535 0.386614 O
0.330452 0.275012 0.888383 O
0.333782 0.773813 0.390473 O
0.335030 0.773065 0.891591 O
0.835181 0.476663 0.355869 O
0.842018 0.476426 0.857659 O
0.835037 0.977211 0.359428 O
0.835755 0.976739 0.858371 O
0.329632 0.476199 0.390518 O
0.324879 0.472272 0.892565 O
0.334502 0.977719 0.390081 O
0.334706 0.977307 0.891045 O
0.834007 0.273164 0.356824 O
0.841686 0.272650 0.857385 O
0.836164 0.773002 0.360357 O
0.836925 0.772078 0.858173 O
0.666518 0.227466 0.107703 O
0.667005 0.227127 0.608667 O
0.664289 0.728526 0.113433 O
0.662736 0.728058 0.606540 O
0.164628 0.022334 0.141907 O
0.168565 0.027592 0.643213 O
0.164572 0.523709 0.141045 O
0.165296 0.516598 0.648255 O
