Li15 Fe16 P16 O64                       
   1.00000000000000     
    10.4263670000000008   -0.0002230000000000    0.0055220000000000
    -0.0002510000000000   12.1423100000000002    0.0002220000000000
     0.0034370000000000    0.0002070000000000    9.5213880000000000
   Li   Fe   P    O 
    15    16    16    64
Direct
  0.5479229193398708  0.3748600789617986  0.7161941702420107
  0.4962754893514709  0.4987185007786529  0.2456512691419368
  0.4978864859224397  0.0039766663126646  0.2485195639026713
  0.4955398589070569  0.0114699241841423  0.7599436378612451
  0.0020292716440610  0.2517615649045741  0.5031656255341379
  0.0022792434811214  0.2507127592466473  0.0003863069447750
  0.0058859342358797  0.7449899497125846  0.4967930600453409
  0.0005385016968852  0.7471104680614560  0.9952270536653477
  0.4962733727340307  0.2512723050337379  0.2455818314679913
  0.4978271537605646  0.7460492048616978  0.2485361650309036
  0.4954881045100919  0.7384981281499033  0.7599212476781813
  0.0006114496945214  0.0029554233317132  0.9951242793508097
  0.0059037282357829  0.0051461805966057  0.4966998897311460
  0.0022544427982405  0.4993157673860920  0.0003404347203862
  0.0019597547151995  0.4983271574442839  0.5031811020468100
  0.7793844922938711  0.1261734679504870  0.2633831510352339
  0.7789637256193238  0.1263132037564696  0.7636510558708367
  0.7793508883632361  0.6238187217636172  0.2634823901474783
  0.7788800165846888  0.6236676439464538  0.7637433408951434
  0.2833449415383869  0.1259203070513530  0.4882373007509815
  0.2824015245550835  0.1264805482913344  0.9858751104025523
  0.2833351452729845  0.6240245256660575  0.4882537569367086
  0.2823891685824200  0.6235017113279470  0.9858329289540565
  0.2180757102940699  0.3750892714210283  0.2347538361891029
  0.2220793843605734  0.3750601118840072  0.7404489982498307
  0.2210146875813944  0.8750202768770793  0.2364954404610064
  0.2194802154985796  0.8750209931854798  0.7360642652927734
  0.7172330852208718  0.3750603426948994  0.0146155690887663
  0.7227796580664414  0.3749789388254088  0.5039274750436571
  0.7151102782833858  0.8749927131499510  0.0168367771244953
  0.7194936349778228  0.8749552991316899  0.5101752432830773
  0.5962381641853822  0.1229395532007480  0.0425042905944931
  0.5933975030975157  0.1251504927511151  0.5403939289204795
  0.5961419439410173  0.6271489358897802  0.0426621227522877
  0.5933852432525460  0.6247781529808211  0.5404418050363203
  0.0931889978901105  0.1231687156190171  0.2089186430773226
  0.0930511406174121  0.1242576937251094  0.7078823743055137
  0.0931185188164521  0.6269290556133100  0.2088396119465878
  0.0929951381105609  0.6258515611219879  0.7078271250044017
  0.4030422701193767  0.3749647130638729  0.4543409215102902
  0.4017122021200643  0.3749765432567977  0.9627596033556513
  0.4083343907445729  0.8749344054081593  0.4606607222375659
  0.4055304463383703  0.8749768480901832  0.9584324106609070
  0.9090191658127201  0.3750082819228134  0.2904636179075402
  0.9059150898356954  0.3749805048993414  0.7920476380166992
  0.9044999447962415  0.8749711678953688  0.2943658049507482
  0.8990709384581079  0.8749724315806782  0.7926774481675189
  0.5975998411844158  0.1262071674661857  0.3785928187949624
  0.6027919195619132  0.1162071582695244  0.8829454897861486
  0.5975716943125257  0.6238304548220787  0.3786403804627516
  0.6027924773825722  0.6339280745628468  0.8831187148576739
  0.0962800926104209  0.1221532726242928  0.3705742452212881
  0.0948656416373488  0.1228729421467527  0.8693466943150948
  0.0962523606781560  0.6278717950542357  0.3704809652046784
  0.0949473672046666  0.6271834315446165  0.8692836477041371
  0.4013955886421503  0.3750038624205930  0.1255149759245872
  0.3956421207486574  0.3749126392767975  0.6142148234951512
  0.4033874027068238  0.8749459683430832  0.1202050996431423
  0.4020746981534524  0.8748851253605161  0.6207476416679102
  0.9063363976181263  0.3750203497756040  0.1294021260329837
  0.9040087119019308  0.3749893401946302  0.6301987275482878
  0.9010789023164494  0.8749065924983466  0.1342326731057852
  0.8861388491936187  0.8749251047806842  0.6301212922504510
  0.9548237002845477  0.1212637989064484  0.1478277596528409
  0.9551424525361181  0.1230134698787207  0.6453389793275500
  0.9547268144411311  0.6286567655859772  0.1478065572770636
  0.9550425335906976  0.6270503031306874  0.6454034576102766
  0.4576208446616428  0.1245252244504776  0.1033296627884520
  0.4570020708221498  0.1171553563474070  0.5997619897454775
  0.4575207658210360  0.6254481431638711  0.1034438910226149
  0.4569901459148178  0.6325991961253060  0.5998516364724822
  0.0455240423470661  0.3750525878660278  0.3551976224107651
  0.0431025426749952  0.3750172172527817  0.8551827603742080
  0.0414811049702258  0.8750337246178017  0.3571777534410198
  0.0395880317638181  0.8750113376768881  0.8450008291048466
  0.5426309133146058  0.3750018343642791  0.3961875884856539
  0.5412323634436629  0.3749497104170444  0.9083024957694222
  0.5512354360323478  0.8749816709597827  0.4046655192727597
  0.5432108110074244  0.8750408583936453  0.8971029432248889
  0.6648538412545288  0.0219784245627654  0.1164577517916539
  0.6693966603292739  0.0208257097211191  0.6018324182285343
  0.6670155922872433  0.5247950888145216  0.1077740347631514
  0.6661587172736387  0.5233007338666552  0.6056019818494118
  0.1612101656317562  0.2258314847361923  0.1427238217935602
  0.1629389756863373  0.2264775894747432  0.6418745920451669
  0.1649743177211492  0.7280185804454697  0.1416639399339651
  0.1642428267371560  0.7273414375430556  0.6398395851252640
  0.3338406097737496  0.2726348160209839  0.3870689107712126
  0.3266139188997788  0.2749352868118379  0.8999251018523339
  0.3412765109301610  0.7735604672006628  0.3892103953131219
  0.3340782867023906  0.7733759388153227  0.8920306184684359
  0.8375132825945883  0.4766662997002548  0.3571189219470446
  0.8340383991448126  0.4763626191271907  0.8580792855890668
  0.8292539724118511  0.9740849747731486  0.3650039799074664
  0.8321446117036398  0.9770939656703485  0.8610904231012669
  0.3338589817063375  0.4773033528082601  0.3870494995808856
  0.3266415336369571  0.4750102058640199  0.8998461899914997
  0.3412205341456617  0.9762784316466423  0.3891979520983736
  0.3339891913363894  0.9765483881336251  0.8920711230871773
  0.8376176766543836  0.2732529381413913  0.3570340805263593
  0.8340910603362144  0.2735699271182270  0.8580555982426359
  0.8293466440726716  0.7758372087004198  0.3651053969439113
  0.8321814754845716  0.7728447456647141  0.8611704069219698
  0.6670458717443399  0.2253069182427690  0.1076679243744113
  0.6660475652120093  0.2266954879576153  0.6055639582585046
  0.6646663451599075  0.7281336848152248  0.1166838209548658
  0.6693033057994934  0.7291438916741749  0.6018761927724933
  0.1652099415703933  0.0221680967564515  0.1417366618960154
  0.1643707803858054  0.0227925148245197  0.6399151627505675
  0.1612878739018047  0.5243774202232717  0.1425633515339432
  0.1628995215056650  0.5236697124240591  0.6416978111321480
 
             NaN             NaN             NaN
             NaN             NaN             NaN
             NaN             NaN             NaN
             NaN             NaN             NaN
             NaN             NaN             NaN
             NaN             NaN             NaN
             NaN             NaN             NaN
             NaN             NaN             NaN
             NaN             NaN             NaN
             NaN             NaN             NaN
             NaN             NaN             NaN
             NaN             NaN             NaN
             NaN             NaN             NaN
             NaN             NaN             NaN
             NaN             NaN             NaN
             NaN             NaN             NaN
             NaN             NaN             NaN
             NaN             NaN             NaN
             NaN             NaN             NaN
             NaN             NaN             NaN
             NaN             NaN             NaN
             NaN             NaN             NaN
             NaN             NaN             NaN
             NaN             NaN             NaN
             NaN             NaN             NaN
             NaN             NaN             NaN
             NaN             NaN             NaN
             NaN             NaN             NaN
             NaN             NaN             NaN
             NaN             NaN             NaN
             NaN             NaN             NaN
             NaN             NaN             NaN
             NaN             NaN             NaN
             NaN             NaN             NaN
             NaN             NaN             NaN
             NaN             NaN             NaN
             NaN             NaN             NaN
             NaN             NaN             NaN
             NaN             NaN             NaN
             NaN             NaN             NaN
             NaN             NaN             NaN
             NaN             NaN             NaN
             NaN             NaN             NaN
             NaN             NaN             NaN
             NaN             NaN             NaN
             NaN             NaN             NaN
             NaN             NaN             NaN
             NaN             NaN             NaN
             NaN             NaN             NaN
             NaN             NaN             NaN
             NaN             NaN             NaN
             NaN             NaN             NaN
             NaN             NaN             NaN
             NaN             NaN             NaN
             NaN             NaN             NaN
             NaN             NaN             NaN
             NaN             NaN             NaN
             NaN             NaN             NaN
             NaN             NaN             NaN
             NaN             NaN             NaN
             NaN             NaN             NaN
             NaN             NaN             NaN
             NaN             NaN             NaN
             NaN             NaN             NaN
             NaN             NaN             NaN
             NaN             NaN             NaN
             NaN             NaN             NaN
             NaN             NaN             NaN
             NaN             NaN             NaN
             NaN             NaN             NaN
             NaN             NaN             NaN
             NaN             NaN             NaN
             NaN             NaN             NaN
             NaN             NaN             NaN
             NaN             NaN             NaN
             NaN             NaN             NaN
             NaN             NaN             NaN
             NaN             NaN             NaN
             NaN             NaN             NaN
             NaN             NaN             NaN
             NaN             NaN             NaN
             NaN             NaN             NaN
             NaN             NaN             NaN
             NaN             NaN             NaN
             NaN             NaN             NaN
             NaN             NaN             NaN
             NaN             NaN             NaN
             NaN             NaN             NaN
             NaN             NaN             NaN
             NaN             NaN             NaN
             NaN             NaN             NaN
             NaN             NaN             NaN
             NaN             NaN             NaN
             NaN             NaN             NaN
             NaN             NaN             NaN
             NaN             NaN             NaN
             NaN             NaN             NaN
             NaN             NaN             NaN
             NaN             NaN             NaN
             NaN             NaN             NaN
             NaN             NaN             NaN
             NaN             NaN             NaN
             NaN             NaN             NaN
             NaN             NaN             NaN
             NaN             NaN             NaN
             NaN             NaN             NaN
             NaN             NaN             NaN
             NaN             NaN             NaN
             NaN             NaN             NaN
             NaN             NaN             NaN
             NaN             NaN             NaN
