Li15 Fe16 P16 O64                       
   1.00000000000000     
    10.4263670000000008   -0.0002230000000000    0.0055220000000000
    -0.0002510000000000   12.1423100000000002    0.0002220000000000
     0.0034370000000000    0.0002070000000000    9.5213880000000000
   Li   Fe   P    O 
    15    16    16    64
Direct
  0.5479177841679755  0.3748601772232673  0.7161975430021470
  0.4962741229018477  0.4987168611378416  0.2456494376622379
  0.4978845481640172  0.0039810334518450  0.2485122015137561
  0.4955364122742710  0.0114710495226432  0.7599493749036640
  1.0020305455379714  0.2517627233504603  0.5031660950901486
  0.0022794935767363  0.2507136448394855  0.0003858735635662
  0.0058926638113455  0.7449847222557850  0.4967946459452147
  0.0005403291309984  0.7471077976109246  0.9952267953299813
  0.4962720185921877  0.2512739261574489  0.2455800001662265
  0.4978252139237952  0.7460448316091385  0.2485287777818367
  0.4954846152883006  0.7384969817796722  0.7599270352595913
  0.0006132960958082  0.0029580820665627  0.9951239914816953
  0.0059104309561333  0.0051514075009272  0.4967014696389390
  0.0022546901068469  0.4993148808971891  0.0003400011334905
  1.0019610407547850  0.4983260037196937  0.5031815787041320
  0.7793816422168780  0.1261841875965775  0.2633721479373490
  0.7789677812227502  0.1263200130071773  0.7636579343121964
  0.7793480593798059  0.6238079858052640  0.2634713941875030
  0.7788840121746684  0.6236608483570779  0.7637502618872741
  0.2833358059279109  0.1259254990097897  0.4882375785654938
  0.2823989234741700  0.1264814415441050  0.9858773952235159
  0.2833260349134298  0.6240193098190300  0.4882540556805302
  0.2823865763337403  0.6235008180734896  0.9858352540548204
  0.2180778876034984  0.3750893702740787  0.2347551550401342
  0.2220805365726644  0.3750602075310689  0.7404535075109303
  0.2210184752738443  0.8750201759834998  0.2364928130625969
  0.2194848397278765  0.8750209158374425  0.7360711458056218
  0.7172376009231760  0.3750604315918866  0.0146144318804887
  0.7227865113688616  0.3749789981396293  0.5039221665084352
  0.7151084939070569  0.8749926079545350  0.0168331054353138
  0.7195029654702969  0.8749552136141869  0.5101615466701536
  0.5962341886973043  0.1229465432919937  0.0425087749013739
  0.5933710571399049  0.1251808979274160  0.5403859907309850
  0.5961379590274883  0.6271419685096884  0.0426665815041634
  0.5933588817556427  0.6247476524082363  0.5404337661522166
  0.0931914370203516  0.1231748731683782  0.2089079746754945
  0.0930543004259518  0.1242643770553420  0.7078779230083621
  0.0931210099570652  0.6269228140845852  0.2088288714018240
  0.0929983100373277  0.6258450024051342  0.7078226554620685
  0.4030400073118259  0.3749647519669985  0.4543373426574563
  0.4017086491363777  0.3749766089306396  0.9627514513618107
  0.4082893260965914  0.8749343548221632  0.4606703580646513
  0.4055300679285055  0.8749767972350608  0.9584218030927277
  0.9090263071845426  0.3750083588302973  0.2904664071136511
  0.9059193433585079  0.3749805041076524  0.7920610315055243
  0.9045318163843247  0.8749711165716973  0.2943403900370158
  0.8990757737222702  0.8749724290123179  0.7927362304036042
  0.5976002780716274  0.1262004946362534  0.3786044008623051
  0.6027893111508582  0.1162042837695484  0.8829481031202380
  0.5975723360905453  0.6238372281770137  0.3786518623387549
  0.6027898061391140  0.6339309951294981  0.8831215740536716
  0.0962766055670310  0.1221501090063799  0.3705731633547159
  0.0948625756291055  0.1228704469930167  0.8693432243376407
  0.0962488449361293  0.6278749129199653  0.3704798306573504
  0.0949443997509459  0.6271859192060354  0.8692802596576865
  0.4013990933678874  0.3750038967706449  0.1255138665521486
  0.3956479554679531  0.3749125629057239  0.6142082641037537
  0.4033908609571178  0.8749459159626264  0.1202058772095061
  0.4020882966482828  0.8748850809679471  0.6207323204208691
  0.9063358910972162  0.3750204464140729  0.1294066822544528
  0.9040072435027884  0.3749893343721958  0.6301979918564754
  0.9010778783224821  0.8749065572189160  0.1342517890436174
  0.8861100435389574  0.8749251183279199  0.6300850454520678
  0.9548266486354002  0.1212609340113013  0.1478275860059707
  0.9551440664494100  0.1230093586913523  0.6453344588968977
  0.9547296662535834  0.6286596443882529  0.1478064762496308
  0.9550441803262454  0.6270544063831729  0.6453989472700410
  0.4576282026579243  0.1245227761497094  0.1033333818890116
  0.4570241988769864  0.1171495208678153  0.5997659150126116
  0.4575279675844941  0.6254505372199467  0.1034475858375203
  0.4570121690271936  0.6326048419681543  0.5998555668248077
  0.0455153162973677  0.3750526426446952  0.3551998924840570
  0.0430949991225348  0.3750171998043837  0.8551836608800164
  0.0414631106528404  0.8750336676669664  0.3571819551107999
  0.0395738199291535  0.8750112975368628  0.8449916192002270
  0.5426295408415788  0.3750020030245526  0.3961875185661637
  0.5412278487099815  0.3749496690823826  0.9082984640088231
  0.5512829150606517  0.8749816229300742  0.4046762773225498
  0.5432062466669484  0.8750408069177272  0.8970980458038910
  0.6648519634879565  0.0219813776129951  0.1164629890268076
  0.6694087518604761  0.0207887576616400  0.6018221145053124
  0.6670100627849054  0.5248042575291841  0.1077731219457964
  0.6661532547755626  0.5233173475570129  0.6055993864757410
  0.1612023152528333  0.2258210600122400  0.1427261820328678
  0.1629317648054118  0.2264676856982769  0.6418747415045014
  0.1649688799883502  0.7280143679009408  0.1416647909978228
  0.1642373187129390  0.7273381103205722  0.6398375346422803
  0.3338463198317713  0.2726399549701727  0.3870693785237920
  0.3266205453046758  0.2749437331994285  0.8999261609739658
  0.3412927541301828  0.7735733348050812  0.3892121603111280
  0.3340835960042653  0.7733840470766232  0.8920304083179562
  0.8375165706186884  0.4766616721408186  0.3571203777262302
  0.8340426026527346  0.4763554409523957  0.8580789056173485
  0.8292362677436202  0.9740641147408124  0.3650318433400623
  0.8321515863084986  0.9770823162805544  0.8610797747316454
  0.3338645859127736  0.4772983567033494  0.3870498792700138
  0.3266481505291296  0.4750019562430316  0.8998473606762567
  0.3412368189271632  0.9762655210913757  0.3891997671936772
  0.3339945545396890  0.9765401359880492  0.8920708694201869
  0.8376210583341092  0.2732577568926827  0.3570355772977307
  0.8340952031771494  0.2735771673786251  0.8580551618936927
  0.8293289520665958  0.7758579298895373  0.3651332190804826
  0.8321884203015105  0.7728564216786027  0.8611598008132894
  0.6670402404717963  0.2252978664134388  0.1076669160336786
  0.6660422242794883  0.2266789356839286  0.6055613656786871
  0.6646645203275273  0.7281307107402161  0.1166891268687827
  0.6693153692010908  0.7291807235570367  0.6018657986578889
  0.1652044507363422  0.0221721985775629  0.1417376909257740
  0.1643653003329724  0.0227958261780210  0.6399130698846949
  0.1612800990027294  0.5243879425710087  0.1425656032027026
  0.1628923907796956  0.5236795794511109  0.6416980498545104
 
             NaN             NaN             NaN
             NaN             NaN             NaN
             NaN             NaN             NaN
             NaN             NaN             NaN
             NaN             NaN             NaN
             NaN             NaN             NaN
             NaN             NaN             NaN
             NaN             NaN             NaN
             NaN             NaN             NaN
             NaN             NaN             NaN
             NaN             NaN             NaN
             NaN             NaN             NaN
             NaN             NaN             NaN
             NaN             NaN             NaN
             NaN             NaN             NaN
             NaN             NaN             NaN
             NaN             NaN             NaN
             NaN             NaN             NaN
             NaN             NaN             NaN
             NaN             NaN             NaN
             NaN             NaN             NaN
             NaN             NaN             NaN
             NaN             NaN             NaN
             NaN             NaN             NaN
             NaN             NaN             NaN
             NaN             NaN             NaN
             NaN             NaN             NaN
             NaN             NaN             NaN
             NaN             NaN             NaN
             NaN             NaN             NaN
             NaN             NaN             NaN
             NaN             NaN             NaN
             NaN             NaN             NaN
             NaN             NaN             NaN
             NaN             NaN             NaN
             NaN             NaN             NaN
             NaN             NaN             NaN
             NaN             NaN             NaN
             NaN             NaN             NaN
             NaN             NaN             NaN
             NaN             NaN             NaN
             NaN             NaN             NaN
             NaN             NaN             NaN
             NaN             NaN             NaN
             NaN             NaN             NaN
             NaN             NaN             NaN
             NaN             NaN             NaN
             NaN             NaN             NaN
             NaN             NaN             NaN
             NaN             NaN             NaN
             NaN             NaN             NaN
             NaN             NaN             NaN
             NaN             NaN             NaN
             NaN             NaN             NaN
             NaN             NaN             NaN
             NaN             NaN             NaN
             NaN             NaN             NaN
             NaN             NaN             NaN
             NaN             NaN             NaN
             NaN             NaN             NaN
             NaN             NaN             NaN
             NaN             NaN             NaN
             NaN             NaN             NaN
             NaN             NaN             NaN
             NaN             NaN             NaN
             NaN             NaN             NaN
             NaN             NaN             NaN
             NaN             NaN             NaN
             NaN             NaN             NaN
             NaN             NaN             NaN
             NaN             NaN             NaN
             NaN             NaN             NaN
             NaN             NaN             NaN
             NaN             NaN             NaN
             NaN             NaN             NaN
             NaN             NaN             NaN
             NaN             NaN             NaN
             NaN             NaN             NaN
             NaN             NaN             NaN
             NaN             NaN             NaN
             NaN             NaN             NaN
             NaN             NaN             NaN
             NaN             NaN             NaN
             NaN             NaN             NaN
             NaN             NaN             NaN
             NaN             NaN             NaN
             NaN             NaN             NaN
             NaN             NaN             NaN
             NaN             NaN             NaN
             NaN             NaN             NaN
             NaN             NaN             NaN
             NaN             NaN             NaN
             NaN             NaN             NaN
             NaN             NaN             NaN
             NaN             NaN             NaN
             NaN             NaN             NaN
             NaN             NaN             NaN
             NaN             NaN             NaN
             NaN             NaN             NaN
             NaN             NaN             NaN
             NaN             NaN             NaN
             NaN             NaN             NaN
             NaN             NaN             NaN
             NaN             NaN             NaN
             NaN             NaN             NaN
             NaN             NaN             NaN
             NaN             NaN             NaN
             NaN             NaN             NaN
             NaN             NaN             NaN
             NaN             NaN             NaN
             NaN             NaN             NaN
