Li7 Mn16 O32
1.0
8.602796 0.039066 -0.034149
0.034513 8.092280 -0.092919
-0.033898 0.002236 8.067937
Li Mn O
7 16 32
direct
0.140445 0.622823 0.626855 Li
0.864483 0.877314 0.878031 Li
0.139181 0.128567 0.121105 Li
0.864846 0.372279 0.372266 Li
0.363513 0.873157 0.376520 Li
0.632953 0.124439 0.625306 Li
0.632749 0.625257 0.125709 Li
0.499596 0.248964 0.249638 Mn
0.251246 0.499612 0.246920 Mn
0.250478 0.253628 0.504402 Mn
0.506988 0.498667 0.499364 Mn
0.506885 0.750703 0.750872 Mn
0.749680 0.500746 0.749614 Mn
0.755417 0.749889 0.499790 Mn
0.251236 0.002820 0.750382 Mn
0.250660 0.745490 0.996344 Mn
0.499850 0.000091 0.000885 Mn
0.750006 0.999949 0.249844 Mn
0.742563 0.252103 0.000054 Mn
0.993610 0.248573 0.749126 Mn
0.993683 0.501454 0.001235 Mn
0.000455 0.750074 0.249830 Mn
0.000395 0.000255 0.499857 Mn
0.723354 0.010594 0.012371 O
0.994199 0.736059 0.015104 O
0.995262 0.015910 0.736406 O
0.733067 0.736074 0.739001 O
0.276172 0.985156 0.987066 O
0.994397 0.266641 0.984528 O
0.002658 0.984821 0.264488 O
0.276276 0.262973 0.264300 O
0.732710 0.509644 0.513764 O
0.993563 0.234299 0.513779 O
0.995542 0.514214 0.234486 O
0.723684 0.239058 0.237399 O
0.283561 0.491134 0.491144 O
0.005641 0.764706 0.485935 O
0.975843 0.489741 0.759350 O
0.283755 0.758844 0.758146 O
0.223747 0.013166 0.513530 O
0.504689 0.733885 0.514976 O
0.498326 0.013461 0.237181 O
0.223802 0.736047 0.237166 O
0.776996 0.988139 0.488449 O
0.504827 0.265262 0.486584 O
0.503646 0.983293 0.763847 O
0.766607 0.265973 0.761583 O
0.212288 0.512322 0.008518 O
0.497177 0.230613 0.018408 O
0.529234 0.513136 0.737559 O
0.211820 0.241031 0.738054 O
0.767847 0.492473 0.984347 O
0.504655 0.763651 0.984789 O
0.503641 0.485244 0.266060 O
0.777078 0.760579 0.262734 O
