Li47 P16 O64                            
   1.00000000000000     
    10.4200569999999999    0.0010190000000000    0.0000810000000000
     0.0011750000000000   12.1777499999999996    0.0023470000000000
     0.0000530000000000    0.0018840000000000    9.7941000000000003
   Li   P    O 
    47    16    64
Direct
  0.2774084352113311  0.3516076155668170  0.1605488489072896
  0.6604506429892815  0.2517517575561167  0.0967091870594445
  0.6672467656724649  0.2480437998284108  0.5972616438208321
  0.6587238693922739  0.7474170225911405  0.0972746274933634
  0.6641006958046357  0.7501783849273466  0.5983999261878493
  0.1538160522053959  0.5122958090708778  0.1497865541377001
  0.1651933528692283  0.5011415871849265  0.6514094528142430
  0.1652153525934214  0.0004841576175814  0.1505977465341750
  0.1643866205285945  0.0005237177201954  0.6525798030699423
  0.3360773771709599  0.0002424449530020  0.4010025914388818
  0.3363082772677179  0.9990978322399887  0.9024209633045803
  0.3369164825572531  0.5011822724543713  0.4031489498395357
  0.3373248398751008  0.4978148643613548  0.9070714750971619
  0.8369284951829592  0.2497005128491376  0.3473372532844400
  0.8363251277785592  0.2499496268294730  0.8500834962995836
  0.8348605626537853  0.7486264812940900  0.3481252107279886
  0.8353206219432836  0.7498355700905088  0.8475000218103158
  0.3394570719248075  0.2454908678432355  0.4076669128587875
  0.3370240939205886  0.2486162466840189  0.9010668208727431
  0.3363779926026765  0.7482478051322936  0.4018068192116911
  0.3346381925318232  0.7473580100922178  0.9025535017224559
  0.8374908909907933  0.0020557825058778  0.3495274797487901
  0.8356636983769782  0.0009224181634460  0.8456144473804524
  0.8362315212586241  0.4988218739284602  0.3453874927427000
  0.8356642981353392  0.5009359214588159  0.8520959460405747
  0.6591849199924611  0.4954661156350192  0.0963160642528104
  0.6671952368365355  0.5002009543533583  0.5974918095635141
  0.6634625015801077  0.9938153318061571  0.0963225741332097
  0.6652154872259431  0.9974973924310954  0.5974573239729035
  0.1649040012386134  0.2527120719292256  0.6507161766500577
  0.1632255905625029  0.7534582622108928  0.1535075377065949
  0.1645465274028871  0.7525901987422274  0.6514361462134028
  0.9332088678426113  0.3709727280219760  0.1459776587925223
  0.9253605948505031  0.3758573768775754  0.6531919913247841
  0.9216314327059609  0.8740569752023736  0.1481114259802667
  0.9238807541354382  0.8756442604977812  0.6484161479105115
  0.4236781548413381  0.3745216580298643  0.6078750276024220
  0.4227665672871485  0.8708938010375612  0.1018503718641507
  0.4236034404792731  0.8743053573522017  0.6002113124795579
  0.0817900092086268  0.1335671823431979  0.3413415952908426
  0.0784577435811389  0.1276794661939298  0.8551682929335216
  0.0754157863600840  0.6275852041903311  0.3539487748649486
  0.0755962445486809  0.6262789193531654  0.8494070077472168
  0.5781118817822309  0.1237308866377033  0.3985566042107083
  0.5770856784011934  0.1227908583497177  0.8981197151102208
  0.5758564007421172  0.6237143349399723  0.3990637125131777
  0.5742976967526209  0.6227647312134700  0.8979816494017682
  0.9092372032828805  0.1235140793270842  0.0948146441889706
  0.9145425164514751  0.1261264302606299  0.5952028400930544
  0.9078794145477200  0.6267569823548045  0.0954370186905196
  0.9121381456385349  0.6253427813332602  0.5954868110548401
  0.4145358649309006  0.1212970545741729  0.1542034804037606
  0.4130358494687572  0.1230761865627478  0.6550034751272300
  0.4075358699516218  0.6216519288794051  0.1548736789886732
  0.4118293485061200  0.6244873501775134  0.6548881307092727
  0.0909916782226763  0.3767208322429165  0.4039089055010404
  0.0923001253126852  0.3772078907460771  0.9059398966687485
  0.0884504062937848  0.8766804643726517  0.4045029751468507
  0.0877223063328482  0.8757349039062553  0.9046360773732992
  0.5891979201440078  0.3737526226863062  0.3456193145365990
  0.5876426982791219  0.3738562003203409  0.8397257587118936
  0.5880250219329199  0.8735609992565070  0.3453467221506684
  0.5875627477719969  0.8728935548420680  0.8449506379479675
  0.8375340926194197  0.0204590029388379  0.1465596981321749
  0.8429061002042256  0.0225162840540871  0.6450442647707277
  0.8411639716411352  0.5211705638970588  0.1450895559477250
  0.8436355614075272  0.5222671350497778  0.6504878757511185
  0.3476852007711229  0.2221610509898712  0.0945812938291664
  0.3436337383137797  0.2271898112502604  0.6044240493061925
  0.3391646837062656  0.7266139273031299  0.1035186952997592
  0.3420136427101269  0.7280174175844053  0.6028228010778708
  0.1678867898743153  0.2764449724132509  0.3561237986251045
  0.1598407183851987  0.2742631780583896  0.8500605348295877
  0.1592846521478826  0.7731490630241299  0.3541175582326541
  0.1579071234576167  0.7724213170421228  0.8526031871182551
  0.6580677342352539  0.4774731828149801  0.3995754208053397
  0.6556755791083733  0.4766582188187812  0.8954513420796251
  0.6589124009695131  0.9768916821758101  0.3961615750798514
  0.6586647873056141  0.9758614867716207  0.8965971299235602
  0.1589578172611419  0.4811556012714431  0.3500561330704631
  0.1584750181136467  0.4810042874516851  0.8488402859697393
  0.1581768229083278  0.9799008917093797  0.3520375468599825
  0.1585687567771897  0.9790314238131448  0.8537306839376929
  0.6584675507092398  0.2703398416860797  0.4000393967685854
  0.6548051475719561  0.2703490517769714  0.8956730297275376
  0.6577253598859277  0.7703075383696412  0.3980295013869549
  0.6572620684579303  0.7691497905796162  0.8961860744361868
  0.8406614302786519  0.2275398439074361  0.1463450891348513
  0.8441277348382784  0.2291064087310187  0.6484420411387273
  0.8348030297835258  0.7286933789894757  0.1467531790566584
  0.8418382565664088  0.7289548835600763  0.6464715930530932
  0.3447489238190345  0.0171405166808379  0.1047376850807061
  0.3421177046537271  0.0206670169475041  0.6016013834717358
  0.3320950543547955  0.5202854239262498  0.1068120708816708
  0.3426018562763762  0.5214114829491877  0.6010908290321569
  0.5543349101826207  0.1205251006660669  0.1036925525080224
  0.5521978708593261  0.1230482535347250  0.6027978143095805
  0.5456922038101282  0.6207860313745547  0.0997962704945319
  0.5514922084495166  0.6246359406549863  0.6041560179746499
  0.0465554177522215  0.1186515199862086  0.1481177239541236
  0.0528438683263397  0.1258671740183908  0.6490612720721214
  0.0457904713827930  0.6316441557159970  0.1504815448749035
  0.0520301887049287  0.6270507243235665  0.6449611140900658
  0.4488340879673714  0.3736034813168455  0.3955839507145834
  0.4445077401348223  0.3736845361897269  0.8737169596068254
  0.4488951058469050  0.8743947584577628  0.3973615401928898
  0.4486685150331634  0.8730015017839615  0.8975224846530920
  0.9525862108941290  0.3736049457142076  0.3496912397031627
  0.9502433782635666  0.3756834607846545  0.8611264616337735
  0.9493090167040381  0.8751214137280156  0.3518711714339297
  0.9487411759731408  0.8757504783861995  0.8519682571579156
  0.5952535790615024  0.3733333535344268  0.1901786044302814
  0.5977574593034787  0.3739688994500185  0.6823624445456593
  0.5881201047213407  0.8722963940459286  0.1879650742762642
  0.5885524596651229  0.8738478544973874  0.6875500520792119
  0.1019069590880960  0.3807606510344302  0.0626774383756442
  0.0886410163647160  0.3787738190642233  0.5615631449143533
  0.0878880510580154  0.8755662006508670  0.0620229554258486
  0.0889492999043292  0.8769957320884371  0.5619134585800594
  0.4122949230816204  0.1242992526710936  0.3113171559828217
  0.4119158001371561  0.1217872521149734  0.8121569855515915
  0.4106409992103098  0.6239899544497990  0.3124136268983805
  0.4092543592905515  0.6237629134037049  0.8120992599722653
  0.9146439408352288  0.1270633069786578  0.4377471747532631
  0.9086251036297066  0.1240894505315729  0.9374675002034254
  0.9090177627072777  0.6236492620565023  0.4380348800989715
  0.9101803802317240  0.6269379599867932  0.9380394905358340
 
             NaN             NaN             NaN
             NaN             NaN             NaN
             NaN             NaN             NaN
             NaN             NaN             NaN
             NaN             NaN             NaN
             NaN             NaN             NaN
             NaN             NaN             NaN
             NaN             NaN             NaN
             NaN             NaN             NaN
             NaN             NaN             NaN
             NaN             NaN             NaN
             NaN             NaN             NaN
             NaN             NaN             NaN
             NaN             NaN             NaN
             NaN             NaN             NaN
             NaN             NaN             NaN
             NaN             NaN             NaN
             NaN             NaN             NaN
             NaN             NaN             NaN
             NaN             NaN             NaN
             NaN             NaN             NaN
             NaN             NaN             NaN
             NaN             NaN             NaN
             NaN             NaN             NaN
             NaN             NaN             NaN
             NaN             NaN             NaN
             NaN             NaN             NaN
             NaN             NaN             NaN
             NaN             NaN             NaN
             NaN             NaN             NaN
             NaN             NaN             NaN
             NaN             NaN             NaN
             NaN             NaN             NaN
             NaN             NaN             NaN
             NaN             NaN             NaN
             NaN             NaN             NaN
             NaN             NaN             NaN
             NaN             NaN             NaN
             NaN             NaN             NaN
             NaN             NaN             NaN
             NaN             NaN             NaN
             NaN             NaN             NaN
             NaN             NaN             NaN
             NaN             NaN             NaN
             NaN             NaN             NaN
             NaN             NaN             NaN
             NaN             NaN             NaN
             NaN             NaN             NaN
             NaN             NaN             NaN
             NaN             NaN             NaN
             NaN             NaN             NaN
             NaN             NaN             NaN
             NaN             NaN             NaN
             NaN             NaN             NaN
             NaN             NaN             NaN
             NaN             NaN             NaN
             NaN             NaN             NaN
             NaN             NaN             NaN
             NaN             NaN             NaN
             NaN             NaN             NaN
             NaN             NaN             NaN
             NaN             NaN             NaN
             NaN             NaN             NaN
             NaN             NaN             NaN
             NaN             NaN             NaN
             NaN             NaN             NaN
             NaN             NaN             NaN
             NaN             NaN             NaN
             NaN             NaN             NaN
             NaN             NaN             NaN
             NaN             NaN             NaN
             NaN             NaN             NaN
             NaN             NaN             NaN
             NaN             NaN             NaN
             NaN             NaN             NaN
             NaN             NaN             NaN
             NaN             NaN             NaN
             NaN             NaN             NaN
             NaN             NaN             NaN
             NaN             NaN             NaN
             NaN             NaN             NaN
             NaN             NaN             NaN
             NaN             NaN             NaN
             NaN             NaN             NaN
             NaN             NaN             NaN
             NaN             NaN             NaN
             NaN             NaN             NaN
             NaN             NaN             NaN
             NaN             NaN             NaN
             NaN             NaN             NaN
             NaN             NaN             NaN
             NaN             NaN             NaN
             NaN             NaN             NaN
             NaN             NaN             NaN
             NaN             NaN             NaN
             NaN             NaN             NaN
             NaN             NaN             NaN
             NaN             NaN             NaN
             NaN             NaN             NaN
             NaN             NaN             NaN
             NaN             NaN             NaN
             NaN             NaN             NaN
             NaN             NaN             NaN
             NaN             NaN             NaN
             NaN             NaN             NaN
             NaN             NaN             NaN
             NaN             NaN             NaN
             NaN             NaN             NaN
             NaN             NaN             NaN
             NaN             NaN             NaN
             NaN             NaN             NaN
             NaN             NaN             NaN
             NaN             NaN             NaN
             NaN             NaN             NaN
             NaN             NaN             NaN
             NaN             NaN             NaN
             NaN             NaN             NaN
             NaN             NaN             NaN
             NaN             NaN             NaN
             NaN             NaN             NaN
             NaN             NaN             NaN
             NaN             NaN             NaN
             NaN             NaN             NaN
             NaN             NaN             NaN
             NaN             NaN             NaN
             NaN             NaN             NaN
             NaN             NaN             NaN
