Li47 P16 O64
1.0
10.414630 0.000763 -0.001627
0.000880 12.186149 0.001765
-0.001560 0.001416 9.792938
Li P O
47 16 64
direct
0.260678 0.299158 0.133661 Li
0.660046 0.251827 0.097659 Li
0.665809 0.248968 0.598175 Li
0.664738 0.750475 0.097838 Li
0.664467 0.751076 0.598039 Li
0.164366 0.495877 0.152845 Li
0.164297 0.500280 0.652121 Li
0.164114 -0.000373 0.151545 Li
0.164297 -0.000669 0.652522 Li
0.335969 0.000834 0.401793 Li
0.336021 0.000824 0.902268 Li
0.336900 0.499866 0.400739 Li
0.336004 0.498685 0.905125 Li
0.836738 0.248384 0.348198 Li
0.834822 0.248932 0.848183 Li
0.836512 0.748922 0.348113 Li
0.836440 0.749054 0.847785 Li
0.337018 0.250051 0.399423 Li
0.335451 0.251534 0.906001 Li
0.335968 0.749334 0.401654 Li
0.335850 0.749284 0.902479 Li
0.836550 0.001146 0.348292 Li
0.836312 0.000935 0.847371 Li
0.836790 0.501128 0.347478 Li
0.834976 0.501400 0.848481 Li
0.660329 0.498140 0.097381 Li
0.665933 0.501081 0.598305 Li
0.664465 0.997495 0.096668 Li
0.664585 0.998639 0.598297 Li
0.163980 0.251125 0.649896 Li
0.163387 0.751034 0.152369 Li
0.164461 0.751722 0.652180 Li
0.923035 0.373393 0.149520 Li
0.920874 0.375409 0.648820 Li
0.923093 0.874742 0.149012 Li
0.923875 0.875265 0.648574 Li
0.423365 0.375000 0.608054 Li
0.426105 0.874789 0.100498 Li
0.423547 0.875102 0.600912 Li
0.078195 0.126935 0.347878 Li
0.077158 0.125956 0.853156 Li
0.077379 0.624555 0.351068 Li
0.077070 0.625166 0.851530 Li
0.577255 0.124735 0.399678 Li
0.575627 0.124662 0.898043 Li
0.576770 0.624957 0.399430 Li
0.575278 0.624971 0.898353 Li
0.910287 0.124532 0.095361 P
0.912914 0.124571 0.595345 P
0.911653 0.624395 0.095437 P
0.912651 0.625870 0.595329 P
0.412421 0.122351 0.154525 P
0.411730 0.124927 0.654904 P
0.411091 0.627360 0.154584 P
0.411581 0.625263 0.654800 P
0.087735 0.375066 0.406747 P
0.086144 0.375696 0.903390 P
0.088270 0.875267 0.404660 P
0.088043 0.875161 0.905047 P
0.590367 0.375049 0.348006 P
0.587756 0.375084 0.841357 P
0.588762 0.874804 0.345494 P
0.588415 0.874697 0.844861 P
0.839985 0.020830 0.146508 O
0.842257 0.021223 0.646590 O
0.840306 0.521466 0.146604 O
0.842210 0.523143 0.648072 O
0.340969 0.221594 0.098230 O
0.342418 0.228190 0.601973 O
0.342843 0.732726 0.105647 O
0.341792 0.728697 0.602576 O
0.158503 0.270858 0.361251 O
0.156834 0.272618 0.852014 O
0.158193 0.771678 0.353241 O
0.158647 0.771966 0.853452 O
0.659994 0.478671 0.400076 O
0.655854 0.478190 0.896532 O
0.658913 0.978056 0.397467 O
0.658622 0.978058 0.896349 O
0.158622 0.477589 0.353897 O
0.156976 0.478758 0.851553 O
0.158547 0.978348 0.352571 O
0.158485 0.978562 0.853927 O
0.659815 0.271294 0.400017 O
0.655409 0.271751 0.896821 O
0.658764 0.771391 0.397392 O
0.658595 0.771421 0.896827 O
0.839438 0.227429 0.147288 O
0.842257 0.227506 0.647462 O
0.841823 0.728052 0.147142 O
0.842189 0.729338 0.646324 O
0.343688 0.017446 0.105269 O
0.341806 0.021569 0.602687 O
0.336028 0.528936 0.099493 O
0.341948 0.522110 0.601914 O
0.551788 0.122659 0.102495 O
0.551443 0.124446 0.603863 O
0.549966 0.625900 0.101773 O
0.551224 0.625402 0.603690 O
0.048629 0.122997 0.148202 O
0.051720 0.124693 0.648226 O
0.050723 0.624074 0.147930 O
0.051821 0.626334 0.647233 O
0.451272 0.375133 0.399936 O
0.445611 0.375309 0.879096 O
0.449461 0.874952 0.397116 O
0.449228 0.874856 0.896788 O
0.949047 0.374543 0.352997 O
0.947012 0.375208 0.850472 O
0.948953 0.875137 0.352751 O
0.949071 0.875072 0.852343 O
0.593851 0.375142 0.191601 O
0.596755 0.374987 0.684130 O
0.590425 0.874540 0.188046 O
0.589261 0.874656 0.687491 O
0.085112 0.376863 0.060101 O
0.086668 0.377333 0.564252 O
0.088356 0.874896 0.062419 O
0.089408 0.875496 0.562122 O
0.412112 0.124577 0.311853 O
0.409783 0.125085 0.812218 O
0.411371 0.625072 0.311979 O
0.409657 0.625089 0.812114 O
0.912228 0.124826 0.437954 O
0.909661 0.125047 0.937868 O
0.911637 0.625016 0.437867 O
0.911023 0.624934 0.937907 O
