Li7 Mn16 O32
1.0
8.152905 0.000004 -0.000078
0.000004 8.152877 -0.000135
-0.000078 -0.000135 8.152873
Li Mn O
7 16 32
direct
0.372324 0.377673 0.872327 Li
0.877673 0.872325 0.872329 Li
0.125004 0.125000 0.124999 Li
0.877672 0.377671 0.377674 Li
0.372326 0.872327 0.377674 Li
0.625004 0.124999 0.624999 Li
0.625004 0.625000 0.124999 Li
0.500122 0.249876 0.249877 Mn
0.249903 0.500097 0.251704 Mn
0.249903 0.251706 0.500097 Mn
0.498298 0.500097 0.500097 Mn
0.498299 0.749906 0.749906 Mn
0.751706 0.500097 0.749903 Mn
0.751704 0.749904 0.500096 Mn
0.249904 -0.001705 0.749905 Mn
0.249904 0.749904 0.998295 Mn
0.500120 0.000122 1.000122 Mn
0.749876 1.000123 0.249878 Mn
0.749874 0.249876 1.000124 Mn
0.000097 0.251706 0.749903 Mn
0.000097 0.500096 0.998295 Mn
1.000096 0.749904 0.251704 Mn
1.000095 0.998296 0.500095 Mn
0.737245 0.012753 0.012755 O
0.013343 0.736659 0.012922 O
0.013341 0.012918 0.736659 O
0.737079 0.736658 0.736657 O
0.263142 0.987424 0.987424 O
0.986862 0.262573 0.987423 O
0.986862 0.987425 0.262573 O
0.263139 0.262573 0.262576 O
0.737079 0.513343 0.513343 O
0.013342 0.237080 0.513341 O
0.013341 0.513340 0.237081 O
0.737242 0.237248 0.237244 O
0.265237 0.484764 0.484765 O
0.984761 0.765237 0.484763 O
0.984764 0.484764 0.765236 O
0.265239 0.765237 0.765239 O
0.236658 0.012920 0.513342 O
0.512921 0.736659 0.513342 O
0.512755 0.012755 0.237244 O
0.236657 0.736658 0.237078 O
0.762573 0.987425 0.486860 O
0.487424 0.262572 0.486861 O
0.487426 0.987427 0.763140 O
0.762576 0.262573 0.763137 O
0.236658 0.513342 0.012921 O
0.512754 0.237245 0.012756 O
0.512920 0.513341 0.736659 O
0.236657 0.237079 0.736658 O
0.762575 0.486863 0.987425 O
0.487425 0.763141 0.987424 O
0.487425 0.486862 0.262573 O
0.762575 0.763139 0.262577 O
