Li46 P16 O64                            
   1.00000000000000     
    10.4261979999999994    0.0098060000000000   -0.0029230000000000
     0.0107770000000000   12.1794940000000000    0.0028800000000000
    -0.0028900000000000    0.0019620000000000    9.8033999999999999
   Li   P    O 
    46    16    64
Direct
  0.4661784699821906  0.3344786041078038  0.0799924424202567
  0.6630497320152680  0.2499462393240571  0.6034094928406852
  0.6648747483924282  0.7496240266424909  0.0982497314310433
  0.6643912078150065  0.7515168565142906  0.5981986030712583
  0.1688189076163394  0.4914490525377698  0.1538745393000920
  0.1647703605035032  0.5019888543979293  0.6521373790529474
  0.1651404543868820  0.9928737720529816  0.1556890575620504
  0.1636475129640424  0.9984642163524065  0.6528489404055445
  0.3343524406458731 -0.0012308610146108  0.4044778196344774
  0.3358241611629961 -0.0012725547593923  0.9024110104632640
  0.3374924495488298  0.4997323033188081  0.3996245610346462
  0.3367879177922873  0.4970711828519511  0.9079762238222006
  0.8345459881558329  0.2488469117494525  0.3500844030961796
  0.8356093682390747  0.2492514491355834  0.8503680642633470
  0.8364733971164292  0.7482597622928180  0.3483989700602548
  0.8363080529135388  0.7486284255671976  0.8475375617961143
  0.3360036227682816  0.2496311470911475  0.3981617510280125
  0.3275970082917312  0.2465021262348317  0.8987500342445950
  0.3361829334840754  0.7487411546554130  0.4015591781888810
  0.3359094676675798  0.7479867011648332  0.9032007593190238
  0.8358844597804704  0.0012729841232614  0.3506077129421877
  0.8347090300050038  0.0007229552524703  0.8455143767304673
  0.8348940443038061  0.5014248611694693  0.3474718852452688
  0.8340338395475488  0.5018922361270670  0.8484592593106849
  0.6636938221032468  0.4962912619423867  0.0971564857371484
  0.6637998937691044  0.5021687622777977  0.6000754916661866
  0.6636504808302971  0.9978651307365672  0.0960226001840839
  0.6638476352423119  0.9997100499740650  0.5977189113146474
  0.1615866155412303  0.2506120447171993  0.6464746992379335
  0.1641436255216346  0.7490030846324198  0.1516862935861456
  0.1641349938195680  0.7514183064376654  0.6528103747973065
  0.9244219785356046  0.3754177980435924  0.1492492233841343
  0.9184818179220956  0.3761270551659507  0.6496327519926317
  0.9214647947533061  0.8730376131082519  0.1497416074754377
  0.9230898575932551  0.8751664754582755  0.6485851154159142
  0.4205508788359134  0.3754099464193538  0.6003448410585560
  0.4265270368706994  0.8712869118798915  0.1005951620411612
  0.4245544219615229  0.8747164840293052  0.6017646699317777
  0.0798285667471879  0.1272910075064317  0.3463480675657737
  0.0768184188256862  0.1255550375114163  0.8534181375146674
  0.0774392474701142  0.6232970492019517  0.3502488551436221
  0.0769972437814928  0.6247257554467532  0.8518110732719864
  0.5758068236422149  0.1265033605896406  0.3967309956071162
  0.5782719452708106  0.1268681179141908  0.9032117290178305
  0.5764853959295113  0.6252296584694695  0.3999773650853282
  0.5751653727120820  0.6242718724418649  0.8997131795970577
  0.9114116916748015  0.1213131921696957  0.0952550263046275
  0.9126121715847565  0.1245406929527312  0.5951581074405650
  0.9124803339091764  0.6239159667793645  0.0956860449555261
  0.9122046589141535  0.6260503022705571  0.5954211981281204
  0.4077885564439409  0.1166463805120807  0.1549616427654112
  0.4112761007591169  0.1241272240305474  0.6548641446020282
  0.4119455136878272  0.6250444645683435  0.1544601616334080
  0.4112040186588057  0.6254498817923015  0.6551424643094450
  0.0868956481059490  0.3750730970334085  0.4090838625062225
  0.0849115377316242  0.3767049615026768  0.9019715657919812
  0.0872240130975284  0.8741347273701389  0.4052825725618403
  0.0868749968335907  0.8745466625221908  0.9049329185541458
  0.5898328699391384  0.3759002872705075  0.3505091608796267
  0.5883943985085929  0.3732867202411904  0.8399177944003932
  0.5891221891198932  0.8752317857425593  0.3457572876164622
  0.5891267946157172  0.8745751730572252  0.8450950903251441
  0.8368513061621352  0.0211778206535366  0.1478487659523133
  0.8415558401942521  0.0215175353677930  0.6460742180500532
  0.8408426408637760  0.5215968072617876  0.1472787060559626
  0.8408998371499857  0.5238086128744182  0.6484287028399165
  0.3461202740759033  0.2197265357356040  0.0941046153059927
  0.3407996695804654  0.2278215483580665  0.6043961361923943
  0.3430972609033096  0.7306548684551422  0.1051861824766214
  0.3411966922530821  0.7294476324223570  0.6043145807195347
  0.1565827235836691  0.2682298516168683  0.3730180669343756
  0.1533358621981818  0.2724364213793793  0.8501244114164812
  0.1574308943472540  0.7707597806498230  0.3532241541693349
  0.1579701017269518  0.7714886419083065  0.8541043057145058
  0.6597198987648649  0.4790535311484935  0.4037737806496335
  0.6567636345976441  0.4761014755403807  0.8955830783476985
  0.6581894692907236  0.9787239713745309  0.3971767507895839
  0.6589551947304650  0.9775555542852837  0.8971794053975558
  0.1589966921354664  0.4757639354948677  0.3546093030042458
  0.1580856327053254  0.4783182850678524  0.8490768191121567
  0.1579531294903206  0.9772146942619166  0.3539077497455967
  0.1578318469953457  0.9779957278243718  0.8546472986968170
  0.6592877633554639  0.2721574306271565  0.4025054091821364
  0.6586107405471620  0.2683915888610483  0.8817796249686177
  0.6595622616242528  0.7718866211207465  0.3974889330026105
  0.6592726656193035  0.7709928130739914  0.8967034718690302
  0.8558825710303698  0.2281159881740469  0.1533797685056558
  0.8423769404770753  0.2279945782385156  0.6468780608978522
  0.8426485716638341  0.7277633983122151  0.1475135860823935
  0.8419004636305545  0.7298332906793117  0.6457004381005278
  0.3380396796605608  0.0125158738475471  0.1060396315169919
  0.3408689444507859  0.0208473979078126  0.6031666374186483
  0.3402094325563057  0.5247062146747953  0.1013768999835781
  0.3414247734293305  0.5229422046249125  0.6011274691942320
  0.5456634848500673  0.1164575827106877  0.1017024037396242
  0.5496141724463728  0.1244690784754701  0.6019115469782392
  0.5513733988348384  0.6252274850501498  0.1023945982652085
  0.5505689292426920  0.6269017067665575  0.6039365506199534
  0.0491346401081224  0.1142614520716032  0.1488044439138193
  0.0509342497437621  0.1240089134574433  0.6492925081746976
  0.0514775040574659  0.6228695882820580  0.1479100305764015
  0.0509170325813152  0.6265168134541322  0.6478562933877675
  0.4506954899659039  0.3743046866153747  0.4022564149920267
  0.4501345293230127  0.3697455770987540  0.8951870296793701
  0.4498245817209900  0.8745659035141906  0.3973840197432729
  0.4498134507971239  0.8740080243272838  0.8970278412186115
  0.9488975030693683  0.3742953094748498  0.3537865980111402
  0.9460313771056114  0.3765778456121157  0.8480883049609315
  0.9483514159091943  0.8749168836818433  0.3525731596913366
  0.9485562979140840  0.8750635424277172  0.8520403120581143
  0.5925832781948094  0.3783729144389121  0.1950430228742659
  0.5854839579250872  0.3788782442737824  0.6830917391644697
  0.5906805027041676  0.8747831248045970  0.1881972721809427
  0.5901711426881507  0.8753024440671674  0.6879217325587214
  0.0826285813879477  0.3801131744003206  0.0573103247058374
  0.0834548939499068  0.3805173846468985  0.5665110573070546
  0.0862732435091953  0.8737813784546840  0.0625201877716147
  0.0880366643953081  0.8744422304856296  0.5622603555359880
  0.4068348700127852  0.1217883516967111  0.3114658147662436
  0.4104525457377437  0.1229585406364002  0.8124856655996829
  0.4120612091905256  0.6247094070995456  0.3122338082911094
  0.4096675712361431  0.6234332678378505  0.8124250708255328
  0.9129431177921126  0.1247158044157437  0.4380562572416752
  0.9091690881012614  0.1233340027996792  0.9391333309318055
  0.9119147822113941  0.6244558291035215  0.4380623990256423
  0.9112940800474576  0.6247152234283866  0.9383510466205170
 
             NaN             NaN             NaN
             NaN             NaN             NaN
             NaN             NaN             NaN
             NaN             NaN             NaN
             NaN             NaN             NaN
             NaN             NaN             NaN
             NaN             NaN             NaN
             NaN             NaN             NaN
             NaN             NaN             NaN
             NaN             NaN             NaN
             NaN             NaN             NaN
             NaN             NaN             NaN
             NaN             NaN             NaN
             NaN             NaN             NaN
             NaN             NaN             NaN
             NaN             NaN             NaN
             NaN             NaN             NaN
             NaN             NaN             NaN
             NaN             NaN             NaN
             NaN             NaN             NaN
             NaN             NaN             NaN
             NaN             NaN             NaN
             NaN             NaN             NaN
             NaN             NaN             NaN
             NaN             NaN             NaN
             NaN             NaN             NaN
             NaN             NaN             NaN
             NaN             NaN             NaN
             NaN             NaN             NaN
             NaN             NaN             NaN
             NaN             NaN             NaN
             NaN             NaN             NaN
             NaN             NaN             NaN
             NaN             NaN             NaN
             NaN             NaN             NaN
             NaN             NaN             NaN
             NaN             NaN             NaN
             NaN             NaN             NaN
             NaN             NaN             NaN
             NaN             NaN             NaN
             NaN             NaN             NaN
             NaN             NaN             NaN
             NaN             NaN             NaN
             NaN             NaN             NaN
             NaN             NaN             NaN
             NaN             NaN             NaN
             NaN             NaN             NaN
             NaN             NaN             NaN
             NaN             NaN             NaN
             NaN             NaN             NaN
             NaN             NaN             NaN
             NaN             NaN             NaN
             NaN             NaN             NaN
             NaN             NaN             NaN
             NaN             NaN             NaN
             NaN             NaN             NaN
             NaN             NaN             NaN
             NaN             NaN             NaN
             NaN             NaN             NaN
             NaN             NaN             NaN
             NaN             NaN             NaN
             NaN             NaN             NaN
             NaN             NaN             NaN
             NaN             NaN             NaN
             NaN             NaN             NaN
             NaN             NaN             NaN
             NaN             NaN             NaN
             NaN             NaN             NaN
             NaN             NaN             NaN
             NaN             NaN             NaN
             NaN             NaN             NaN
             NaN             NaN             NaN
             NaN             NaN             NaN
             NaN             NaN             NaN
             NaN             NaN             NaN
             NaN             NaN             NaN
             NaN             NaN             NaN
             NaN             NaN             NaN
             NaN             NaN             NaN
             NaN             NaN             NaN
             NaN             NaN             NaN
             NaN             NaN             NaN
             NaN             NaN             NaN
             NaN             NaN             NaN
             NaN             NaN             NaN
             NaN             NaN             NaN
             NaN             NaN             NaN
             NaN             NaN             NaN
             NaN             NaN             NaN
             NaN             NaN             NaN
             NaN             NaN             NaN
             NaN             NaN             NaN
             NaN             NaN             NaN
             NaN             NaN             NaN
             NaN             NaN             NaN
             NaN             NaN             NaN
             NaN             NaN             NaN
             NaN             NaN             NaN
             NaN             NaN             NaN
             NaN             NaN             NaN
             NaN             NaN             NaN
             NaN             NaN             NaN
             NaN             NaN             NaN
             NaN             NaN             NaN
             NaN             NaN             NaN
             NaN             NaN             NaN
             NaN             NaN             NaN
             NaN             NaN             NaN
             NaN             NaN             NaN
             NaN             NaN             NaN
             NaN             NaN             NaN
             NaN             NaN             NaN
             NaN             NaN             NaN
             NaN             NaN             NaN
             NaN             NaN             NaN
             NaN             NaN             NaN
             NaN             NaN             NaN
             NaN             NaN             NaN
             NaN             NaN             NaN
             NaN             NaN             NaN
             NaN             NaN             NaN
             NaN             NaN             NaN
             NaN             NaN             NaN
             NaN             NaN             NaN
             NaN             NaN             NaN
             NaN             NaN             NaN
