Mg7 Sc16 Se32
1.0
11.333220 -0.000000 0.000000
-0.000000 11.333214 -0.000000
-0.000000 -0.000000 11.333205
Mg Sc Se
7 16 32
direct
0.469399 0.469399 0.469399 Mg
0.624035 0.125965 0.125965 Mg
0.125965 0.624035 0.125965 Mg
0.125965 0.125965 0.624035 Mg
0.376614 0.873386 0.873386 Mg
0.873386 0.376614 0.873386 Mg
0.873386 0.873386 0.376614 Mg
0.996065 0.750064 0.750064 Sc
0.750064 0.996065 0.750064 Sc
0.750064 0.750064 0.996065 Sc
1.000006 1.000006 1.000006 Sc
0.002350 0.249932 0.249932 Sc
0.249932 0.002350 0.249932 Sc
0.249932 0.249932 0.002350 Sc
0.747720 0.499997 0.253873 Sc
0.747720 0.253873 0.499997 Sc
-0.001591 0.499997 0.499997 Sc
0.253873 0.499997 0.747720 Sc
0.253873 0.747720 0.499997 Sc
0.499997 0.747720 0.253873 Sc
0.499997 -0.001591 0.499997 Sc
0.499997 0.253873 0.747720 Sc
0.499997 0.499997 -0.001591 Sc
0.758338 0.992850 0.992850 Se
0.992850 0.758338 0.992850 Se
0.992850 0.992850 0.758338 Se
0.758903 0.758903 0.758903 Se
0.241939 0.007333 0.007333 Se
0.007333 0.241939 0.007333 Se
0.007333 0.007333 0.241939 Se
0.241578 0.241578 0.241578 Se
0.759667 0.491026 0.491026 Se
0.992085 0.257221 0.491591 Se
0.992085 0.491591 0.257221 Se
0.759102 0.257221 0.257221 Se
0.240285 0.508525 0.508525 Se
0.008626 0.742564 0.508164 Se
0.008626 0.508164 0.742564 Se
0.240646 0.742564 0.742564 Se
0.257221 0.992085 0.491591 Se
0.491026 0.759667 0.491026 Se
0.491591 0.992085 0.257221 Se
0.257221 0.759102 0.257221 Se
0.742564 0.008626 0.508164 Se
0.508525 0.240285 0.508525 Se
0.508164 0.008626 0.742564 Se
0.742564 0.240646 0.742564 Se
0.257221 0.491591 0.992085 Se
0.491591 0.257221 0.992085 Se
0.491026 0.491026 0.759667 Se
0.257221 0.257221 0.759102 Se
0.742564 0.508164 0.008626 Se
0.508164 0.742564 0.008626 Se
0.508525 0.508525 0.240285 Se
0.742564 0.742564 0.240646 Se
