Li7 Mn16 O32                            
   1.00000000000000     
     8.6029669999999996   -0.0288920000000000    0.0263440000000000
    -0.0262080000000000    8.0912450000000007   -0.0927270000000000
     0.0248980000000000    0.0023990000000000    8.0684819999999995
   Li   Mn   O 
     7    16    32
Direct
  0.3313201466305978  0.4136056421985259  0.8357770775434574
  0.8662766258382443  0.8766404151891259  0.8749990937219605
  0.1362251923115174  0.1251471198412412  0.1242060717114649
  0.8662028536977098  0.3752943151839607  0.3737694131268577
  0.3598026358124265  0.8734257442599261  0.3759646238461473
  0.6338774546263544  0.1286595148665407  0.6277835912533519
  0.6334480395045232  0.6227159857724047  0.1209994321850271
  0.4993398783531471  0.2502121642005850  0.2491250129906835
  0.2494930955358347  0.5036332809836287  0.2543562984944062
  0.2478299715128416  0.2517546823828122  0.4990809560948943
  0.5065494217464480  0.4988154979199135  0.4980746276869842
  0.5064842886374498  0.7525914740696293  0.7508725091457006
  0.7572325837205106  0.5025091740866008  0.7498045555651041
  0.7501473607929352  0.7509347180358473  0.4992585576028035
  0.2493924333824674  0.9955152152172246  0.7461782311821562
  0.2478225473575824  0.7505784513984266  0.9977424767202974
  0.4993503136214885  0.0008799801251183  0.9998773539513672
  0.7444194588431189  0.0002663927830444  0.2495953910709625
  0.7479492943860797  0.2512140763432220  0.9995846965468941
  0.9994106580091265  0.2501885094793510  0.7504556837097280
  0.9996824611701297  0.4995444246791581  0.9995851541487720
  0.9927448113998424  0.7489721819881086  0.2492017806773139
  0.9927844470604760  0.0008001673670690  0.5006037506484008
  0.7225486307768452  0.0108646636590279  0.0125567143802462
  0.9956133877676522  0.7361783291774349  0.0158533412477947
  0.9948703114585429  0.0141949462316916  0.7344238108055717
  0.7321647765351391  0.7429247657374047  0.7338049887602178
  0.2753660135864796  0.9864996605408378  0.9864212487349429
  0.0007929882385946  0.2641359441308954  0.9864573597131061
  0.9951248422544635  0.9842960509148764  0.2646032681364900
  0.2754589294550331  0.2636980815161026  0.2628592573269745
  0.7331913966914119  0.5164166831939538  0.5107915110399202
  0.9952464607214452  0.2334903292968830  0.5130254690923634
  0.9948417561536168  0.5155615171018268  0.2359906725960162
  0.7226821711164887  0.2389271446766943  0.2378589388788274
  0.2878049455952454  0.4904852557339867  0.4889317173365594
  0.9707023253508137  0.7633773471290051  0.4871916730344825
  0.0038534481920031  0.4811311991061148  0.7679527663711281
  0.2874900559628654  0.7614147644275561  0.7586803832396002
  0.2160395173003385  0.0082460194399467  0.5081171772459865
  0.5240752974420604  0.7406730133598104  0.5083067884482305
  0.4940801370212252  0.0148280395335006  0.2358567688649633
  0.2162340499171187  0.7410052479513217  0.2417239528418401
  0.7666754549544319  0.9865718154849351  0.4886214459379550
  0.5042167161778273  0.2665347819729167  0.4862019122441638
  0.5049126654473395  0.9865390111348603  0.7645104836555056
  0.7759550012029758  0.2618034528723167  0.7620706135092716
  0.2219701112725079  0.5151139482763690  0.0139960822041940
  0.4973957114262830  0.2340309115703916  0.0152866313946382
  0.5059593610167252  0.5185781716512279  0.7325048795587509
  0.2218887644716088  0.2353892232566508  0.7348000742943003
  0.7760868301636881  0.4905624546497280  0.9867733924826564
  0.5038814452231690  0.7643401910007721  0.9836665811388734
  0.5053786237815332  0.4849064668749087  0.2633981918697289
  0.7671114528479066  0.7599248894947931  0.2633223329021264
 
             NaN             NaN             NaN
             NaN             NaN             NaN
             NaN             NaN             NaN
             NaN             NaN             NaN
             NaN             NaN             NaN
             NaN             NaN             NaN
             NaN             NaN             NaN
             NaN             NaN             NaN
             NaN             NaN             NaN
             NaN             NaN             NaN
             NaN             NaN             NaN
             NaN             NaN             NaN
             NaN             NaN             NaN
             NaN             NaN             NaN
             NaN             NaN             NaN
             NaN             NaN             NaN
             NaN             NaN             NaN
             NaN             NaN             NaN
             NaN             NaN             NaN
             NaN             NaN             NaN
             NaN             NaN             NaN
             NaN             NaN             NaN
             NaN             NaN             NaN
             NaN             NaN             NaN
             NaN             NaN             NaN
             NaN             NaN             NaN
             NaN             NaN             NaN
             NaN             NaN             NaN
             NaN             NaN             NaN
             NaN             NaN             NaN
             NaN             NaN             NaN
             NaN             NaN             NaN
             NaN             NaN             NaN
             NaN             NaN             NaN
             NaN             NaN             NaN
             NaN             NaN             NaN
             NaN             NaN             NaN
             NaN             NaN             NaN
             NaN             NaN             NaN
             NaN             NaN             NaN
             NaN             NaN             NaN
             NaN             NaN             NaN
             NaN             NaN             NaN
             NaN             NaN             NaN
             NaN             NaN             NaN
             NaN             NaN             NaN
             NaN             NaN             NaN
             NaN             NaN             NaN
             NaN             NaN             NaN
             NaN             NaN             NaN
             NaN             NaN             NaN
             NaN             NaN             NaN
             NaN             NaN             NaN
             NaN             NaN             NaN
             NaN             NaN             NaN
