Li7 Mn16 O32                            
   1.00000000000000     
     8.6029669999999996   -0.0288920000000000    0.0263440000000000
    -0.0262080000000000    8.0912450000000007   -0.0927270000000000
     0.0248980000000000    0.0023990000000000    8.0684819999999995
   Li   Mn   O 
     7    16    32
Direct
  0.3313745228268673  0.4134720989981424  0.8359394959821519
  0.8663694121637781  0.8765672448232532  0.8750162728609538
  0.1363376304486402  0.1250920499694202  0.1243263164837527
  0.8662961511092830  0.3752555538982628  0.3738564852082923
  0.3598798990735023  0.8733625810830157  0.3760626641356763
  0.6339322310632441  0.1286015822047843  0.6278638541000725
  0.6335326918436387  0.6225860031119641  0.1210739272815610
  0.4993702484253812  0.2501636808156505  0.2491737799406413
  0.2494825002827781  0.5035619229763575  0.2544233214481699
  0.2478655886903828  0.2517053235183379  0.4991357623552456
  0.5065854269880258  0.4987993979775908  0.4981104161069034
  0.5065004643720442  0.7525259142909755  0.7509077292479824
  0.7572302357526736  0.5024430829996621  0.7498251356886038
  0.7501823480305826  0.7509504591041801  0.4992790935362921
  0.2494131587212380  0.9954585054055982  0.7462419574669018
  0.2478300231431124  0.7505687421101189  0.9978336421626657
  0.4993700996713762  0.0008310222980929  0.9999108889868481
  0.7444555849665555  1.0002607358454845  0.2495915306339462
  0.7480409047775827  0.2510105448721706  0.9995512812357005
  0.9994614602116718  0.2501404065137974  0.7504665484099886
  0.9997280242641439  0.4994930606257892  0.9996393939687841
  0.9927581988759530  0.7489364479314502  0.2492458442174893
  0.9927561131964727  0.0007759649577892  0.5006422223174311
  0.7226409884203709  0.0109321221118394  0.0124774804638671
  0.9956103149218094  0.7361272736145057  0.0159260562908096
  0.9949653666328143  0.0141431019668273  0.7344957271979526
  0.7321922992732657  0.7427991138460462  0.7338879406080629
  0.2754275076654455  0.9864772542119059  0.9864792276296714
  0.0008996730328901  0.2640943528827008  0.9864960761546236
  0.9952927285918535  0.9842518864820525  0.2646788682563446
  0.2755015426350094  0.2636590788271349  0.2629434787014829
  0.7332569863270282  0.5163802144741260  0.5108382516433444
  0.9953862795546424  0.2334508666482387  0.5130607826033483
  0.9948636804217780  0.5155255640691946  0.2360508211591068
  0.7227397866313285  0.2387496268470338  0.2380015901518847
  0.2878458749543676  0.4904512120911787  0.4890106796185245
  0.9707595319903498  0.7633276792508481  0.4872616843007551
  1.0039103037385149  0.4810975967616867  0.7680240556344802
  0.2875086653620054  0.7613134327606338  0.7588555473491392
  0.2161082046418389  0.0081402238980425  0.5082380882162516
  0.5241528921124425  0.7406435365187402  0.5083413051369005
  0.4941207220664738  0.0147752117004562  0.2358839095868860
  0.2162699274652926  0.7409238156606635  0.2418273566695623
  0.7667643416694009  0.9865119371698938  0.4887264831324822
  0.5043171320575451  0.2665301773697869  0.4862586033497814
  0.5049611788727639  0.9864717692474445  0.7645670501253817
  0.7760695886457916  0.2617445125458556  0.7619406688279374
  0.2219724651588642  0.5150773074069521  0.0140702161803886
  0.4974109224360682  0.2339995961038082  0.0153286648689432
  0.5059139203754809  0.5185427210493890  0.7325430031289808
  0.2219527555028123  0.2353530011579551  0.7348432227925801
  0.7760613597641008  0.4902159853330937  0.9868951876335968
  0.5040129732078126  0.7642938438015894  0.9837117809425411
  0.5054289521204687  0.4848578845150437  0.2634470573349101
  0.7671595191623423  0.7599875835343466  0.2633597842561337
 
             NaN             NaN             NaN
             NaN             NaN             NaN
             NaN             NaN             NaN
             NaN             NaN             NaN
             NaN             NaN             NaN
             NaN             NaN             NaN
             NaN             NaN             NaN
             NaN             NaN             NaN
             NaN             NaN             NaN
             NaN             NaN             NaN
             NaN             NaN             NaN
             NaN             NaN             NaN
             NaN             NaN             NaN
             NaN             NaN             NaN
             NaN             NaN             NaN
             NaN             NaN             NaN
             NaN             NaN             NaN
             NaN             NaN             NaN
             NaN             NaN             NaN
             NaN             NaN             NaN
             NaN             NaN             NaN
             NaN             NaN             NaN
             NaN             NaN             NaN
             NaN             NaN             NaN
             NaN             NaN             NaN
             NaN             NaN             NaN
             NaN             NaN             NaN
             NaN             NaN             NaN
             NaN             NaN             NaN
             NaN             NaN             NaN
             NaN             NaN             NaN
             NaN             NaN             NaN
             NaN             NaN             NaN
             NaN             NaN             NaN
             NaN             NaN             NaN
             NaN             NaN             NaN
             NaN             NaN             NaN
             NaN             NaN             NaN
             NaN             NaN             NaN
             NaN             NaN             NaN
             NaN             NaN             NaN
             NaN             NaN             NaN
             NaN             NaN             NaN
             NaN             NaN             NaN
             NaN             NaN             NaN
             NaN             NaN             NaN
             NaN             NaN             NaN
             NaN             NaN             NaN
             NaN             NaN             NaN
             NaN             NaN             NaN
             NaN             NaN             NaN
             NaN             NaN             NaN
             NaN             NaN             NaN
             NaN             NaN             NaN
             NaN             NaN             NaN
