Na47 P16 S64                            
   1.00000000000000     
    13.9375090000000004   -0.0080490000000000    0.0000100000000000
    -0.0080880000000000   13.9483440000000005    0.0001300000000000
     0.0000350000000000    0.0000950000000000   14.2850339999999996
   Na   P    S 
    47    16    64
Direct
  0.5887535172457987  0.7521051054627890  0.7406309513044818
  0.9998219399035406  0.2507816346513181  0.2066026932803453
  0.9991547273261148  0.2503421849517196  0.7059203755329406
  0.9991100679447271  0.7508316974534779  0.2122904830022421
  0.9805029903901072  0.7525414756309345  0.7182034533356472
  0.5001299719268673  0.2492236547806428  0.2075373271450616
  0.5009567291306354  0.2499375412868190  0.7069441728996537
  0.5006925043135126  0.7492461346551025  0.2120563163848033
  0.2490287007555168  0.9994916012271204  0.2910045669283861
  0.2486718956962051  0.9986723633812034  0.7907849832334080
  0.2515040294244031  0.5004636813786263  0.2945635196086229
  0.2504732350172247  0.5021185667073240  0.7938564264539778
  0.7485715028469855  0.9990329677762944  0.2911500253286903
  0.7480189991968729  0.9805314458385794  0.7847355873342181
  0.7508862667180267  0.5010562540019876  0.2874875277895441
  0.7547013895184449  0.5192354478038510  0.7818567580818296
  0.2528992893327668  0.9990850773590196  0.0406339507908768
  0.2435261434028035  0.9991988911790060  0.5412989494052525
  0.2469771576548467  0.4998154679937841  0.0448943518165521
  0.2558646352276739  0.5035989704952470  0.5459359423873735
  0.7525218478073086  0.0005089303367214  0.0391087097477723
  0.7449397434140366  0.9990623493399866  0.5389988541090318
  0.7466919348710448  0.5006518446539516  0.0350066267956777
  0.7577959567497103  0.4983403332237160  0.5349206428352886
  0.9997992763037473  0.2481952717417144  0.4559909353960947
  0.9983259711433448  0.2536282677323953  0.9551726526362927
  0.0003040291890954  0.7480164789930086  0.4650969641315186
  0.0000634380108266  0.7541778275855080  0.9627984994837249
  0.5002547010576777  0.2518736510297614  0.4571805859187776
  0.5015126857865724  0.2463895046646130  0.9558953798023921
  0.4999161699138739  0.7518494825236530  0.4715758517880531
  0.4980757148585937  0.7453606214807493  0.9620032973883639
  0.9927189681373960  0.9978034650648766  0.5015891803319192
  0.0037386386820728  0.0096398118647016  0.0008678678117775
  0.0110313456311033  0.4954251344804419  0.4990348539871619
  0.9968619127224088  0.5020416739523981  0.9982508995252033
  0.4897706603065544  0.0033070696985575  0.4983634960401844
  0.5055234939065301  0.9960722048665147  0.9988020386827543
  0.5054446105541714  0.5036628356472761  0.5018273234110566
  0.4922503700148511  0.4917965277083809  0.0026443138988412
  0.2491889119656818  0.2509603963480558  0.2499009499675608
  0.2494200137097806  0.2517381883327232  0.7499786738003067
  0.2508769806578854  0.7489637680688617  0.2505748601221995
  0.2747879056908502  0.7488130015222865  0.7489381897631233
  0.7508588969962133  0.2490583116633118  0.2492087560896010
  0.7506959692241324  0.2481649306951468  0.7504630051825529
  0.7489102592482624  0.7510481030794622  0.2493880055891609
  0.9993360291296369  0.0010069577096061  0.2498119605245748
  0.9991877041103194  0.0030561991009321  0.7520985789834782
  0.0010910221481453  0.4999342497372865  0.2498203098132450
  0.0027548932221322  0.4991262308333120  0.7478010955072705
  0.4992855652720323  0.9998000549625488  0.2498941696659998
  0.4972999112633829  0.0010929569524194  0.7478783672131613
  0.5001578707543715  0.4992770839371445  0.2503616132005178
  0.5003550508317787  0.4975606062990963  0.7525800649266117
  0.2498586138122292  0.2501121012536345  0.0001880423567400
  0.2497805986892558  0.2507708783671916  0.4995156859258927
  0.2502072631880665  0.7486535225442168  0.0011796468528047
  0.2495681568615069  0.7518000172631005  0.4994755696412767
  0.7501126045974047  0.2496570907484781  0.9996892274851135
  0.7502495249478471  0.2493172421019025  0.4988020666274764
  0.7493738233026193  0.7496692386524373  0.0010928500120357
  0.7514474094238963  0.7488596731894006  0.4961770417828930
  0.1547611825765927  0.1737286829645726  0.0827669667869984
  0.1542266416026621  0.1750694573325333  0.5817921124630843
  0.1533953661655687  0.6754508036888467  0.0843782444242152
  0.1566627797178697  0.6766174174102844  0.5846145589761562
  0.6552518193210801  0.1734957861525146  0.0831164322907654
  0.6540947408301889  0.1751538342908390  0.5813446543482854
  0.6547376157616682  0.6736355624498458  0.0845377491464276
  0.6574758564336989  0.6675313562655063  0.5746193975834331
  0.3454559707638225  0.3254550954933393  0.0830957512972006
  0.3456081695297826  0.3258669060230304  0.5818562376199452
  0.3459007522331063  0.8243802458542788  0.0836168097073795
  0.3443934021912227  0.8295190522229277  0.5795178181156828
  0.8445369660883699  0.3270713180985965  0.0824577262617225
  0.8462697358665139  0.3241417788131642  0.5812033420732376
  0.8432678840215431  0.8272663686434214  0.0842294861713881
  0.8444542798401642  0.8268285093461998  0.5781232947981749
  0.1740947044575520  0.3464549456496684  0.4172682042162208
  0.1741172711310739  0.3461501171727619  0.9186883233641225
  0.1713882515010567  0.8435961256493272  0.4147988395579887
  0.1769648147516136  0.8427368766475851  0.9160029402403183
  0.6759701923313344  0.3449682868713566  0.4153767676516935
  0.6750804491026514  0.3440426766496856  0.9164928448596825
  0.6726452133777414  0.8433307789046438  0.4149179128563247
  0.6703280208427529  0.8445755973066440  0.9204538899762014
  0.3249782644022403  0.1554473832991476  0.4164262299731547
  0.3249815027280363  0.1552282285424482  0.9171490137681744
  0.3269310652623290  0.6563481954317325  0.4175592671186479
  0.3256553250934999  0.6506538010968015  0.9214704321528373
  0.8250831950081050  0.1529251582138826  0.4165903076551913
  0.8257219780906624  0.1539254207370035  0.9180204594069536
  0.8290811765155652  0.6568012270779633  0.4113619878308654
  0.8277617981686092  0.6557813875395553  0.9208968480569837
  0.0960757809788433  0.4237462075202671  0.1672618749415307
  0.1016037187137613  0.4218031443534045  0.6703115428990074
  0.0941105050726705  0.9256374065199466  0.1662514289320072
  0.0905768908987028  0.9237953560532191  0.6688951342016836
  0.5945596312483161  0.4235611091800067  0.1667210356867628
  0.5966797521364100  0.4250987129484116  0.6684372617978767
  0.5953088786785656  0.9242543884450498  0.1681894948507505
  0.5887505285814711  0.9292304621268670  0.6585435703938458
  0.4050801639199975  0.0751506847861876  0.1659481187045557
  0.3992874647038818  0.0784402224156224  0.6697766363460502
  0.4040608458645920  0.5748497897694023  0.1684296111249921
  0.4107701113953368  0.5806746947516999  0.6716450488553818
  0.9041144330114008  0.0773528677272779  0.1677830853274429
  0.9011580772366230  0.0757057532525565  0.6697367563395247
  0.9065546707305927  0.5752395962635148  0.1665195604659147
  0.9124635991559487  0.5727939767081978  0.6590977699244007
  0.0756469646238713  0.0954125741168710  0.3330414960253165
  0.0778653406583274  0.1010371203449836  0.8294587065984800
  0.0771311104155714  0.5950112071845837  0.3324803894939308
  0.0743115718608252  0.5953589202165332  0.8324064457073916
  0.5743225356068677  0.0953332622240666  0.3330298863589221
  0.5777706265380971  0.0935233621640350  0.8296157607747787
  0.5759610063953247  0.5944235906202948  0.3324723105498251
  0.5757296096632132  0.5833218044558492  0.8451126931279163
  0.4250050295351286  0.4042124054811396  0.3336973063429056
  0.4211628674010655  0.3993279727076313  0.8292522340110295
  0.4231833479967122  0.9047885134870839  0.3323504459581557
  0.4255811286340858  0.9047488660125751  0.8322031747246044
  0.9249630671507560  0.4050184372673442  0.3326189188386834
  0.9219862460726347  0.4061391477787737  0.8287211544858124
  0.9239636924613990  0.9056576026210195  0.3322259898828364
  0.9270572348819286  0.9116164850391542  0.8409120067574989
 
             NaN             NaN             NaN
             NaN             NaN             NaN
             NaN             NaN             NaN
             NaN             NaN             NaN
             NaN             NaN             NaN
             NaN             NaN             NaN
             NaN             NaN             NaN
             NaN             NaN             NaN
             NaN             NaN             NaN
             NaN             NaN             NaN
             NaN             NaN             NaN
             NaN             NaN             NaN
             NaN             NaN             NaN
             NaN             NaN             NaN
             NaN             NaN             NaN
             NaN             NaN             NaN
             NaN             NaN             NaN
             NaN             NaN             NaN
             NaN             NaN             NaN
             NaN             NaN             NaN
             NaN             NaN             NaN
             NaN             NaN             NaN
             NaN             NaN             NaN
             NaN             NaN             NaN
             NaN             NaN             NaN
             NaN             NaN             NaN
             NaN             NaN             NaN
             NaN             NaN             NaN
             NaN             NaN             NaN
             NaN             NaN             NaN
             NaN             NaN             NaN
             NaN             NaN             NaN
             NaN             NaN             NaN
             NaN             NaN             NaN
             NaN             NaN             NaN
             NaN             NaN             NaN
             NaN             NaN             NaN
             NaN             NaN             NaN
             NaN             NaN             NaN
             NaN             NaN             NaN
             NaN             NaN             NaN
             NaN             NaN             NaN
             NaN             NaN             NaN
             NaN             NaN             NaN
             NaN             NaN             NaN
             NaN             NaN             NaN
             NaN             NaN             NaN
             NaN             NaN             NaN
             NaN             NaN             NaN
             NaN             NaN             NaN
             NaN             NaN             NaN
             NaN             NaN             NaN
             NaN             NaN             NaN
             NaN             NaN             NaN
             NaN             NaN             NaN
             NaN             NaN             NaN
             NaN             NaN             NaN
             NaN             NaN             NaN
             NaN             NaN             NaN
             NaN             NaN             NaN
             NaN             NaN             NaN
             NaN             NaN             NaN
             NaN             NaN             NaN
             NaN             NaN             NaN
             NaN             NaN             NaN
             NaN             NaN             NaN
             NaN             NaN             NaN
             NaN             NaN             NaN
             NaN             NaN             NaN
             NaN             NaN             NaN
             NaN             NaN             NaN
             NaN             NaN             NaN
             NaN             NaN             NaN
             NaN             NaN             NaN
             NaN             NaN             NaN
             NaN             NaN             NaN
             NaN             NaN             NaN
             NaN             NaN             NaN
             NaN             NaN             NaN
             NaN             NaN             NaN
             NaN             NaN             NaN
             NaN             NaN             NaN
             NaN             NaN             NaN
             NaN             NaN             NaN
             NaN             NaN             NaN
             NaN             NaN             NaN
             NaN             NaN             NaN
             NaN             NaN             NaN
             NaN             NaN             NaN
             NaN             NaN             NaN
             NaN             NaN             NaN
             NaN             NaN             NaN
             NaN             NaN             NaN
             NaN             NaN             NaN
             NaN             NaN             NaN
             NaN             NaN             NaN
             NaN             NaN             NaN
             NaN             NaN             NaN
             NaN             NaN             NaN
             NaN             NaN             NaN
             NaN             NaN             NaN
             NaN             NaN             NaN
             NaN             NaN             NaN
             NaN             NaN             NaN
             NaN             NaN             NaN
             NaN             NaN             NaN
             NaN             NaN             NaN
             NaN             NaN             NaN
             NaN             NaN             NaN
             NaN             NaN             NaN
             NaN             NaN             NaN
             NaN             NaN             NaN
             NaN             NaN             NaN
             NaN             NaN             NaN
             NaN             NaN             NaN
             NaN             NaN             NaN
             NaN             NaN             NaN
             NaN             NaN             NaN
             NaN             NaN             NaN
             NaN             NaN             NaN
             NaN             NaN             NaN
             NaN             NaN             NaN
             NaN             NaN             NaN
             NaN             NaN             NaN
             NaN             NaN             NaN
             NaN             NaN             NaN
             NaN             NaN             NaN
