Li46 P16 O64                            
   1.00000000000000     
    10.4269200000000009    0.0042400000000000   -0.0069030000000000
     0.0045230000000000   12.1861409999999992    0.0001020000000000
    -0.0062340000000000   -0.0004490000000000    9.7954880000000006
   Li   P    O 
    46    16    64
Direct
  0.3569684492562273  0.3654503016249479  0.1614924353972507
  0.6650227982257215  0.2481402244574556  0.6014697017721266
  0.6630628363427840  0.7464844555470038  0.0974584087085714
  0.6645746531852718  0.7511753544064951  0.5993581121133843
  0.1566315304565420  0.5004201659621279  0.1496497782215238
  0.1639521934129332  0.5002812527473878  0.6549730211351119
  0.1654358182087389  0.9939933392429003  0.1549651072896623
  0.1643740076185410  0.9989867603996555  0.6527016417366647
  0.3354046973766007 -0.0010501377895081  0.4022262216683865
  0.3368004660056350 -0.0015044299385057  0.9031042518753233
  0.3346875598925996  0.5038551399363844  0.4075313419385518
  0.3361313434693953  0.4973868069138307  0.9058613607850297
  0.8347947828260399  0.2493828082111926  0.3483996090515498
  0.8363488305606326  0.2509668398554563  0.8515438523964399
  0.8361342972319011  0.7484257158332703  0.3484198569634656
  0.8362933371619891  0.7488885028775315  0.8478102779467637
  0.3349926874944498  0.2430451696478715  0.4112602586437277
  0.3348890689109872  0.2483142085600165  0.8979065942735598
  0.3362567703343759  0.7492367760550187  0.4016990316954984
  0.3355388606027404  0.7479268783054090  0.9018056042459679
  0.8376524112349575  0.0017252718114700  0.3501164505142595
  0.8358743030960907  0.0011594774853618  0.8450219582472783
  0.8341265176674850  0.4997915662591494  0.3462021675177790
  0.8351938143728460  0.4993765922655195  0.8491460245386656
  0.6589881826281332  0.4884196658202586  0.0938046635940088
  0.6660739346728159  0.5030420103577703  0.5939468051242824
  0.6671634266415718  0.9942573899480676  0.0958491135453309
  0.6644398764350613  0.9994525135416512  0.5974436995856335
  0.1622038525912435  0.2519546891323194  0.6526002620547501
  0.1631217908289071  0.7496039893305578  0.1518095557422714
  0.1642990661020425  0.7513304623900555  0.6525660133469900
  0.9319368940089895  0.3743039158394855  0.1452893028842846
  0.9239320919193844  0.3755832105494888  0.6523462974104842
  0.9224300364873828  0.8726393800683119  0.1494920754932039
  0.9236099960427692  0.8751852300946903  0.6484397137933019
  0.4179674954150527  0.3754945664525949  0.6113931170391634
  0.4257574833418827  0.8689775257187802  0.1013842103344903
  0.4243826413214088  0.8751497701482168  0.6003953006787642
  0.0814572988388945  0.1302910492844014  0.3431104149653520
  0.0792802344277799  0.1276764045306270  0.8551757456566231
  0.0756376914676844  0.6253217443832314  0.3519413721866124
  0.0762017761581402  0.6235461132137614  0.8512259342822283
  0.5769664779390574  0.1244959706852648  0.3933962452953681
  0.5791475833465343  0.1275508208114553  0.9076382303921385
  0.5759272503531349  0.6259107598121264  0.3988710314437713
  0.5758191618545521  0.6230501455940367  0.8988364850671238
  0.9126208501290746  0.1214218698754857  0.0946767109897794
  0.9137626296878506  0.1250726858840301  0.5948863200462637
  0.9089218158584079  0.6243144590018300  0.0954726709379086
  0.9117344954415372  0.6254211223414442  0.5951013152739204
  0.4110808289323471  0.1178806704464358  0.1551411579103537
  0.4133542426668534  0.1225522147570929  0.6555871623535164
  0.4109321547295280  0.6210717473468612  0.1554289428882497
  0.4121924115224134  0.6262634807877787  0.6552010074563172
  0.0900471155309008  0.3753143325663432  0.4052447122839257
  0.0886492693907583  0.3770372766228564  0.9022700378038652
  0.0879679084650204  0.8748996584121111  0.4050456048748897
  0.0877352227708483  0.8748504722175676  0.9047819639498176
  0.5822615700430314  0.3745390974429381  0.3452438584721735
  0.5865797295064611  0.3742533811609876  0.8345038872459308
  0.5895800479131674  0.8740513351827522  0.3451500885532018
  0.5890466630028480  0.8740002948461350  0.8453885654039308
  0.8392894508671612  0.0207750623512500  0.1476710571412632
  0.8422682576751779  0.0219194656864196  0.6451440397721591
  0.8395134633045778  0.5205098177635149  0.1460037701921467
  0.8417479254782227  0.5226783351525541  0.6475760240764441
  0.3491950575130138  0.2204484893155509  0.0938632549172798
  0.3419513194099781  0.2269804973843591  0.6080834046555723
  0.3405737843718438  0.7240768331473842  0.1019942053554008
  0.3419077980948382  0.7297914140923201  0.6038673746840805
  0.1625117535225672  0.2720632904307927  0.3623183381191623
  0.1580929992451997  0.2724368038921610  0.8515109996948197
  0.1584380557844550  0.7716959687648342  0.3531187858872847
  0.1579862495343699  0.7712737846557534  0.8532777324470808
  0.6536991969502748  0.4779532328425097  0.3961853057270380
  0.6546125560780667  0.4750326384064854  0.8934942384998698
  0.6592452368139172  0.9778765361432316  0.3957854697050486
  0.6600783026653699  0.9765073360653412  0.8971641751658513
  0.1595328555172997  0.4788439826397923  0.3513501699262873
  0.1596947890841616  0.4805708861482546  0.8501085020859497
  0.1583182056871909  0.9779047420056451  0.3535798782063760
  0.1589155780707765  0.9778052852824963  0.8543717785531910
  0.6547839433484546  0.2721649707624604  0.3964583455282204
  0.6548976311709374  0.2681735679163198  0.8758769419367188
  0.6593153137895524  0.7712933595712361  0.3991203265990901
  0.6585837075009865  0.7699078928655053  0.8961706831308527
  0.8562010245906230  0.2277696016086417  0.1526253420724738
  0.8432312832762755  0.2283489043399173  0.6464640292959197
  0.8388990205246490  0.7276312874869677  0.1476628782227619
  0.8420466689815659  0.7290119878832559  0.6465238015252888
  0.3397464323303265  0.0141279594240548  0.1063055854543882
  0.3416918530725264  0.0206185486815419  0.6017897523904396
  0.3384791453535808  0.5172158936274780  0.1083968668769489
  0.3413790136477924  0.5234937197910045  0.6025588450995329
  0.5490728413105920  0.1125444745902919  0.1038736335032758
  0.5506787982253646  0.1241821227714157  0.5993187411452144
  0.5489424537128416  0.6204987345827346  0.1015274360652979
  0.5508509243421381  0.6262916278797658  0.6033818648732328
  0.0507528389146390  0.1148473162956608  0.1464052147699987
  0.0521351117290488  0.1241781509538872  0.6493985886398783
  0.0479538655290461  0.6259409066876899  0.1490702776707137
  0.0514068114908377  0.6263865441348497  0.6462298991110629
  0.4423711318097335  0.3735403631924656  0.3988224023227416
  0.4442319880965344  0.3727634345939480  0.8718713846371028
  0.4500544323696979  0.8745676761404629  0.3958865653647224
  0.4502220432393327  0.8734796417925617  0.8985814116888550
  0.9513159674046110  0.3742922825116752  0.3513883883480823
  0.9479628146723253  0.3754486656020667  0.8543989914261758
  0.9489905037347132  0.8747582440637925  0.3524998434023421
  0.9489876602298677  0.8753907376579462  0.8522280942154088
  0.5733533953932461  0.3741077277451940  0.1898386587560198
  0.5936471172405845  0.3794881804988418  0.6766016744917939
  0.5912358362455913  0.8719477804572329  0.1878297744687613
  0.5892254555059472  0.8751418805828718  0.6879749036474422
  0.0911859237248733  0.3815359277179182  0.0610909687948092
  0.0878331623993349  0.3789611319007289  0.5631296276415212
  0.0875285282070079  0.8737975669247767  0.0623048074518527
  0.0888005844978318  0.8747572500178474  0.5623573467533113
  0.4078188102953958  0.1227666436614951  0.3122980795989551
  0.4145745709445627  0.1199468852005119  0.8123675263561256
  0.4112380565137604  0.6245857259297691  0.3127933085171612
  0.4106565349047123  0.6248321266860739  0.8125549620050265
  0.9144369825160329  0.1258828231682645  0.4374422648205458
  0.9089054580428499  0.1233654266847596  0.9383506714385398
  0.9101355514342132  0.6240594046859717  0.4375935815361910
  0.9093241488924892  0.6251242330462344  0.9378953557492774
 
             NaN             NaN             NaN
             NaN             NaN             NaN
             NaN             NaN             NaN
             NaN             NaN             NaN
             NaN             NaN             NaN
             NaN             NaN             NaN
             NaN             NaN             NaN
             NaN             NaN             NaN
             NaN             NaN             NaN
             NaN             NaN             NaN
             NaN             NaN             NaN
             NaN             NaN             NaN
             NaN             NaN             NaN
             NaN             NaN             NaN
             NaN             NaN             NaN
             NaN             NaN             NaN
             NaN             NaN             NaN
             NaN             NaN             NaN
             NaN             NaN             NaN
             NaN             NaN             NaN
             NaN             NaN             NaN
             NaN             NaN             NaN
             NaN             NaN             NaN
             NaN             NaN             NaN
             NaN             NaN             NaN
             NaN             NaN             NaN
             NaN             NaN             NaN
             NaN             NaN             NaN
             NaN             NaN             NaN
             NaN             NaN             NaN
             NaN             NaN             NaN
             NaN             NaN             NaN
             NaN             NaN             NaN
             NaN             NaN             NaN
             NaN             NaN             NaN
             NaN             NaN             NaN
             NaN             NaN             NaN
             NaN             NaN             NaN
             NaN             NaN             NaN
             NaN             NaN             NaN
             NaN             NaN             NaN
             NaN             NaN             NaN
             NaN             NaN             NaN
             NaN             NaN             NaN
             NaN             NaN             NaN
             NaN             NaN             NaN
             NaN             NaN             NaN
             NaN             NaN             NaN
             NaN             NaN             NaN
             NaN             NaN             NaN
             NaN             NaN             NaN
             NaN             NaN             NaN
             NaN             NaN             NaN
             NaN             NaN             NaN
             NaN             NaN             NaN
             NaN             NaN             NaN
             NaN             NaN             NaN
             NaN             NaN             NaN
             NaN             NaN             NaN
             NaN             NaN             NaN
             NaN             NaN             NaN
             NaN             NaN             NaN
             NaN             NaN             NaN
             NaN             NaN             NaN
             NaN             NaN             NaN
             NaN             NaN             NaN
             NaN             NaN             NaN
             NaN             NaN             NaN
             NaN             NaN             NaN
             NaN             NaN             NaN
             NaN             NaN             NaN
             NaN             NaN             NaN
             NaN             NaN             NaN
             NaN             NaN             NaN
             NaN             NaN             NaN
             NaN             NaN             NaN
             NaN             NaN             NaN
             NaN             NaN             NaN
             NaN             NaN             NaN
             NaN             NaN             NaN
             NaN             NaN             NaN
             NaN             NaN             NaN
             NaN             NaN             NaN
             NaN             NaN             NaN
             NaN             NaN             NaN
             NaN             NaN             NaN
             NaN             NaN             NaN
             NaN             NaN             NaN
             NaN             NaN             NaN
             NaN             NaN             NaN
             NaN             NaN             NaN
             NaN             NaN             NaN
             NaN             NaN             NaN
             NaN             NaN             NaN
             NaN             NaN             NaN
             NaN             NaN             NaN
             NaN             NaN             NaN
             NaN             NaN             NaN
             NaN             NaN             NaN
             NaN             NaN             NaN
             NaN             NaN             NaN
             NaN             NaN             NaN
             NaN             NaN             NaN
             NaN             NaN             NaN
             NaN             NaN             NaN
             NaN             NaN             NaN
             NaN             NaN             NaN
             NaN             NaN             NaN
             NaN             NaN             NaN
             NaN             NaN             NaN
             NaN             NaN             NaN
             NaN             NaN             NaN
             NaN             NaN             NaN
             NaN             NaN             NaN
             NaN             NaN             NaN
             NaN             NaN             NaN
             NaN             NaN             NaN
             NaN             NaN             NaN
             NaN             NaN             NaN
             NaN             NaN             NaN
             NaN             NaN             NaN
             NaN             NaN             NaN
             NaN             NaN             NaN
             NaN             NaN             NaN
             NaN             NaN             NaN
             NaN             NaN             NaN
