Na47 P16 S64
1.0
13.682478 -0.008270 0.000021
-0.008317 13.696615 -0.000215
-0.000051 0.000167 14.066731
Na P S
47 16 64
direct
0.612384 0.748920 0.734709 Na
0.999890 0.250364 0.206645 Na
0.999365 0.250279 0.705859 Na
0.999574 0.750382 0.211519 Na
0.986403 0.751751 0.717056 Na
0.500115 0.249638 0.207942 Na
0.500629 0.249723 0.707406 Na
0.500441 0.749624 0.209952 Na
0.249613 0.999742 0.291047 Na
0.248516 0.998806 0.790042 Na
0.251044 0.500598 0.294362 Na
0.250647 0.502312 0.793110 Na
0.748938 0.999079 0.291967 Na
0.747875 0.984722 0.786517 Na
0.750392 0.500588 0.288648 Na
0.752959 0.514170 0.783446 Na
0.252492 0.999081 0.040078 Na
0.245305 1.000006 0.541112 Na
0.247757 0.499721 0.044552 Na
0.254133 0.502897 0.545062 Na
0.752358 1.000271 0.040836 Na
0.745597 0.998073 0.541161 Na
0.747395 0.500919 0.036362 Na
0.754952 0.499021 0.537214 Na
0.500128 0.251223 0.458301 Na
0.501028 0.247671 0.956252 Na
0.500134 0.751329 0.470163 Na
0.500057 0.747400 0.953140 Na
0.999867 0.248792 0.455936 Na
0.998971 0.252332 0.955545 Na
0.999872 0.748677 0.464056 Na
0.999941 0.752596 0.961357 Na
0.994528 0.999136 0.501259 Na
0.002925 0.007262 0.000575 Na
0.008179 0.495909 0.499423 Na
0.998188 0.500163 0.998742 Na
0.493403 0.001415 0.499753 Na
0.505298 0.997262 0.999225 Na
0.503885 0.503569 0.501584 Na
0.493600 0.495322 0.001056 Na
0.249415 0.251186 0.249919 Na
0.249220 0.251617 0.750025 Na
0.251211 0.749465 0.250353 Na
0.276237 0.749321 0.749921 Na
0.750596 0.248818 0.249433 Na
0.750776 0.248385 0.750206 Na
0.748806 0.750531 0.249872 Na
0.499890 0.499691 0.250407 P
0.500615 0.498755 0.751638 P
0.499717 0.000005 0.250261 P
0.498136 0.999738 0.748452 P
0.000695 0.499782 0.249840 P
0.002199 0.499055 0.748421 P
-0.000307 0.000504 0.249981 P
0.999034 0.002442 0.751606 P
0.250050 0.250307 -0.000012 P
0.249625 0.250812 0.499665 P
0.250475 0.748613 0.000799 P
0.249654 0.751692 0.499808 P
0.749950 0.249696 0.999669 P
0.750365 0.249192 0.498981 P
0.749522 0.751387 0.001455 P
0.750349 0.748305 0.498156 P
0.153858 0.173686 0.082956 S
0.152795 0.174667 0.582008 S
0.152735 0.674813 0.084362 S
0.155160 0.675957 0.584508 S
0.653722 0.173551 0.083231 S
0.653466 0.174376 0.582180 S
0.653792 0.673934 0.084252 S
0.654816 0.668685 0.577719 S
0.346804 0.325871 0.083260 S
0.346369 0.326077 0.582694 S
0.347235 0.824840 0.083215 S
0.345520 0.829617 0.580588 S
0.845625 0.326892 0.082936 S
0.847360 0.324876 0.581505 S
0.846233 0.826412 0.085404 S
0.844521 0.825743 0.581639 S
0.173828 0.347774 0.417154 S
0.173984 0.347431 0.918210 S
0.171806 0.845251 0.415001 S
0.176393 0.843579 0.915439 S
0.675192 0.345653 0.415431 S
0.674567 0.345315 0.916136 S
0.672897 0.844520 0.415612 S
0.671565 0.849455 0.922508 S
0.325321 0.154670 0.416157 S
0.325437 0.154279 0.916618 S
0.326981 0.655291 0.417388 S
0.326291 0.649651 0.920637 S
0.825655 0.151896 0.416434 S
0.826014 0.152961 0.917722 S
0.828324 0.654917 0.413229 S
0.825760 0.657297 0.917324 S
0.097249 0.423542 0.167325 S
0.101540 0.422023 0.669409 S
0.095633 0.924806 0.166287 S
0.092212 0.923941 0.667824 S
0.595386 0.424009 0.166184 S
0.597299 0.424353 0.667365 S
0.596706 0.924267 0.168101 S
0.590602 0.923722 0.662479 S
0.404124 0.075596 0.166107 S
0.400631 0.077430 0.667829 S
0.402537 0.575455 0.168371 S
0.407269 0.578869 0.669601 S
0.903240 0.076850 0.167409 S
0.900516 0.076203 0.668958 S
0.905124 0.575467 0.166027 S
0.909907 0.573470 0.660712 S
0.076108 0.096509 0.333090 S
0.077680 0.100785 0.830524 S
0.076516 0.595954 0.333222 S
0.074799 0.595849 0.833453 S
0.575033 0.096821 0.333548 S
0.577876 0.095016 0.829915 S
0.576109 0.595809 0.333026 S
0.576570 0.588708 0.840570 S
0.424660 0.403139 0.333968 S
0.422216 0.400001 0.830556 S
0.423476 0.903872 0.333093 S
0.422717 0.906242 0.834536 S
0.924199 0.403536 0.332673 S
0.922216 0.404203 0.829886 S
0.923905 0.904365 0.333153 S
0.925909 0.909205 0.839479 S
