Li16 Co18 O36
1.0
8.140538 -0.000304 2.411270
3.714363 7.228394 2.406698
-0.021162 -0.018670 10.034153
Li Co O
16 18 36
direct
0.320832 0.359639 0.497825 Li
0.335637 0.331619 1.002990 Li
0.336390 0.665753 0.998957 Li
0.336926 0.998176 -0.000689 Li
0.334951 -0.010896 0.504110 Li
0.666743 0.333129 0.999713 Li
0.660104 0.344261 0.495877 Li
0.666682 0.666655 0.000005 Li
0.666685 0.666669 0.499997 Li
0.666547 1.000201 1.000316 Li
0.673246 -0.010968 0.504131 Li
0.996378 0.335129 0.000728 Li
-0.001609 0.344149 0.495864 Li
0.996905 0.667599 0.001062 Li
0.997653 0.001707 0.997009 Li
1.012509 0.973642 0.502182 Li
0.166687 0.167758 0.248255 Co
0.166629 0.165550 0.751750 Co
0.165830 0.501001 0.248058 Co
0.166805 0.501596 0.747480 Co
0.166528 0.831731 0.252485 Co
0.167515 0.832352 0.751943 Co
0.499670 0.167167 0.250231 Co
0.500033 0.165595 0.751902 Co
0.501110 0.500980 0.247905 Co
0.500001 0.500573 0.749436 Co
0.500180 0.832733 0.250526 Co
0.498788 0.832828 0.754474 Co
0.833319 0.167724 0.248125 Co
0.833658 0.166160 0.749779 Co
0.834555 0.500543 0.245554 Co
0.833135 0.500600 0.749439 Co
0.833370 0.832754 0.250567 Co
0.832217 0.832398 0.752086 Co
0.252186 0.255557 0.357357 O
0.251256 0.257994 0.858952 O
0.255521 0.590063 0.348496 O
0.253164 0.584046 0.858835 O
0.251237 0.923007 0.354021 O
0.250724 0.920528 0.863505 O
0.587352 0.255639 0.357190 O
0.587458 0.253617 0.858993 O
0.593006 0.585528 0.352862 O
0.587676 0.584223 0.860702 O
0.587145 0.919571 0.359069 O
0.586446 0.920399 0.863653 O
0.920711 0.254847 0.355364 O
0.919887 0.253458 0.859096 O
0.919441 0.585497 0.353033 O
0.923694 0.583965 0.858853 O
0.922887 0.923138 0.354068 O
0.919783 0.920206 0.860863 O
0.082042 0.075332 0.141040 O
0.081145 0.077766 0.642663 O
0.082660 0.412809 0.136493 O
0.082085 0.410287 0.645948 O
0.080191 0.749279 0.141111 O
0.077846 0.743267 0.651464 O
0.413402 0.079895 0.140915 O
0.412596 0.078540 0.644679 O
0.413513 0.413153 0.139192 O
0.410455 0.410174 0.645936 O
0.409639 0.749372 0.141088 O
0.413936 0.747875 0.646980 O
0.745881 0.079718 0.141039 O
0.745964 0.077735 0.642789 O
0.746923 0.412956 0.136372 O
0.746215 0.413726 0.640920 O
0.745672 0.749124 0.139272 O
0.740323 0.747868 0.647115 O
