Li47 P16 O64                            
   1.00000000000000     
    10.5863709999999998    0.0011740000000000    0.0015310000000000
     0.0013690000000000   12.3080560000000006    0.0024840000000000
     0.0014160000000000    0.0019810000000000    9.9873100000000008
   Li   P    O 
    47    16    64
Direct
  0.3576745057088319  0.3691395055827007  0.1428932169819979
  0.6588573424968505  0.2519906732422377  0.0984330321904349
  0.6652472892082011  0.2488405063114980  0.5979516092344919
  0.6600051708419213  0.7478008413143192  0.0983353947424187
  0.6634346160824082  0.7501245628592752  0.5989565886376710
  0.1556938013023008  0.5050929567757382  0.1525172752428785
  0.1642737067010434  0.5020382793499938  0.6508706943017597
  0.1646231666092386  0.0013437481146519  0.1490967147295408
  0.1635139828345254  0.0005589647143769  0.6511418934100682
  0.3364066549428804  0.0003252183864513  0.3997074227638164
  0.3364962017423530  0.9990850090018506  0.9010678609585747
  0.3365541868799617  0.5014940936238841  0.4042008092430632
  0.3363797485340226  0.4994522161702397  0.9019469915845606
  0.8359413820540147  0.2491971120306503  0.3489491930283687
  0.8354724910795283  0.2495516165716091  0.8511396812916755
  0.8352406789872878  0.7486524128584530  0.3490149346557700
  0.8357608543591513  0.7494394511859404  0.8488409740411554
  0.3379813076694704  0.2455756084766422  0.4048126205151384
  0.3360660549597963  0.2479914978684773  0.8998141372529228
  0.3362521622375169  0.7486264602493881  0.4008822390668645
  0.3351092051575925  0.7480345730857691  0.9012461079372205
  0.8372845680916812  0.0016499861666401  0.3499178981058796
  0.8360091586788151  0.0007554190079216  0.8471139943839426
  0.8354328897367010  0.4990712486548210  0.3463474216127914
  0.8349549922842514  0.5009789527749556  0.8529139771973971
  0.6581197548563062  0.4948429935082237  0.0977686081461414
  0.6655046648641879  0.4992291832193781  0.5982806811152755
  0.6625358290793877  0.9935421025149609  0.0967208655406220
  0.6644372093941288  0.9975307592801281  0.5984233312447167
  0.1637138365267777  0.2521699310752495  0.6477886052488881
  0.1621082984161718  0.7525485531683384  0.1521947197470132
  0.1638860878881640  0.7526374935241411  0.6503127901043761
  0.9352711452154904  0.3691047844993678  0.1479580093646026
  0.9245337554579404  0.3761359565397966  0.6535883701803624
  0.9240276750594891  0.8741890478618638  0.1480394231417177
  0.9258584300468083  0.8757155839533017  0.6484422093880530
  0.4259360800797105  0.3742073741700412  0.6047994571926079
  0.4247718967526296  0.8720086588919236  0.1015244861558441
  0.4254264194856492  0.8744324867787933  0.6002477028162800
  0.0780878039219813  0.1321724018563961  0.3422705930939983
  0.0755875750273701  0.1276611485577503  0.8551666661993255
  0.0731936056217599  0.6265611494445185  0.3539108043574676
  0.0733796298693363  0.6262894460578659  0.8497716505059695
  0.5757062308863232  0.1237413247992082  0.3981486756025085
  0.5748188738503294  0.1226128065215694  0.8980910754980133
  0.5739791354152940  0.6234077015926623  0.3989778336598129
  0.5726616626421697  0.6229050249703897  0.8980070588524630
  0.9076518632275843  0.1229701520281046  0.0964378808845054
  0.9126027781737478  0.1257522343439452  0.5968736395965716
  0.9081079507092156  0.6254711761134006  0.0973529806768533
  0.9108305530418414  0.6256616669578345  0.5969263631795750
  0.4138469598245769  0.1214847785374605  0.1519376338506203
  0.4122652844176837  0.1230880349187933  0.6536230907994048
  0.4079494942969946  0.6237844953582523  0.1536992514974393
  0.4112542542278457  0.6248422761084911  0.6535691464278797
  0.0896241254311791  0.3759931774866636  0.4060681115024876
  0.0903063180139490  0.3776212760721208  0.9033998968253498
  0.0888868775390224  0.8761841704629525  0.4027722808866886
  0.0882448341506682  0.8756046673914345  0.9032131830592982
  0.5880140110442448  0.3737467227557469  0.3462054517014389
  0.5866357028483298  0.3739521709227834  0.8426534500149326
  0.5885072682383551  0.8734342777676708  0.3465840564335866
  0.5881809277971741  0.8728459830790565  0.8457395642303179
  0.8357990183769517  0.0196277820826173  0.1466204490400599
  0.8417943052437596  0.0219933241884974  0.6469478658688351
  0.8398522352229549  0.5206539022673841  0.1466797411896241
  0.8418026340131135  0.5227882580765956  0.6513112243975852
  0.3493449678063254  0.2236843725648019  0.0940078057128137
  0.3430097311226656  0.2274189003034221  0.6036682128019941
  0.3387688294061886  0.7279069549511767  0.1028316731673791
  0.3412242483547205  0.7282198801696007  0.6016641382161542
  0.1629613535041087  0.2716412125571644  0.3682249707591421
  0.1588371320388478  0.2742632871372829  0.8497477505684100
  0.1589866924297003  0.7721326791050518  0.3529658042983591
  0.1584679242219126  0.7722168251198580  0.8515706456958346
  0.6575747956622043  0.4772212814364734  0.3995057009733211
  0.6556198843116692  0.4768253455397813  0.8971068227595496
  0.6592738513640031  0.9767656452968503  0.3971234800407468
  0.6590062539672985  0.9759262039702121  0.8969126825810477
  0.1595355187920649  0.4789359896629070  0.3523316028765341
  0.1582018871625156  0.4809560140728253  0.8472642457941475
  0.1590644132245100  0.9791381076163762  0.3507357842745713
  0.1586401452012599  0.9791188616298968  0.8525938164011373
  0.6576869423647091  0.2704629250314828  0.3998942701941073
  0.6544450117662061  0.2702683683529671  0.8972723144703875
  0.6580844804036473  0.7699587759821792  0.3985818166814779
  0.6578149311955990  0.7690980258398975  0.8968983777815090
  0.8392444104533846  0.2271681943465296  0.1478100347540701
  0.8422048590987884  0.2288677894419507  0.6493949537110228
  0.8361541757985370  0.7282880696802491  0.1479591488794234
  0.8409592386980365  0.7295710453841566  0.6472206604115699
  0.3434527963563970  0.0178003339739507  0.1023697760762586
  0.3412234581331490  0.0206500421072415  0.6006836135052402
  0.3337044775304147  0.5218318212338022  0.1041772370283418
  0.3418326908455985  0.5213780322022059  0.6014000508718297
  0.5532618600979984  0.1196177685594262  0.1018168818380834
  0.5506423433719623  0.1228433896631819  0.6011631796224355
  0.5452618805247816  0.6221743984074477  0.0989721224563247
  0.5499584590244897  0.6247027040128297  0.6022238013083967
  0.0436895376686678  0.1179530695118617  0.1512040202467871
  0.0503907474129063  0.1259019055982525  0.6506035211865777
  0.0456649143025797  0.6285266312374302  0.1522313849861920
  0.0499291627061514  0.6273639881700879  0.6469480290992279
  0.4479540197782887  0.3738640223328293  0.3961414728217898
  0.4451184504781627  0.3741807057381258  0.8817317847631322
  0.4500668215793800  0.8742710963696400  0.3988398477531470
  0.4499338033114554  0.8730962085624543  0.8984664213885595
  0.9527931706291991  0.3735021027826897  0.3494134592096888
  0.9499319691547672  0.3756211994662014  0.8552840964256621
  0.9504337264408254  0.8751773959482738  0.3501165882405373
  0.9499523830861069  0.8753973008291162  0.8505542351624410
  0.5889808335262952  0.3734099921164139  0.1912868019168658
  0.5951284470858398  0.3739666228166157  0.6863057601996714
  0.5881308758803701  0.8721047927591816  0.1903024173368534
  0.5886783057843630  0.8735942946723334  0.6894680519831102
  0.0953110548312978  0.3819306685834791  0.0579881590435797
  0.0853390717835347  0.3808580100207196  0.5625890253668954
  0.0881935760996702  0.8752913717649546  0.0594931092244931
  0.0889757181719213  0.8767401958457046  0.5591113289812065
  0.4120224944631816  0.1239438936912284  0.3080959684719584
  0.4114915571963331  0.1217502223996210  0.8097009771596396
  0.4099152439826250  0.6241495437181812  0.3099833103390360
  0.4094126641786053  0.6247134027212148  0.8097429897103589
  0.9125177427042982  0.1263428167303832  0.4406197084980435
  0.9082000003484390  0.1242116166622871  0.9401569019612607
  0.9085967602937232  0.6237116541724264  0.4405436222522988
  0.9102655862625875  0.6261584177365790  0.9409569558386974
 
             NaN             NaN             NaN
             NaN             NaN             NaN
             NaN             NaN             NaN
             NaN             NaN             NaN
             NaN             NaN             NaN
             NaN             NaN             NaN
             NaN             NaN             NaN
             NaN             NaN             NaN
             NaN             NaN             NaN
             NaN             NaN             NaN
             NaN             NaN             NaN
             NaN             NaN             NaN
             NaN             NaN             NaN
             NaN             NaN             NaN
             NaN             NaN             NaN
             NaN             NaN             NaN
             NaN             NaN             NaN
             NaN             NaN             NaN
             NaN             NaN             NaN
             NaN             NaN             NaN
             NaN             NaN             NaN
             NaN             NaN             NaN
             NaN             NaN             NaN
             NaN             NaN             NaN
             NaN             NaN             NaN
             NaN             NaN             NaN
             NaN             NaN             NaN
             NaN             NaN             NaN
             NaN             NaN             NaN
             NaN             NaN             NaN
             NaN             NaN             NaN
             NaN             NaN             NaN
             NaN             NaN             NaN
             NaN             NaN             NaN
             NaN             NaN             NaN
             NaN             NaN             NaN
             NaN             NaN             NaN
             NaN             NaN             NaN
             NaN             NaN             NaN
             NaN             NaN             NaN
             NaN             NaN             NaN
             NaN             NaN             NaN
             NaN             NaN             NaN
             NaN             NaN             NaN
             NaN             NaN             NaN
             NaN             NaN             NaN
             NaN             NaN             NaN
             NaN             NaN             NaN
             NaN             NaN             NaN
             NaN             NaN             NaN
             NaN             NaN             NaN
             NaN             NaN             NaN
             NaN             NaN             NaN
             NaN             NaN             NaN
             NaN             NaN             NaN
             NaN             NaN             NaN
             NaN             NaN             NaN
             NaN             NaN             NaN
             NaN             NaN             NaN
             NaN             NaN             NaN
             NaN             NaN             NaN
             NaN             NaN             NaN
             NaN             NaN             NaN
             NaN             NaN             NaN
             NaN             NaN             NaN
             NaN             NaN             NaN
             NaN             NaN             NaN
             NaN             NaN             NaN
             NaN             NaN             NaN
             NaN             NaN             NaN
             NaN             NaN             NaN
             NaN             NaN             NaN
             NaN             NaN             NaN
             NaN             NaN             NaN
             NaN             NaN             NaN
             NaN             NaN             NaN
             NaN             NaN             NaN
             NaN             NaN             NaN
             NaN             NaN             NaN
             NaN             NaN             NaN
             NaN             NaN             NaN
             NaN             NaN             NaN
             NaN             NaN             NaN
             NaN             NaN             NaN
             NaN             NaN             NaN
             NaN             NaN             NaN
             NaN             NaN             NaN
             NaN             NaN             NaN
             NaN             NaN             NaN
             NaN             NaN             NaN
             NaN             NaN             NaN
             NaN             NaN             NaN
             NaN             NaN             NaN
             NaN             NaN             NaN
             NaN             NaN             NaN
             NaN             NaN             NaN
             NaN             NaN             NaN
             NaN             NaN             NaN
             NaN             NaN             NaN
             NaN             NaN             NaN
             NaN             NaN             NaN
             NaN             NaN             NaN
             NaN             NaN             NaN
             NaN             NaN             NaN
             NaN             NaN             NaN
             NaN             NaN             NaN
             NaN             NaN             NaN
             NaN             NaN             NaN
             NaN             NaN             NaN
             NaN             NaN             NaN
             NaN             NaN             NaN
             NaN             NaN             NaN
             NaN             NaN             NaN
             NaN             NaN             NaN
             NaN             NaN             NaN
             NaN             NaN             NaN
             NaN             NaN             NaN
             NaN             NaN             NaN
             NaN             NaN             NaN
             NaN             NaN             NaN
             NaN             NaN             NaN
             NaN             NaN             NaN
             NaN             NaN             NaN
             NaN             NaN             NaN
             NaN             NaN             NaN
             NaN             NaN             NaN
             NaN             NaN             NaN
