Na15 V32 O64                            
   1.00000000000000     
     9.2151409999999991    0.0001160000000000   -0.0022160000000000
     0.0001450000000000   11.5237750000000005    0.0000630000000000
    -0.0025700000000000    0.0000590000000000   10.7092729999999996
   Na   V    O 
    15    32    64
Direct
  0.7393487192809104  0.3579692865124079  0.1609559341919553
  0.7419274661769477  0.0684284749092302  0.1513362597502407
  0.7410503722597347  0.7955495860530615  0.1530523508055742
  0.2415271674817422  0.0624479340806144  0.3481423353412934
  0.2417383879346785  0.3130151879013677  0.3483709046389778
  0.2422411512445951  0.5623268789894390  0.3476931269119121
  0.2418119157135607  0.8123866080932368  0.3486518989060005
  0.2582325304342331  0.1872174084337227  0.8487844767974471
  0.2589185907972338  0.4375145962128647  0.8479529423474844
  0.2585217646498297  0.6879441936544617  0.8481931692641959
  0.2582491126079275  0.9376540841370534  0.8489453546295805
  0.7584628177164369  0.1878405510498117  0.6509648889921684
  0.7580676473951607  0.4371981624801495  0.6510234349641164
  0.7583490991792565  0.6879051607251599  0.6509061399128978
  0.7584088970925690  0.9371125468889815  0.6510379610610582
  0.5869980668834178  0.0625736567937963  0.8968401016253547
  0.5866549498083904  0.3124762362352673  0.8952579826391981
  0.5897871119048533  0.5636586622570028  0.8985027185173475
  0.5862798677525887  0.8127509948900049  0.8954121327295655
  0.0856339920844021  0.0622846951641848  0.6036259711829628
  0.0884667455638722  0.3121344256111653  0.6039622045543103
  0.0869941810483724  0.5629119485364320  0.6038687829448983
  0.0879602018901855  0.8128614543601770  0.6037223572504481
  0.4147112306293719  0.1884142957396521  0.1040672442935036
  0.4106846167253494  0.4388333924187257  0.1030248920592349
  0.4129298351029966  0.6867196145939592  0.1036462802913675
  0.4142418087766059  0.9373519097023327  0.1042530978679540
  0.9125610148614062  0.1881476453846350  0.3956649653759668
  0.9136951420910517  0.4384480735304462  0.3972725777768559
  0.9125910855880179  0.6871755048052324  0.3958359680199438
  0.9124330812018784  0.9372508457573913  0.3954039653988243
  0.5616708808300448  0.0629082067309231  0.3849005285827636
  0.5596520026519254  0.3120427862953702  0.3867296683519587
  0.5641972828232822  0.5632458990256525  0.3805522145907516
  0.5599858859155382  0.8119177665732078  0.3863082983999097
  0.0609140907708355  0.0633143644561869  0.1147401419851735
  0.0607578435478501  0.3110871852642593  0.1144145631290797
  0.0546351867111251  0.5643908086028407  0.1156148607056180
  0.0616157251639534  0.8125346795505398  0.1147229937126595
  0.4384744028410134  0.1851018735069515  0.6150976750120266
  0.4402765308990905  0.4405207316875434  0.6143988513278189
  0.4397403652339755  0.6847529322855263  0.6143202146389296
  0.4386058091723222  0.9397875566873808  0.6148519356273723
  0.9385592527215026  0.1877751269252633  0.8851562846795966
  0.9403040792162506  0.4379008961156901  0.8844423724913256
  0.9392968291821142  0.6877585589739027  0.8848051826870175
  0.9388567061082919  0.9375073185033618  0.8857933340471675
  0.7930581140105110  0.0626040963348231  0.8532560980961097
  0.7932911859447666  0.3129450139455021  0.8522647035108036
  0.7942710170462728  0.5626110196876017  0.8517660992912921
  0.7929498945400688  0.8127155751545480  0.8525994600149379
  0.2913609387572198  0.0623932814310682  0.6479136981323449
  0.2949849037811709  0.3125612770410673  0.6457952388693641
  0.2926053804692165  0.5625406665768297  0.6476441358582042
  0.2946750020385831  0.8126455631563638  0.6457929268369510
  0.2077215058433078  0.1876565030795215  0.1475907377941915
  0.2048796538664332  0.4376797432065653  0.1459858428303117
  0.2062027068779343  0.6876924200894931  0.1468678952533613
  0.2069551852164031  0.9378915738352406  0.1468456166113423
  0.7064847760825471  0.1877574393931807  0.3558824495037205
  0.7066379327075156  0.4365385249831713  0.3610661089224099
  0.7068836408475875  0.6895129853669768  0.3581560223012143
  0.7061203134945355  0.9373700970470170  0.3550273935198370
  0.8887696869072423  0.0625143108410520  0.5195711270266797
  0.8901321119239076  0.3124876795287382  0.5206397777758899
  0.8896426182492185  0.5629077215536812  0.5210331852130229
  0.8896054117437988  0.8127104344039769  0.5200241118816258
  0.3890268268259388  0.0626129730165795  0.9806962763645480
  0.3872462398728336  0.3122888420928038  0.9797879585382547
  0.3864775107122915  0.5632324474340129  0.9792787879868621
  0.3880396774916003  0.8131286821525936  0.9800866210455300
  0.1115578433253820  0.1874027482521301  0.4795811332916189
  0.1123543031988786  0.4375659360717415  0.4801587788053041
  0.1119878254868237  0.6877795052892582  0.4799217768579878
  0.1113809381768689  0.9375981968042904  0.4794265229964476
  0.6110788344073548  0.1889354617538159  0.0193671632712952
  0.6062294924348455  0.4383773044458801  0.0152890097866964
  0.6083842029286627  0.6878673199466722  0.0172178002234786
  0.6118369696835133  0.9371330968376013  0.0204173047261209
  0.9788433190318429  0.0629975906183299  0.2825198683065407
  0.9780974276803814  0.3134314548961493  0.2824897138828675
  0.9804789475442519  0.5625511649149076  0.2844932007996576
  0.9791393162184322  0.8122076690139153  0.2824033476069736
  0.4804801109984659  0.0629313004846111  0.2173161092747300
  0.4798949863066515  0.3141440218803375  0.2169800354393463
  0.4764129052596086  0.5621065729900412  0.2169558346503233
  0.4793396948150223  0.8120091115962683  0.2174822528954228
  0.0204691521937519  0.1874864350900790  0.7168248430014048
  0.0214540323449753  0.4372073557070054  0.7165663660708109
  0.0210173026094736  0.6881584407749146  0.7166539762332917
  0.0203965064105466  0.9374562886953665  0.7170975184914489
  0.5198252137961517  0.1867585244616211  0.7827501205519118
  0.5210418674176577  0.4383193169621328  0.7820940369613906
  0.5209083351980057  0.6871879658423743  0.7821905839606005
  0.5195999736542064  0.9384767758375102  0.7829863071873429
  0.5804647850355560  0.0625023643933766  0.5706850221788560
  0.5761323601202520  0.3118620789963664  0.5722390920195732
  0.5810590400589000  0.5629269602949213  0.5690327457657703
  0.5761722944667814  0.8128443102542598  0.5721139393395480
  0.0785506739208547  0.0626851772070273  0.9292692980807449
  0.0793772146867410  0.3117669302547222  0.9279297534603446
  0.0787986889691942  0.5633420530480191  0.9278285915694854
  0.0792657355265716  0.8132182955333095  0.9286098380126655
  0.4204926038467240  0.1868588839931455  0.4294694762072208
  0.4226965790019584  0.4381626158476047  0.4291787264599580
  0.4216831601183459  0.6868920313158358  0.4290764727604922
  0.4214360655440605  0.9381725334933906  0.4293897219964328
  0.9213891561955114  0.1885037731001596  0.0696769476888822
  0.9275804317212164  0.4377588489945691  0.0677017140121853
  0.9238529834824296  0.6884246704026667  0.0681618883056334
  0.9218327133536265  0.9374419760074953  0.0708325790021217
 
             NaN             NaN             NaN
             NaN             NaN             NaN
             NaN             NaN             NaN
             NaN             NaN             NaN
             NaN             NaN             NaN
             NaN             NaN             NaN
             NaN             NaN             NaN
             NaN             NaN             NaN
             NaN             NaN             NaN
             NaN             NaN             NaN
             NaN             NaN             NaN
             NaN             NaN             NaN
             NaN             NaN             NaN
             NaN             NaN             NaN
             NaN             NaN             NaN
             NaN             NaN             NaN
             NaN             NaN             NaN
             NaN             NaN             NaN
             NaN             NaN             NaN
             NaN             NaN             NaN
             NaN             NaN             NaN
             NaN             NaN             NaN
             NaN             NaN             NaN
             NaN             NaN             NaN
             NaN             NaN             NaN
             NaN             NaN             NaN
             NaN             NaN             NaN
             NaN             NaN             NaN
             NaN             NaN             NaN
             NaN             NaN             NaN
             NaN             NaN             NaN
             NaN             NaN             NaN
             NaN             NaN             NaN
             NaN             NaN             NaN
             NaN             NaN             NaN
             NaN             NaN             NaN
             NaN             NaN             NaN
             NaN             NaN             NaN
             NaN             NaN             NaN
             NaN             NaN             NaN
             NaN             NaN             NaN
             NaN             NaN             NaN
             NaN             NaN             NaN
             NaN             NaN             NaN
             NaN             NaN             NaN
             NaN             NaN             NaN
             NaN             NaN             NaN
             NaN             NaN             NaN
             NaN             NaN             NaN
             NaN             NaN             NaN
             NaN             NaN             NaN
             NaN             NaN             NaN
             NaN             NaN             NaN
             NaN             NaN             NaN
             NaN             NaN             NaN
             NaN             NaN             NaN
             NaN             NaN             NaN
             NaN             NaN             NaN
             NaN             NaN             NaN
             NaN             NaN             NaN
             NaN             NaN             NaN
             NaN             NaN             NaN
             NaN             NaN             NaN
             NaN             NaN             NaN
             NaN             NaN             NaN
             NaN             NaN             NaN
             NaN             NaN             NaN
             NaN             NaN             NaN
             NaN             NaN             NaN
             NaN             NaN             NaN
             NaN             NaN             NaN
             NaN             NaN             NaN
             NaN             NaN             NaN
             NaN             NaN             NaN
             NaN             NaN             NaN
             NaN             NaN             NaN
             NaN             NaN             NaN
             NaN             NaN             NaN
             NaN             NaN             NaN
             NaN             NaN             NaN
             NaN             NaN             NaN
             NaN             NaN             NaN
             NaN             NaN             NaN
             NaN             NaN             NaN
             NaN             NaN             NaN
             NaN             NaN             NaN
             NaN             NaN             NaN
             NaN             NaN             NaN
             NaN             NaN             NaN
             NaN             NaN             NaN
             NaN             NaN             NaN
             NaN             NaN             NaN
             NaN             NaN             NaN
             NaN             NaN             NaN
             NaN             NaN             NaN
             NaN             NaN             NaN
             NaN             NaN             NaN
             NaN             NaN             NaN
             NaN             NaN             NaN
             NaN             NaN             NaN
             NaN             NaN             NaN
             NaN             NaN             NaN
             NaN             NaN             NaN
             NaN             NaN             NaN
             NaN             NaN             NaN
             NaN             NaN             NaN
             NaN             NaN             NaN
             NaN             NaN             NaN
             NaN             NaN             NaN
             NaN             NaN             NaN
             NaN             NaN             NaN
