Na15 V32 O64
1.0
9.215141 0.000116 -0.002216
0.000145 11.523775 0.000063
-0.002570 0.000059 10.709273
Na V O
15 32 64
direct
0.740830 0.359209 0.153824 Na
0.741869 0.065125 0.151330 Na
0.740952 0.794487 0.153392 Na
0.241590 0.062616 0.348262 Na
0.241871 0.312868 0.348708 Na
0.242135 0.562511 0.347722 Na
0.241831 0.812352 0.348839 Na
0.258258 0.187251 0.848971 Na
0.258662 0.437367 0.848233 Na
0.258561 0.687520 0.848427 Na
0.258278 0.937582 0.848911 Na
0.758331 0.187800 0.650963 Na
0.758364 0.437137 0.651053 Na
0.758325 0.687698 0.650956 Na
0.758385 0.937070 0.651016 Na
0.586881 0.062546 0.896696 V
0.586610 0.312735 0.895723 V
0.589712 0.562438 0.899260 V
0.586144 0.812288 0.895350 V
0.085783 0.062515 0.603799 V
0.088040 0.312429 0.603889 V
0.086636 0.562520 0.603721 V
0.087983 0.812595 0.603863 V
0.413992 0.188035 0.104088 V
0.412117 0.438294 0.103595 V
0.412410 0.686521 0.103733 V
0.414276 0.937121 0.104146 V
0.912783 0.188023 0.395672 V
0.912601 0.437849 0.396045 V
0.912659 0.687054 0.395934 V
0.912678 0.937119 0.395679 V
0.561659 0.062694 0.385006 V
0.560401 0.312735 0.385712 V
0.564086 0.562550 0.380715 V
0.560056 0.812163 0.386362 V
0.060720 0.062398 0.114713 V
0.060615 0.312193 0.114829 V
0.054341 0.562543 0.115705 V
0.061542 0.812762 0.114702 V
0.438793 0.185661 0.614842 V
0.440319 0.440059 0.614286 V
0.440108 0.684749 0.614389 V
0.438657 0.939540 0.614860 V
0.938815 0.187750 0.885489 V
0.939712 0.437559 0.885129 V
0.939480 0.687419 0.885117 V
0.938763 0.937223 0.885514 V
0.793144 0.062517 0.853593 O
0.793192 0.312509 0.852847 O
0.794187 0.562493 0.852613 O
0.792983 0.812441 0.852959 O
0.291735 0.062525 0.647588 O
0.294799 0.312527 0.645619 O
0.292753 0.562502 0.647291 O
0.294687 0.812482 0.645601 O
0.206935 0.187291 0.146647 O
0.205303 0.437481 0.145976 O
0.205570 0.687531 0.146041 O
0.207195 0.937674 0.146930 O
0.706528 0.187513 0.355391 O
0.706664 0.435967 0.358522 O
0.706731 0.689214 0.358016 O
0.706343 0.937272 0.355073 O
0.889028 0.062527 0.519412 O
0.889837 0.312436 0.520029 O
0.889472 0.562516 0.520170 O
0.889763 0.812550 0.519903 O
0.389092 0.062469 0.980807 O
0.387924 0.312201 0.980119 O
0.387274 0.562532 0.979824 O
0.388128 0.812764 0.980277 O
0.111349 0.187477 0.479998 O
0.111716 0.437453 0.480241 O
0.111635 0.687579 0.480192 O
0.111284 0.937567 0.479965 O
0.610966 0.188355 0.019561 O
0.607769 0.437471 0.017018 O
0.608192 0.687397 0.017335 O
0.611393 0.936739 0.019932 O
0.978982 0.062571 0.282662 O
0.979361 0.312799 0.282787 O
0.980358 0.562485 0.284414 O
0.979170 0.812187 0.282547 O
0.480236 0.062663 0.217289 O
0.478568 0.313047 0.217420 O
0.476112 0.562453 0.217277 O
0.479209 0.811847 0.217432 O
0.020512 0.187565 0.716999 O
0.021137 0.437118 0.716835 O
0.020994 0.687903 0.716806 O
0.020421 0.937382 0.716993 O
0.519904 0.186795 0.782895 O
0.521298 0.438077 0.782430 O
0.521055 0.686975 0.782499 O
0.519691 0.938265 0.782959 O
0.580119 0.062530 0.570702 O
0.576412 0.312166 0.571796 O
0.580878 0.562573 0.569205 O
0.576278 0.812788 0.572032 O
0.078124 0.062387 0.929320 O
0.078894 0.311925 0.928588 O
0.078205 0.562581 0.928362 O
0.078895 0.813010 0.928701 O
0.421559 0.187008 0.429545 O
0.422802 0.438089 0.429232 O
0.422484 0.686946 0.429331 O
0.421615 0.938104 0.429517 O
0.922105 0.187962 0.070268 O
0.925147 0.437014 0.068477 O
0.924682 0.687941 0.068703 O
0.921644 0.936950 0.070494 O
