Li47 P16 O64                            
   1.00000000000000     
    10.5889129999999998   -0.0004240000000000   -0.0121300000000000
    -0.0004890000000000   12.4012469999999997   -0.0006320000000000
    -0.0114570000000000   -0.0005050000000000   10.0201750000000001
   Li   P    O 
    47    16    64
Direct
  0.6240189744914630  0.2612388164961317  0.0897214926580929
  0.6654476734420669  0.2508249379739524  0.5977063517200207
  0.6628409597757994  0.7509606032094638  0.0988904450594177
  0.6639336344942421  0.7512693648711277  0.5996059286557909
  0.1647924368212230  0.4973694904162471  0.1499703146115792
  0.1648416611653687  0.4986705013170862  0.6514166197398197
  0.1629857350260409  0.9972646292756622  0.1513878073917141
  0.1642117573941846  0.9989463262445639  0.6513621360026036
  0.3369346358316605  0.0006212482967456  0.4003384973598827
  0.3364874301233627  0.0005289024370185  0.9032280394236238
  0.3394394164276306  0.4993810325081824  0.3957388444167051
  0.3381403178009634  0.4968746398238721  0.9098054609795980
  0.8339825780032015  0.2491956008466971  0.3458853767348202
  0.8328489411280273  0.2495387886285769  0.8537079360086608
  0.8369918673155183  0.7485931830322698  0.3492770849940925
  0.8369536810096818  0.7487811526831933  0.8491288299736510
  0.3393044360547535  0.2516989568594639  0.3961484050316173
  0.3376578221934565  0.2534365616147127  0.9079449037273761
  0.3374270833119013  0.7492615598958281  0.3995699254696063
  0.3367914295552836  0.7493606471407617  0.9038972527610341
  0.8371119523131227  0.0019797509349715  0.3491740685821014
  0.8374366865873526  0.0014054698581134  0.8495124475815601
  0.8352630094265834  0.5009003192882204  0.3493492368544864
  0.8344105529562711  0.5008710990662308  0.8504344870510536
  0.6550507546043463  0.4981633520607076  0.0984462203798842
  0.6653820178051504  0.5014941503132846  0.5998541499933552
  0.6634385373556029  0.0017853429849168  0.1000584386932246
  0.6638916925841514  0.9999153935035423  0.5990603757256423
  0.1638783071711032  0.2521429415023491  0.1495622211983232
  0.1643691031018903  0.2512928224734381  0.6513104339497318
  0.1642848090161024  0.7512302761715617  0.1509845090841111
  0.1644101160435412  0.7512639228508959  0.6515508671209034
  0.9210036681215428  0.3743504276727094  0.1477638840328197
  0.9244591649221263  0.3745463407180054  0.6496946032152238
  0.9242817770092913  0.8754186037121841  0.1493977745467419
  0.9257440614325958  0.8752657683773748  0.6490697507589687
  0.4277784753935308  0.3757537508584505  0.6049203385179283
  0.4290936338091953  0.8751207989264671  0.1023740922415897
  0.4264473060090026  0.8751205002594062  0.6010035303555270
  0.0747647641403475  0.1260960813397674  0.3498189690230049
  0.0749929275295429  0.1260532857169636  0.8529121066568308
  0.0751254056870678  0.6238757558564316  0.3504839611845796
  0.0755611759814911  0.6237927361908220  0.8525107463164332
  0.5735974009322575  0.1275714009039390  0.3983750230930170
  0.5729748125551311  0.1238550560806999  0.8964517853612364
  0.5738361760090456  0.6241256491937861  0.4002605122279235
  0.5716017320988271  0.6242626663144435  0.8989764049917781
  0.9109281152482467  0.1254043805474296  0.0975135408163297
  0.9122488894765013  0.1248146122667464  0.5974898438247251
  0.9102815060070526  0.6253328685708510  0.0972717804822807
  0.9128297505468126  0.6256737116244864  0.5974386187569962
  0.4057775118686919  0.1193244515445642  0.1518423198000889
  0.4106085578005718  0.1245360030127571  0.6532318861323887
  0.4084482194416594  0.6300239131013612  0.1520699347006911
  0.4103602893051175  0.6262446128431236  0.6537275580479758
  0.0881847911878211  0.3751778772271877  0.4031808551986060
  0.0863244850790252  0.3750344112459345  0.9029430274214363
  0.0884014799118091  0.8747843703562168  0.4040265359185042
  0.0882366478281114  0.8746672021556918  0.9036778908454650
  0.5914286145259595  0.3769009405092731  0.3506814668621843
  0.5858988864625587  0.3759324063372986  0.8390727364107349
  0.5904958666528017  0.8755349361394096  0.3476729509048155
  0.5898650778535597  0.8751647152190998  0.8460236711890516
  0.8413008180329768  0.0219738461967296  0.1486554033644296
  0.8423923758785818  0.0215267397985741  0.6479207785231580
  0.8390485522200422  0.5232683773478257  0.1477687658419526
  0.8433428130459930  0.5234266387225119  0.6499340512830685
  0.3299318002231075  0.2148481721927240  0.0963202092260786
  0.3410367765914017  0.2267600918660193  0.6002403705647765
  0.3437597445075440  0.7379751938347709  0.1071138222339059
  0.3413150147158248  0.7296715667227005  0.6017434248292091
  0.1580237826163753  0.2723897837133649  0.3520465297839905
  0.1560908603166453  0.2723669273025777  0.8514744603204036
  0.1580128102729788  0.7719444309978698  0.3528386406348005
  0.1585534744279187  0.7719324692578695  0.8529999881474666
  0.6607134598091591  0.4797658379701559  0.4056488421375803
  0.6548734437429502  0.4780724897528401  0.8956009012923403
  0.6597753997603633  0.9786761705911644  0.3993775273309481
  0.6598809310423732  0.9779178181180725  0.8976411299251126
  0.1583889624832224  0.4779211728192934  0.3523761105615222
  0.1562311414748407  0.4776579654998585  0.8515588017348321
  0.1579539028529311  0.9776765074961844  0.3531072930331263
  0.1584626721604820  0.9774644421565881  0.8530263302993362
  0.6601081995188025  0.2727813758764768  0.4028517564919980
  0.6525940344929992  0.2725455559581960  0.8953994801112373
  0.6601682161462676  0.7726023866143876  0.3994313526248519
  0.6595570308463721  0.7721790209451385  0.8972237764048074
  0.8419109597442826  0.2278774112239716  0.1480975861012723
  0.8425229212061325  0.2268240204665020  0.6503645592975928
  0.8408574310321626  0.7287970039380696  0.1479432885730745
  0.8425814924558424  0.7286938708620099  0.6479466814112840
  0.3413628812014196  0.0115228002100665  0.1071059381098323
  0.3415615630495239  0.0210098039385045  0.6014288080933099
  0.3307788237621168  0.5354061699614334  0.0970144451234134
  0.3411704002646303  0.5240546180860974  0.6000773948765357
  0.5440545548430791  0.1218332738100401  0.0977804295083686
  0.5496623863817973  0.1244144623769614  0.6024651520552382
  0.5469146826524778  0.6280569530269986  0.0986922111595803
  0.5495539406936274  0.6270198171250314  0.6034516936604248
  0.0500472924080810  0.1235660115201327  0.1488972438675518
  0.0509988930761054  0.1241840227985094  0.6491937617453871
  0.0485992912743001  0.6252551646060951  0.1500058115419307
  0.0514740128911129  0.6261418818805780  0.6492129073761035
  0.4533312919148500  0.3759563451514936  0.4041082387037847
  0.4447850188050992  0.3757393411848611  0.8745346320824581
  0.4519467344386001  0.8751554890542650  0.3991166431923077
  0.4513759679443083  0.8752432980292468  0.8970067194146196
  0.9495314893003339  0.3754851231572687  0.3511789405147567
  0.9473823917876558  0.3750529213133191  0.8509213467860306
  0.9496799993830791  0.8749023782527345  0.3520318062634757
  0.9500477949195627  0.8748078589999722  0.8502202656745723
  0.5974537317936708  0.3793714644238975  0.1975889250069542
  0.5988927367717807  0.3759137244519763  0.6836788463370027
  0.5928675415656244  0.8757840374984767  0.1918793859947954
  0.5910975277792119  0.8754770364625486  0.6900168324782996
  0.0857937691395279  0.3750976559507535  0.0587260873146818
  0.0887290981401989  0.3750663027792314  0.5593401201327879
  0.0871087696263757  0.8742962349214096  0.0594540356883542
  0.0892540232496657  0.8747969124794608  0.5600376463296683
  0.4096116015091908  0.1233952824556894  0.3082584005225470
  0.4086386828025894  0.1241332547720404  0.8089987289868290
  0.4114567377949214  0.6265837905520755  0.3085812670396422
  0.4080577438240667  0.6261040485626950  0.8094489536731189
  0.9110481699926183  0.1255829901351362  0.4414856055130940
  0.9104310143091823  0.1245304266737506  0.9411771250960683
  0.9116768603274323  0.6251368000017905  0.4414598040796776
  0.9104210213895243  0.6254499873613426  0.9411205091878472
 
             NaN             NaN             NaN
             NaN             NaN             NaN
             NaN             NaN             NaN
             NaN             NaN             NaN
             NaN             NaN             NaN
             NaN             NaN             NaN
             NaN             NaN             NaN
             NaN             NaN             NaN
             NaN             NaN             NaN
             NaN             NaN             NaN
             NaN             NaN             NaN
             NaN             NaN             NaN
             NaN             NaN             NaN
             NaN             NaN             NaN
             NaN             NaN             NaN
             NaN             NaN             NaN
             NaN             NaN             NaN
             NaN             NaN             NaN
             NaN             NaN             NaN
             NaN             NaN             NaN
             NaN             NaN             NaN
             NaN             NaN             NaN
             NaN             NaN             NaN
             NaN             NaN             NaN
             NaN             NaN             NaN
             NaN             NaN             NaN
             NaN             NaN             NaN
             NaN             NaN             NaN
             NaN             NaN             NaN
             NaN             NaN             NaN
             NaN             NaN             NaN
             NaN             NaN             NaN
             NaN             NaN             NaN
             NaN             NaN             NaN
             NaN             NaN             NaN
             NaN             NaN             NaN
             NaN             NaN             NaN
             NaN             NaN             NaN
             NaN             NaN             NaN
             NaN             NaN             NaN
             NaN             NaN             NaN
             NaN             NaN             NaN
             NaN             NaN             NaN
             NaN             NaN             NaN
             NaN             NaN             NaN
             NaN             NaN             NaN
             NaN             NaN             NaN
             NaN             NaN             NaN
             NaN             NaN             NaN
             NaN             NaN             NaN
             NaN             NaN             NaN
             NaN             NaN             NaN
             NaN             NaN             NaN
             NaN             NaN             NaN
             NaN             NaN             NaN
             NaN             NaN             NaN
             NaN             NaN             NaN
             NaN             NaN             NaN
             NaN             NaN             NaN
             NaN             NaN             NaN
             NaN             NaN             NaN
             NaN             NaN             NaN
             NaN             NaN             NaN
             NaN             NaN             NaN
             NaN             NaN             NaN
             NaN             NaN             NaN
             NaN             NaN             NaN
             NaN             NaN             NaN
             NaN             NaN             NaN
             NaN             NaN             NaN
             NaN             NaN             NaN
             NaN             NaN             NaN
             NaN             NaN             NaN
             NaN             NaN             NaN
             NaN             NaN             NaN
             NaN             NaN             NaN
             NaN             NaN             NaN
             NaN             NaN             NaN
             NaN             NaN             NaN
             NaN             NaN             NaN
             NaN             NaN             NaN
             NaN             NaN             NaN
             NaN             NaN             NaN
             NaN             NaN             NaN
             NaN             NaN             NaN
             NaN             NaN             NaN
             NaN             NaN             NaN
             NaN             NaN             NaN
             NaN             NaN             NaN
             NaN             NaN             NaN
             NaN             NaN             NaN
             NaN             NaN             NaN
             NaN             NaN             NaN
             NaN             NaN             NaN
             NaN             NaN             NaN
             NaN             NaN             NaN
             NaN             NaN             NaN
             NaN             NaN             NaN
             NaN             NaN             NaN
             NaN             NaN             NaN
             NaN             NaN             NaN
             NaN             NaN             NaN
             NaN             NaN             NaN
             NaN             NaN             NaN
             NaN             NaN             NaN
             NaN             NaN             NaN
             NaN             NaN             NaN
             NaN             NaN             NaN
             NaN             NaN             NaN
             NaN             NaN             NaN
             NaN             NaN             NaN
             NaN             NaN             NaN
             NaN             NaN             NaN
             NaN             NaN             NaN
             NaN             NaN             NaN
             NaN             NaN             NaN
             NaN             NaN             NaN
             NaN             NaN             NaN
             NaN             NaN             NaN
             NaN             NaN             NaN
             NaN             NaN             NaN
             NaN             NaN             NaN
             NaN             NaN             NaN
             NaN             NaN             NaN
             NaN             NaN             NaN
             NaN             NaN             NaN
             NaN             NaN             NaN
