Na6 P2 S8                               
   1.00000000000000     
    13.6746894920048891   -0.0000015663468083   -0.0000054144728774
    -0.0000311062187025   13.6746954519410675   -0.0003498815698279
    -0.0001666710070323    0.0001287917643317   14.1007885031821889
   Na   P    S 
    47    16    64
Direct
  0.5272191159749013  0.7464944262935020  0.7192091520571040
  0.9997787342357753  0.2507280371931273  0.2062686620433212
  0.9987332243476104  0.2505596695096273  0.7060159693853763
  0.9991374127870998  0.7507634065216777  0.2110608275639123
  0.9728025324488314  0.7535056978323595  0.7191995729182850
  0.5002263912758877  0.2492746045330207  0.2062650054691986
  0.5012620460052304  0.2494450585363097  0.7060207920099160
  0.5008721694638254  0.7492476093511300  0.2110617311372351
  0.2492686055015980  0.9997867705343850  0.2937303690571156
  0.2494388382532620  0.9987322852725953  0.7939852065762665
  0.2507191711650876  0.5002260981954976  0.2937317039282163
  0.2505508316074838  0.5012622765812225  0.7939873513186129
  0.7492454292237909  0.9991264487153444  0.2889414634658678
  0.7464950016446252  0.9727955738868062  0.7807945384630699
  0.7507363619928782  0.5008755141964869  0.2889342221031086
  0.7535108225271543  0.5272185272067134  0.7807921818946539
  0.2524194382356697  0.9997446475702603  0.0439594172816271
  0.2453408983026648  0.9979389592962420  0.5451737148934370
  0.2475792991728198  0.5002489015747216  0.0439581484809182
  0.2546619420604515  0.5020586105056992  0.5451712900702788
  0.7526466941579173  0.9997328784399713  0.0365309219189598
  0.7448104038161247  0.9998816826375361  0.5373717138498364
  0.7473479964508414  0.5002546839701978  0.0365279075598082
  0.7551903761140863  0.5001132608805889  0.5373728543203669
  0.5002589729356259  0.2524337295318944  0.4560429796467957
  0.5020541501405162  0.2453405912490041  0.9548302362439287
  0.5002675433278654  0.7526482064461035  0.4634688330274699
  0.5001116817629097  0.7448045540110328  0.9626263779666928
  0.9997334109238096  0.2475878615200386  0.4560409151512701
  0.9979387080492614  0.2546632250608312  0.9548347557531827
  0.9997461197913822  0.7473571552888885  0.4634658410296879
  0.9998829050246343  0.7551929556147741  0.9626342360211098
  0.9952925045439756  0.9961590887150820  0.5021273341287440
  0.0060743511265713  0.0101353808873554  0.0015383787025698
  0.0101293937139246  0.4939364273276183  0.4984645420413756
  0.9961445275377443  0.5047127678058771  0.9978665483087070
  0.4898733683049201  0.0060737577187027  0.4984704520913965
  0.5038610605811229  0.9952816563508478  0.9978743703393818
  0.5047085866850836  0.5038707051681826  0.5021284118992639
  0.4939261936487540  0.4898827571329463  0.0015343069378488
  0.2500110386639136  0.2500255565450900  0.2499981711003514
  0.2499878575032071  0.2499940951200941  0.7499986680571880
  0.2500179872358004  0.7500042324986609  0.2509690080403431
  0.2500272529026901  0.7499869473432526  0.7496349171878478
  0.7500031911819320  0.2499825429898124  0.2490257192948633
  0.7500040359562661  0.2500042581233402  0.7503614328522588
  0.7499919817909628  0.7499866238590585  0.2500058493114210
  0.4998964823575207  0.4993071943053167  0.2501426417858070
  0.5002618779445456  0.4972571940930379  0.7531830175025149
  0.4993181936940374  0.0000843052648776  0.2498506236493085
  0.4972638364382362  0.9997303286465993  0.7468114638845620
  0.0006808594445360  0.4999003443399559  0.2498608825265833
  0.0027330362488485  0.5002628720175082  0.7468166362860558
  0.0000853666897882  0.0006743601972019  0.2501445569725576
  0.9997296477378939  0.0027327354819064  0.7531911987877606
  0.2499966948200125  0.2500025028173596  0.0000550985391925
  0.2499870018225607  0.2500028118311661  0.4999419044398934
  0.2500001875582996  0.7500036417777096  0.0014184139837852
  0.2499972218921229  0.7500029501686925  0.5005789635241698
  0.7499929360696314  0.2500047868631086  0.9994177890158724
  0.7499903475407592  0.2500048882914570  0.4985793426641578
  0.7499908517450891  0.7499942200158785  0.0027317991228202
  0.7500055706322613  0.7499931462179745  0.4972724357915510
  0.1532078512243658  0.1741455760904387  0.0828794513542803
  0.1529877031913358  0.1742716500697270  0.5822226177719898
  0.1525539591089853  0.6751811190745869  0.0843136311665731
  0.1537966521025780  0.6742911692053539  0.5831968123971905
  0.6542557554589408  0.1729840778085858  0.0828284201882710
  0.6526764778318253  0.1751851099977628  0.5812130392755250
  0.6546077924541507  0.6727218367225731  0.0863976843893113
  0.6544665511378440  0.6708887731514750  0.5774661520625557
  0.3467955832154885  0.3258620850809848  0.0828782973574818
  0.3469941868061639  0.3257210809201467  0.5822387438580563
  0.3474481022532032  0.8248291485443744  0.0843196587587656
  0.3462127089246252  0.8257100843885894  0.5832047244771914
  0.8457463828414191  0.3270140129917323  0.0828404643938967
  0.8473190022839532  0.3248182182442889  0.5812192720690774
  0.8453757307161922  0.8272688012973717  0.0864052603895260
  0.8455589320518229  0.8291118570001856  0.5774624118146718
  0.1741403714288836  0.3467979252530853  0.4171193365170538
  0.1742727690333439  0.3469981512564289  0.9177708137333980
  0.1729899905641545  0.8457388233482561  0.4171526486109016
  0.1751839941801734  0.8473134798380357  0.9187775527348734
  0.6751666010633031  0.3474360699303318  0.4156763613786083
  0.6742841835346312  0.3462006424026853  0.9168018687028550
  0.6727350799095433  0.8453780337893733  0.4136107732286263
  0.6708879138573494  0.8455358592856683  0.9225324238806465
  0.3258561932036059  0.1532082868824105  0.4171205032969851
  0.3257299535224405  0.1529974727720216  0.9177686323187615
  0.3270211218982766  0.6542559288630585  0.4171659116848119
  0.3248235311080663  0.6526710536540108  0.9187893246963625
  0.8248215418114171  0.1525492211178943  0.4156777558497140
  0.8257156021723517  0.1537923431318546  0.9167958985712730
  0.8272780345750945  0.6546099801414584  0.4136013232685798
  0.8291137817998688  0.6544424876468042  0.9225422905597114
  0.0970482221723046  0.4241183989751534  0.1667355405269078
  0.1025178247874123  0.4213881992605195  0.6699411403746822
  0.0969391266069053  0.9247110378055581  0.1675701515752408
  0.0925433403209155  0.9211740445957517  0.6712176019147833
  0.5960643629029647  0.4233257287508181  0.1668962969566650
  0.5984016139568809  0.4249413626102552  0.6690338673933880
  0.5954336914096245  0.9241599324384708  0.1670282630909909
  0.5883076428231107  0.9263501379962236  0.6569784584120555
  0.4029562271280938  0.0758855360824953  0.1667380899357980
  0.3974818697764135  0.0786220350599791  0.6699461006454044
  0.4030539166561127  0.5752832981371796  0.1675664082370147
  0.4074525445056096  0.5788234089362518  0.6712200691151580
  0.9039221597025033  0.0766635758215344  0.1669031599878465
  0.9015916767460794  0.0750614614168867  0.6690420192430651
  0.9045624679457163  0.5758311543684087  0.1670454081968558
  0.9116959057548399  0.5736497694119933  0.6569812874143395
  0.0758884077569348  0.0970495484139207  0.3332583133802487
  0.0786201422920456  0.1025223940511495  0.8300609045052738
  0.0766709753703836  0.5960752855256999  0.3331021964634502
  0.0750587716031959  0.5984071940971347  0.8309712100619393
  0.5752856317654889  0.0969483004400260  0.3324262352972056
  0.5788326852528414  0.0925458463637128  0.8287840103996942
  0.5758333422062876  0.5954361859647861  0.3329621166045413
  0.5736467100670168  0.5883089193072024  0.8430223709129834
  0.4241109046006315  0.4029625200672484  0.3332634546918811
  0.4213856970575023  0.3974889621335365  0.8300643629010267
  0.4233409544840327  0.9039237094396526  0.3330951879871122
  0.4249400135546395  0.9015938922529116  0.8309496039981212
  0.9247193906989040  0.4030551094839936  0.3324325382159401
  0.9211740314445223  0.4074564990127669  0.8287804754334900
  0.9241684581626188  0.9045688545126467  0.3329692775367477
  0.9263539514874068  0.9116972514913328  0.8430195764558377
