Mg1 Ti16 S32                            
   1.00000000000000     
    10.0334070000000004   -0.0221180000000000    0.0105470000000000
    -0.0221220000000000   10.0346209999999996   -0.0104700000000000
     0.0106180000000000   -0.0103820000000000   10.0575050000000008
   Mg   Ti   S 
     1    16    32
Direct
  0.3103296411000772  0.4396942915826983  0.8091264494250742
  0.2511731400883539  0.7574233386439951  0.0073725785788473
  0.5006856262301106  1.0005301271433353 -0.0016518579910630
  0.7494828277590297  0.2493028501789961 -0.0016222044857868
  0.9925732756099789  0.4988204645116510  0.0074050036489517
  0.5008575112317644  0.2491559258329845  0.2472159394791950
  0.2481932922605453  0.5018236186116761  0.2664690397347425
  0.2511230351552109  0.2403679470706884  0.4902275194841865
  0.5096067350914107  0.4988739840986841  0.4902445666933964
  0.5099880938753847  0.7576306576827920  0.7486053024448742
  0.7687896448878320  0.5019912715302721  0.7456748812364767
  0.7518948839368703  0.7519757744765979  0.4953794896233272
  0.2480377008672453  0.9812432364342587  0.7456734326644466
  0.7497476211741034  1.0002560446597286  0.2471366306646830
  0.9923672306173392  0.2399610053499044  0.7485901928225412
  0.9980948595010446  0.7518961374550865  0.2493128631083226
  0.9980418348056963  0.9980798507560354  0.4953805413435632
  0.7450853805239186  0.0049331341746995  0.0003312838249395
  0.0052550766517965  0.7446876663016909  0.0042407416426880
  0.0021462062791781 -0.0035930937834587  0.7428785471248175
  0.7536114124495682  0.7478320171056934  0.7428607780476869
  0.2521437551196067  0.9965032370099814  0.9915171819306191
  0.9942468320489580  0.2520682540940503  0.9949734089272273
  0.9955231160992980  0.9971521715365356  0.2506521138987488
  0.2522192810461542  0.2553936849518381  0.2514830738005126
  0.7532470532187020  0.5041738526429710  0.5003430782798773
  0.0051556230164145  0.2434763375566176  0.5031247851541142
  1.0023256620462060  0.5040185505016889  0.2504803498451283
  0.7453083040327498  0.2476232036236630  0.2424348927844868
  0.2596476424597008  0.4903171252044080  0.5071275949942172
  0.9966540626752791  0.7533527061648537  0.4936061969027781
  1.0101767056131594  0.4901584188337665  0.7576274050986306
  0.2598320749503733  0.7398748493901139  0.7576350106063002
  0.2458465282372505 -0.0032268963078681  0.5003497079245330
  0.5064838389610890  0.7448165513173690  0.5031253892091888
  0.5023296440951488  0.0047199186219466  0.2424247017715686
  0.2460005194290689  0.7476494569823605  0.2504728747676116
  0.7528891232454938  0.9971001854249943  0.4923813993115811
  0.4978691150166354  0.2521468884876204  0.4916672720545627
  0.4943830158085591  0.9967658926547461  0.7501935952886127
  0.7532178080358580  0.2556377390735426  0.7501919267010210
  0.2423652148412740  0.5076448569551144  1.0209687737970401
  0.5018199754889398  0.2481701139166878 -0.0000022274015732
  0.5225361746214934  0.5077271135301012  0.7396713319520443
  0.2422979628473285  0.2274643605011691  0.7396571999098320
  0.7534688321688805  0.4978124817964215  0.9915137807295675
  0.4979477941498620  0.7557673210063364  0.9949833530501453
  0.4946346795896041  0.4977614430542547  0.2514937182503536
  0.7528177881419857  0.7545201035413598  0.2506474896686796
 
             NaN             NaN             NaN
             NaN             NaN             NaN
             NaN             NaN             NaN
             NaN             NaN             NaN
             NaN             NaN             NaN
             NaN             NaN             NaN
             NaN             NaN             NaN
             NaN             NaN             NaN
             NaN             NaN             NaN
             NaN             NaN             NaN
             NaN             NaN             NaN
             NaN             NaN             NaN
             NaN             NaN             NaN
             NaN             NaN             NaN
             NaN             NaN             NaN
             NaN             NaN             NaN
             NaN             NaN             NaN
             NaN             NaN             NaN
             NaN             NaN             NaN
             NaN             NaN             NaN
             NaN             NaN             NaN
             NaN             NaN             NaN
             NaN             NaN             NaN
             NaN             NaN             NaN
             NaN             NaN             NaN
             NaN             NaN             NaN
             NaN             NaN             NaN
             NaN             NaN             NaN
             NaN             NaN             NaN
             NaN             NaN             NaN
             NaN             NaN             NaN
             NaN             NaN             NaN
             NaN             NaN             NaN
             NaN             NaN             NaN
             NaN             NaN             NaN
             NaN             NaN             NaN
             NaN             NaN             NaN
             NaN             NaN             NaN
             NaN             NaN             NaN
             NaN             NaN             NaN
             NaN             NaN             NaN
             NaN             NaN             NaN
             NaN             NaN             NaN
             NaN             NaN             NaN
             NaN             NaN             NaN
             NaN             NaN             NaN
             NaN             NaN             NaN
             NaN             NaN             NaN
             NaN             NaN             NaN
