Mg1 Ti16 S32
1.0
10.033407 -0.022118 0.010547
-0.022122 10.034621 -0.010470
0.010618 -0.010382 10.057505
Mg Ti S
1 16 32
direct
0.312305 0.437696 0.749752 Mg
0.248684 0.754530 0.006042 Ti
0.501520 -0.000968 0.003029 Ti
0.750994 0.248470 0.003004 Ti
0.995456 0.501298 0.006009 Ti
0.501375 0.248644 0.250577 Ti
0.249546 0.500441 0.250025 Ti
0.249246 0.245787 0.492440 Ti
0.504215 0.500771 0.492476 Ti
0.504806 0.754978 0.750009 Ti
0.751428 0.501557 0.750041 Ti
0.750893 0.751354 0.498712 Ti
0.248441 -0.001428 0.750044 Ti
0.750437 -0.000433 0.250058 Ti
0.995027 0.245186 0.749995 Ti
0.998600 0.751386 0.249600 Ti
0.998651 0.999076 0.498691 Ti
0.746789 0.003202 0.003971 S
0.002833 0.747127 0.004271 S
0.003277 0.002207 0.746429 S
0.747791 0.746728 0.746450 S
0.253786 0.998013 0.994784 S
0.995715 0.254395 0.995219 S
0.996141 0.997003 0.254194 S
0.254154 0.250541 0.253707 S
0.747954 0.503935 0.505301 S
0.003695 0.245164 0.504770 S
0.999649 0.505499 0.246222 S
0.748444 0.245336 0.246100 S
0.256095 0.493899 0.500196 S
0.996104 0.753876 0.495631 S
0.996145 0.495222 0.754523 S
0.254763 0.753862 0.754499 S
0.246091 0.002032 0.505296 S
0.504813 0.746326 0.504779 S
0.504658 0.001644 0.246122 S
0.244436 0.750294 0.246189 S
0.753549 0.996457 0.496304 S
0.496020 0.254017 0.497246 S
0.495928 0.997834 0.753980 S
0.752163 0.254063 0.753956 S
0.243361 0.506634 0.999657 S
0.504887 0.245132 0.003181 S
0.504413 0.505065 0.745204 S
0.244950 0.245575 0.745227 S
0.751992 0.496188 0.994773 S
0.495583 0.754304 0.995231 S
0.499499 0.495910 0.253680 S
0.752919 0.753868 0.254206 S
