Li7 Mn16 O32                            
   1.00000000000000     
     8.2213300000000000   -0.0163350000000000    0.0300620000000000
    -0.0150290000000000    8.6163349999999994   -0.0668550000000000
     0.0253540000000000   -0.0693350000000000    8.2567100000000000
   Li   Mn   O 
     7    16    32
Direct
  0.2158550085470681  0.5238011327052042  0.7168316132185857
  0.8729754002627568  0.8776594874662375  0.8770147827226779
  0.1293023877769073  0.1190488020489789  0.1192433818619438
  0.8766183321877947  0.3787311156851530  0.3741063623765532
  0.3713298463177822  0.8814307081702798  0.3821451797742769
  0.6262719190873393  0.1227742396936409  0.6230713076710630
  0.6231540188796926  0.6218874325610655  0.1248882580820201
  0.4991849261620348  0.2428191203274448  0.2532434056045066
  0.2507757410908705  0.4994804673448039  0.2475867080676931
  0.2472894962427081  0.2517953779578254  0.5017489142412427
  0.5028290666260746  0.4915236124481014  0.5007796291730870
  0.4988845880107792  0.7439845832437870  0.7454240361375726
  0.7481806448228127  0.5001451876101751  0.7503534751976163
  0.7568043637561596  0.7425577668008115  0.4951402120237198
  0.2506236569818285  0.0014886188162653  0.7497928295486376
  0.2515053729339365  0.7495163856207308  0.9978608979857652
  0.5027201053753845  0.9941054596189742  0.0024485912076116
  0.7506338704108045  1.0000097390567955  0.2515144940951762
  0.7435261623412001  0.2562494856913248  0.0047908985931645
  0.0008779720996222  0.2572964457391486  0.7530359019617594
 -0.0023106586481699  0.5085505378598301  0.9991819090099935
  0.0015268540166393  0.7554860608348335  0.2481760624040949
  0.9981502770734361  0.0047916108290861  0.4990911139930801
  0.7315547042979599 -0.0007579245935525  0.0172082983532258
  0.0142908578247140  0.7344697502103815  0.0080689412888627
  0.0137849425900589  0.0374321269358482  0.7577836666491525
  0.7387143057180060  0.7275239943898801  0.7334226444235636
  0.2646920795925116  0.9753973224734702  0.9829673642300542
  0.9902513782420543  0.2823351902456039  0.9888656315181600
  0.9871533354231987  0.9740974185650101  0.2415227517025627
  0.2643309227233223  0.2452749645393244  0.2703298439597921
  0.7328280911750393  0.4903761854954299  0.5204098179655600
  0.0129597385268702  0.2460595343190361  0.5174668128248286
  0.0146622348501192  0.5229938423945281  0.2336699158395313
  0.7317946328131361  0.2571885709071389  0.2349123112059215
  0.2667494066098090  0.4769408870528062  0.4889992858897887
  0.9938736480362774  0.7689957449101019  0.4757334681768694
  0.9842408005441637  0.4860555334290578  0.7637275718415067
  0.2693876555681901  0.7388052658025211  0.7660957025085008
  0.2345575648056854  0.0265033354546699  0.5162740966727943
  0.5100057215450161  0.7177739834762729  0.5100656435643586
  0.5151328308221658  0.0252979061226410  0.2654410392969569
  0.2365475096213858  0.7548144920713176  0.2289195704995632
  0.7707092161796597  0.9993525610754173  0.4861394056526371
  0.4852464264041187  0.2666065076575801  0.4924150776505062
  0.4857118137366410  0.9636146859199154  0.7377652150047087
  0.7597179757895195  0.2729205785529158  0.7670364305465983
  0.2324935225074956  0.5255762346456436  0.0075332313417057
  0.5064493881035020  0.2234156941411267  0.0252450398138554
  0.5143876947141325  0.5158354349930842  0.7353743187174017
  0.2282134367127245  0.2673180667975463  0.7314373028228792
  0.7663729673255397  0.5087596444464055  0.9799297945740054
  0.4869293293317530  0.7585455695764012  0.9816369696567123
  0.4865177934367583  0.4759587781122364  0.2648361279066243
  0.7689376015825524  0.7422497798782336  0.2652223255806518
 
             NaN             NaN             NaN
             NaN             NaN             NaN
             NaN             NaN             NaN
             NaN             NaN             NaN
             NaN             NaN             NaN
             NaN             NaN             NaN
             NaN             NaN             NaN
             NaN             NaN             NaN
             NaN             NaN             NaN
             NaN             NaN             NaN
             NaN             NaN             NaN
             NaN             NaN             NaN
             NaN             NaN             NaN
             NaN             NaN             NaN
             NaN             NaN             NaN
             NaN             NaN             NaN
             NaN             NaN             NaN
             NaN             NaN             NaN
             NaN             NaN             NaN
             NaN             NaN             NaN
             NaN             NaN             NaN
             NaN             NaN             NaN
             NaN             NaN             NaN
             NaN             NaN             NaN
             NaN             NaN             NaN
             NaN             NaN             NaN
             NaN             NaN             NaN
             NaN             NaN             NaN
             NaN             NaN             NaN
             NaN             NaN             NaN
             NaN             NaN             NaN
             NaN             NaN             NaN
             NaN             NaN             NaN
             NaN             NaN             NaN
             NaN             NaN             NaN
             NaN             NaN             NaN
             NaN             NaN             NaN
             NaN             NaN             NaN
             NaN             NaN             NaN
             NaN             NaN             NaN
             NaN             NaN             NaN
             NaN             NaN             NaN
             NaN             NaN             NaN
             NaN             NaN             NaN
             NaN             NaN             NaN
             NaN             NaN             NaN
             NaN             NaN             NaN
             NaN             NaN             NaN
             NaN             NaN             NaN
             NaN             NaN             NaN
             NaN             NaN             NaN
             NaN             NaN             NaN
             NaN             NaN             NaN
             NaN             NaN             NaN
             NaN             NaN             NaN
