Li7 Mn16 O32
1.0
8.221330 -0.016335 0.030062
-0.015029 8.616335 -0.066855
0.025354 -0.069335 8.256710
Li Mn O
7 16 32
direct
0.219827 0.529003 0.717741 Li
0.871959 0.877990 0.876170 Li
0.130251 0.117877 0.121234 Li
0.874375 0.379938 0.373211 Li
0.370475 0.882765 0.379657 Li
0.626935 0.122168 0.623721 Li
0.625089 0.620526 0.126108 Li
0.499356 0.245186 0.252678 Mn
0.250519 0.499382 0.248747 Mn
0.247714 0.253389 0.502816 Mn
0.499802 0.492180 0.502481 Mn
0.495612 0.741518 0.746696 Mn
0.749139 0.500079 0.750112 Mn
0.754677 0.743648 0.495936 Mn
0.250427 0.001129 0.749667 Mn
0.251572 0.747521 0.997063 Mn
0.502397 0.994085 0.001450 Mn
0.750150 -0.000224 0.251206 Mn
0.745482 0.255626 0.004248 Mn
0.003852 0.259456 0.751709 Mn
0.000215 0.508062 0.997174 Mn
0.001533 0.753263 0.248633 Mn
0.998097 0.005219 0.499441 Mn
0.732141 0.000636 0.016272 O
0.014273 0.734172 0.008059 O
0.011555 0.036416 0.751714 O
0.737079 0.727553 0.732832 O
0.264123 0.974413 0.983292 O
0.992775 0.282236 0.987855 O
0.987450 0.974155 0.247964 O
0.265250 0.244520 0.270558 O
0.730476 0.491721 0.519049 O
0.014747 0.251956 0.517860 O
0.012785 0.523304 0.232682 O
0.732477 0.255685 0.234541 O
0.264475 0.477739 0.485822 O
0.995240 0.761191 0.477411 O
-0.014974 0.487081 0.762377 O
0.266958 0.741733 0.765711 O
0.235463 0.026784 0.515832 O
0.506233 0.717885 0.511340 O
0.514017 0.025366 0.257985 O
0.235404 0.755573 0.229141 O
0.768708 0.997013 0.486240 O
0.485400 0.266607 0.492573 O
0.487239 0.963692 0.744123 O
0.762052 0.273083 0.766866 O
0.235133 0.523729 0.013061 O
0.506674 0.231934 0.023838 O
0.514674 0.514254 0.736869 O
0.231495 0.258899 0.733169 O
0.769162 0.508671 0.980824 O
0.485280 0.752148 0.981518 O
0.487914 0.475910 0.266359 O
0.768500 0.743431 0.266229 O
