Li47 P16 O64
1.0
10.553919 0.000438 -0.005480
0.000513 12.362472 -0.000799
-0.005181 -0.000647 9.976064
Li P O
47 16 64
direct
0.163016 0.252552 0.150781 Li
0.656638 0.252294 0.097528 Li
0.666933 0.248540 0.599494 Li
0.664270 0.751001 0.098483 Li
0.664797 0.751104 0.599327 Li
0.163251 0.497241 0.150745 Li
0.164280 0.498849 0.651309 Li
0.162620 -0.001743 0.151628 Li
0.164266 -0.001301 0.651588 Li
0.336477 0.000392 0.400439 Li
0.336392 0.000429 0.901101 Li
0.337902 0.499545 0.397906 Li
0.337428 0.497413 0.906230 Li
0.837410 0.248520 0.348968 Li
0.835376 0.248753 0.850023 Li
0.837108 0.748783 0.349615 Li
0.837057 0.748985 0.849078 Li
0.337906 0.250427 0.397716 Li
0.337579 0.252814 0.906902 Li
0.336521 0.749554 0.400377 Li
0.336369 0.749667 0.901005 Li
0.837078 0.001219 0.349592 Li
0.836995 0.001038 0.849095 Li
0.837369 0.501477 0.348985 Li
0.835503 0.501242 0.849980 Li
0.656978 0.497649 0.097600 Li
0.666871 0.501472 0.599471 Li
0.664048 0.999077 0.098618 Li
0.664801 0.998921 0.599324 Li
0.164321 0.251162 0.651332 Li
0.162586 0.751764 0.151644 Li
0.164236 0.751294 0.651545 Li
0.921618 0.374964 0.148411 Li
0.924668 0.374997 0.649143 Li
0.924017 0.875029 0.149493 Li
0.925741 0.875016 0.648977 Li
0.425553 0.375035 0.610167 Li
0.429535 0.875004 0.100285 Li
0.425994 0.875013 0.600947 Li
0.075619 0.125376 0.351279 Li
0.075604 0.125531 0.852640 Li
0.075629 0.624572 0.351280 Li
0.075617 0.624477 0.852577 Li
0.574855 0.124863 0.399690 Li
0.573083 0.125015 0.897684 Li
0.574899 0.625133 0.399787 Li
0.573109 0.625087 0.897445 Li
0.910077 0.124957 0.097110 P
0.913005 0.124436 0.597286 P
0.910217 0.624997 0.097094 P
0.912997 0.625570 0.597277 P
0.409435 0.120423 0.152558 P
0.411165 0.124848 0.653433 P
0.409606 0.629466 0.152433 P
0.411161 0.625268 0.653382 P
0.088755 0.374996 0.403461 P
0.086613 0.375007 0.903426 P
0.088568 0.874990 0.403869 P
0.088223 0.874999 0.904208 P
0.592677 0.375035 0.349865 P
0.588433 0.374973 0.840537 P
0.589850 0.874966 0.347219 P
0.589449 0.875011 0.845565 P
0.840631 0.021374 0.148289 O
0.842611 0.021301 0.648192 O
0.838780 0.522450 0.147882 O
0.843159 0.522838 0.649691 O
0.330907 0.215226 0.095929 O
0.342265 0.227948 0.600207 O
0.343411 0.736300 0.106032 O
0.341676 0.728506 0.601135 O
0.158864 0.271908 0.352178 O
0.156943 0.272039 0.852255 O
0.158381 0.771830 0.352286 O
0.158709 0.771897 0.853314 O
0.660748 0.478790 0.403137 O
0.655074 0.478064 0.897005 O
0.659473 0.978262 0.399013 O
0.659019 0.978218 0.897531 O
0.158933 0.478021 0.352131 O
0.156887 0.477957 0.852215 O
0.158383 0.978141 0.352311 O
0.158716 0.978086 0.853329 O
0.660736 0.271223 0.403019 O
0.655176 0.271991 0.897019 O
0.659505 0.771710 0.399006 O
0.659046 0.771807 0.897483 O
0.838637 0.227531 0.147903 O
0.843191 0.227198 0.649675 O
0.840788 0.728593 0.148305 O
0.842611 0.728731 0.648184 O
0.343397 0.013526 0.106033 O
0.341734 0.021552 0.601266 O
0.331248 0.534692 0.095297 O
0.342258 0.522120 0.600250 O
0.547788 0.123332 0.099128 O
0.550771 0.124466 0.602841 O
0.547949 0.626603 0.099008 O
0.550759 0.625597 0.602814 O
0.048806 0.125205 0.149772 O
0.052038 0.124265 0.648982 O
0.048989 0.624727 0.149694 O
0.052027 0.625745 0.648963 O
0.453148 0.374992 0.399805 O
0.445284 0.375143 0.872185 O
0.450760 0.874968 0.398475 O
0.450243 0.874995 0.896373 O
0.949676 0.375016 0.351286 O
0.947545 0.374973 0.850997 O
0.949419 0.874993 0.352245 O
0.949647 0.875011 0.851103 O
0.599930 0.375049 0.195360 O
0.600594 0.374976 0.684248 O
0.592008 0.874948 0.190733 O
0.590951 0.875024 0.689125 O
0.085705 0.375009 0.059779 O
0.089297 0.375023 0.560034 O
0.087616 0.874992 0.060613 O
0.089951 0.874997 0.560384 O
0.411102 0.124375 0.309020 O
0.408823 0.124950 0.809715 O
0.411161 0.625395 0.308838 O
0.408831 0.625255 0.809650 O
0.911641 0.124962 0.440775 O
0.910046 0.124855 0.940521 O
0.911635 0.625020 0.440772 O
0.910112 0.625118 0.940505 O
