Li7 Mn16 O32
1.0
8.035132 -0.000066 -0.000042
-0.000059 8.035050 0.000141
-0.000048 0.000060 8.032063
Li Mn O
7 16 32
direct
0.127257 0.622771 0.627220 Li
0.875005 0.874995 0.875006 Li
0.127253 0.127204 0.122759 Li
0.875005 0.375006 0.374997 Li
0.374951 0.874997 0.374996 Li
0.622764 0.127269 0.627263 Li
0.622783 0.622733 0.122731 Li
0.499769 0.250209 0.248154 Mn
0.250170 0.499817 0.248137 Mn
0.250162 0.250165 0.501854 Mn
0.499787 0.499801 0.501839 Mn
0.499789 0.748159 0.750228 Mn
0.748139 0.499823 0.750170 Mn
0.749875 0.750131 0.499972 Mn
0.250156 0.001851 0.750167 Mn
0.250163 0.748141 0.999818 Mn
0.499804 0.001835 0.999778 Mn
0.749876 0.999942 0.250090 Mn
0.748138 0.250171 0.999822 Mn
0.001835 0.250178 0.750228 Mn
0.001837 0.499821 0.999773 Mn
0.999781 0.750021 0.250067 Mn
0.999719 0.999977 0.499943 Mn
0.737826 0.012225 0.012528 O
0.012267 0.737786 0.012484 O
0.012260 0.012208 0.737519 O
0.737822 0.737776 0.737484 O
0.262832 0.987348 0.987268 O
0.987436 0.262771 0.987270 O
0.987722 0.987763 0.262212 O
0.262809 0.262755 0.262605 O
0.737806 0.512564 0.512203 O
0.012268 0.237485 0.512194 O
0.012274 0.512515 0.237803 O
0.737798 0.237457 0.237797 O
0.262810 0.487230 0.487372 O
0.987723 0.762240 0.487797 O
0.987436 0.487219 0.762723 O
0.262833 0.762633 0.762719 O
0.237429 0.012232 0.512201 O
0.512502 0.737771 0.512203 O
0.512504 0.012233 0.237801 O
0.237442 0.737757 0.237794 O
0.762142 0.987830 0.487852 O
0.487287 0.262763 0.487350 O
0.487296 0.987328 0.762724 O
0.762719 0.262768 0.762725 O
0.235744 0.514343 0.014283 O
0.514390 0.235699 0.014258 O
0.514392 0.514292 0.735736 O
0.235745 0.235647 0.735709 O
0.762725 0.487230 0.987269 O
0.487305 0.762660 0.987273 O
0.487296 0.487236 0.262634 O
0.762175 0.762212 0.262187 O
