Mg15 Mn32 O64
1.0
11.499694 -0.000011 0.000430
-0.000024 11.515606 -0.000001
0.000183 0.000001 9.170447
Mg Mn O
15 32 64
direct
0.499924 0.563558 0.564680 Mg
0.500277 0.250473 0.749033 Mg
1.000204 0.249945 0.751680 Mg
0.999621 0.750050 0.748682 Mg
0.499986 -0.001527 0.503306 Mg
0.000070 0.000192 0.499768 Mg
0.999932 0.499807 0.500927 Mg
0.249371 1.001848 0.250257 Mg
0.250312 0.498153 0.249329 Mg
0.751072 0.001927 0.249681 Mg
0.749444 0.498072 0.249130 Mg
0.250572 0.249360 -0.001669 Mg
0.253123 0.750644 0.000993 Mg
0.750539 0.249321 -0.000699 Mg
0.745940 0.750675 0.000268 Mg
0.126762 0.250487 0.375143 Mn
0.124161 0.749514 0.372939 Mn
0.625926 0.250134 0.375781 Mn
0.624685 0.749867 0.375265 Mn
0.376829 0.250406 0.376702 Mn
0.374210 0.749597 0.374999 Mn
0.876676 0.250441 0.375173 Mn
0.874061 0.749559 0.372362 Mn
0.125466 -0.001434 0.874548 Mn
0.124636 0.501434 0.875278 Mn
0.623309 -0.000337 0.874902 Mn
0.622920 0.500337 0.875048 Mn
0.376157 -0.001249 0.875585 Mn
0.375246 0.501260 0.876114 Mn
0.874130 -0.000428 0.874951 Mn
0.873243 0.500423 0.875907 Mn
0.001302 0.125000 0.124455 Mn
0.999506 0.625275 0.123177 Mn
0.500189 0.125544 0.125638 Mn
0.499788 0.623730 0.126079 Mn
1.000909 0.375138 0.124882 Mn
-0.000105 0.874577 0.122735 Mn
0.500109 0.373383 0.124652 Mn
0.499868 0.877347 0.127064 Mn
0.249736 0.375186 0.626672 Mn
0.251081 0.874578 0.623575 Mn
0.750647 0.375122 0.625896 Mn
0.748779 0.874646 0.623708 Mn
0.248940 0.124979 0.626000 Mn
0.251877 0.625259 0.624244 Mn
0.751610 0.125008 0.625327 Mn
0.747816 0.625224 0.624277 Mn
0.136472 0.250368 0.621469 O
0.137981 0.749632 0.619390 O
0.638447 0.249914 0.621519 O
0.638046 0.750086 0.590528 O
0.362131 0.249997 0.622102 O
0.361554 0.750005 0.590521 O
0.864264 0.250389 0.621094 O
0.861409 0.749611 0.619384 O
0.137435 0.500980 0.629539 O
0.136855 0.999020 0.628865 O
0.637966 0.499761 0.638937 O
0.638106 0.000239 0.628544 O
0.361845 0.500052 0.639240 O
0.361989 -0.000051 0.628771 O
0.862347 0.501003 0.629515 O
0.863290 -0.001003 0.628892 O
0.499632 0.114421 0.879567 O
0.499401 0.608692 0.892472 O
0.000220 0.112229 0.879424 O
0.998798 0.613330 0.878591 O
0.499094 0.386472 0.879685 O
0.499931 0.890426 0.892355 O
0.999477 0.387930 0.879401 O
-0.000459 0.886504 0.878609 O
0.501126 0.362070 0.368522 O
0.499456 0.861003 0.372385 O
1.001426 0.363493 0.370701 O
0.999268 0.862429 0.370502 O
0.501042 0.136252 0.373007 O
0.499538 0.640679 0.367900 O
1.001552 0.137126 0.370464 O
0.999142 0.636949 0.370739 O
0.386483 0.499050 0.118470 O
0.386919 1.000951 0.124403 O
0.887023 0.499963 0.120914 O
0.887648 1.000033 0.120568 O
0.113324 -0.000675 0.120471 O
0.112997 0.500670 0.120754 O
0.613152 1.000920 0.124344 O
0.613157 0.499082 0.118365 O
0.386960 0.249643 0.128920 O
0.385588 0.750358 0.146190 O
0.888011 0.250033 0.128794 O
0.886006 0.749962 0.127631 O
0.114157 0.250208 0.128870 O
0.112939 0.749789 0.127817 O
0.613745 0.249641 0.128938 O
0.613810 0.750362 0.146127 O
0.251008 0.363599 0.380770 O
0.250847 0.861402 0.373800 O
0.751478 0.363346 0.380328 O
0.747940 0.861619 0.373618 O
0.250752 0.137393 0.380332 O
0.251102 0.637609 0.374239 O
0.751991 0.137388 0.379893 O
0.747425 0.637647 0.374052 O
0.249498 0.111865 0.870496 O
0.250180 0.614460 0.871267 O
0.750323 0.112643 0.870325 O
0.747963 0.613706 0.871326 O
0.249550 0.388510 0.872643 O
0.250129 0.885172 0.869119 O
0.748968 0.387664 0.872437 O
0.749313 0.885979 0.869211 O
