Li15 Fe16 P16 O64                       
   1.00000000000000     
    10.2419150000000005   -0.0005410000000000    0.0238640000000000
    -0.0007890000000000   11.9645100000000006    0.0015470000000000
     0.0097870000000000    0.0016080000000000    9.3726920000000007
   Li   Fe   P    O 
    15    16    16    64
Direct
  0.5462773324647110  0.3431393693658366  0.7121830736953613
  0.5006202185804214  0.9996006608538538  0.2494108333269012
  0.4991994559703762  0.0081285460913341  0.7536540301511229
  0.4995029539607008  0.5029433879557559  0.2520927187483418
  1.0003743576780131  0.2498941343072723  0.4961268026739944
  0.9974097537354264  0.2469823582793347  0.0005813343612619
  0.9988640070107421  0.7490874171557818  0.5009784444325157
  0.9986358094664579  0.7509960983322166  0.0021890350735971
  0.4995318837564589  0.2483307583284263  0.2516157025253603
  0.5010146378601354  0.7501454369921571  0.2509479791130687
  0.4989470972774420  0.7408019253295794  0.7536253967402303
  0.9999592072114191  0.5008212567100210  0.4963178890136508
  0.9969084019966135  0.5037981923637619  0.0008049833458090
  0.9993396171202127  0.0008340705032539  0.5006734894756020
  0.9990987609890748  0.9986791087804332  0.0020325935597595
  0.7800921541006495  0.1235788134450665  0.2670497754447466
  0.7805596085696802  0.1252603719062653  0.7636689504854156
  0.7781813435783800  0.6263801770058054  0.2668115570588458
  0.7783283763145713  0.6246646030629317  0.7620108424359607
  0.2813707927749092  0.1245777687479844  0.4851034902277321
  0.2825440712322943  0.1244051988031773  0.9839696741156668
  0.2813881712827563  0.6255191427966152  0.4855419611548725
  0.2814468267816511  0.6255097950483514  0.9856203746317934
  0.2165292687016927  0.3750121982158832  0.2306306757322378
  0.2238702860434625  0.3751582861611315  0.7473320743069044
  0.2190708812368246  0.8750321576254172  0.2361475887126736
  0.2192977879464872  0.8750128307612093  0.7358688185759918
  0.7195300761729825  0.3757608413265789  0.0160891709750502
  0.7231541641341904  0.3773301445040965  0.5043263869655192
  0.7185282603382172  0.8750145802829097  0.0145870808071002
  0.7173180759229125  0.8750721955416338  0.5183600184816946
  0.5961961155376497  0.1242967278588971  0.0429361127777548
  0.5909803579486692  0.1300895628747141  0.5440038842017273
  0.5954684590288526  0.6270068360171739  0.0426398035765321
  0.5906867931881462  0.6205251980189370  0.5439325428624242
  0.0931356025032180  0.1243428477909774  0.2070857061725997
  0.0938411681803994  0.1280862556311372  0.7100770705397311
  0.0924362613584688  0.6258373061228151  0.2084668341883050
  0.0936899728993030  0.6221357933938282  0.7108409761204255
  0.3961065611692037  0.3751115846765115  0.4551224243883634
  0.4045112304088817  0.3756205640775907  0.9614157578957419
  0.4057119043474624  0.8754188535379935  0.4574566475350805
  0.4073655219690832  0.8750737150129337  0.9567623550253843
  0.9084185085596733  0.3750913789315322  0.2877552746964346
  0.9093637247396106  0.3753190953628489  0.7878888384355397
  0.9062953184506858  0.8749307409932614  0.2944311763484566
  0.9075095150088884  0.8748167434507071  0.7934570673136396
  0.5956782531883873  0.1305518016483345  0.3812771709972240
  0.6022707418673362  0.1200529284635469  0.8824257480410871
  0.5944146297446337  0.6207417321146935  0.3806370393278554
  0.6017572597040716  0.6323319689980389  0.8825714119543210
  0.0948873825500025  0.1257297000959658  0.3693856319326614
  0.0939652307746276  0.1264129207962572  0.8717931712077172
  0.0944474224374976  0.6245094137014791  0.3707508786314939
  0.0936576787453925  0.6237828745531100  0.8725891532448934
  0.4018823947817385  0.3753666875610329  0.1232097233022659
  0.3831868610117565  0.3738062445500005  0.6175067271441989
  0.4050106604206565  0.8754076565396126  0.1188020868349041
  0.4015282666449253  0.8756482982673724  0.6191424881539148
  0.9077516777852067  0.3747947316093823  0.1257262957908748
  0.9080772751341852  0.3753689573867764  0.6262776510147289
  0.9047819251977982  0.8752172844835409  0.1322830968010928
  0.9056836460628124  0.8752359114743690  0.6312923312897430
  0.9543865290715063  0.1241540610677224  0.1453948394245084
  0.9569927347744398  0.1279651720552017  0.6441675052007501
  0.9539145876286870  0.6262024386433751  0.1463373939815089
  0.9570267677578698  0.6224400124075555  0.6446697901646664
  0.4562523356151311  0.1269025956656090  0.1034133717180204
  0.4523973123751652  0.1243824184247374  0.6020945314758485
  0.4557271207448135  0.6238375901419718  0.1036823804950957
  0.4520671321272795  0.6260599111588527  0.6014378592398297
  0.0457031170476066  0.3747889550218136  0.3522744123555057
  0.0508333498929823  0.3748303449440207  0.8486904379279295
  0.0448138706521943  0.8751952884365868  0.3570681140682073
  0.0463639471945057  0.8750380495699669  0.8554374475732532
  0.5374355207308420  0.3754271783209687  0.4022161530704396
  0.5430303688856009  0.3749795607918081  0.9045521101509237
  0.5450648205594264  0.8757281176980822  0.3962444282613818
  0.5454522454623576  0.8754033608090583  0.8936555310053622
  0.6642348916255000  0.0221124171248165  0.1144772772450870
  0.6673713024116374  0.0292914905728201  0.6081899864502410
  0.6674169342701801  0.5244825790790220  0.1082078258271908
  0.6652454547106083  0.5184405222481736  0.6064932139582468
  0.1639910533734674  0.2260382064484635  0.1388240992327020
  0.1649124677988343  0.2337307719222919  0.6479970509601053
  0.1643064509547918  0.7276767530292388  0.1425091656107174
  0.1678120520281539  0.7223184876338798  0.6437011074044789
  0.3287112659719210  0.2724821881469986  0.3870642170115949
  0.3252822301139391  0.2771867535455780  0.8932299349530556
  0.3346228768644439  0.7735955833489586  0.3897921345463885
  0.3349738284550110  0.7729948089246613  0.8914361268305464
  0.8369124004526897  0.4771499450434597  0.3539189076573087
  0.8404124196560472  0.4768291988410471  0.8569439762755683
  0.8349106654336613  0.9768024555803752  0.3616619447054072
  0.8365489006892659  0.9770326152543518  0.8597979750249007
  0.3279268756283439  0.4775122055750952  0.3881518665912301
  0.3236912113981394  0.4731197750106911  0.8945616729114082
  0.3345731577040862  0.9771508036508534  0.3893896159945162
  0.3350498102605374  0.9770942379540790  0.8907143926670352
  0.8358911940781045  0.2737750675530214  0.3550326177234717
  0.8398758380943446  0.2735406198280603  0.8562777708422361
  0.8351551078823565  0.7729924790673806  0.3613809304452427
  0.8367783632954138  0.7724213164664037  0.8593127613421968
  0.6679352576835248  0.2266889733230378  0.1087632003405655
  0.6612954323645370  0.2345630399629350  0.6085378869312795
  0.6634544072319072  0.7289964631672710  0.1150541297885923
  0.6653245904541442  0.7230063781091869  0.6076137036909541
  0.1646148389940634  0.0223253159580475  0.1413598933309052
  0.1676463667827983  0.0278171123602748  0.6429411008840377
  0.1632452640622592  0.5240879821875478  0.1402512826606830
  0.1648195539326556  0.5164367324197344  0.6487785399309769
 
             NaN             NaN             NaN
             NaN             NaN             NaN
             NaN             NaN             NaN
             NaN             NaN             NaN
             NaN             NaN             NaN
             NaN             NaN             NaN
             NaN             NaN             NaN
             NaN             NaN             NaN
             NaN             NaN             NaN
             NaN             NaN             NaN
             NaN             NaN             NaN
             NaN             NaN             NaN
             NaN             NaN             NaN
             NaN             NaN             NaN
             NaN             NaN             NaN
             NaN             NaN             NaN
             NaN             NaN             NaN
             NaN             NaN             NaN
             NaN             NaN             NaN
             NaN             NaN             NaN
             NaN             NaN             NaN
             NaN             NaN             NaN
             NaN             NaN             NaN
             NaN             NaN             NaN
             NaN             NaN             NaN
             NaN             NaN             NaN
             NaN             NaN             NaN
             NaN             NaN             NaN
             NaN             NaN             NaN
             NaN             NaN             NaN
             NaN             NaN             NaN
             NaN             NaN             NaN
             NaN             NaN             NaN
             NaN             NaN             NaN
             NaN             NaN             NaN
             NaN             NaN             NaN
             NaN             NaN             NaN
             NaN             NaN             NaN
             NaN             NaN             NaN
             NaN             NaN             NaN
             NaN             NaN             NaN
             NaN             NaN             NaN
             NaN             NaN             NaN
             NaN             NaN             NaN
             NaN             NaN             NaN
             NaN             NaN             NaN
             NaN             NaN             NaN
             NaN             NaN             NaN
             NaN             NaN             NaN
             NaN             NaN             NaN
             NaN             NaN             NaN
             NaN             NaN             NaN
             NaN             NaN             NaN
             NaN             NaN             NaN
             NaN             NaN             NaN
             NaN             NaN             NaN
             NaN             NaN             NaN
             NaN             NaN             NaN
             NaN             NaN             NaN
             NaN             NaN             NaN
             NaN             NaN             NaN
             NaN             NaN             NaN
             NaN             NaN             NaN
             NaN             NaN             NaN
             NaN             NaN             NaN
             NaN             NaN             NaN
             NaN             NaN             NaN
             NaN             NaN             NaN
             NaN             NaN             NaN
             NaN             NaN             NaN
             NaN             NaN             NaN
             NaN             NaN             NaN
             NaN             NaN             NaN
             NaN             NaN             NaN
             NaN             NaN             NaN
             NaN             NaN             NaN
             NaN             NaN             NaN
             NaN             NaN             NaN
             NaN             NaN             NaN
             NaN             NaN             NaN
             NaN             NaN             NaN
             NaN             NaN             NaN
             NaN             NaN             NaN
             NaN             NaN             NaN
             NaN             NaN             NaN
             NaN             NaN             NaN
             NaN             NaN             NaN
             NaN             NaN             NaN
             NaN             NaN             NaN
             NaN             NaN             NaN
             NaN             NaN             NaN
             NaN             NaN             NaN
             NaN             NaN             NaN
             NaN             NaN             NaN
             NaN             NaN             NaN
             NaN             NaN             NaN
             NaN             NaN             NaN
             NaN             NaN             NaN
             NaN             NaN             NaN
             NaN             NaN             NaN
             NaN             NaN             NaN
             NaN             NaN             NaN
             NaN             NaN             NaN
             NaN             NaN             NaN
             NaN             NaN             NaN
             NaN             NaN             NaN
             NaN             NaN             NaN
             NaN             NaN             NaN
             NaN             NaN             NaN
             NaN             NaN             NaN
             NaN             NaN             NaN
