Li15 Fe16 P16 O64
1.0
10.241915 -0.000541 0.023864
-0.000789 11.964510 0.001547
0.009787 0.001608 9.372692
Li Fe P O
15 16 16 64
direct
0.505743 0.345260 0.748524 Li
0.500793 -0.000164 0.249459 Li
0.499882 0.003269 0.749999 Li
0.500747 0.501463 0.252275 Li
0.997842 0.249785 0.496408 Li
0.996860 0.247467 0.001579 Li
0.999424 0.748953 0.500705 Li
0.999255 0.750711 0.001829 Li
0.500287 0.248912 0.251862 Li
0.501239 0.749713 0.250304 Li
0.499615 0.743879 0.751208 Li
0.997688 0.500275 0.496471 Li
0.996652 0.502642 0.001841 Li
0.999593 0.000986 0.500493 Li
0.999407 0.998869 0.001724 Li
0.780370 0.124604 0.264871 Fe
0.779827 0.124979 0.762841 Fe
0.779843 0.625556 0.265841 Fe
0.778883 0.624955 0.762135 Fe
0.281672 0.124928 0.485513 Fe
0.281390 0.124571 0.985687 Fe
0.281755 0.625038 0.485730 Fe
0.281436 0.625252 0.985870 Fe
0.217634 0.374960 0.231982 Fe
0.224727 0.375218 0.744879 Fe
0.219090 0.874989 0.236171 Fe
0.219294 0.874947 0.736097 Fe
0.719850 0.375250 0.011720 Fe
0.718355 0.375507 0.516989 Fe
0.718751 0.874848 0.014116 Fe
0.718241 0.875002 0.514709 Fe
0.594930 0.124894 0.041589 P
0.593314 0.126058 0.542133 P
0.595269 0.625810 0.041771 P
0.593061 0.624011 0.541766 P
0.093373 0.124553 0.207752 P
0.094204 0.127716 0.710402 P
0.093258 0.625386 0.208529 P
0.094160 0.622219 0.710833 P
0.398040 0.374572 0.458094 P
0.407804 0.375102 0.957516 P
0.405694 0.875158 0.456873 P
0.407087 0.875064 0.956973 P
0.906063 0.374895 0.289483 P
0.910571 0.374936 0.788770 P
0.906985 0.875053 0.293610 P
0.907513 0.874902 0.792407 P
0.595213 0.126189 0.379520 O
0.598602 0.122571 0.880277 O
0.594904 0.623872 0.378802 O
0.599871 0.629697 0.880968 O
0.094995 0.125822 0.369943 O
0.094476 0.126292 0.872162 O
0.094994 0.624202 0.370740 O
0.094433 0.623572 0.872609 O
0.403288 0.374855 0.119533 O
0.383003 0.373238 0.619602 O
0.404971 0.875163 0.118995 O
0.402378 0.875339 0.618781 O
0.906027 0.374785 0.127115 O
0.908184 0.374839 0.627224 O
0.905590 0.875000 0.131435 O
0.906865 0.875123 0.630352 O
0.954982 0.124481 0.145208 O
0.957391 0.126890 0.644675 O
0.954840 0.625414 0.146078 O
0.957486 0.623017 0.644973 O
0.455632 0.126373 0.103512 O
0.454667 0.126291 0.603145 O
0.455794 0.623608 0.103414 O
0.454421 0.624227 0.601640 O
0.044363 0.374793 0.352581 O
0.052419 0.374761 0.848776 O
0.045225 0.875230 0.356786 O
0.046018 0.875095 0.855409 O
0.539296 0.374829 0.405077 O
0.544911 0.374086 0.897978 O
0.544281 0.875281 0.394047 O
0.545194 0.875296 0.893607 O
0.664603 0.022676 0.110407 O
0.663880 0.023032 0.607872 O
0.667060 0.523455 0.107190 O
0.671428 0.524990 0.604878 O
0.164790 0.226132 0.139515 O
0.165135 0.233172 0.647750 O
0.164677 0.727466 0.142552 O
0.168595 0.722334 0.643884 O
0.330661 0.272311 0.387839 O
0.328667 0.275907 0.889684 O
0.334061 0.773249 0.390360 O
0.334984 0.772882 0.891446 O
0.834765 0.476690 0.356142 O
0.841962 0.476748 0.857492 O
0.835386 0.977166 0.359756 O
0.836081 0.977120 0.858474 O
0.330198 0.476979 0.389210 O
0.326746 0.473181 0.891156 O
0.334173 0.977162 0.390230 O
0.334799 0.977113 0.891146 O
0.834440 0.273201 0.356388 O
0.841790 0.272974 0.857438 O
0.835727 0.772962 0.360162 O
0.836544 0.772450 0.858353 O
0.666694 0.227015 0.107426 O
0.669143 0.226140 0.606750 O
0.664384 0.727934 0.111993 O
0.663277 0.727568 0.607160 O
0.164711 0.022390 0.142046 O
0.168637 0.027631 0.643415 O
0.164684 0.523807 0.140448 O
0.165130 0.516729 0.648137 O
