Li7 Mn16 O32                            
   1.00000000000000     
     8.2213130000000003   -0.0162840000000000    0.0299030000000000
    -0.0149770000000000    8.6162120000000009   -0.0669460000000000
     0.0251810000000000   -0.0694650000000000    8.2564560000000000
   Li   Mn   O 
     7    16    32
Direct
  0.3136086518023654  0.4462176341994049  0.8155345512141196
  0.8736164459588447  0.8771994801438165  0.8765821963734604
  0.1282466207716930  0.1180091503655692  0.1180580664197315
  0.8764071303977895  0.3783410400311993  0.3747872672499374
  0.3702440041705899  0.8810467687272434  0.3795599370914960
  0.6277498531897739  0.1224144546038861  0.6231577014467604
  0.6239686007932288  0.6208285031191445  0.1265066384599436
  0.4982259074876922  0.2461394418087489  0.2504799956335837
  0.2485201171513733  0.5012614899519544  0.2535561085109013
  0.2485574069368969  0.2502872367316206  0.5013072351171141
  0.5014552189052008  0.4918163620164287  0.5006625875586714
  0.4983308224443213  0.7420093688442125  0.7480432244598403
  0.7529506895076750  0.5002589299785603  0.7490849557349049
  0.7558907299271568  0.7440084608808448  0.4951870424837829
  0.2487658095744253  0.9974959963803270  0.7504063473911464
  0.2528742820451451  0.7481727358657065  0.9983073189391366
  0.5015715666176562  0.9960387278940401  0.0001572825147266
  0.7490962537001732  0.0001866470480660  0.2472869571394256
  0.7432683144178974  0.2582175993420265  0.0044937072982525
  0.0012691131600263  0.2562817043559468  0.7543720436708560
 -0.0029206752312212  0.5087864220299760  0.9989783215596243
  0.0002418884149469  0.7574766978273488  0.2464150702002124
  0.9968992191344898  0.0059744261652625  0.4972098067760696
  0.7288409466181746  0.0019968228158754  0.0123643403645793
  0.0146145050995788  0.7335043993323010  0.0073522032438614
  0.0140217277701854  0.0362282855152611  0.7621097860186137
  0.7403657383188067  0.7270472263257234  0.7328800272812979
  0.2655718667878138  0.9733170190700040  0.9843663646484181
  0.9904416625131777  0.2822894780783424  0.9897015875220734
  0.9841288370492071  0.9751917056295621  0.2339179767600226
  0.2634864488683917  0.2442755291442073  0.2705860751767356
  0.7331510667623456  0.4915683663348105  0.5196222047103323
  0.0131145203886978  0.2411037878475996  0.5180956190492831
  0.0118945601148351  0.5248152516225708  0.2352615408468787
  0.7308704482644057  0.2578345673096556  0.2343274098485395
  0.2667018618491433  0.4741334027599833  0.4896069142942596
  0.9929555673848612  0.7773967615669404  0.4745781228192710
  0.9852330072780577  0.4840112886776122  0.7644588445691899
  0.2716751979412692  0.7349192178260749  0.7690927197527421
  0.2355796182930543  0.0240995011797833  0.5170909565863668
  0.5091914089581141  0.7181082997207283  0.5115520532149269
  0.5117644592708882  0.0260756468340224  0.2525741126146766
  0.2347845858722498  0.7558697425600110  0.2299512255525227
  0.7674965285795130  0.0010846365948837  0.4818218864999780
  0.4855460875101547  0.2653703653789133  0.4914917995219291
  0.4873638763297080  0.9631059686397313  0.7466798954666282
  0.7618636902547558  0.2726130842859386  0.7660974807804245
  0.2333985313861852  0.5227994067342316  0.0147466853388631
  0.5056276533659270  0.2380621186706681  0.0231343866938382
  0.5169800009153788  0.5137737802432184  0.7361606051669420
  0.2311811045308670  0.2584573976307188  0.7336039573167467
  0.7676888152086064  0.5100898973940837  0.9792703207517595
  0.4861880130742701  0.7496993419895321  0.9826189295396265
  0.4857735417864617  0.4773090921666575  0.2667109422652416
  0.7674668301474126  0.7435181210027024  0.2649511842837948
 
             NaN             NaN             NaN
             NaN             NaN             NaN
             NaN             NaN             NaN
             NaN             NaN             NaN
             NaN             NaN             NaN
             NaN             NaN             NaN
             NaN             NaN             NaN
             NaN             NaN             NaN
             NaN             NaN             NaN
             NaN             NaN             NaN
             NaN             NaN             NaN
             NaN             NaN             NaN
             NaN             NaN             NaN
             NaN             NaN             NaN
             NaN             NaN             NaN
             NaN             NaN             NaN
             NaN             NaN             NaN
             NaN             NaN             NaN
             NaN             NaN             NaN
             NaN             NaN             NaN
             NaN             NaN             NaN
             NaN             NaN             NaN
             NaN             NaN             NaN
             NaN             NaN             NaN
             NaN             NaN             NaN
             NaN             NaN             NaN
             NaN             NaN             NaN
             NaN             NaN             NaN
             NaN             NaN             NaN
             NaN             NaN             NaN
             NaN             NaN             NaN
             NaN             NaN             NaN
             NaN             NaN             NaN
             NaN             NaN             NaN
             NaN             NaN             NaN
             NaN             NaN             NaN
             NaN             NaN             NaN
             NaN             NaN             NaN
             NaN             NaN             NaN
             NaN             NaN             NaN
             NaN             NaN             NaN
             NaN             NaN             NaN
             NaN             NaN             NaN
             NaN             NaN             NaN
             NaN             NaN             NaN
             NaN             NaN             NaN
             NaN             NaN             NaN
             NaN             NaN             NaN
             NaN             NaN             NaN
             NaN             NaN             NaN
             NaN             NaN             NaN
             NaN             NaN             NaN
             NaN             NaN             NaN
             NaN             NaN             NaN
             NaN             NaN             NaN
