Li7 Mn16 O32
1.0
8.221313 -0.016284 0.029903
-0.014977 8.616212 -0.066946
0.025181 -0.069465 8.256456
Li Mn O
7 16 32
direct
0.310359 0.442081 0.814528 Li
0.873612 0.877732 0.876392 Li
0.129110 0.116929 0.119915 Li
0.875199 0.379182 0.374237 Li
0.369320 0.881816 0.378282 Li
0.628580 0.121904 0.623937 Li
0.625897 0.619775 0.127082 Li
0.497978 0.247564 0.250716 Mn
0.248924 0.501255 0.252592 Mn
0.248800 0.252019 0.503004 Mn
0.499805 0.491785 0.503037 Mn
0.496460 0.740036 0.749156 Mn
0.751827 0.499828 0.749747 Mn
0.754375 0.744777 0.495596 Mn
0.249110 -0.002318 0.750646 Mn
0.252635 0.746162 0.997244 Mn
0.501624 0.995182 0.000083 Mn
0.749732 0.000506 0.247564 Mn
0.745220 0.256745 0.003922 Mn
0.004718 0.257947 0.754131 Mn
0.000251 0.507654 0.997718 Mn
0.000141 0.755610 0.246680 Mn
0.997348 0.006269 0.498056 Mn
0.730896 0.004314 0.012468 O
0.014756 0.732970 0.007118 O
0.013352 0.036215 0.757865 O
0.738428 0.726583 0.733254 O
0.264666 0.972581 0.984569 O
0.994366 0.282019 0.989038 O
0.985224 0.974888 0.239023 O
0.264236 0.244411 0.271049 O
0.731057 0.491060 0.519260 O
0.014738 0.245836 0.518817 O
0.011693 0.524427 0.234143 O
0.730964 0.257084 0.233296 O
0.265076 0.475559 0.487610 O
0.992246 0.771480 0.475508 O
-0.014394 0.485049 0.763530 O
0.269308 0.740716 0.767413 O
0.236006 0.024939 0.517081 O
0.507783 0.717706 0.512565 O
0.511782 0.026130 0.249056 O
0.234367 0.755419 0.229645 O
0.767491 1.000682 0.482442 O
0.485900 0.265422 0.491637 O
0.489039 0.963532 0.750328 O
0.763428 0.272117 0.767283 O
0.235728 0.521538 0.014833 O
0.503671 0.242288 0.021948 O
0.515238 0.512237 0.738045 O
0.233866 0.257883 0.734856 O
0.769769 0.507986 0.981004 O
0.485263 0.746036 0.982504 O
0.486821 0.477097 0.267826 O
0.766961 0.744796 0.264986 O
