Li16 Co18 O36                           
   1.00000000000000     
     8.1300699999999999   -0.0028820000000000    2.4119830000000002
     3.7067009999999998    7.2283330000000001    2.4096989999999998
    -0.0239410000000000   -0.0174730000000000   10.0477889999999999
   Li   Co   O 
    16    18    36
Direct
  0.2660963610808634  0.4594578654373673  0.5155025464780911
  0.3331663050528791  0.3359792980708868 -0.0016685553419880
  0.3323086218245639  0.6662650408456237  0.9974690442700231
  0.3303386854602877  1.0024973083817765 -0.0021974422296954
  0.3309019333667925  1.0042480085311298  0.5059473642132541
  0.6677570595731676  0.3331606457239715  0.9986964738183504
  0.6554932182937813  0.3370448031423654  0.5031200022993743
  0.6683000360222965  0.6646927455305286 -0.0029054938568625
  0.6728186102740350  0.6650746975470884  0.5056001639393103
  0.6685643304450626  0.0027755987937727 -0.0022920353797700
  0.6702501563301883  0.9980102348955672  0.5052632595010926
  0.9992745630230225  0.3323209561846974  0.0004442758947524
  0.0063344067188408  0.3435753528177180  0.4992183416192327
  1.0027133711601557  0.6667586854459794 -0.0012467820834078
  0.9993230737306134  0.0015033577527664  0.9998503624072901
  0.0138518027525086  0.9660676970279958  0.5020351054938532
  0.1654152617280853  0.1696946731690644  0.2470722415039442
  0.1673875957357918  0.1648985309652783  0.7532909370910122
  0.1651797349596205  0.5021406799330226  0.2469351550363166
  0.1653879720082473  0.4993824513089175  0.7561276843297605
  0.1650337398320608  0.8364786133560030  0.2471596511662811
  0.1684328997295836  0.8322416747650709  0.7520031002274182
  0.4985407341638057  0.1689643003992744  0.2509915222257115
  0.4998052906275049  0.1648748406088563  0.7531762620437471
  0.5004000740031229  0.5018775798645264  0.2463130041424860
  0.4998363953812379  0.5004831340735010  0.7515603265754388
  0.4983192422963619  0.8339141451184691  0.2514616147781089
  0.4988701877908830  0.8321250648912372  0.7564684719954060
  0.8328122804020542  0.1697201112732880  0.2468605185776127
  0.8341632286303731  0.1663321848878741  0.7497745622676000
  0.8336419120383035  0.5016037012343394  0.2458386857259789
  0.8330105943087603  0.5002745916422624  0.7517973658899186
  0.8329899677633695  0.8344063421743517  0.2507688278957282
  0.8323568401791795  0.8321576882908814  0.7522046756943910
  0.2508953049185486  0.2560284322159580  0.3552532780803102
  0.2535921436963849  0.2517035231721761  0.8638054561051905
  0.2551338015804588  0.5930417178595657  0.3432056720584086
  0.2540249494327456  0.5865246290649675  0.8629319302648814
  0.2546508497912166  0.9244930134888324  0.3523427262732224
  0.2508885801724843  0.9189148404651392  0.8646438408522656
  0.5880339023073511  0.2570486653379995  0.3550742309916181
  0.5881737844135453  0.2526356184782594  0.8605407969385920
  0.5888115824212085  0.5904928194702821  0.3516996644172664
  0.5872805720702906  0.5837143167201894  0.8629993738172462
  0.5842448569650360  0.9196098572135080  0.3593436884000193
  0.5876708410187107  0.9192877732164225  0.8647107157513368
  0.9200078670300994  0.2570952764576063  0.3543581732575729
  0.9193894218164179  0.2526969661207827  0.8601523336833840
  0.9190866804095269  0.5866591831219847  0.3534255580306277
  0.9182822410586108  0.5867915557548348  0.8629135407600363
  0.9195172739211783  0.9262133347876726  0.3537331654726138
  0.9201238847337800  0.9202654729649248  0.8600732468679185
  0.0797313342378021  0.0823317234641603  0.1371298344476667
  0.0815850461429294  0.0778762592569371  0.6427518349034805
  0.0797230208770833  0.4149336893127752  0.1363244570806721
  0.0796050541495514  0.4098437984611741  0.6494225684863205
  0.0766580866559862  0.7501912131509162  0.1384210891908237
  0.0776518103663923  0.7436568200683880  0.6534205813109349
  0.4154809437012987  0.0767894966024675  0.1421521842764918
  0.4141298468436056  0.0743674142153910  0.6478807080917196
  0.4139209831386944  0.4127605581201834  0.1386022473044377
  0.4122233588184686  0.4099570636578344  0.6491483635412841
  0.4147846345757430  0.7511692602999941  0.1394138269425118
  0.4138783244262602  0.7474569544294519  0.6483532743479293
  0.7445038746985128  0.0806474035247941  0.1406381887367883
  0.7466683788059498  0.0780341494732123  0.6424247096191367
  0.7462291002234049  0.4158326470771336  0.1359647081275051
  0.7463694583106005  0.4138957600911067  0.6415732180847783
  0.7407551963702698  0.7518753960189304  0.1414004719893738
  0.7408988573513953  0.7474898646493239  0.6482455156489131
 
             NaN             NaN             NaN
             NaN             NaN             NaN
             NaN             NaN             NaN
             NaN             NaN             NaN
             NaN             NaN             NaN
             NaN             NaN             NaN
             NaN             NaN             NaN
             NaN             NaN             NaN
             NaN             NaN             NaN
             NaN             NaN             NaN
             NaN             NaN             NaN
             NaN             NaN             NaN
             NaN             NaN             NaN
             NaN             NaN             NaN
             NaN             NaN             NaN
             NaN             NaN             NaN
             NaN             NaN             NaN
             NaN             NaN             NaN
             NaN             NaN             NaN
             NaN             NaN             NaN
             NaN             NaN             NaN
             NaN             NaN             NaN
             NaN             NaN             NaN
             NaN             NaN             NaN
             NaN             NaN             NaN
             NaN             NaN             NaN
             NaN             NaN             NaN
             NaN             NaN             NaN
             NaN             NaN             NaN
             NaN             NaN             NaN
             NaN             NaN             NaN
             NaN             NaN             NaN
             NaN             NaN             NaN
             NaN             NaN             NaN
             NaN             NaN             NaN
             NaN             NaN             NaN
             NaN             NaN             NaN
             NaN             NaN             NaN
             NaN             NaN             NaN
             NaN             NaN             NaN
             NaN             NaN             NaN
             NaN             NaN             NaN
             NaN             NaN             NaN
             NaN             NaN             NaN
             NaN             NaN             NaN
             NaN             NaN             NaN
             NaN             NaN             NaN
             NaN             NaN             NaN
             NaN             NaN             NaN
             NaN             NaN             NaN
             NaN             NaN             NaN
             NaN             NaN             NaN
             NaN             NaN             NaN
             NaN             NaN             NaN
             NaN             NaN             NaN
             NaN             NaN             NaN
             NaN             NaN             NaN
             NaN             NaN             NaN
             NaN             NaN             NaN
             NaN             NaN             NaN
             NaN             NaN             NaN
             NaN             NaN             NaN
             NaN             NaN             NaN
             NaN             NaN             NaN
             NaN             NaN             NaN
             NaN             NaN             NaN
             NaN             NaN             NaN
             NaN             NaN             NaN
             NaN             NaN             NaN
             NaN             NaN             NaN
