Li16 Co18 O36
1.0
8.130070 -0.002882 2.411983
3.706701 7.228333 2.409699
-0.023941 -0.017473 10.047789
Li Co O
16 18 36
direct
0.263706 0.449780 0.534087 Li
0.336604 0.330330 1.001481 Li
0.336464 0.667878 0.999014 Li
0.335502 0.997272 0.000932 Li
0.334840 -0.002069 0.504203 Li
0.668554 0.332828 0.998557 Li
0.660050 0.338084 0.495777 Li
0.664850 0.667052 0.001281 Li
0.670000 0.667393 0.502172 Li
0.666620 1.000088 1.000152 Li
0.669958 -0.005479 0.502058 Li
0.996559 0.332586 0.000834 Li
0.007401 0.346880 0.498414 Li
0.996350 0.669257 0.000539 Li
0.998455 0.002663 0.997234 Li
1.005575 0.983472 0.498924 Li
0.166499 0.167256 0.248338 Co
0.166799 0.165849 0.752084 Co
0.166483 0.500736 0.249767 Co
0.166490 0.500564 0.748012 Co
0.166451 0.832815 0.250013 Co
0.167272 0.832788 0.751781 Co
0.499794 0.167006 0.250273 Co
0.499905 0.166166 0.750809 Co
0.500809 0.500337 0.247746 Co
0.499931 0.500477 0.750523 Co
0.499978 0.832864 0.250289 Co
0.498904 0.832598 0.754500 Co
0.833796 0.167701 0.246795 Co
0.833633 0.166564 0.749861 Co
0.834017 0.500073 0.246959 Co
0.832953 0.500464 0.750940 Co
0.833480 0.833019 0.250406 Co
0.832801 0.832758 0.750917 Co
0.251554 0.255751 0.355981 O
0.251946 0.257691 0.859473 O
0.254957 0.589018 0.349669 O
0.251937 0.584063 0.859166 O
0.251677 0.921775 0.355295 O
0.250664 0.920191 0.863296 O
0.589967 0.254288 0.354881 O
0.587243 0.253444 0.859135 O
0.590159 0.585436 0.354698 O
0.587057 0.584089 0.861921 O
0.587171 0.919993 0.358866 O
0.587131 0.920794 0.862189 O
0.920494 0.254251 0.355304 O
0.919664 0.253116 0.859940 O
0.921088 0.584887 0.353774 O
0.923852 0.584972 0.859438 O
0.921243 0.924571 0.353297 O
0.919852 0.920311 0.860081 O
0.082384 0.077776 0.138952 O
0.081216 0.078588 0.643053 O
0.082654 0.414325 0.138509 O
0.080440 0.411241 0.647552 O
0.080464 0.745956 0.140535 O
0.080118 0.743626 0.648466 O
0.413404 0.079731 0.140830 O
0.413164 0.076294 0.646046 O
0.411373 0.413554 0.139617 O
0.410556 0.412957 0.645686 O
0.411792 0.748294 0.140139 O
0.413477 0.747115 0.645884 O
0.745667 0.079284 0.140152 O
0.746080 0.078627 0.642075 O
0.746866 0.414520 0.136627 O
0.746142 0.414179 0.642184 O
0.746011 0.747912 0.139982 O
0.740513 0.747473 0.647279 O
