Li7 Mn16 O32
1.0
8.221302 -0.016251 0.029797
-0.014942 8.616130 -0.067007
0.025066 -0.069552 8.256286
Li Mn O
7 16 32
direct
0.370713 0.384134 0.879053 Li
0.874714 0.877560 0.876541 Li
0.128350 0.116296 0.119036 Li
0.875749 0.378677 0.374921 Li
0.368550 0.881184 0.377366 Li
0.629677 0.121729 0.624081 Li
0.626436 0.619275 0.127731 Li
0.497060 0.249150 0.249408 Mn
0.247862 0.502504 0.255155 Mn
0.249523 0.251105 0.503129 Mn
0.499806 0.491521 0.503407 Mn
0.497026 0.739049 0.750795 Mn
0.753619 0.499661 0.749504 Mn
0.754174 0.745529 0.495369 Mn
0.248232 -0.004616 0.751298 Mn
0.253344 0.745255 0.997365 Mn
0.501109 0.995913 -0.000829 Mn
0.749453 0.000993 0.245137 Mn
0.745045 0.257491 0.003705 Mn
0.005296 0.256941 0.755745 Mn
0.000275 0.507382 0.998080 Mn
-0.000788 0.757174 0.245378 Mn
0.996849 0.006968 0.497132 Mn
0.730065 0.006765 0.009932 O
0.015078 0.732169 0.006491 O
0.014550 0.036081 0.761965 O
0.739328 0.725937 0.733535 O
0.265028 0.971360 0.985421 O
0.995427 0.281875 0.989827 O
0.983740 0.975376 0.233063 O
0.263559 0.244338 0.271377 O
0.731443 0.490620 0.519401 O
0.014732 0.241756 0.519455 O
0.010965 0.525175 0.235117 O
0.729955 0.258017 0.232466 O
0.265477 0.474105 0.488803 O
0.990250 0.778340 0.474239 O
-0.014007 0.483694 0.764299 O
0.270875 0.740039 0.768547 O
0.236368 0.023708 0.517913 O
0.508817 0.717587 0.513382 O
0.510292 0.026639 0.243103 O
0.233675 0.755317 0.229981 O
0.766680 1.003128 0.479910 O
0.486233 0.264632 0.491012 O
0.490240 0.963425 0.754464 O
0.764345 0.271473 0.767562 O
0.236125 0.520077 0.016014 O
0.501668 0.249190 0.020689 O
0.515614 0.510892 0.738829 O
0.235447 0.257206 0.735981 O
0.770173 0.507530 0.981124 O
0.485253 0.741962 0.983161 O
0.486093 0.477888 0.268804 O
0.765935 0.745706 0.264157 O
