Mg7 Sc16 Se32                           
   1.00000000000000     
    11.2459989999999994    0.0000130000000000   -0.0000110000000000
     0.0000130000000000   11.2461570000000002    0.0000300000000000
    -0.0000120000000000   -0.0000260000000000   11.2459310000000006
   Mg   Sc   Se
     7    16    32
Direct
  0.5927084344011478  0.5927184654688914  0.5927222492989329
  0.6227167036902822  0.1271433578389293  0.1271517055299012
  0.1271396470769937  0.6227129270382196  0.1271479151883811
  0.1271407818253073  0.1271482271736433  0.6227138913775717
  0.3739557533999956  0.8735385567831848  0.8735394634304968
  0.8735361217502768  0.3739552076034789  0.8735417980236563
  0.8735316471455223  0.8735411977098340  0.3739614160656137
  0.9954133265987224  0.7508609704313706  0.7508645941141252
  0.7508671771075383  0.9954042493359145  0.7508671510920831
  0.7508696823282189  0.7508620967345561  0.9954104884583257
  0.0007368243153072  0.0007351428983544  0.0007309557794397
  0.0059391811774055  0.2495924903500283  0.2495856593396927
  0.2495990176727468  0.0059250329530857  0.2495934880369207
  0.2496284913699320  0.2496225168369365  0.0058887528625291
  0.7453166752870012  0.4993738570166006  0.2473769399644848
  0.7453168362731227  0.2473772032068541  0.4993759100870607
  0.0090683157664981  0.4998663895079241  0.4998724033191642
  0.2473802369750779  0.4993749160403713  0.7453176214470806
  0.2473796979702455  0.7453135282917713  0.4993757280310509
  0.4993732970916065  0.7453088606920669  0.2473724062673971
  0.4998558015399634  0.0090763892073390  0.4998593855139997
  0.4993855861750470  0.2473753390324936  0.7453117390848384
  0.4998681021594195  0.4998608294038183  0.0090701800331955
  0.7576150303997456  0.9931436284467814  0.9931575233819371
  0.9931462530060817  0.7576213532029217  0.9931581901848821
  0.9931470678433519  0.9931439534133752  0.7576109556163686
  0.7550169699127309  0.7550175755323727  0.7550166690915393
  0.2420836011317178  0.0063213323977468  0.0063048568059586
  0.0063176803821307  0.2420845964916594  0.0063062398404206
  0.0063120362174866  0.0063148121182613  0.2420939269786527
  0.2408119836653547  0.2408026254839876  0.2407841544151898
  0.7615978595712192  0.4894876933206802  0.4894914967905399
  0.9914468081900547  0.2573494491537898  0.4925105419274309
  0.9914504372114985  0.4924974430442287  0.2573407692997573
  0.7595079424179826  0.2564785887655616  0.2564784594865489
  0.2430847267433271  0.5092601087765912  0.5092704261752420
  0.0053551997068521  0.7429308795944890  0.5080090424210487
  0.0053551982047688  0.5080147175325606  0.7429414930690008
  0.2397415835802635  0.7429654838586393  0.7429788399452015
  0.2573345985169506  0.9914480980434930  0.4925080597905545
  0.4894813596631981  0.7616073689667383  0.4894887087437300
  0.4924978875192196  0.9914459815454812  0.2573338293773293
  0.2564729881090915  0.7595063818825833  0.2564746886894279
  0.7429250635796847  0.0053650774662528  0.5080085586269284
  0.5092583679622273  0.2430866612172137  0.5092691641011371
  0.5080108698682738  0.0053583747987884  0.7429328513550136
  0.7429696828378322  0.2397370318930784  0.7429808392580147
  0.2573409466098674  0.4925086836715374  0.9914487542738728
  0.4925117087638389  0.2573430161391521  0.9914503311265696
  0.4894856300010661  0.4894807035681042  0.7616145165399167
  0.2564809201710165  0.2564765011265164  0.7595054275267467
  0.7429247477700369  0.5080149337240983  0.0053502024477179
  0.5080102371487446  0.7429228496216215  0.0053503721152878
  0.5092631780798861  0.5092613815228255  0.2430837324046039
  0.7429706967836768  0.7429704044282608  0.2397460695527083
 
             NaN             NaN             NaN
             NaN             NaN             NaN
             NaN             NaN             NaN
             NaN             NaN             NaN
             NaN             NaN             NaN
             NaN             NaN             NaN
             NaN             NaN             NaN
             NaN             NaN             NaN
             NaN             NaN             NaN
             NaN             NaN             NaN
             NaN             NaN             NaN
             NaN             NaN             NaN
             NaN             NaN             NaN
             NaN             NaN             NaN
             NaN             NaN             NaN
             NaN             NaN             NaN
             NaN             NaN             NaN
             NaN             NaN             NaN
             NaN             NaN             NaN
             NaN             NaN             NaN
             NaN             NaN             NaN
             NaN             NaN             NaN
             NaN             NaN             NaN
             NaN             NaN             NaN
             NaN             NaN             NaN
             NaN             NaN             NaN
             NaN             NaN             NaN
             NaN             NaN             NaN
             NaN             NaN             NaN
             NaN             NaN             NaN
             NaN             NaN             NaN
             NaN             NaN             NaN
             NaN             NaN             NaN
             NaN             NaN             NaN
             NaN             NaN             NaN
             NaN             NaN             NaN
             NaN             NaN             NaN
             NaN             NaN             NaN
             NaN             NaN             NaN
             NaN             NaN             NaN
             NaN             NaN             NaN
             NaN             NaN             NaN
             NaN             NaN             NaN
             NaN             NaN             NaN
             NaN             NaN             NaN
             NaN             NaN             NaN
             NaN             NaN             NaN
             NaN             NaN             NaN
             NaN             NaN             NaN
             NaN             NaN             NaN
             NaN             NaN             NaN
             NaN             NaN             NaN
             NaN             NaN             NaN
             NaN             NaN             NaN
             NaN             NaN             NaN
