Mg7 Sc16 Se32
1.0
11.245999 0.000013 -0.000011
0.000013 11.246157 0.000030
-0.000012 -0.000026 11.245931
Mg Sc Se
7 16 32
direct
0.591978 0.592004 0.591999 Mg
0.622984 0.127005 0.127017 Mg
0.127008 0.622997 0.127011 Mg
0.127006 0.127007 0.622987 Mg
0.375253 0.874741 0.874737 Mg
0.874732 0.375256 0.874736 Mg
0.874735 0.874748 0.375264 Mg
-0.000291 0.749412 0.749414 Sc
0.749422 -0.000323 0.749426 Sc
0.749425 0.749422 -0.000295 Sc
0.000420 0.000419 0.000420 Sc
0.005855 0.250764 0.250747 Sc
0.250767 0.005837 0.250752 Sc
0.250766 0.250767 0.005821 Sc
0.744030 0.499400 0.251467 Sc
0.744007 0.251507 0.499397 Sc
0.005118 0.499405 0.499412 Sc
0.251493 0.499394 0.744028 Sc
0.251497 0.743994 0.499397 Sc
0.499408 0.743966 0.251449 Sc
0.499408 0.005165 0.499403 Sc
0.499410 0.251482 0.744016 Sc
0.499404 0.499385 0.005145 Sc
0.757363 0.992748 0.992756 Se
0.992749 0.757369 0.992754 Se
0.992748 0.992746 0.757364 Se
0.757439 0.757434 0.757445 Se
0.242192 0.007046 0.007030 Se
0.007037 0.242193 0.007030 Se
0.007036 0.007048 0.242202 Se
0.241942 0.241939 0.241917 Se
0.759244 0.492706 0.492688 Se
0.990938 0.257121 0.492771 Se
0.990949 0.492761 0.257109 Se
0.759176 0.257117 0.257109 Se
0.241693 0.508025 0.508053 Se
0.007270 0.742992 0.507767 Se
0.007268 0.507770 0.743000 Se
0.241964 0.742982 0.742997 Se
0.257114 0.990944 0.492764 Se
0.492687 0.759256 0.492682 Se
0.492755 0.990941 0.257107 Se
0.257113 0.759176 0.257108 Se
0.742987 0.007286 0.507767 Se
0.508037 0.241724 0.508048 Se
0.507767 0.007279 0.742998 Se
0.742988 0.241958 0.742996 Se
0.257111 0.492766 0.990948 Se
0.492761 0.257110 0.990949 Se
0.492692 0.492690 0.759264 Se
0.257113 0.257113 0.759176 Se
0.742984 0.507770 0.007267 Se
0.507764 0.742979 0.007264 Se
0.508042 0.508019 0.241698 Se
0.742992 0.742989 0.241968 Se
