Mg7 Sc16 Se32                           
   1.00000000000000     
    11.2465759999999992    0.0000110000000000   -0.0000290000000000
     0.0000110000000000   11.2466399999999993    0.0000860000000000
    -0.0000290000000000    0.0001280000000000   11.2462560000000007
   Mg   Sc   Se
     7    16    32
Direct
  0.4696939297091193  0.4697144235283986  0.4697339680035702
  0.6252196560855052  0.1273093381482101  0.1273083285671443
  0.1273106453700538  0.6251909453749215  0.1273127167783646
  0.1273164110027567  0.1273246668099546  0.6251767716037969
  0.3767033778438748  0.8725801057745564  0.8725732761166320
  0.8725751769477098  0.3766819459155407  0.8725785059032372
  0.8725776581459068  0.8725934168941080  0.3766715094848604
  0.9941334426455409  0.7509491073778500  0.7509468878816438
  0.7509441007465725  0.9940406412343156  0.7509364858242712
  0.7509243303263176  0.7509168977212416  0.9940879437950105
  0.9992783202651676  0.9992680074568161  0.9992641953915765
  0.0056618641563656  0.2481529953231704  0.2481477170416169
  0.2481357962945570  0.0056852308458801  0.2481388603860961
  0.2481349724723614  0.2481332965475164  0.0056739800931512
  0.7500184695107328  0.5003464154116837  0.2528518122870890
  0.7500103013419943  0.2528593781726211  0.5003373033499531
  0.9931596286910477  0.4991173205569429  0.4991020441353517
  0.2528843894812083  0.5003231825749525  0.7499848317283130
  0.2528764913532053  0.7499945502638401  0.5003192629018477
  0.5003263162755452  0.7500131635511783  0.2528484112259560
  0.4990968862652389  0.9932442269607514  0.4990541540354479
  0.5003451458014104  0.2528701784767970  0.7499838749693700
  0.4990678187285047  0.4990302602802003  0.9933444436905217
  0.7574050229907079  0.9938037030795890  0.9938155424145245
  0.9938157600739367  0.7574059834362834  0.9938266027553879
  0.9938241669627984  0.9938123584513535  0.7573860498645721
  0.7591971081737214  0.7591498816805400  0.7591701143168926
  0.2421769401692812  0.0056850877979199  0.0056696117508063
  0.0056794912559616  0.2421765506012284  0.0056778719092853
  0.0056795225964336  0.0056950012034415  0.2421838599314144
  0.2407982577680218  0.2408081063381927  0.2408026647284997
  0.7521953999364753  0.4911626426651824  0.4911566117706784
  0.9932543575260270  0.2574518643862088  0.4920909740617364
  0.9932499115253673  0.4920902800032537  0.2574228844534208
  0.7600967782957082  0.2569856387383346  0.2569684102376433
  0.2437965958247298  0.5085413618331760  0.5085184634068589
  0.0078947118185774  0.7414791918005955  0.5073724668669241
  0.0078936616896595  0.5073848864346291  0.7414601588285396
  0.2401494712227019  0.7433566014734438  0.7433639504575867
  0.2574236446980626  0.9932657093621204  0.4920749320902745
  0.4911531596577574  0.7522497211342053  0.4911320576266142
  0.4920738023064531  0.9932617700779380  0.2573713265590175
  0.2569679394019244  0.7601038488836450  0.2569597031461059
  0.7414567758771003  0.0079024675622812  0.5073608706319699
  0.5085297263453598  0.2438192557162189  0.5085068306493638
  0.5073852537455028  0.0078832833199233  0.7414152958989358
  0.7433664820525837  0.2401214690265916  0.7433662581153884
  0.2574020194707848  0.4920678386810705  0.9932783266354095
  0.4920749963400284  0.2573773855924179  0.9932749188507689
  0.4911428577524766  0.4911310756532145  0.7522906457984579
  0.2569783584418475  0.2569689046114214  0.7600951221068797
  0.7414352402146818  0.5073656473354021  0.0079006214017938
  0.5073720204217703  0.7414042348930734  0.0078872677933613
  0.5085208349020670  0.5085238978313951  0.2438313608719701
  0.7433575849493375  0.7433688106501074  0.2401355406178368
 
             NaN             NaN             NaN
             NaN             NaN             NaN
             NaN             NaN             NaN
             NaN             NaN             NaN
             NaN             NaN             NaN
             NaN             NaN             NaN
             NaN             NaN             NaN
             NaN             NaN             NaN
             NaN             NaN             NaN
             NaN             NaN             NaN
             NaN             NaN             NaN
             NaN             NaN             NaN
             NaN             NaN             NaN
             NaN             NaN             NaN
             NaN             NaN             NaN
             NaN             NaN             NaN
             NaN             NaN             NaN
             NaN             NaN             NaN
             NaN             NaN             NaN
             NaN             NaN             NaN
             NaN             NaN             NaN
             NaN             NaN             NaN
             NaN             NaN             NaN
             NaN             NaN             NaN
             NaN             NaN             NaN
             NaN             NaN             NaN
             NaN             NaN             NaN
             NaN             NaN             NaN
             NaN             NaN             NaN
             NaN             NaN             NaN
             NaN             NaN             NaN
             NaN             NaN             NaN
             NaN             NaN             NaN
             NaN             NaN             NaN
             NaN             NaN             NaN
             NaN             NaN             NaN
             NaN             NaN             NaN
             NaN             NaN             NaN
             NaN             NaN             NaN
             NaN             NaN             NaN
             NaN             NaN             NaN
             NaN             NaN             NaN
             NaN             NaN             NaN
             NaN             NaN             NaN
             NaN             NaN             NaN
             NaN             NaN             NaN
             NaN             NaN             NaN
             NaN             NaN             NaN
             NaN             NaN             NaN
             NaN             NaN             NaN
             NaN             NaN             NaN
             NaN             NaN             NaN
             NaN             NaN             NaN
             NaN             NaN             NaN
             NaN             NaN             NaN
