Mg7 Sc16 Se32
1.0
11.207048 0.000001 0.000002
0.000001 11.207046 0.000000
0.000002 0.000000 11.207048
Mg Sc Se
7 16 32
direct
0.622579 0.622579 0.622579 Mg
0.622579 0.127421 0.127421 Mg
0.127421 0.622579 0.127421 Mg
0.127421 0.127421 0.622579 Mg
0.375000 0.875000 0.875000 Mg
0.875000 0.375000 0.875000 Mg
0.875000 0.875000 0.375000 Mg
0.999875 0.750125 0.750125 Sc
0.750125 0.999875 0.750125 Sc
0.750125 0.750125 0.999875 Sc
0.999875 0.999875 0.999875 Sc
0.006378 0.250350 0.250350 Sc
0.250350 0.006378 0.250350 Sc
0.250350 0.250350 0.006378 Sc
0.743622 0.499650 0.250350 Sc
0.743622 0.250350 0.499650 Sc
0.006378 0.499650 0.499650 Sc
0.250350 0.499650 0.743622 Sc
0.250350 0.743622 0.499650 Sc
0.499650 0.743622 0.250350 Sc
0.499650 0.006378 0.499650 Sc
0.499650 0.250350 0.743622 Sc
0.499650 0.499650 0.006378 Sc
0.756966 0.993034 0.993034 Se
0.993034 0.756966 0.993034 Se
0.993034 0.993034 0.756966 Se
0.756966 0.756966 0.756966 Se
0.241913 0.007174 0.007174 Se
0.007174 0.241913 0.007174 Se
0.007174 0.007174 0.241913 Se
0.243906 0.243906 0.243906 Se
0.760005 0.492862 0.492862 Se
0.989995 0.257138 0.492862 Se
0.989995 0.492862 0.257138 Se
0.760005 0.257138 0.257138 Se
0.243906 0.506094 0.506094 Se
0.007174 0.742826 0.508087 Se
0.007174 0.508087 0.742826 Se
0.241913 0.742826 0.742826 Se
0.257138 0.989995 0.492862 Se
0.492862 0.760005 0.492862 Se
0.492862 0.989995 0.257138 Se
0.257138 0.760005 0.257138 Se
0.742826 0.007174 0.508087 Se
0.506094 0.243906 0.506094 Se
0.508087 0.007174 0.742826 Se
0.742826 0.241913 0.742826 Se
0.257138 0.492862 0.989995 Se
0.492862 0.257138 0.989995 Se
0.492862 0.492862 0.760005 Se
0.257138 0.257138 0.760005 Se
0.742826 0.508087 0.007174 Se
0.508087 0.742826 0.007174 Se
0.506094 0.506094 0.243906 Se
0.742826 0.742826 0.241913 Se
