Li47 P16 O64
1.0
10.404217 0.000082 -0.006707
0.000094 12.202329 -0.000591
-0.006360 -0.000475 9.791199
Li P O
47 16 64
direct
0.628948 0.267082 0.097114 Li
0.666876 0.248384 0.599214 Li
0.664711 0.750883 0.097547 Li
0.664765 0.751393 0.598412 Li
0.164006 0.497194 0.151943 Li
0.164268 0.498934 0.652314 Li
0.162948 0.998132 0.152613 Li
0.164617 0.998557 0.652483 Li
0.336016 0.000586 0.401602 Li
0.335977 0.000640 0.902518 Li
0.337013 0.499810 0.400319 Li
0.336989 0.497606 0.906307 Li
0.836514 0.248663 0.347271 Li
0.835044 0.248842 0.849229 Li
0.836548 0.748791 0.348283 Li
0.836445 0.748986 0.847576 Li
0.336966 0.250311 0.400422 Li
0.336968 0.252230 0.906068 Li
0.336046 0.749390 0.401470 Li
0.335947 0.749354 0.902593 Li
0.836615 0.001228 0.348355 Li
0.836452 0.001058 0.847538 Li
0.836692 0.501418 0.347550 Li
0.835006 0.501130 0.848792 Li
0.658532 0.497285 0.096810 Li
0.666978 0.502130 0.598481 Li
0.664955 0.999324 0.097826 Li
0.664693 0.998968 0.598301 Li
0.163917 0.252801 0.151855 Li
0.164219 0.251096 0.652356 Li
0.163037 0.751169 0.152235 Li
0.164578 0.751339 0.652574 Li
0.920092 0.375124 0.147981 Li
0.922334 0.375004 0.648936 Li
0.922298 0.874916 0.149251 Li
0.923697 0.875030 0.648407 Li
0.422712 0.375143 0.611187 Li
0.427128 0.874896 0.100287 Li
0.423729 0.875080 0.600798 Li
0.077583 0.125315 0.351154 Li
0.077555 0.125318 0.852019 Li
0.077457 0.624569 0.351050 Li
0.077391 0.624580 0.852098 Li
0.577028 0.125088 0.399355 Li
0.575573 0.125406 0.899098 Li
0.576977 0.625303 0.399893 Li
0.575284 0.625102 0.898037 Li
0.911403 0.125019 0.095399 P
0.913338 0.124489 0.595442 P
0.910955 0.624868 0.095378 P
0.913289 0.625573 0.595478 P
0.410606 0.121593 0.154459 P
0.411588 0.124722 0.654883 P
0.411037 0.628036 0.154422 P
0.411495 0.625430 0.654895 P
0.087963 0.375042 0.404746 P
0.086447 0.375026 0.904738 P
0.088050 0.874888 0.404859 P
0.087743 0.874923 0.905059 P
0.590662 0.375254 0.349584 P
0.587941 0.375043 0.839051 P
0.588998 0.875044 0.345528 P
0.588636 0.875079 0.844997 P
0.841701 0.021568 0.147256 O
0.842642 0.021266 0.646535 O
0.839181 0.522241 0.146446 O
0.843251 0.522809 0.648333 O
0.334068 0.218235 0.097844 O
0.341957 0.227765 0.601809 O
0.343344 0.734020 0.106476 O
0.341920 0.728814 0.602458 O
0.158334 0.271897 0.353185 O
0.156939 0.271967 0.853183 O
0.158128 0.771696 0.352952 O
0.158431 0.771726 0.853989 O
0.660088 0.478960 0.401740 O
0.654961 0.477908 0.896169 O
0.658887 0.978367 0.397605 O
0.658751 0.978275 0.896935 O
0.158481 0.478117 0.353287 O
0.157000 0.478046 0.853176 O
0.158133 0.978119 0.353121 O
0.158481 0.978074 0.853971 O
0.660048 0.271545 0.401577 O
0.654937 0.271628 0.893713 O
0.658949 0.771802 0.397770 O
0.658641 0.771721 0.896707 O
0.840832 0.227908 0.146896 O
0.843407 0.227288 0.648308 O
0.841410 0.728462 0.147144 O
0.842645 0.728816 0.646582 O
0.342770 0.015580 0.106702 O
0.341963 0.021366 0.602365 O
0.334341 0.531377 0.098068 O
0.341946 0.522450 0.601605 O
0.549207 0.122758 0.101284 O
0.551406 0.124610 0.603867 O
0.549878 0.626267 0.101359 O
0.551430 0.625762 0.604200 O
0.050793 0.125157 0.147663 O
0.052750 0.124153 0.647230 O
0.050186 0.624351 0.147894 O
0.052678 0.625793 0.647281 O
0.451499 0.375082 0.401634 O
0.444696 0.374863 0.871745 O
0.449506 0.875009 0.396800 O
0.449248 0.875027 0.896600 O
0.948592 0.375115 0.352311 O
0.947014 0.375049 0.852306 O
0.948540 0.874939 0.353148 O
0.948777 0.874977 0.851921 O
0.594831 0.375654 0.193691 O
0.599220 0.375796 0.681872 O
0.591229 0.874946 0.188076 O
0.589686 0.875165 0.687569 O
0.085984 0.375049 0.062048 O
0.088580 0.375006 0.562262 O
0.087554 0.874828 0.062460 O
0.089500 0.874871 0.562316 O
0.411271 0.124919 0.311865 O
0.409483 0.124790 0.812158 O
0.411703 0.625071 0.311840 O
0.409281 0.625155 0.812191 O
0.911840 0.125109 0.437960 O
0.910760 0.124758 0.937892 O
0.911796 0.624952 0.437996 O
0.910516 0.625130 0.937843 O
