Li16 Co18 O36                           
   1.00000000000000     
     8.1196009999999994   -0.0054600000000000    2.4126949999999998
     3.6990379999999998    7.2282710000000003    2.4127000000000001
    -0.0267200000000000   -0.0162770000000000   10.0614260000000009
   Li   Co   O 
    16    18    36
Direct
  0.2910194530976469  0.6243417666009221  0.5068266116670087
  0.3349311068791170  0.3313224834765727  0.9977032223117928
  0.3328906637261959  0.6662272643979117  1.0003686206060622
  0.3309135359130058  1.0018665345837534  0.0034561798496156
  0.3300817459370592  0.0034176254771265  0.5006439113827471
  0.6706164119754697  0.3300190442109481  1.0001141609940409
  0.6557570417511732  0.3347867889633867  0.4988942978321625
  0.6685334723822711  0.6642449943171962  0.0034585664220598
  0.6700791639278963  0.6634113372861986  0.5006415976169687
  0.6670550649843683  1.0003861064196853  1.0024609456296489
  0.6696017913800848  0.0029427943687887  0.4967568738612378
  0.9988113984239054  0.3321409329247721 -0.0009905767254613
  0.0159050218499069  0.3492341351240678  0.5039159569185875
  0.9979874166106194  0.6682656011712914 -0.0022960462848581
  0.9966864873512727  0.0039540002447403  1.0001086909843016
  1.0014591965563366  0.9890956796237715  0.4988936577713067
  0.1660104378635856  0.1662342672512113  0.2476253074084964
  0.1665720675660869  0.1668192444626291  0.7528584678594535
  0.1656689004184215  0.4990010389160373  0.2505558439517940
  0.1658713797713497  0.4992193241367448  0.7526122071297779
  0.1652671685248285  0.8342629625514526  0.2474160787005735
  0.1667364110492561  0.8330950397071928  0.7527592628789148
  0.4995675556809906  0.1660319067113762  0.2504372904398561
  0.4997546724314784  0.1672159904688095  0.7508342398374751
  0.5009143406587193  0.4986134456448149  0.2474177088237077
  0.4997559608167422  0.5000742115487309  0.7527624592973022
  0.4988035386278944  0.8321241491782028  0.2505786229429943
  0.4992518725094694  0.8325835638676007  0.7548083869729033
  0.8339816298897818  0.1673114468034055  0.2456897114324275
  0.8338817193785288  0.1672151762971258  0.7497716955412902
  0.8329114643921317  0.4993385743174750  0.2476249742150073
  0.8334856425628550  0.4999098580537154  0.7528591813928261
  0.8327090129766010  0.8328952773363987  0.2504324753282849
  0.8338865180773267  0.8330905124906997  0.7508272219084459
  0.2504660929299571  0.2555665435254519  0.3536416338264275
  0.2542704065302315  0.2524206901535342  0.8621088295589054
  0.2540674924644490  0.5874203561944018  0.3462031960935686
  0.2533220504031705  0.5866655259690723  0.8625135718457987
  0.2510102385876572  0.9210440934016446  0.3566577771800193
  0.2559962323891192  0.9173159273668655  0.8634519684094765
  0.5919042682422543  0.2522488317949073  0.3533912682609897
  0.5871585700716694  0.2531894261588368  0.8601732590565352
  0.5877181858503480  0.5843349594905290  0.3566596722204051
  0.5839724511702228  0.5893379293368526  0.8634539216238118
  0.5862288673387143  0.9195492156782159  0.3599315026011926
  0.5861452595268108  0.9194752742069698  0.8608402885896376
  0.9201367701251416  0.2534702765070049  0.3547133533918769
  0.9195439609762065  0.2528867817597443  0.8612070678068456
  0.9222451682053940  0.5837939417276571  0.3536393981164192
  0.9190760134841058  0.5876180364454469  0.8621082251115545
  0.9189067117847750  0.9252459640747346  0.3533905608632522
  0.9198506630846298  0.9204950160730164  0.8601717714735841
  0.0818538196450692  0.0798751298021519  0.1361023043078033
  0.0814403400773370  0.0795774479683027  0.6429784364101176
  0.0818070576037013  0.4151298458868908  0.1395346427749083
  0.0766805272508397  0.4100174203644076  0.6507444669836773
  0.0792493463756500  0.7431964995671411  0.1400833941624403
  0.0803149195201217  0.7475680427695091  0.6469235911555626
  0.4138677392743825  0.0785756625143015  0.1403961772112162
  0.4156484412788593  0.0707727832793291  0.6484632882007298
  0.4098646492966914  0.4125732463428176  0.1400886873600186
  0.4142338009968733  0.4136420196312478  0.6469284651098592
  0.4135064553478237  0.7468409043130553  0.1390277072147056
  0.4150957675856432  0.7484239588552766  0.6473861926411201
  0.7451375495979587  0.0784626615307503  0.1389996954355268
  0.7464270966353879  0.0797648853944172  0.6414440988160978
  0.7465376824979710  0.4151883926867069  0.1361057824705792
  0.7462434673577268  0.4147730941090615  0.6429821520970885
  0.7452571891660886  0.7471881826659845  0.1403939806621613
  0.7374447344705006  0.7489746620447620  0.6484632143681022
 
             NaN             NaN             NaN
             NaN             NaN             NaN
             NaN             NaN             NaN
             NaN             NaN             NaN
             NaN             NaN             NaN
             NaN             NaN             NaN
             NaN             NaN             NaN
             NaN             NaN             NaN
             NaN             NaN             NaN
             NaN             NaN             NaN
             NaN             NaN             NaN
             NaN             NaN             NaN
             NaN             NaN             NaN
             NaN             NaN             NaN
             NaN             NaN             NaN
             NaN             NaN             NaN
             NaN             NaN             NaN
             NaN             NaN             NaN
             NaN             NaN             NaN
             NaN             NaN             NaN
             NaN             NaN             NaN
             NaN             NaN             NaN
             NaN             NaN             NaN
             NaN             NaN             NaN
             NaN             NaN             NaN
             NaN             NaN             NaN
             NaN             NaN             NaN
             NaN             NaN             NaN
             NaN             NaN             NaN
             NaN             NaN             NaN
             NaN             NaN             NaN
             NaN             NaN             NaN
             NaN             NaN             NaN
             NaN             NaN             NaN
             NaN             NaN             NaN
             NaN             NaN             NaN
             NaN             NaN             NaN
             NaN             NaN             NaN
             NaN             NaN             NaN
             NaN             NaN             NaN
             NaN             NaN             NaN
             NaN             NaN             NaN
             NaN             NaN             NaN
             NaN             NaN             NaN
             NaN             NaN             NaN
             NaN             NaN             NaN
             NaN             NaN             NaN
             NaN             NaN             NaN
             NaN             NaN             NaN
             NaN             NaN             NaN
             NaN             NaN             NaN
             NaN             NaN             NaN
             NaN             NaN             NaN
             NaN             NaN             NaN
             NaN             NaN             NaN
             NaN             NaN             NaN
             NaN             NaN             NaN
             NaN             NaN             NaN
             NaN             NaN             NaN
             NaN             NaN             NaN
             NaN             NaN             NaN
             NaN             NaN             NaN
             NaN             NaN             NaN
             NaN             NaN             NaN
             NaN             NaN             NaN
             NaN             NaN             NaN
             NaN             NaN             NaN
             NaN             NaN             NaN
             NaN             NaN             NaN
             NaN             NaN             NaN
