Na15 V32 O64                            
   1.00000000000000     
     9.2152410000000007    0.0001020000000000   -0.0022750000000000
     0.0001280000000000   11.5239010000000004    0.0000270000000000
    -0.0026380000000000    0.0000260000000000   10.7092060000000000
   Na   V    O 
    15    32    64
Direct
  0.7369264682523794  0.4104758464948102  0.1675744468405291
  0.7416853677841181  0.0739275247929930  0.1519533307896002
  0.7414266110449063  0.7987439128856298  0.1523527670206797
  0.2415983910482269  0.0623920808507041  0.3481887676596388
  0.2417911096691432  0.3131914908398817  0.3478813997488629
  0.2420469319959107  0.5619860285067942  0.3477648471684225
  0.2417122725707393  0.8125916177533863  0.3483637644296431
  0.2582703733715478  0.1869137606423134  0.8485269105273131
  0.2591822562199634  0.4375191972892642  0.8476798467393998
  0.2583492257210370  0.6882557595828501  0.8482874006458954
  0.2582330952186883  0.9375468641752307  0.8489673929791727
  0.7585036852867080  0.1874694079266273  0.6508065527362095
  0.7575591409516739  0.4374194092594814  0.6507665025560171
  0.7584271792017699  0.6877844204105289  0.6507918651664995
  0.7584548968748681  0.9373727684206263  0.6510029108028101
  0.5867800051328383  0.0620394527293685  0.8963232712332667
  0.5876454829686265  0.3112697483436844  0.8953866360358422
  0.5886955338831089  0.5644357283166996  0.8964059129060787
  0.5865721133342350  0.8131805934259249  0.8958928697179791
  0.0863515935206903  0.0620053177221668  0.6033281099791771
  0.0884630707448361  0.3115585269140775  0.6041055693869146
  0.0880654169475516  0.5635426775347140  0.6041138109290781
  0.0870612117469654  0.8130586630561449  0.6033904560997174
  0.4148936128988918  0.1884670022576914  0.1038621323252968
  0.4089303780492347  0.4381757241103713  0.1022825806658011
  0.4142184960055996  0.6867366279130992  0.1037438519921461
  0.4140693487108316  0.9375304410591779  0.1043951516374150
  0.9125417197047102  0.1880571845319321  0.3956133997830593
  0.9151138550141616  0.4381660271170313  0.3997644797744574
  0.9126085950312687  0.6871499836654679  0.3956464012662185
  0.9121060871393059  0.9375019296633401  0.3951724817901270
  0.5610728155558239  0.0635762817652609  0.3853572348037271
  0.5607616654152535  0.3108417747053751  0.3855768254785026
  0.5623448729931959  0.5643287310752803  0.3830892329846352
  0.5605788047552401  0.8114337754798665  0.3857737015196137
  0.0614394561472511  0.0635012855940683  0.1146814807575942
  0.0585548528369806  0.3095697206381027  0.1145772077657540
  0.0567139473234721  0.5658306208938791  0.1151309551868137
  0.0615999264778199  0.8119226811484849  0.1146951343819103
  0.4385481703151055  0.1863470704442835  0.6151071037495640
  0.4402446809281885  0.4385894639978029  0.6143958998772311
  0.4389550640756700  0.6868302307198956  0.6147253958228770
  0.4385532602398595  0.9382902061066308  0.6146690173556170
  0.9386718435502065  0.1873336073175646  0.8845869635807762
  0.9411161082237383  0.4377970348897723  0.8835325539510465
  0.9389408991972443  0.6878598539749540  0.8845386573840265
  0.9391774230546419  0.9375921820386950  0.8859116657200689
  0.7929779429135941  0.0623886400144506  0.8528534388857019
  0.7937795569777598  0.3129507577655388  0.8517742277937109
  0.7940723341985295  0.5623974713845165  0.8514147731586140
  0.7929690953298683  0.8128191885090925  0.8527322912931850
  0.2922415459889520  0.0622344249838177  0.6470632682165837
  0.2942332851329777  0.3124787706865417  0.6463998880573237
  0.2934278855491227  0.5625844734225327  0.6470385847447804
  0.2933670375555912  0.8128094622494119  0.6463513001503702
  0.2078196790769823  0.1877523223414238  0.1480864489124088
  0.2044566800373312  0.4375651679751181  0.1459713706451661
  0.2073311065916660  0.6875877655783028  0.1477968613054857
  0.2068006729176282  0.9376788036139564  0.1466706864829471
  0.7068891689415179  0.1868604706241151  0.3575340965375488
  0.7061309704718625  0.4376564193518497  0.3679150888933949
  0.7070593141812931  0.6890523876651808  0.3580588794930870
  0.7056333470845262  0.9375142406512050  0.3552982855545346
  0.8890009620280027  0.0623692899961293  0.5196857820196568
  0.8907686992615588  0.3120726232342472  0.5217215979325673
  0.8905683896538669  0.5633066136973107  0.5220262111708236
  0.8893204918679024  0.8127835447618560  0.5197894998820873
  0.3886006913484470  0.0622753795848648  0.9805675415429431
  0.3863422502770318  0.3118168731732598  0.9794920044257205
  0.3859502420152560  0.5636299537696134  0.9792415227709731
  0.3883440945701304  0.8131080013465791  0.9803673651027192
  0.1118968918922172  0.1872149216314440  0.4793870538142520
  0.1130381637505040  0.4375770649162359  0.4805186480630320
  0.1120983697229614  0.6879383954743409  0.4795649093809556
  0.1112864993577861  0.9375583497145653  0.4790061068412475
  0.6097795750627431  0.1880562744018270  0.0177934864302057
  0.6034781053043826  0.4382550076730339  0.0117382675087445
  0.6090200661927272  0.6876965682671697  0.0172589302588360
  0.6120362369018532  0.9374865220084513  0.0207264387593820
  0.9787734201248111  0.0632051284648513  0.2822647540547417
  0.9772207667773819  0.3138913711985222  0.2830268224819768
  0.9788565003559146  0.5617889227599728  0.2839388344185507
  0.9789136593525744  0.8120487642041117  0.2822462079102996
  0.4803910379056375  0.0632065134832094  0.2173793289283021
  0.4810319901341222  0.3149260689571585  0.2162257516749059
  0.4790256903436660  0.5608425716363513  0.2164023841267501
  0.4800318766407763  0.8119437876889917  0.2174157227977100
  0.0207475862005271  0.1870609643495172  0.7166503619487388
  0.0219870090229512  0.4374375896023249  0.7162251258584873
  0.0209509749834762  0.6882314381641190  0.7166483998117206
  0.0204077553447159  0.9375119053436121  0.7170754532951573
  0.5199978028548820  0.1869299493013427  0.7823184485124308
  0.5207244977291664  0.4378112627243800  0.7815144433314387
  0.5203281689105768  0.6878410322267433  0.7821012622518914
  0.5193985333416492  0.9378485059401807  0.7828792031231129
  0.5788336286753586  0.0624402731231090  0.5710576413789775
  0.5771700490599498  0.3113531872815370  0.5715034506687993
  0.5787790244668721  0.5636382906673041  0.5703057227325214
  0.5774169110519349  0.8126860332703145  0.5715231720576943
  0.0791132162422782  0.0624034164626859  0.9289282367694339
  0.0793698790728113  0.3112882722818559  0.9272927736513457
  0.0792829645282373  0.5639464675427830  0.9272815773938679
  0.0792635868735372  0.8129876758183064  0.9287452907181909
  0.4199243328130114  0.1872753323529958  0.4291559178178964
  0.4231011003951462  0.4377163907830280  0.4290304975703631
  0.4203760537293773  0.6873969566445465  0.4290076480132924
  0.4218714192943486  0.9377472427877614  0.4290787816634165
  0.9221439456865645  0.1876012801050896  0.0683008041436199
  0.9312183339824399  0.4379495545270671  0.0661844345580050
  0.9228107041785666  0.6882052007831114  0.0679601798705396
  0.9222982684820134  0.9376049763814560  0.0709748480571059
 
             NaN             NaN             NaN
             NaN             NaN             NaN
             NaN             NaN             NaN
             NaN             NaN             NaN
             NaN             NaN             NaN
             NaN             NaN             NaN
             NaN             NaN             NaN
             NaN             NaN             NaN
             NaN             NaN             NaN
             NaN             NaN             NaN
             NaN             NaN             NaN
             NaN             NaN             NaN
             NaN             NaN             NaN
             NaN             NaN             NaN
             NaN             NaN             NaN
             NaN             NaN             NaN
             NaN             NaN             NaN
             NaN             NaN             NaN
             NaN             NaN             NaN
             NaN             NaN             NaN
             NaN             NaN             NaN
             NaN             NaN             NaN
             NaN             NaN             NaN
             NaN             NaN             NaN
             NaN             NaN             NaN
             NaN             NaN             NaN
             NaN             NaN             NaN
             NaN             NaN             NaN
             NaN             NaN             NaN
             NaN             NaN             NaN
             NaN             NaN             NaN
             NaN             NaN             NaN
             NaN             NaN             NaN
             NaN             NaN             NaN
             NaN             NaN             NaN
             NaN             NaN             NaN
             NaN             NaN             NaN
             NaN             NaN             NaN
             NaN             NaN             NaN
             NaN             NaN             NaN
             NaN             NaN             NaN
             NaN             NaN             NaN
             NaN             NaN             NaN
             NaN             NaN             NaN
             NaN             NaN             NaN
             NaN             NaN             NaN
             NaN             NaN             NaN
             NaN             NaN             NaN
             NaN             NaN             NaN
             NaN             NaN             NaN
             NaN             NaN             NaN
             NaN             NaN             NaN
             NaN             NaN             NaN
             NaN             NaN             NaN
             NaN             NaN             NaN
             NaN             NaN             NaN
             NaN             NaN             NaN
             NaN             NaN             NaN
             NaN             NaN             NaN
             NaN             NaN             NaN
             NaN             NaN             NaN
             NaN             NaN             NaN
             NaN             NaN             NaN
             NaN             NaN             NaN
             NaN             NaN             NaN
             NaN             NaN             NaN
             NaN             NaN             NaN
             NaN             NaN             NaN
             NaN             NaN             NaN
             NaN             NaN             NaN
             NaN             NaN             NaN
             NaN             NaN             NaN
             NaN             NaN             NaN
             NaN             NaN             NaN
             NaN             NaN             NaN
             NaN             NaN             NaN
             NaN             NaN             NaN
             NaN             NaN             NaN
             NaN             NaN             NaN
             NaN             NaN             NaN
             NaN             NaN             NaN
             NaN             NaN             NaN
             NaN             NaN             NaN
             NaN             NaN             NaN
             NaN             NaN             NaN
             NaN             NaN             NaN
             NaN             NaN             NaN
             NaN             NaN             NaN
             NaN             NaN             NaN
             NaN             NaN             NaN
             NaN             NaN             NaN
             NaN             NaN             NaN
             NaN             NaN             NaN
             NaN             NaN             NaN
             NaN             NaN             NaN
             NaN             NaN             NaN
             NaN             NaN             NaN
             NaN             NaN             NaN
             NaN             NaN             NaN
             NaN             NaN             NaN
             NaN             NaN             NaN
             NaN             NaN             NaN
             NaN             NaN             NaN
             NaN             NaN             NaN
             NaN             NaN             NaN
             NaN             NaN             NaN
             NaN             NaN             NaN
             NaN             NaN             NaN
             NaN             NaN             NaN
             NaN             NaN             NaN
             NaN             NaN             NaN
