Na15 V32 O64
1.0
9.215241 0.000102 -0.002275
0.000128 11.523901 0.000027
-0.002638 0.000026 10.709206
Na V O
15 32 64
direct
0.740828 0.411363 0.153830 Na
0.741580 0.070309 0.152037 Na
0.741267 0.799661 0.152668 Na
0.241659 0.062686 0.348420 Na
0.241955 0.312776 0.348384 Na
0.242040 0.562441 0.348017 Na
0.241762 0.812413 0.348683 Na
0.258366 0.187277 0.848804 Na
0.258664 0.437409 0.848264 Na
0.258483 0.687548 0.848604 Na
0.258283 0.937490 0.848926 Na
0.758319 0.187570 0.650947 Na
0.758356 0.437337 0.651047 Na
0.758324 0.687468 0.650944 Na
0.758380 0.937316 0.651019 Na
0.586665 0.062611 0.896244 V
0.587656 0.312688 0.896909 V
0.588684 0.562377 0.898082 V
0.586384 0.812346 0.895788 V
0.086490 0.062480 0.603809 V
0.087565 0.312449 0.603845 V
0.087107 0.562544 0.603758 V
0.087249 0.812558 0.603853 V
0.413483 0.188182 0.103954 V
0.412110 0.437766 0.103610 V
0.412979 0.686658 0.103857 V
0.414291 0.937390 0.104131 V
0.912729 0.188003 0.395756 V
0.912615 0.437640 0.396034 V
0.912664 0.687034 0.395845 V
0.912696 0.937381 0.395680 V
0.561092 0.062698 0.385469 V
0.561632 0.312669 0.384076 V
0.562817 0.562398 0.382413 V
0.560591 0.812262 0.385909 V
0.060972 0.062369 0.114696 V
0.058534 0.312263 0.115111 V
0.056429 0.562690 0.115394 V
0.061314 0.812682 0.114727 V
0.439192 0.187163 0.614700 V
0.440268 0.438315 0.614305 V
0.439689 0.686291 0.614516 V
0.438642 0.938175 0.614859 V
0.939037 0.187719 0.885350 V
0.939726 0.437507 0.885127 V
0.939249 0.687405 0.885231 V
0.938795 0.937352 0.885526 V
0.793115 0.062523 0.853342 O
0.793516 0.312505 0.852779 O
0.793866 0.562482 0.852657 O
0.793016 0.812449 0.853183 O
0.292715 0.062527 0.646942 O
0.294090 0.312505 0.646176 O
0.293445 0.562498 0.646738 O
0.293683 0.812472 0.646256 O
0.206492 0.187378 0.146445 O
0.205295 0.437485 0.145967 O
0.206070 0.687613 0.146258 O
0.207197 0.937566 0.146916 O
0.706568 0.186961 0.356287 O
0.706677 0.436977 0.358531 O
0.706627 0.688649 0.357176 O
0.706372 0.937403 0.355057 O
0.889258 0.062505 0.519584 O
0.889726 0.312457 0.520067 O
0.889580 0.562537 0.520130 O
0.889525 0.812535 0.519736 O
0.388773 0.062388 0.980611 O
0.387729 0.312284 0.980047 O
0.387486 0.562610 0.979921 O
0.388477 0.812692 0.980460 O
0.111439 0.187471 0.480062 O
0.111716 0.437487 0.480234 O
0.111532 0.687575 0.480122 O
0.111288 0.937533 0.479960 O
0.610065 0.188108 0.018816 O
0.607777 0.437482 0.017021 O
0.609119 0.687141 0.018071 O
0.611422 0.937251 0.019930 O
0.979026 0.062684 0.282608 O
0.979685 0.312709 0.283322 O
0.980015 0.562416 0.283857 O
0.979128 0.812275 0.282593 O
0.479883 0.062837 0.217347 O
0.477775 0.312890 0.217376 O
0.476921 0.562260 0.217345 O
0.479566 0.812033 0.217379 O
0.020672 0.187435 0.716932 O
0.021136 0.437350 0.716828 O
0.020819 0.687774 0.716861 O
0.020424 0.937429 0.716996 O
0.520279 0.187226 0.782771 O
0.521284 0.437654 0.782435 O
0.520674 0.687409 0.782627 O
0.519680 0.937738 0.782951 O
0.578821 0.062401 0.571163 O
0.577880 0.312253 0.570942 O
0.579358 0.562642 0.570098 O
0.577568 0.812696 0.571590 O
0.078345 0.062243 0.929077 O
0.078695 0.312077 0.928533 O
0.078411 0.562769 0.928408 O
0.078698 0.812863 0.928916 O
0.421889 0.187369 0.429474 O
0.422736 0.437666 0.429256 O
0.422213 0.687321 0.429390 O
0.421562 0.937679 0.429532 O
0.922946 0.187675 0.069728 O
0.925192 0.437336 0.068476 O
0.923800 0.687672 0.069210 O
0.921690 0.937288 0.070510 O
