Li16 Co18 O36                           
   1.00000000000000     
     8.1674650000000000   -0.0042730000000000    2.4395579999999999
     3.7218429999999998    7.2702920000000004    2.4397250000000001
     0.0237340000000000    0.0147830000000000   10.0012209999999993
   Li   Co   O 
    16    18    36
Direct
  0.2216724050209787  0.5483300138764667  0.5261672951067875
  0.3348084993983216  0.3318799216601787  0.0016960606996133
  0.3335048938385266  0.6668931541676101  1.0001664665789527
  0.3333723459896999  0.9999173689287526  0.0009728627442222
  0.3328035311452204 -0.0003140512769972  0.5016827816350997
  0.6672013777935470  0.3335666152958373  0.9992045876588954
  0.6454011530515673  0.3443616443168324  0.4999292127086845
  0.6666137800336690  0.6667169203927410  0.0009418273838097
  0.6664746662476545  0.6662096516637055  0.5016809615697907
  0.6665348038613298  0.9997950253696340  1.0008772320407382
  0.6670751615022392  1.0000986396637594  0.5018331474041835
  0.9991354976847849  0.3324083399775811  0.0012975498640748
  0.0133148219364092  0.3467124980386398  0.5008536089524035
  0.9985926037978843  0.6681316351283564  0.0016559648756393
  0.0003071899730952  0.0004707860731186  0.9991643974062342
  0.0124180003903751  0.9758120578946783  0.4999919484041063
  0.1664465887328576  0.1674761609013090  0.2467533801917955
  0.1682225348811824  0.1661443083252858  0.7525014528056591
  0.1663281339802865  0.4998588847940463  0.2466174159298869
  0.1649259341752279  0.4978804397040573  0.7617953039273544
  0.1662340468057882  0.8352230659181361  0.2466847471277419
  0.1681055880691275  0.8324975411364687  0.7524898201498107
  0.4992155439644841  0.1668570782755723  0.2509969697917018
  0.4997261458968687  0.1660355080192851  0.7525375959478693
  0.5017130825046064  0.4997553505602159  0.2466815501758320
  0.4996305441988431  0.5010330306886440  0.7525744113369427
  0.4991224715352385  0.8325657991451861  0.2509979824742672
  0.4995126165988358  0.8324927578546819  0.7560179778272381
  0.8339305905384953  0.1674449254822173  0.2465806522540105
  0.8342770665048674  0.1671822121063945  0.7495669717637221
  0.8339954654091173  0.4999414706195854  0.2466880489312373
  0.8332431363639617  0.5012040369864765  0.7524152464185828
  0.8333813018782402  0.8326892647405453  0.2509665117118797
  0.8332481399592651  0.8325678688269291  0.7523674918354623
  0.2513132669691356  0.2539905604400147  0.3526598986857088
  0.2545733242118662  0.2495499578700155  0.8644102323987877
  0.2570110787918968  0.5906610559625919  0.3396176157050969
  0.2543511328814883  0.5873068669643094  0.8645258973759601
  0.2513068388282936  0.9244978364694473  0.3525923407395444
  0.2511386953437782  0.9204348327128725  0.8629242938076174
  0.5911540281974044  0.2540022476615676  0.3526764006693474
  0.5885488254637088  0.2529341192833260  0.8594042718312880
  0.5910410641052111  0.5847329262021466  0.3525952432058703
  0.5875238666472947  0.5841553781677910  0.8628603635517117
  0.5861021046664459  0.9195372487570291  0.3597937060374040
  0.5876978000641796  0.9205451064248927  0.8629567238402744
  0.9207450810807554  0.2543396934831961  0.3527281700625690
  0.9200837914953187  0.2531040460736727  0.8591268146537042
  0.9204658637704929  0.5847877573371320  0.3525962973407281
  0.9165987420858385  0.5875672162079723  0.8642844560043739
  0.9204540974848594  0.9247100837090695  0.3526143621420356
  0.9200301836595439  0.9214058009823858  0.8592983954378187
  0.0803401018102914  0.0810648325347724  0.1371102542246327
  0.0820488443468416  0.0792830428466521  0.6433822352140212
  0.0805158612911189  0.4139556161406490  0.1369849952454335
  0.0801409785462043  0.4128479900458780  0.6514929617081527
  0.0774845729026043  0.7483641773283565  0.1390299757904135
  0.0801377456478106  0.7421839522587242  0.6513791730730294
  0.4146492933345465  0.0790088572956023  0.1417241203856151
  0.4146415110492433  0.0739941131094131  0.6499370387670451
  0.4148570904531848  0.4109777457969830  0.1390630399748993
  0.4097396882740378  0.4126554619377276  0.6515528404384302
  0.4147025772840772  0.7481986615940198  0.1390063069838554
  0.4146369566661927  0.7475772030804504  0.6498765472648790
  0.7455204637997259  0.0790051285312566  0.1412153484868184
  0.7463625281441175  0.0792707779927432  0.6431724725453274
  0.7475743155623973  0.4138256672315706  0.1370583276186519
  0.7463697690912598  0.4149933744573421  0.6433311658302100
  0.7455379267314636  0.7481492873237249  0.1416662775781905
  0.7409754533588467  0.7476495045133011  0.6498478939901452
 
             NaN             NaN             NaN
             NaN             NaN             NaN
             NaN             NaN             NaN
             NaN             NaN             NaN
             NaN             NaN             NaN
             NaN             NaN             NaN
             NaN             NaN             NaN
             NaN             NaN             NaN
             NaN             NaN             NaN
             NaN             NaN             NaN
             NaN             NaN             NaN
             NaN             NaN             NaN
             NaN             NaN             NaN
             NaN             NaN             NaN
             NaN             NaN             NaN
             NaN             NaN             NaN
             NaN             NaN             NaN
             NaN             NaN             NaN
             NaN             NaN             NaN
             NaN             NaN             NaN
             NaN             NaN             NaN
             NaN             NaN             NaN
             NaN             NaN             NaN
             NaN             NaN             NaN
             NaN             NaN             NaN
             NaN             NaN             NaN
             NaN             NaN             NaN
             NaN             NaN             NaN
             NaN             NaN             NaN
             NaN             NaN             NaN
             NaN             NaN             NaN
             NaN             NaN             NaN
             NaN             NaN             NaN
             NaN             NaN             NaN
             NaN             NaN             NaN
             NaN             NaN             NaN
             NaN             NaN             NaN
             NaN             NaN             NaN
             NaN             NaN             NaN
             NaN             NaN             NaN
             NaN             NaN             NaN
             NaN             NaN             NaN
             NaN             NaN             NaN
             NaN             NaN             NaN
             NaN             NaN             NaN
             NaN             NaN             NaN
             NaN             NaN             NaN
             NaN             NaN             NaN
             NaN             NaN             NaN
             NaN             NaN             NaN
             NaN             NaN             NaN
             NaN             NaN             NaN
             NaN             NaN             NaN
             NaN             NaN             NaN
             NaN             NaN             NaN
             NaN             NaN             NaN
             NaN             NaN             NaN
             NaN             NaN             NaN
             NaN             NaN             NaN
             NaN             NaN             NaN
             NaN             NaN             NaN
             NaN             NaN             NaN
             NaN             NaN             NaN
             NaN             NaN             NaN
             NaN             NaN             NaN
             NaN             NaN             NaN
             NaN             NaN             NaN
             NaN             NaN             NaN
             NaN             NaN             NaN
             NaN             NaN             NaN
