Mg7 Sc16 Se32                           
   1.00000000000000     
    11.3332110000000004    0.0000000000000000    0.0000000000000000
     0.0000000000000000   11.3332029999999992    0.0000000000000000
     0.0000000000000000    0.0000000000000000   11.3331839999999993
   Mg   Sc   Se
     7    16    32
Direct
  0.5607527042661811  0.5607525080192041  0.5607522627419400
  0.6229707286510877  0.1275604054253504  0.1275604496402616
  0.1275603762880190  0.6229707489400810  0.1275604264026741
  0.1275603215334965  0.1275603406856819  0.6229707009823541
  0.3747292279720829  0.8736636009469011  0.8736635304002969
  0.8736636524354390  0.3747292812689582  0.8736635131504288
  0.8736633610859110  0.8736633543702582  0.3747292136122711
  0.9948992372700723  0.7516613595106322  0.7516612632827411
  0.7516613475781897  0.9948992137168321  0.7516612282946310
  0.7516612125056674  0.7516611225854694  0.9948992416083222
  1.0001292092058738  1.0001291880868231  1.0001292708602985
  0.0057544294307999  0.2493747627650492  0.2493748552149747
  0.2493747884990334  0.0057543804878698  0.2493748532543930
  0.2493748047362238  0.2493748196194180  0.0057543793072631
  0.7459462469021877  0.5000497111945910  0.2479916116300478
  0.7459461464467033  0.2479914455351142  0.5000495990453429
  0.0087637088310719  0.5005964679014145  0.5005963438008605
  0.2479915356725911  0.5000496645798723  0.7459464051301546
  0.2479915841108870  0.7459461416416021  0.5000496515931735
  0.5000497171738340  0.7459462463247583  0.2479915626122094
  0.5005964289240843  0.0087637266455845  0.5005964653445879
  0.5000496589983304  0.2479914073768046  0.7459463846036749
  0.5005965814621705  0.5005965286452494  0.0087640219658433
  0.7578780420170914  0.9935032333063386  0.9935034676716683
  0.9935030757270596  0.7578779314137567  0.9935033955767569
  0.9935031525063034  0.9935033567612974  0.7578776700522166
  0.7590670141394477  0.7590669911601392  0.7590658297561411
  0.2415282496999596  0.0066402940312343  0.0066400206538137
  0.0066403993402853  0.2415283703419341  0.0066400016104456
  0.0066403625431245  0.0066402334498907  0.2415287512526432
  0.2400931376796043  0.2400933013119503  0.2400935702451832
  0.7607804514621805  0.4895507802012257  0.4895511627137153
  0.9910751103389985  0.2584522395341967  0.4922232743010145
  0.9910751320803660  0.4922229666013949  0.2584519784174766
  0.7598708773359548  0.2572843974457922  0.2572841730438353
  0.2438434425166799  0.5095555140803431  0.5095554139901418
  0.0064905264554888  0.7425779665710334  0.5085969692033889
  0.0064905734798617  0.5085973474158333  0.7425783006124972
  0.2399775518946365  0.7427985938356968  0.7427989274294672
  0.2584523660841733  0.9910751796825817  0.4922233301503464
  0.4895506854394426  0.7607803146852156  0.4895511508925510
  0.4922228810551245  0.9910752258719641  0.2584519846694550
  0.2572845603325389  0.7598707535798787  0.2572841287428875
  0.7425778303346247  0.0064903421255741  0.5085970408216329
  0.5095556870297985  0.2438434733420331  0.5095553949849519
  0.5085974314501762  0.0064903644475531  0.7425782878885441
  0.7427985260829222  0.2399776758638812  0.7427989641679666
  0.2584524960436372  0.4922230153610733  0.9910756100196244
  0.4922228760398819  0.2584523581445732  0.9910756147161834
  0.4895507900443992  0.4895508421829932  0.7607801357424882
  0.2572845399257332  0.2572843616745297  0.7598704650134414
  0.7425779666376178  0.5085974033366194  0.0064900123157712
  0.5085975197842431  0.7425780852884413  0.0064900047208318
  0.5095557198485001  0.5095555774104512  0.2438438416724189
  0.7427985379051861  0.7427986115472758  0.2399774385110531
 
             NaN             NaN             NaN
             NaN             NaN             NaN
             NaN             NaN             NaN
             NaN             NaN             NaN
             NaN             NaN             NaN
             NaN             NaN             NaN
             NaN             NaN             NaN
             NaN             NaN             NaN
             NaN             NaN             NaN
             NaN             NaN             NaN
             NaN             NaN             NaN
             NaN             NaN             NaN
             NaN             NaN             NaN
             NaN             NaN             NaN
             NaN             NaN             NaN
             NaN             NaN             NaN
             NaN             NaN             NaN
             NaN             NaN             NaN
             NaN             NaN             NaN
             NaN             NaN             NaN
             NaN             NaN             NaN
             NaN             NaN             NaN
             NaN             NaN             NaN
             NaN             NaN             NaN
             NaN             NaN             NaN
             NaN             NaN             NaN
             NaN             NaN             NaN
             NaN             NaN             NaN
             NaN             NaN             NaN
             NaN             NaN             NaN
             NaN             NaN             NaN
             NaN             NaN             NaN
             NaN             NaN             NaN
             NaN             NaN             NaN
             NaN             NaN             NaN
             NaN             NaN             NaN
             NaN             NaN             NaN
             NaN             NaN             NaN
             NaN             NaN             NaN
             NaN             NaN             NaN
             NaN             NaN             NaN
             NaN             NaN             NaN
             NaN             NaN             NaN
             NaN             NaN             NaN
             NaN             NaN             NaN
             NaN             NaN             NaN
             NaN             NaN             NaN
             NaN             NaN             NaN
             NaN             NaN             NaN
             NaN             NaN             NaN
             NaN             NaN             NaN
             NaN             NaN             NaN
             NaN             NaN             NaN
             NaN             NaN             NaN
             NaN             NaN             NaN
