Mg7 Sc16 Se32                           
   1.00000000000000     
    11.3332110000000004    0.0000000000000000    0.0000000000000000
     0.0000000000000000   11.3332029999999992    0.0000000000000000
     0.0000000000000000    0.0000000000000000   11.3331839999999993
   Mg   Sc   Se
     7    16    32
Direct
  0.5609216900750233  0.5609216520390898  0.5609215399094164
  0.6235130306212990  0.1269625055424765  0.1269625398841643
  0.1269625145524689  0.6235130370000729  0.1269625423487287
  0.1269625129991634  0.1269625024802566  0.6235130823939379
  0.3754487505049541  0.8742772766660847  0.8742769115942943
  0.8742772775328912  0.3754487532549768  0.8742769119027508
  0.8742768267272254  0.8742768327368562  0.3754488100619716
  0.9948013906476472  0.7510537065284822  0.7510534354029827
  0.7510534593483494  0.9948016091468229  0.7510536146415386
  0.7510537391393323  0.7510538208683633  0.9947994509597007
  0.9998362840376620  0.9998362773889394  0.9998363597767961
  0.0060932505541648  0.2493377469930073  0.2493377789501909
  0.2493377904689743  0.0060931933380534  0.2493378800631414
  0.2493377731686346  0.2493377542227663  0.0060929035629665
  0.7451713143162570  0.5001141594582380  0.2486797634585282
  0.7451712756356290  0.2486798166459480  0.5001143339912785
  0.0065423369703090  0.5007300160469521  0.5007301292435277
  0.2486799169542638  0.5001141710237511  0.7451717234031792
  0.2486798746148670  0.7451712201353293  0.5001142498052613
  0.5001143546034622  0.7451714010297348  0.2486798272723270
  0.5007299717837062  0.0065419674148937  0.5007300569183898
  0.5001143012703401  0.2486798261203797  0.7451717435973734
  0.5007304957878395  0.5007304578062604  0.0065420468636182
  0.7577002965990082  0.9932377964966088  0.9932379185519531
  0.9932377247087799  0.7577002307850117  0.9932379405589535
  0.9932376609591976  0.9932377491514739  0.7577001287895184
  0.7595232120379984  0.7595231442369731  0.7595229453483290
  0.2416720233407832  0.0067979917500643  0.0067979143056915
  0.0067980508742384  0.2416720935018226  0.0067979042169551
  0.0067980320845523  0.0067979628919293  0.2416723843210171
  0.2400073544789810  0.2400074260260849  0.2400073201114539
  0.7603434603305596  0.4910052163244542  0.4910054445917555
  0.9905418950431715  0.2583284534028739  0.4920838200991594
  0.9905418967762790  0.4920836359963742  0.2583283879454841
  0.7593958572840900  0.2576716673557464  0.2576716039673054
  0.2416924795173779  0.5095527270355212  0.5095529151685487
  0.0076243927806282  0.7425734414122639  0.5081548604009458
  0.0076244036322519  0.5081550548438027  0.7425736094107018
  0.2414602525090190  0.7428028369349585  0.7428029623347707
  0.2583284737545878  0.9905419296097876  0.4920838088530097
  0.4910051605949834  0.7603434051731783  0.4910054163118105
  0.4920835567622412  0.9905419296620540  0.2583283372533315
  0.2576717271070498  0.7593958122012776  0.2576716013256538
  0.7425734545090121  0.0076242902173556  0.5081548790298326
  0.5095528062014874  0.2416921836287845  0.5095529325043483
  0.5081551415222822  0.0076243114564563  0.7425736819845272
  0.7428027475839672  0.2414603168778647  0.7428029538973512
  0.2583285107172160  0.4920836511344535  0.9905421513585033
  0.4920835878383615  0.2583284409890925  0.9905421396863502
  0.4910051735135597  0.4910051892079411  0.7603435094804939
  0.2576717066113551  0.2576716283620645  0.7593957197428828
  0.7425735402562079  0.5081548389095562  0.0076241233199749
  0.5081549032333151  0.7425735899869005  0.0076241227891611
  0.5095528018781169  0.5095527130782618  0.2416924403532923
  0.7428025863826443  0.7428026449643121  0.2414605028819494
 
             NaN             NaN             NaN
             NaN             NaN             NaN
             NaN             NaN             NaN
             NaN             NaN             NaN
             NaN             NaN             NaN
             NaN             NaN             NaN
             NaN             NaN             NaN
             NaN             NaN             NaN
             NaN             NaN             NaN
             NaN             NaN             NaN
             NaN             NaN             NaN
             NaN             NaN             NaN
             NaN             NaN             NaN
             NaN             NaN             NaN
             NaN             NaN             NaN
             NaN             NaN             NaN
             NaN             NaN             NaN
             NaN             NaN             NaN
             NaN             NaN             NaN
             NaN             NaN             NaN
             NaN             NaN             NaN
             NaN             NaN             NaN
             NaN             NaN             NaN
             NaN             NaN             NaN
             NaN             NaN             NaN
             NaN             NaN             NaN
             NaN             NaN             NaN
             NaN             NaN             NaN
             NaN             NaN             NaN
             NaN             NaN             NaN
             NaN             NaN             NaN
             NaN             NaN             NaN
             NaN             NaN             NaN
             NaN             NaN             NaN
             NaN             NaN             NaN
             NaN             NaN             NaN
             NaN             NaN             NaN
             NaN             NaN             NaN
             NaN             NaN             NaN
             NaN             NaN             NaN
             NaN             NaN             NaN
             NaN             NaN             NaN
             NaN             NaN             NaN
             NaN             NaN             NaN
             NaN             NaN             NaN
             NaN             NaN             NaN
             NaN             NaN             NaN
             NaN             NaN             NaN
             NaN             NaN             NaN
             NaN             NaN             NaN
             NaN             NaN             NaN
             NaN             NaN             NaN
             NaN             NaN             NaN
             NaN             NaN             NaN
             NaN             NaN             NaN
