Li46 P16 O64
1.0
10.490139 -0.000289 -0.002102
-0.000314 12.276806 0.003586
-0.001923 0.002892 9.892321
Li P O
46 16 64
direct
0.655775 0.251628 0.098923 Li
0.665779 0.248604 0.598182 Li
0.663642 0.749356 0.098116 Li
0.663893 0.750554 0.598101 Li
0.166927 0.488280 0.152864 Li
0.163853 0.501007 0.652114 Li
0.166731 0.001866 0.149801 Li
0.164663 0.001123 0.652795 Li
0.337713 0.002287 0.400609 Li
0.336779 0.002760 0.906409 Li
0.339111 0.497067 0.396694 Li
0.334872 0.495417 0.908944 Li
0.836842 0.247763 0.347876 Li
0.833661 0.249546 0.848681 Li
0.837561 0.749014 0.347202 Li
0.836952 0.748945 0.847968 Li
0.337647 0.252877 0.383399 Li
0.332541 0.256791 0.916144 Li
0.337041 0.749148 0.400739 Li
0.336202 0.748996 0.905599 Li
0.837728 0.001818 0.345643 Li
0.836497 0.001269 0.847389 Li
0.836794 0.499815 0.346697 Li
0.833685 0.500766 0.849623 Li
0.656358 0.495779 0.097045 Li
0.665881 0.501052 0.598117 Li
0.662093 0.996557 0.096497 Li
0.664453 0.999153 0.598997 Li
0.163773 0.253686 0.647012 Li
0.164415 0.750522 0.152800 Li
0.164833 0.752374 0.652167 Li
0.927174 0.368567 0.151294 Li
0.918896 0.376116 0.649137 Li
0.924283 0.875801 0.149024 Li
0.925751 0.876154 0.648748 Li
0.427557 0.373509 0.606671 Li
0.428234 0.876118 0.102307 Li
0.424265 0.875967 0.600864 Li
0.080258 0.132427 0.337573 Li
0.077270 0.130217 0.858448 Li
0.077449 0.622029 0.349505 Li
0.076692 0.623761 0.851714 Li
0.576068 0.126387 0.399460 Li
0.571878 0.126891 0.902765 Li
0.575456 0.622574 0.399737 Li
0.571906 0.622952 0.900017 Li
0.908084 0.120855 0.095514 P
0.913585 0.123810 0.595192 P
0.911283 0.624657 0.096271 P
0.912426 0.627617 0.595214 P
0.413095 0.121712 0.153161 P
0.411516 0.125167 0.655160 P
0.408699 0.629405 0.153708 P
0.410745 0.625640 0.654677 P
0.087415 0.374312 0.409835 P
0.083251 0.377778 0.900445 P
0.089578 0.875492 0.404428 P
0.088778 0.875026 0.905122 P
0.593999 0.375010 0.349568 P
0.586269 0.375290 0.839113 P
0.590248 0.874025 0.347349 P
0.588570 0.874194 0.844401 P
0.834990 0.017624 0.143411 O
0.843228 0.020554 0.645920 O
0.839140 0.523421 0.147007 O
0.841450 0.526896 0.648938 O
0.344240 0.218535 0.098015 O
0.343908 0.227311 0.601438 O
0.344894 0.737693 0.108937 O
0.341987 0.729102 0.602646 O
0.157593 0.269897 0.374666 O
0.154111 0.275635 0.849017 O
0.157934 0.771454 0.354630 O
0.158880 0.772521 0.853245 O
0.662149 0.478666 0.404207 O
0.653678 0.478051 0.896000 O
0.660426 0.976278 0.399113 O
0.658528 0.976690 0.894887 O
0.158458 0.475792 0.354924 O
0.154802 0.479745 0.846550 O
0.160259 0.976862 0.352533 O
0.158484 0.977853 0.854588 O
0.662045 0.271693 0.404559 O
0.653270 0.272989 0.896925 O
0.659567 0.770857 0.398780 O
0.658322 0.771328 0.896027 O
0.838287 0.223106 0.148564 O
0.842048 0.225255 0.646757 O
0.841815 0.728572 0.146484 O
0.842613 0.731143 0.644960 O
0.346777 0.014052 0.107024 O
0.342284 0.021707 0.603010 O
0.331151 0.535580 0.097715 O
0.342146 0.523852 0.600330 O
0.553682 0.118399 0.103621 O
0.550831 0.123142 0.604622 O
0.547303 0.627042 0.100841 O
0.549899 0.626345 0.604477 O
0.043682 0.114807 0.147550 O
0.050597 0.124229 0.649939 O
0.048953 0.624940 0.149539 O
0.050467 0.628963 0.647275 O
0.455785 0.375494 0.401768 O
0.444266 0.376206 0.868500 O
0.452113 0.874375 0.399537 O
0.450467 0.874326 0.896003 O
0.950026 0.374035 0.353080 O
0.945217 0.376197 0.843992 O
0.951016 0.875244 0.352441 O
0.950683 0.874725 0.851779 O
0.603890 0.374986 0.196483 O
0.602894 0.375069 0.683452 O
0.591892 0.873023 0.191464 O
0.589690 0.873907 0.688230 O
0.077678 0.383273 0.053451 O
0.081667 0.382626 0.565960 O
0.088599 0.873820 0.060896 O
0.090092 0.876055 0.560872 O
0.414683 0.122112 0.310639 O
0.409094 0.124561 0.811047 O
0.411267 0.625812 0.310474 O
0.407980 0.625727 0.810600 O
0.913708 0.123618 0.439179 O
0.906610 0.124029 0.938656 O
0.911859 0.625718 0.439072 O
0.910970 0.625551 0.939737 O
