Li46 P16 O64                            
   1.00000000000000     
    10.4924549999999996   -0.0047480000000000   -0.0190220000000000
    -0.0055060000000000   12.2847240000000006   -0.0079420000000000
    -0.0178120000000000   -0.0063920000000000    9.8863819999999993
   Li   P    O 
    46    16    64
Direct
  0.3425437901877768  0.3572936279168202  0.1558742252110916
  0.6646649919923583  0.2510984619929943  0.5977886828979517
  0.6602657352998108  0.7462211295594495  0.0959337762193914
  0.6637243337343869  0.7508882579091204  0.5991720680443360
  0.1554019983096574  0.5045661696815203  0.1535423540618304
  0.1642454379391845  0.5004529270334198  0.6521936254896010
  0.1649338791476156  0.9950439316450796  0.1518827153136131
  0.1645295089886095  1.0003560115042884  0.6536060135960969
  0.3367088236342077  0.0003159478605962  0.4014585832528367
  0.3385312359975985  0.0006602373036628  0.9069128201044880
  0.3370271066969042  0.5010832266738134  0.4056515323002704
  0.3382251226543112  0.4962748392608317  0.9039256885254032
  0.8327772832043779  0.2491458828618207  0.3420419124931339
  0.8334783254511778  0.2491077471300335  0.8557670268552312
  0.8355075326313514  0.7483469895014689  0.3472815614984508
  0.8359726157368230  0.7487241269748803  0.8475274609299275
  0.3371694697436959  0.2444942607994175  0.4090503467201241
  0.3398203276286885  0.2484960790999772  0.9038886419500038
  0.3370842855767950  0.7486498197611273  0.4016234983937388
  0.3361357311238420  0.7484337613619534  0.9035603248314590
  0.8392916626729170  0.0035043371315038  0.3456605124546170
  0.8365519309473806  0.0023469566239556  0.8467435877030406
  0.8325998960981139  0.4971643861458668  0.3451779372864568
  0.8338867992099991  0.4980982998573576  0.8516070714363360
  0.6546252567277164  0.4843551675250840  0.0925631364895697
  0.6650919701840554  0.5008007836034624  0.5945596558474600
  0.6658141087843776 -0.0037407390552406  0.0993130268606943
  0.6645746216118310  0.0006439892090671  0.5969576465503893
  0.1641361707939039  0.2522600374107014  0.6529429565394181
  0.1627232737757338  0.7504563508209827  0.1537743396295263
  0.1641824275927032  0.7518788248623438  0.6518078684546775
  0.9338298307273762  0.3658644162628676  0.1480195563434679
  0.9250600006251251  0.3742958872727889  0.6524805376858602
  0.9224982911716070  0.8759348165843502  0.1484816703884442
  0.9242662891607749  0.8764750861821710  0.6483313814152538
  0.4230565027447339  0.3743440343531516  0.6075886473213180
  0.4260525087772689  0.8731943592841577  0.1021058263494549
  0.4256691521318344  0.8755855524245763  0.6006926339638571
  0.0820194343872804  0.1359220678841904  0.3308688683529956
  0.0789959882701562  0.1282293815170694  0.8637611314282020
  0.0737099929583124  0.6250272067007090  0.3533164261254089
  0.0751706710082748  0.6238372023133204  0.8496760878234025
  0.5769642766241986  0.1277575392233133  0.3865465970760054
  0.5788816219991130  0.1337973812090184  0.9189739210310837
  0.5758747325936934  0.6226822750197679  0.3992328736583631
  0.5744002473919457  0.6204162653656615  0.8981475825686837
  0.9144939424695319  0.1209943546443734  0.0957911799642846
  0.9153513583483172  0.1258904249975322  0.5947962360211494
  0.9078518863178844  0.6244177247814151  0.0956826617605414
  0.9114748198693657  0.6253401161331271  0.5952249545759905
  0.4106324655284238  0.1166341687949375  0.1540094915206902
  0.4138867422902115  0.1223085644787536  0.6557238164421213
  0.4086230559141205  0.6226549347394511  0.1544804186355064
  0.4111362346355305  0.6265662659573735  0.6552565505866861
  0.0904893141624971  0.3766640054786461  0.4058724040901943
  0.0908138469436496  0.3777909577895533  0.9049886794235161
  0.0885834272790941  0.8748368757847594  0.4052141326408700
  0.0882521663340921  0.8733300359810718  0.9042818824605631
  0.5823211729909635  0.3757222600861475  0.3457556411189680
  0.5860393053864562  0.3734143461129624  0.8331748266667753
  0.5900511751775944  0.8727379360961667  0.3458558701788841
  0.5895427388436051  0.8734816917039016  0.8453484418061505
  0.8393269923929243  0.0191161918946809  0.1457916667447176
  0.8438574571045060  0.0226771543270676  0.6440506395352248
  0.8391244486718120  0.5212012763139175  0.1446382644086519
  0.8429402564763154  0.5235643683845994  0.6492645822763748
  0.3452154388725538  0.2154703893557038  0.0930645360190816
  0.3418122190823648  0.2244388176295024  0.6068027140324316
  0.3403135321940522  0.7271176882408141  0.1045911395616763
  0.3420909983396490  0.7298603376436991  0.6038189914656804
  0.1646745749179075  0.2762730247648865  0.3612532109766109
  0.1595908399346491  0.2756124519372815  0.8514041423263236
  0.1578927161499463  0.7710159607126711  0.3554086102098212
  0.1579601314888931  0.7707256593407978  0.8519154546376854
  0.6548758901386212  0.4783671792102622  0.3998487466629481
  0.6543037101433383  0.4755804307922596  0.8921016243282439
  0.6602741991765985  0.9755628371512991  0.3957318423183533
  0.6613044305967641  0.9740180630416735  0.8976819158783020
  0.1586331288140419  0.4810565360169445  0.3543197184494365
  0.1584817884264461  0.4804456298170041  0.8477406155532689
  0.1592480964263049  0.9759454728586363  0.3541019189310131
  0.1593425202184338  0.9755494400795489  0.8548975144507778
  0.6554204561194086  0.2742842425426806  0.3979073179946618
  0.6549930468294808  0.2701808659720623  0.8765459993086999
  0.6591460083646929  0.7703917166696862  0.3999003432891562
  0.6575999076579326  0.7688264119253571  0.8945288970248146
  0.8565315104279814  0.2249169343545618  0.1521530420480512
  0.8450865752931251  0.2279057930048986  0.6461455054708586
  0.8371934983114803  0.7270408919831443  0.1462788972876427
  0.8421708391383050  0.7284912776763859  0.6461223501826641
  0.3389561986634665  0.0113280657041887  0.1087632210991948
  0.3429357307919911  0.0195125232468103  0.6037801172283249
  0.3326497072641196  0.5225145787433977  0.1059054661690325
  0.3406573021484474  0.5252809560231020  0.6019592665928162
  0.5484327499807521  0.1074144657613036  0.1086208471590678
  0.5500301189279345  0.1232545179647682  0.5986400074775496
  0.5451202879657681  0.6213168342997177  0.0986634798660953
  0.5494443100350419  0.6270954300107594  0.6040406415992869
  0.0526964697966090  0.1093170010407288  0.1406771298212967
  0.0522513451917933  0.1247611488925598  0.6511337819807059
  0.0453793330703066  0.6275972766995374  0.1508326738954371
  0.0505119411541257  0.6270669433304571  0.6452080971675828
  0.4450947058464872  0.3740915843775631  0.4057655682059098
  0.4445924406113183  0.3743146644124304  0.8708221069006158
  0.4518179580731954  0.8734219361265991  0.3979712171397566
  0.4513899466307930  0.8728949595706421  0.8974517778533421
  0.9525406328949054  0.3759306439297316  0.3522886885646961
  0.9509738880695706  0.3759197138822918  0.8544074101374231
  0.9502307707372256  0.8735947934487854  0.3524480908526120
  0.9503807492097232  0.8740345356966238  0.8500985310667846
  0.5714112112497876  0.3802644534947076  0.1939904104148843
  0.5936599731233460  0.3799478919451117  0.6765012915446383
  0.5907842543016393  0.8689624561743424  0.1900524573326449
  0.5900217325330827  0.8746931541885009  0.6888101974073411
  0.0948838125560758  0.3837059568680874  0.0590713624307826
  0.0883338240850207  0.3795286218146826  0.5627766316976122
  0.0871414252377371  0.8703178162595987  0.0601028478743776
  0.0887440140096483  0.8749945793704290  0.5616295035259963
  0.4062564579717944  0.1228779527669997  0.3112894176717793
  0.4153575504620461  0.1206633599752313  0.8114932766732328
  0.4112760996654622  0.6243812963718175  0.3109540584086071
  0.4093052207785456  0.6257849049762678  0.8112549309100286
  0.9165034133208733  0.1261791458874505  0.4385932950470668
  0.9086189469595191  0.1227725905102276  0.9385039548490879
  0.9082988923527934  0.6239892143544540  0.4389751068708674
  0.9101105946077105  0.6254229416607300  0.9392411312851273
 
             NaN             NaN             NaN
             NaN             NaN             NaN
             NaN             NaN             NaN
             NaN             NaN             NaN
             NaN             NaN             NaN
             NaN             NaN             NaN
             NaN             NaN             NaN
             NaN             NaN             NaN
             NaN             NaN             NaN
             NaN             NaN             NaN
             NaN             NaN             NaN
             NaN             NaN             NaN
             NaN             NaN             NaN
             NaN             NaN             NaN
             NaN             NaN             NaN
             NaN             NaN             NaN
             NaN             NaN             NaN
             NaN             NaN             NaN
             NaN             NaN             NaN
             NaN             NaN             NaN
             NaN             NaN             NaN
             NaN             NaN             NaN
             NaN             NaN             NaN
             NaN             NaN             NaN
             NaN             NaN             NaN
             NaN             NaN             NaN
             NaN             NaN             NaN
             NaN             NaN             NaN
             NaN             NaN             NaN
             NaN             NaN             NaN
             NaN             NaN             NaN
             NaN             NaN             NaN
             NaN             NaN             NaN
             NaN             NaN             NaN
             NaN             NaN             NaN
             NaN             NaN             NaN
             NaN             NaN             NaN
             NaN             NaN             NaN
             NaN             NaN             NaN
             NaN             NaN             NaN
             NaN             NaN             NaN
             NaN             NaN             NaN
             NaN             NaN             NaN
             NaN             NaN             NaN
             NaN             NaN             NaN
             NaN             NaN             NaN
             NaN             NaN             NaN
             NaN             NaN             NaN
             NaN             NaN             NaN
             NaN             NaN             NaN
             NaN             NaN             NaN
             NaN             NaN             NaN
             NaN             NaN             NaN
             NaN             NaN             NaN
             NaN             NaN             NaN
             NaN             NaN             NaN
             NaN             NaN             NaN
             NaN             NaN             NaN
             NaN             NaN             NaN
             NaN             NaN             NaN
             NaN             NaN             NaN
             NaN             NaN             NaN
             NaN             NaN             NaN
             NaN             NaN             NaN
             NaN             NaN             NaN
             NaN             NaN             NaN
             NaN             NaN             NaN
             NaN             NaN             NaN
             NaN             NaN             NaN
             NaN             NaN             NaN
             NaN             NaN             NaN
             NaN             NaN             NaN
             NaN             NaN             NaN
             NaN             NaN             NaN
             NaN             NaN             NaN
             NaN             NaN             NaN
             NaN             NaN             NaN
             NaN             NaN             NaN
             NaN             NaN             NaN
             NaN             NaN             NaN
             NaN             NaN             NaN
             NaN             NaN             NaN
             NaN             NaN             NaN
             NaN             NaN             NaN
             NaN             NaN             NaN
             NaN             NaN             NaN
             NaN             NaN             NaN
             NaN             NaN             NaN
             NaN             NaN             NaN
             NaN             NaN             NaN
             NaN             NaN             NaN
             NaN             NaN             NaN
             NaN             NaN             NaN
             NaN             NaN             NaN
             NaN             NaN             NaN
             NaN             NaN             NaN
             NaN             NaN             NaN
             NaN             NaN             NaN
             NaN             NaN             NaN
             NaN             NaN             NaN
             NaN             NaN             NaN
             NaN             NaN             NaN
             NaN             NaN             NaN
             NaN             NaN             NaN
             NaN             NaN             NaN
             NaN             NaN             NaN
             NaN             NaN             NaN
             NaN             NaN             NaN
             NaN             NaN             NaN
             NaN             NaN             NaN
             NaN             NaN             NaN
             NaN             NaN             NaN
             NaN             NaN             NaN
             NaN             NaN             NaN
             NaN             NaN             NaN
             NaN             NaN             NaN
             NaN             NaN             NaN
             NaN             NaN             NaN
             NaN             NaN             NaN
             NaN             NaN             NaN
             NaN             NaN             NaN
             NaN             NaN             NaN
             NaN             NaN             NaN
             NaN             NaN             NaN
             NaN             NaN             NaN
             NaN             NaN             NaN
