Li47 P16 O64                            
   1.00000000000000     
    10.4320120000000003    0.0007250000000000   -0.0066070000000000
     0.0008350000000000   12.1595569999999995   -0.0035920000000000
    -0.0062290000000000   -0.0028830000000000    9.7967800000000000
   Li   P    O 
    47    16    64
Direct
  0.4721663035183590  0.3256780198113725  0.0809843461901714
  0.6646237748864200  0.2501636035747578  0.6042249256483188
  0.6647053972407673  0.7512174706454630  0.0976350148323856
  0.6644567949416164  0.7522697191406411  0.5986826493668121
  0.1660917096895770  0.4979589226146923  0.1513702390192957
  0.1645481006422473  0.4993747858267096  0.6523837476635291
  0.1645400664583413  0.9944906180199010  0.1549974518371602
  0.1644390185222903  0.9982527584390294  0.6521670713514067
  0.3356074534797155 -0.0002923931398484  0.4031338892521047
  0.3363650299590756  0.0002418356794456  0.9024329892371499
  0.3364168803911841  0.5009561516482308  0.3997238582026979
  0.3380639926102891  0.4974154408131677  0.9078957996902485
  0.8341417928538117  0.2492414688352562  0.3469623896991476
  0.8366463506336975  0.2494584874359663  0.8515448157318042
  0.8359974913719519  0.7488636748804065  0.3480879450258861
  0.8360294510698524  0.7490736538996587  0.8479179248781699
  0.3364697438539565  0.2494102558287198  0.4010064904188428
  0.3320962831431800  0.2478054777744966  0.8979573513940043
  0.3363766956152516  0.7491840636728800  0.4016269934952078
  0.3362564751302700  0.7489395724498302  0.9030409384976004
  0.8360864268238669  0.0009977516867479  0.3491124573909938
  0.8355849170032436  0.0009802080200820  0.8473243517040000
  0.8355266165305848  0.5017944811763040  0.3479180832716213
  0.8364255533130502  0.5013360898895740  0.8482091398696788
  0.6644486009701073  0.4975627286657739  0.0953842366210886
  0.6652895581636808  0.5036895634633222  0.6005109919922504
  0.6648040951679977  0.0027358423938846  0.0998899321557332
  0.6639697868443423  0.0001214401861940  0.5976283832175469
  0.1657152433717431  0.2526107282328219  0.1510561207323788
  0.1632675856663334  0.2506029727040154  0.6516158441964671
  0.1650327534960935  0.7503430576705438  0.1516776127619239
  0.1642591535006626  0.7510912073246856  0.6528437519285654
  0.9207777727927375  0.3769207109539302  0.1462780962973118
  0.9231246493220874  0.3750246269834657  0.6493466258150722
  0.9231301548629137  0.8744094163714085  0.1492534855979885
  0.9235013522701589  0.8751399213339012  0.6487302872942614
  0.4207379524316274  0.3762933838719893  0.6016208648636705
  0.4264324877629049  0.8742161598098654  0.1009337792120364
  0.4242793652581346  0.8751514247414363  0.6013895345911802
  0.0774520669087599  0.1244447518372130  0.3525077436256500
  0.0769028250520013  0.1244496191329190  0.8502205687638977
  0.0766748125138567  0.6246461560869871  0.3504137150605385
  0.0774953416858269  0.6244751509993319  0.8520329292295602
  0.5763830425205534  0.1265237902991909  0.3954513769320004
  0.5797643824663994  0.1284607629211798  0.9061594683843156
  0.5766570162682115  0.6263333161994427  0.4010608533128262
  0.5754168442579753  0.6251747816062276  0.8985413977184638
  0.9149749889320924  0.1239063160688019  0.0955509652602235
  0.9125170676951209  0.1249293731985435  0.5951629309309697
  0.9122081498793906  0.6255345466774006  0.0952978477508631
  0.9128420261060088  0.6254608563500580  0.5954745356432569
  0.4085540019506164  0.1192551339503132  0.1544229994310669
  0.4121251023426419  0.1247949144159399  0.6547874296347084
  0.4127584790381030  0.6257794420374231  0.1544881213049476
  0.4109776484637092  0.6257545046058699  0.6551629974151385
  0.0877425230344250  0.3751868117218436  0.4045689128154983
  0.0874744954022726  0.3751790604393659  0.9046828832607344
  0.0878007238713084  0.8742618806395562  0.4052366961239570
  0.0879206244613240  0.8747938618054963  0.9048520921914579
  0.5898326680725567  0.3776407457594966  0.3509278939657207
  0.5892196279844968  0.3749418816626995  0.8384025774215170
  0.5889575915984799  0.8754777300492765  0.3454329831166853
  0.5889092622806796  0.8756280719236086  0.8454578325601173
  0.8434975854284550  0.0219864581043121  0.1483801297049138
  0.8418419362533518  0.0216039252528839  0.6466139416920014
  0.8410883939521973  0.5226902130161490  0.1470831195252914
  0.8428530394521310  0.5222385528506192  0.6478523681619942
  0.3375835331495241  0.2212489984405050  0.0986729096587279
  0.3410680560715519  0.2283937648649650  0.6036952447309680
  0.3440163945267597  0.7315043854880617  0.1057147842020086
  0.3410595077603645  0.7296249668120049  0.6039801684141085
  0.1574262771351963  0.2713918647415813  0.3525604822686006
  0.1562628545574923  0.2711281387256838  0.8521501939068066
  0.1582975947104032  0.7711379797710964  0.3530409286962432
  0.1584561877928078  0.7712849365142296  0.8538121237183056
  0.6596514624326809  0.4807146016146271  0.4044403380838149
  0.6580369034155419  0.4778872186847283  0.8937730916303807
  0.6586415105458201  0.9793003422355485  0.3971349626821450
  0.6593530456854456  0.9785701134765581  0.8981994950375080
  0.1582993959353833  0.4782199528584928  0.3529093435855258
  0.1590531139829246  0.4778033561998948  0.8528449022780488
  0.1580239940522515  0.9778911035433395  0.3543258892881304
  0.1584788132488752  0.9780919822362608  0.8533585116444403
  0.6590950157594546  0.2734466534383836  0.4015086677057983
  0.6598211676969512  0.2701117121406973  0.8801415568401859
  0.6594112594856334  0.7722319566628845  0.3977603917259102
  0.6587164404609450  0.7715352628446488  0.8962370752063910
  0.8544253121544592  0.2294650590095981  0.1510675228459169
  0.8434251969899762  0.2284262708311995  0.6478041578641630
  0.8422422917230871  0.7291817932981937  0.1468783648225679
  0.8422010553052564  0.7288987083064515  0.6467593974336966
  0.3386590639564131  0.0147057486862738  0.1058459449903312
  0.3415204602169843  0.0213860463939235  0.6030824959060351
  0.3392061020515908  0.5258669488406309  0.1014164694785194
  0.3410641230655055  0.5228953012452189  0.6011760665393283
  0.5456915022896629  0.1213966288363336  0.1017002096867244
  0.5502624569743189  0.1254801391911675  0.6008552534589955
  0.5515744301825103  0.6254513860574991  0.1016304031790195
  0.5503092421894528  0.6272578558251705  0.6044234375631120
  0.0550885669981421  0.1221210119457680  0.1459578727267753
  0.0517687928795755  0.1240102277806187  0.6466916859511004
  0.0511708433982357  0.6248029689660415  0.1473518244317467
  0.0517485636794325  0.6255228881273126  0.6476807468355918
  0.4504493066840550  0.3754666151147382  0.4015888529614937
  0.4510605350390055  0.3711335682499559  0.8930814473479044
  0.4500162092873825  0.8749107335480548  0.3974297898257836
  0.4498710830572412  0.8750375788451211  0.8970496649882925
  0.9485803626262572  0.3754136359404173  0.3529112585095366
  0.9484826818520197  0.3759679238883812  0.8527201707154821
  0.9489093092913518  0.8746889128976882  0.3529443055769412
  0.9491502844889869  0.8750707765310344  0.8520963410123609
  0.5931242653968460  0.3805587528404282  0.1952505414170912
  0.5869639838193078  0.3798819290236863  0.6813161868035116
  0.5908118735405083  0.8755154008987240  0.1881640284703797
  0.5897108728801482  0.8763313504491674  0.6880396765956736
  0.0879919845247466  0.3750575654346912  0.0618309190184525
  0.0888961463064819  0.3749886881965856  0.5619260559950663
  0.0877566486648102  0.8743062205165886  0.0621979963253751
  0.0886408621087676  0.8742114734001382  0.5625202748688315
  0.4075611659773743  0.1234743779469316  0.3119218421585859
  0.4122734765166202  0.1243655177077864  0.8120251320522462
  0.4131801582852347  0.6251449704244082  0.3122207546067047
  0.4093564497825257  0.6239464794038326  0.8125143023602759
  0.9112885223406204  0.1253214803571582  0.4377939068692978
  0.9122114593192033  0.1240740108220805  0.9386040458354111
  0.9118796136299937  0.6250673101193418  0.4381031774117853
  0.9113598169034930  0.6253585469555407  0.9378880057109457
 
             NaN             NaN             NaN
             NaN             NaN             NaN
             NaN             NaN             NaN
             NaN             NaN             NaN
             NaN             NaN             NaN
             NaN             NaN             NaN
             NaN             NaN             NaN
             NaN             NaN             NaN
             NaN             NaN             NaN
             NaN             NaN             NaN
             NaN             NaN             NaN
             NaN             NaN             NaN
             NaN             NaN             NaN
             NaN             NaN             NaN
             NaN             NaN             NaN
             NaN             NaN             NaN
             NaN             NaN             NaN
             NaN             NaN             NaN
             NaN             NaN             NaN
             NaN             NaN             NaN
             NaN             NaN             NaN
             NaN             NaN             NaN
             NaN             NaN             NaN
             NaN             NaN             NaN
             NaN             NaN             NaN
             NaN             NaN             NaN
             NaN             NaN             NaN
             NaN             NaN             NaN
             NaN             NaN             NaN
             NaN             NaN             NaN
             NaN             NaN             NaN
             NaN             NaN             NaN
             NaN             NaN             NaN
             NaN             NaN             NaN
             NaN             NaN             NaN
             NaN             NaN             NaN
             NaN             NaN             NaN
             NaN             NaN             NaN
             NaN             NaN             NaN
             NaN             NaN             NaN
             NaN             NaN             NaN
             NaN             NaN             NaN
             NaN             NaN             NaN
             NaN             NaN             NaN
             NaN             NaN             NaN
             NaN             NaN             NaN
             NaN             NaN             NaN
             NaN             NaN             NaN
             NaN             NaN             NaN
             NaN             NaN             NaN
             NaN             NaN             NaN
             NaN             NaN             NaN
             NaN             NaN             NaN
             NaN             NaN             NaN
             NaN             NaN             NaN
             NaN             NaN             NaN
             NaN             NaN             NaN
             NaN             NaN             NaN
             NaN             NaN             NaN
             NaN             NaN             NaN
             NaN             NaN             NaN
             NaN             NaN             NaN
             NaN             NaN             NaN
             NaN             NaN             NaN
             NaN             NaN             NaN
             NaN             NaN             NaN
             NaN             NaN             NaN
             NaN             NaN             NaN
             NaN             NaN             NaN
             NaN             NaN             NaN
             NaN             NaN             NaN
             NaN             NaN             NaN
             NaN             NaN             NaN
             NaN             NaN             NaN
             NaN             NaN             NaN
             NaN             NaN             NaN
             NaN             NaN             NaN
             NaN             NaN             NaN
             NaN             NaN             NaN
             NaN             NaN             NaN
             NaN             NaN             NaN
             NaN             NaN             NaN
             NaN             NaN             NaN
             NaN             NaN             NaN
             NaN             NaN             NaN
             NaN             NaN             NaN
             NaN             NaN             NaN
             NaN             NaN             NaN
             NaN             NaN             NaN
             NaN             NaN             NaN
             NaN             NaN             NaN
             NaN             NaN             NaN
             NaN             NaN             NaN
             NaN             NaN             NaN
             NaN             NaN             NaN
             NaN             NaN             NaN
             NaN             NaN             NaN
             NaN             NaN             NaN
             NaN             NaN             NaN
             NaN             NaN             NaN
             NaN             NaN             NaN
             NaN             NaN             NaN
             NaN             NaN             NaN
             NaN             NaN             NaN
             NaN             NaN             NaN
             NaN             NaN             NaN
             NaN             NaN             NaN
             NaN             NaN             NaN
             NaN             NaN             NaN
             NaN             NaN             NaN
             NaN             NaN             NaN
             NaN             NaN             NaN
             NaN             NaN             NaN
             NaN             NaN             NaN
             NaN             NaN             NaN
             NaN             NaN             NaN
             NaN             NaN             NaN
             NaN             NaN             NaN
             NaN             NaN             NaN
             NaN             NaN             NaN
             NaN             NaN             NaN
             NaN             NaN             NaN
             NaN             NaN             NaN
             NaN             NaN             NaN
             NaN             NaN             NaN
             NaN             NaN             NaN
             NaN             NaN             NaN
