Li47 P16 O64
1.0
10.432012 0.000725 -0.006607
0.000835 12.159557 -0.003592
-0.006229 -0.002883 9.796780
Li P O
47 16 64
direct
0.485799 0.341089 0.097798 Li
0.664321 0.250365 0.602781 Li
0.664495 0.750496 0.097609 Li
0.664270 0.752035 0.598488 Li
0.164639 0.498303 0.151832 Li
0.163741 0.499434 0.652146 Li
0.163692 0.995820 0.154047 Li
0.164246 0.998491 0.652009 Li
0.335976 0.000697 0.402461 Li
0.336289 0.000812 0.902017 Li
0.335723 0.501122 0.401693 Li
0.336564 0.499699 0.903558 Li
0.833890 0.249202 0.346102 Li
0.836102 0.249208 0.850835 Li
0.835958 0.749000 0.347939 Li
0.836026 0.749114 0.847838 Li
0.335422 0.249551 0.402320 Li
0.336437 0.249240 0.902139 Li
0.336171 0.749246 0.401681 Li
0.336137 0.749254 0.902424 Li
0.836347 0.001164 0.348364 Li
0.836046 0.001229 0.847615 Li
0.834972 0.501227 0.347788 Li
0.835910 0.500553 0.848236 Li
0.663314 0.494979 0.096006 Li
0.664924 0.502643 0.598391 Li
0.665968 1.000830 0.099271 Li
0.663864 1.000174 0.597844 Li
0.164131 0.251563 0.151318 Li
0.163480 0.250701 0.652417 Li
0.164203 0.750066 0.151778 Li
0.163985 0.750952 0.652543 Li
0.921530 0.375706 0.147233 Li
0.923284 0.375006 0.648923 Li
0.923366 0.874522 0.148949 Li
0.923439 0.875219 0.648700 Li
0.419852 0.375836 0.604255 Li
0.425532 0.874448 0.101246 Li
0.424051 0.875501 0.600952 Li
0.076814 0.124667 0.351422 Li
0.077432 0.124763 0.851127 Li
0.076067 0.624621 0.350808 Li
0.076458 0.624605 0.851606 Li
0.576602 0.126380 0.396457 Li
0.577984 0.128301 0.905135 Li
0.576366 0.625943 0.399695 Li
0.576302 0.624727 0.898743 Li
0.914134 0.124364 0.095364 P
0.912382 0.125049 0.595152 P
0.911416 0.624963 0.095239 P
0.912084 0.625333 0.595370 P
0.409719 0.122962 0.154634 P
0.411787 0.124784 0.654878 P
0.412386 0.624863 0.154473 P
0.411227 0.626132 0.654917 P
0.087607 0.375199 0.404633 P
0.088092 0.375064 0.904703 P
0.088028 0.874383 0.405009 P
0.088143 0.874605 0.904753 P
0.587531 0.376447 0.349201 P
0.587436 0.375171 0.839710 P
0.588835 0.875333 0.345229 P
0.588676 0.875541 0.845555 P
0.843413 0.021490 0.147554 O
0.841658 0.021680 0.646526 O
0.840462 0.521951 0.146782 O
0.841985 0.522059 0.647565 O
0.338527 0.224476 0.100195 O
0.340623 0.228089 0.603590 O
0.342729 0.729284 0.103972 O
0.341237 0.729879 0.603585 O
0.157390 0.271564 0.352452 O
0.158225 0.271507 0.853016 O
0.158390 0.771063 0.352963 O
0.158466 0.771042 0.853411 O
0.658264 0.479834 0.401427 O
0.657691 0.477190 0.895452 O
0.658678 0.979094 0.396726 O
0.659213 0.978596 0.897777 O
0.158253 0.478428 0.353077 O
0.158565 0.478387 0.852944 O
0.158446 0.977896 0.353941 O
0.158775 0.977892 0.853362 O
0.658005 0.273012 0.400422 O
0.657494 0.269816 0.880699 O
0.659039 0.772036 0.397696 O
0.658548 0.771512 0.896445 O
0.850370 0.228934 0.149489 O
0.842915 0.228540 0.647401 O
0.841650 0.728707 0.146886 O
0.841678 0.728845 0.646789 O
0.339159 0.018409 0.105242 O
0.341475 0.021226 0.603043 O
0.340212 0.523250 0.101607 O
0.340559 0.523207 0.602344 O
0.546992 0.119746 0.101393 O
0.550048 0.125410 0.601150 O
0.551116 0.624415 0.101931 O
0.550206 0.626806 0.603118 O
0.054087 0.122515 0.146000 O
0.051456 0.124323 0.647169 O
0.050423 0.624530 0.147404 O
0.051027 0.625366 0.647491 O
0.448884 0.375422 0.402483 O
0.448330 0.374074 0.888804 O
0.449730 0.875131 0.396816 O
0.449767 0.875249 0.897798 O
0.948487 0.375640 0.353096 O
0.949172 0.375216 0.852377 O
0.949167 0.874686 0.352606 O
0.949314 0.874925 0.852170 O
0.587380 0.378820 0.193466 O
0.588064 0.379726 0.682362 O
0.590421 0.874783 0.187909 O
0.589155 0.876022 0.688145 O
0.088456 0.375205 0.061954 O
0.089080 0.374981 0.562031 O
0.088379 0.874033 0.062121 O
0.088668 0.874301 0.562314 O
0.409164 0.125288 0.311995 O
0.411809 0.124488 0.812077 O
0.411835 0.624692 0.311907 O
0.410586 0.625191 0.812255 O
0.911325 0.125336 0.437776 O
0.912197 0.124365 0.938119 O
0.911038 0.625019 0.437994 O
0.910688 0.624964 0.937817 O
