Mg8 Sc16 Se32                           
   1.00000000000000     
    11.2458541495731641    0.0000130410160185   -0.0000070077169533
     0.0000130390465601   11.2460364588504120    0.0000155101267941
    -0.0000073245746852   -0.0000649510831791   11.2458496416778413
   Mg   Sc   Se
     7    16    32
Direct
  0.6226846451828733  0.6227094145834756  0.6227001800262388
  0.6226934947522152  0.1272906832159823  0.1273049444405182
  0.1272977075874800  0.6227108094245899  0.1272984088827300
  0.1272957746249304  0.1272942545559206  0.6226990518006460
  0.3749991441134395  0.8749989689632774  0.8749980072848524
  0.8749903110237052  0.3749994851835522  0.8749994463818767
  0.8749927591482657  0.8750030695253725  0.3750017262253037
  0.0005749109265763  0.7494273213168215  0.7494254681054111
  0.7494378401077305  0.0005639869967304  0.7494390104995574
  0.7494356084764512  0.7494341485884974  0.0005614365586080
  0.0005744349582250  0.0005723426392341  0.0005730883903509
  0.0067860048635042  0.2507794908809693  0.2507604893711994
  0.2507844598499285  0.0067631541218185  0.2507666630404944
  0.2507828827150391  0.2507846317370079  0.0067463433931358
  0.7432729133977364  0.4992160764321430  0.2507779026533595
  0.7432522854043215  0.2507889964617800  0.4992173382494557
  0.0067611633510170  0.4992182656767613  0.4992316742745462
  0.2507729168103133  0.4992136760841648  0.7432606796748531
  0.2507822012173287  0.7432314332466571  0.4992253726215462
  0.4992327528177054  0.7431922141488395  0.2507638015118887
  0.4992269184332260  0.0068129888149645  0.4992319410477829
  0.4992283984607037  0.2507886319119107  0.7432495080154773
  0.4992277680738136  0.4992078684970477  0.0067728871361386
  0.7572950668480798  0.9927008054699114  0.9927062365347417
  0.9926995136870777  0.7573011332064566  0.9927031795843652
  0.9927003507473552  0.9926996626348960  0.7572968038497525
  0.7572943807883067  0.7572985738902726  0.7572946547727251
  0.2421349300931548  0.0069955790796423  0.0069782541653586
  0.0069857636049964  0.2421359721631440  0.0069797574603584
  0.0069841507463214  0.0069977008586093  0.2421426930981252
  0.2418480886308673  0.2418446027623272  0.2418178901132317
  0.7593607831474356  0.4928591757197751  0.4928583720882986
  0.9906345886169509  0.2571473506840878  0.4928561053543812
  0.9906438989962698  0.4928472292668112  0.2571403749489490
  0.7593677962638725  0.2571441002582028  0.2571401924891491
  0.2418270311888667  0.5081498188763401  0.5081806021304740
  0.0069811972015491  0.7430045900365331  0.5078571212560086
  0.0069785122132116  0.5078659923262874  0.7430191937803301
  0.2421352228323383  0.7430017483967559  0.7430184396332539
  0.2571423483665741  0.9906370697651515  0.4928501446241374
  0.4928432631012311  0.7593707146160892  0.4928541325376635
  0.4928430100597762  0.9906309281887985  0.2571423483732876
  0.2571442058504802  0.7593651527022041  0.2571428816395445
  0.7430061143720887  0.0070006143251144  0.5078569140651874
  0.5081710445425316  0.2418615149969091  0.5081761382658742
  0.5078582053839960  0.0070000851018285  0.7430179803436215
  0.7430033543018078  0.2421364370313318  0.7430160316377837
  0.2571411511434551  0.4928552352539739  0.9906366312803533
  0.4928490409665109  0.2571430087689462  0.9906369565560132
  0.4928455956414205  0.4928552439408994  0.7593697103317316
  0.2571409921584332  0.2571440768035901  0.7593675387759257
  0.7430032909518480  0.5078629576544559  0.0069838742227953
  0.5078577089469947  0.7429983553088313  0.0069815746665246
  0.5081774944491845  0.5081409090802502  0.2418304958767983
  0.7430142760561256  0.7430017274490429  0.2421413900162155
 
  0.00000000E+00  0.00000000E+00  0.00000000E+00
  0.00000000E+00  0.00000000E+00  0.00000000E+00
  0.00000000E+00  0.00000000E+00  0.00000000E+00
  0.00000000E+00  0.00000000E+00  0.00000000E+00
  0.00000000E+00  0.00000000E+00  0.00000000E+00
  0.00000000E+00  0.00000000E+00  0.00000000E+00
  0.00000000E+00  0.00000000E+00  0.00000000E+00
  0.00000000E+00  0.00000000E+00  0.00000000E+00
  0.00000000E+00  0.00000000E+00  0.00000000E+00
  0.00000000E+00  0.00000000E+00  0.00000000E+00
  0.00000000E+00  0.00000000E+00  0.00000000E+00
  0.00000000E+00  0.00000000E+00  0.00000000E+00
  0.00000000E+00  0.00000000E+00  0.00000000E+00
  0.00000000E+00  0.00000000E+00  0.00000000E+00
  0.00000000E+00  0.00000000E+00  0.00000000E+00
  0.00000000E+00  0.00000000E+00  0.00000000E+00
  0.00000000E+00  0.00000000E+00  0.00000000E+00
  0.00000000E+00  0.00000000E+00  0.00000000E+00
  0.00000000E+00  0.00000000E+00  0.00000000E+00
  0.00000000E+00  0.00000000E+00  0.00000000E+00
  0.00000000E+00  0.00000000E+00  0.00000000E+00
  0.00000000E+00  0.00000000E+00  0.00000000E+00
  0.00000000E+00  0.00000000E+00  0.00000000E+00
  0.00000000E+00  0.00000000E+00  0.00000000E+00
  0.00000000E+00  0.00000000E+00  0.00000000E+00
  0.00000000E+00  0.00000000E+00  0.00000000E+00
  0.00000000E+00  0.00000000E+00  0.00000000E+00
  0.00000000E+00  0.00000000E+00  0.00000000E+00
  0.00000000E+00  0.00000000E+00  0.00000000E+00
  0.00000000E+00  0.00000000E+00  0.00000000E+00
  0.00000000E+00  0.00000000E+00  0.00000000E+00
  0.00000000E+00  0.00000000E+00  0.00000000E+00
  0.00000000E+00  0.00000000E+00  0.00000000E+00
  0.00000000E+00  0.00000000E+00  0.00000000E+00
  0.00000000E+00  0.00000000E+00  0.00000000E+00
  0.00000000E+00  0.00000000E+00  0.00000000E+00
  0.00000000E+00  0.00000000E+00  0.00000000E+00
  0.00000000E+00  0.00000000E+00  0.00000000E+00
  0.00000000E+00  0.00000000E+00  0.00000000E+00
  0.00000000E+00  0.00000000E+00  0.00000000E+00
  0.00000000E+00  0.00000000E+00  0.00000000E+00
  0.00000000E+00  0.00000000E+00  0.00000000E+00
  0.00000000E+00  0.00000000E+00  0.00000000E+00
  0.00000000E+00  0.00000000E+00  0.00000000E+00
  0.00000000E+00  0.00000000E+00  0.00000000E+00
  0.00000000E+00  0.00000000E+00  0.00000000E+00
  0.00000000E+00  0.00000000E+00  0.00000000E+00
  0.00000000E+00  0.00000000E+00  0.00000000E+00
  0.00000000E+00  0.00000000E+00  0.00000000E+00
  0.00000000E+00  0.00000000E+00  0.00000000E+00
  0.00000000E+00  0.00000000E+00  0.00000000E+00
  0.00000000E+00  0.00000000E+00  0.00000000E+00
  0.00000000E+00  0.00000000E+00  0.00000000E+00
  0.00000000E+00  0.00000000E+00  0.00000000E+00
  0.00000000E+00  0.00000000E+00  0.00000000E+00
