Li46 P16 O64                            
   1.00000000000000     
    10.4910650000000008   -0.0020730000000000   -0.0088700000000000
    -0.0023910000000000   12.2799730000000000   -0.0010260000000000
    -0.0082780000000000   -0.0008220000000000    9.8899450000000009
   Li   P    O 
    46    16    64
Direct
  0.5174508552076431  0.2918227221341160  0.0701595859190010
  0.6628978446524401  0.2506922040264950  0.5987030049973380
  0.6635793301161061  0.7496882574968079  0.0981317449419744
  0.6633901508726527  0.7509693819858314  0.5986006900304514
  0.1658625232396206  0.4891644076643687  0.1546321001022674
  0.1630148183222551  0.5009864856263225  0.6521540760492721
  0.1659983382773985  0.9952269922592686  0.1515665314454476
  0.1629617826297642  0.0007927777369633  0.6533153030001141
  0.3361708184181240  0.0011585401934102  0.4032767394453773
  0.3369012685997470  0.0015109993068055  0.9042003633722686
  0.3371997033632058  0.4983983063292250  0.3964275654814224
  0.3345482691217175  0.4957356671583301  0.9113029406048049
  0.8338722716945667  0.2477807629989466  0.3442368598093013
  0.8332685171917077  0.2496734036920953  0.8558828636142859
  0.8367655622103990  0.7490377430947713  0.3475602798851367
  0.8369140377388643  0.7483224559206718  0.8485794994408193
  0.3345466427477385  0.2505509336291420  0.3901968728132327
  0.3269964252268951  0.2514105720395414  0.9086058783851374
  0.3366933049264674  0.7490846891517857  0.4016647866555144
  0.3362761703064789  0.7483803341311983  0.9052643486272228
  0.8379419576031564  0.0024311031791002  0.3456559360134869
  0.8372755283743871  0.0012089963124488  0.8481764144991906
  0.8347190218825743  0.4990863777554221  0.3478200350504890
  0.8352763064815775  0.5009107014216309  0.8493458236738617
  0.6599402471988602  0.4957468533743017  0.0970368078855857
  0.6631130799876740  0.5013393575995786  0.5985428021186407
  0.6656707151584554  0.9993019633288180  0.0994857480853299
  0.6637509179500319  1.0000852001615019  0.5981087399986954
  0.1609333066142755  0.2524178245156198  0.6477762166736964
  0.1645170467169428  0.7487031071033039  0.1537179274106684
  0.1636741281945253  0.7514447292504923  0.6522514045929507
  0.9280942086774024  0.3666799806986543  0.1517699728046304
  0.9193701042666509  0.3748774505039776  0.6497243944564299
  0.9247136691195653  0.8760066151008418  0.1494877561060181
  0.9244509323358669  0.8760479135912619  0.6488684449125828
  0.4217904873565609  0.3740846834248450  0.5996846646801117
  0.4281265539887276  0.8760272198956128  0.1012872958766691
  0.4240620980181599  0.8756577175729172  0.6018850647852557
  0.0786563851920657  0.1327817269347624  0.3333359457063139
  0.0755578165748266  0.1284995535128260  0.8606722577478603
  0.0757141443038330  0.6215390124117837  0.3509224295134080
  0.0763906517406255  0.6231516764649606  0.8519122415725532
  0.5764561943520287  0.1275918625634901  0.3939172490332868
  0.5799999905815894  0.1256261803357562  0.9059915028981633
  0.5753184467546367  0.6236759186552351  0.4001872212018583
  0.5727736071041805  0.6230299503193276  0.8998238327486792
  0.9134608842411486  0.1205680830472692  0.0965818274419823
  0.9120155794813769  0.1243555304246642  0.5956470702097407
  0.9111252344529102  0.6243691341508449  0.0977232794587896
  0.9108732824411855  0.6266769138060887  0.5953640739831169
  0.4115101057842099  0.1181244940098572  0.1533899617283649
  0.4115989455894153  0.1249535968103903  0.6554991956183245
  0.4092931367020596  0.6291293604210743  0.1541951030898875
  0.4102855770814660  0.6255385800497999  0.6550676399494645
  0.0862646318296206  0.3744282660304319  0.4107662525955308
  0.0839087130745228  0.3778120587871474  0.9009562323586705
  0.0889164341686898  0.8743361956006821  0.4052840774327273
  0.0888213213130988  0.8732525300559860  0.9048192171427490
  0.5890895743988921  0.3766500861351063  0.3496826364088463
  0.5865724994677600  0.3757472400079796  0.8385221583024526
  0.5896875758149996  0.8743937045774219  0.3473488147765743
  0.5890599806148309  0.8740100792127035  0.8447926701969103
  0.8386260774972343  0.0179931650135391  0.1455853453405438
  0.8418463882252171  0.0208559126685686  0.6461227545848217
  0.8389384352860544  0.5232484415281056  0.1482747388543827
  0.8400206667393553  0.5256376503757320  0.6484840255344357
  0.3520664787496192  0.2203724220009033  0.0954159426336375
  0.3416357905214847  0.2268074080794824  0.6035938592919865
  0.3450868828638384  0.7369929496474255  0.1086144003250709
  0.3413586863856850  0.7291350202981952  0.6040905978104952
  0.1559244753169289  0.2701034635663815  0.3736079405749424
  0.1536087849582449  0.2749838506563629  0.8492116653580787
  0.1573414171220650  0.7701905949962740  0.3557963872021130
  0.1588790554933567  0.7709312133129748  0.8522551536339681
  0.6586018566122119  0.4795040164649418  0.4045518913437640
  0.6561290807645692  0.4784297238186219  0.8922952318763820
  0.6596498812748159  0.9769133379810002  0.3985328007097454
  0.6597970092707323  0.9756290619687792  0.8963793313194547
  0.1575226389960205  0.4760229813512813  0.3563748449151929
  0.1562746642733706  0.4791594381473152  0.8463912222056517
  0.1601950403493193  0.9752768196683682  0.3535895180556658
  0.1586890753631126  0.9760292061766499  0.8545961978301589
  0.6585531590673698  0.2738811915379840  0.4026246198205106
  0.6533681979688944  0.2724489833144004  0.8892577740841481
  0.6591622416182168  0.7715041255690890  0.3992175530233990
  0.6580794661289056  0.7705454189654372  0.8955352513939466
  0.8539958039258229  0.2234980745550463  0.1541187783438333
  0.8404097532959758  0.2258227151709484  0.6472451809204871
  0.8415958418498442  0.7283112414261415  0.1473693009101097
  0.8414499848377905  0.7300666969200630  0.6458418032162860
  0.3414225946812529  0.0139159836747552  0.1054002572976759
  0.3416718819671196  0.0213864007538675  0.6047638119412561
  0.3312201433348173  0.5347768884158822  0.0997909232739284
  0.3409865355616666  0.5241409287493026  0.6004433255176340
  0.5506194823057361  0.1156603971124483  0.1042837171902169
  0.5494772979017678  0.1239713365320090  0.6019230837883426
  0.5475056711737143  0.6265108037432601  0.1005097494101737
  0.5490866004508921  0.6269522748422092  0.6044884804762909
  0.0515262139597717  0.1086225047312430  0.1414056772810874
  0.0489666491009563  0.1241456761226517  0.6512706044041860
  0.0487082725721889  0.6243473756656734  0.1512287083846164
  0.0490073840754322  0.6277577940063716  0.6474485867755027
  0.4512113409945817  0.3752367949876892  0.4036766005256729
  0.4490027746578546  0.3738111808230880  0.8902646786751246
  0.4515922882180710  0.8744783945957625  0.3998436284377067
  0.4508325099255297  0.8741263668141367  0.8962517603145245
  0.9485717011020444  0.3753517141337693  0.3560141935317920
  0.9460103598452430  0.3766946591315931  0.8447183094861306
  0.9505108304031471  0.8743884249875375  0.3531654410844884
  0.9507366930690935  0.8736031086942715  0.8514066101252098
  0.5919554136971338  0.3807451485303456  0.1965322995240849
  0.5888597749602206  0.3780457630603816  0.6825586319634227
  0.5911598324339531  0.8732786515865241  0.1914182087518395
  0.5896372387026776  0.8745279619863147  0.6885465413938842
  0.0797124973684762  0.3836122557470887  0.0538563392495546
  0.0825818598004566  0.3816541051130958  0.5671616505670652
  0.0887162274701661  0.8703819857561593  0.0605091954341557
  0.0892121827426717  0.8751164465137392  0.5617196111798550
  0.4095512107049606  0.1208787174865918  0.3103759137866886
  0.4118016201897201  0.1245640186744007  0.8116296447220752
  0.4118983240487594  0.6264466701763126  0.3109830215326003
  0.4083392916198350  0.6243123206425292  0.8111094602929946
  0.9128422108984092  0.1241558230085307  0.4396812959313285
  0.9068986990800212  0.1232030213875629  0.9392891636160100
  0.9099918012030765  0.6254217876752968  0.4392727065201553
  0.9112706047517130  0.6251477857067063  0.9410906955933555
 
             NaN             NaN             NaN
             NaN             NaN             NaN
             NaN             NaN             NaN
             NaN             NaN             NaN
             NaN             NaN             NaN
             NaN             NaN             NaN
             NaN             NaN             NaN
             NaN             NaN             NaN
             NaN             NaN             NaN
             NaN             NaN             NaN
             NaN             NaN             NaN
             NaN             NaN             NaN
             NaN             NaN             NaN
             NaN             NaN             NaN
             NaN             NaN             NaN
             NaN             NaN             NaN
             NaN             NaN             NaN
             NaN             NaN             NaN
             NaN             NaN             NaN
             NaN             NaN             NaN
             NaN             NaN             NaN
             NaN             NaN             NaN
             NaN             NaN             NaN
             NaN             NaN             NaN
             NaN             NaN             NaN
             NaN             NaN             NaN
             NaN             NaN             NaN
             NaN             NaN             NaN
             NaN             NaN             NaN
             NaN             NaN             NaN
             NaN             NaN             NaN
             NaN             NaN             NaN
             NaN             NaN             NaN
             NaN             NaN             NaN
             NaN             NaN             NaN
             NaN             NaN             NaN
             NaN             NaN             NaN
             NaN             NaN             NaN
             NaN             NaN             NaN
             NaN             NaN             NaN
             NaN             NaN             NaN
             NaN             NaN             NaN
             NaN             NaN             NaN
             NaN             NaN             NaN
             NaN             NaN             NaN
             NaN             NaN             NaN
             NaN             NaN             NaN
             NaN             NaN             NaN
             NaN             NaN             NaN
             NaN             NaN             NaN
             NaN             NaN             NaN
             NaN             NaN             NaN
             NaN             NaN             NaN
             NaN             NaN             NaN
             NaN             NaN             NaN
             NaN             NaN             NaN
             NaN             NaN             NaN
             NaN             NaN             NaN
             NaN             NaN             NaN
             NaN             NaN             NaN
             NaN             NaN             NaN
             NaN             NaN             NaN
             NaN             NaN             NaN
             NaN             NaN             NaN
             NaN             NaN             NaN
             NaN             NaN             NaN
             NaN             NaN             NaN
             NaN             NaN             NaN
             NaN             NaN             NaN
             NaN             NaN             NaN
             NaN             NaN             NaN
             NaN             NaN             NaN
             NaN             NaN             NaN
             NaN             NaN             NaN
             NaN             NaN             NaN
             NaN             NaN             NaN
             NaN             NaN             NaN
             NaN             NaN             NaN
             NaN             NaN             NaN
             NaN             NaN             NaN
             NaN             NaN             NaN
             NaN             NaN             NaN
             NaN             NaN             NaN
             NaN             NaN             NaN
             NaN             NaN             NaN
             NaN             NaN             NaN
             NaN             NaN             NaN
             NaN             NaN             NaN
             NaN             NaN             NaN
             NaN             NaN             NaN
             NaN             NaN             NaN
             NaN             NaN             NaN
             NaN             NaN             NaN
             NaN             NaN             NaN
             NaN             NaN             NaN
             NaN             NaN             NaN
             NaN             NaN             NaN
             NaN             NaN             NaN
             NaN             NaN             NaN
             NaN             NaN             NaN
             NaN             NaN             NaN
             NaN             NaN             NaN
             NaN             NaN             NaN
             NaN             NaN             NaN
             NaN             NaN             NaN
             NaN             NaN             NaN
             NaN             NaN             NaN
             NaN             NaN             NaN
             NaN             NaN             NaN
             NaN             NaN             NaN
             NaN             NaN             NaN
             NaN             NaN             NaN
             NaN             NaN             NaN
             NaN             NaN             NaN
             NaN             NaN             NaN
             NaN             NaN             NaN
             NaN             NaN             NaN
             NaN             NaN             NaN
             NaN             NaN             NaN
             NaN             NaN             NaN
             NaN             NaN             NaN
             NaN             NaN             NaN
             NaN             NaN             NaN
             NaN             NaN             NaN
             NaN             NaN             NaN
             NaN             NaN             NaN
