Li46 P16 O64
1.0
10.491065 -0.002073 -0.008870
-0.002391 12.279973 -0.001026
-0.008278 -0.000822 9.889945
Li P O
46 16 64
direct
0.532951 0.251248 0.111502 Li
0.665490 0.249469 0.598864 Li
0.663406 0.749293 0.097778 Li
0.663935 0.750813 0.598365 Li
0.166272 0.490501 0.152551 Li
0.164207 0.500441 0.652209 Li
0.165984 -0.000068 0.150866 Li
0.164838 0.000483 0.652808 Li
0.337579 0.001857 0.400772 Li
0.337150 0.002611 0.906753 Li
0.339378 0.497397 0.396598 Li
0.336052 0.495424 0.909084 Li
0.835300 0.248220 0.346607 Li
0.833335 0.249343 0.850185 Li
0.837167 0.748764 0.347311 Li
0.836788 0.748873 0.847876 Li
0.338126 0.252657 0.386655 Li
0.334811 0.256035 0.914958 Li
0.337178 0.749305 0.400662 Li
0.336548 0.749361 0.905542 Li
0.837571 0.002013 0.345981 Li
0.836728 0.001585 0.847605 Li
0.835486 0.499887 0.346725 Li
0.833442 0.500444 0.849636 Li
0.655365 0.494089 0.096012 Li
0.665745 0.501654 0.597787 Li
0.662954 0.998093 0.097334 Li
0.664257 0.999914 0.598897 Li
0.164198 0.253069 0.648491 Li
0.164567 0.750534 0.152565 Li
0.164807 0.752094 0.652408 Li
0.924731 0.369757 0.150201 Li
0.919770 0.375638 0.649124 Li
0.923832 0.875657 0.149052 Li
0.925250 0.876033 0.648783 Li
0.427208 0.374113 0.606176 Li
0.428791 0.876141 0.102250 Li
0.424748 0.876063 0.600936 Li
0.079480 0.130811 0.340101 Li
0.077627 0.129123 0.857455 Li
0.077083 0.622345 0.349685 Li
0.076759 0.623672 0.851890 Li
0.575826 0.127588 0.397843 Li
0.572752 0.129247 0.905745 Li
0.575381 0.622619 0.399687 Li
0.572220 0.622800 0.899698 Li
0.910201 0.121682 0.095833 P
0.913732 0.124075 0.595241 P
0.910987 0.624690 0.096033 P
0.912640 0.627104 0.595288 P
0.411238 0.120280 0.153410 P
0.411503 0.124988 0.655140 P
0.408710 0.629562 0.153438 P
0.410600 0.626073 0.654711 P
0.087332 0.374636 0.408516 P
0.084089 0.377146 0.901426 P
0.089048 0.875126 0.404728 P
0.088568 0.874772 0.905059 P
0.592975 0.375516 0.349402 P
0.586384 0.375216 0.837584 P
0.590496 0.874261 0.347229 P
0.589134 0.874591 0.844623 P
0.837510 0.018558 0.144395 O
0.843388 0.020898 0.645893 O
0.839144 0.523341 0.146502 O
0.842150 0.526149 0.648845 O
0.340384 0.216377 0.097505 O
0.343035 0.226876 0.601494 O
0.344930 0.737873 0.108762 O
0.341851 0.729571 0.602814 O
0.157219 0.270714 0.369086 O
0.154745 0.275014 0.849984 O
0.157714 0.771463 0.354492 O
0.158680 0.772244 0.853435 O
0.661432 0.479195 0.404703 O
0.653857 0.477874 0.895181 O
0.660429 0.976714 0.398934 O
0.659479 0.976721 0.895606 O
0.158271 0.476368 0.354698 O
0.155151 0.479269 0.848115 O
0.159470 0.976769 0.353365 O
0.158565 0.977430 0.854650 O
0.661451 0.272436 0.404795 O
0.653853 0.272604 0.891750 O
0.659735 0.771222 0.399070 O
0.658468 0.771373 0.895802 O
0.842721 0.224065 0.149271 O
0.842928 0.225623 0.647099 O
0.841621 0.728457 0.146431 O
0.842815 0.730473 0.645285 O
0.344436 0.012507 0.108411 O
0.342231 0.021390 0.603167 O
0.330646 0.535865 0.097554 O
0.341666 0.524427 0.600250 O
0.550607 0.116684 0.103236 O
0.550337 0.123479 0.603846 O
0.547067 0.627013 0.100331 O
0.549637 0.626971 0.604561 O
0.046923 0.115648 0.146935 O
0.051116 0.124034 0.649474 O
0.048781 0.624981 0.149327 O
0.050822 0.628286 0.647298 O
0.454921 0.375613 0.402876 O
0.444517 0.375970 0.868362 O
0.452308 0.874495 0.399148 O
0.451003 0.874702 0.896082 O
0.949642 0.374813 0.353247 O
0.945937 0.375976 0.845894 O
0.950525 0.874928 0.352610 O
0.950567 0.874652 0.851381 O
0.601270 0.376207 0.196831 O
0.601224 0.376721 0.681749 O
0.592576 0.873143 0.191331 O
0.590176 0.874482 0.688352 O
0.079760 0.381327 0.055189 O
0.083523 0.380763 0.564773 O
0.087929 0.873464 0.060874 O
0.089621 0.875479 0.561151 O
0.412680 0.122355 0.310838 O
0.409440 0.124524 0.811042 O
0.411284 0.626084 0.310242 O
0.407890 0.625962 0.810668 O
0.913570 0.123994 0.439162 O
0.908359 0.123935 0.938945 O
0.911806 0.625545 0.439108 O
0.910896 0.625538 0.939492 O
