Li47 P16 O64
1.0
10.582838 0.000000 -0.012636
0.000001 12.410585 0.000001
-0.011944 0.000001 10.018325
Li P O
47 16 64
direct
0.653401 0.253888 0.097888 Li
0.666182 0.249685 0.598400 Li
0.662702 0.750061 0.098816 Li
0.663969 0.750517 0.599443 Li
0.164497 0.497633 0.149608 Li
0.165339 0.498411 0.651426 Li
0.164278 0.998436 0.150979 Li
0.164795 0.998814 0.651558 Li
0.337560 0.000874 0.399492 Li
0.337013 0.000759 0.903589 Li
0.340322 0.498355 0.395255 Li
0.338809 0.496211 0.908966 Li
0.835596 0.249016 0.348548 Li
0.833681 0.249123 0.850678 Li
0.837076 0.748450 0.349370 Li
0.836837 0.748768 0.849068 Li
0.340321 0.251644 0.395255 Li
0.338808 0.253789 0.908966 Li
0.337560 0.749125 0.399492 Li
0.337014 0.749241 0.903589 Li
0.837076 0.001550 0.349371 Li
0.836838 0.001231 0.849068 Li
0.835596 0.500984 0.348547 Li
0.833680 0.500877 0.850677 Li
0.653402 0.496112 0.097888 Li
0.666181 0.500315 0.598398 Li
0.662702 0.999940 0.098816 Li
0.663969 0.999483 0.599444 Li
0.164497 0.252367 0.149609 Li
0.165339 0.251589 0.651425 Li
0.164278 0.751564 0.150980 Li
0.164795 0.751186 0.651558 Li
0.921283 0.375000 0.148321 Li
0.924393 0.375000 0.649726 Li
0.924285 0.875000 0.149565 Li
0.925984 0.875000 0.649038 Li
0.429963 0.375000 0.606069 Li
0.429444 0.875000 0.102359 Li
0.426512 0.875000 0.600745 Li
0.075619 0.126027 0.350515 Li
0.075582 0.126232 0.852654 Li
0.075619 0.623974 0.350514 Li
0.075582 0.623767 0.852655 Li
0.573981 0.126844 0.399436 Li
0.571570 0.126411 0.899172 Li
0.573980 0.623156 0.399436 Li
0.571571 0.623589 0.899173 Li
0.910080 0.124742 0.097251 P
0.913175 0.124373 0.597398 P
0.910080 0.625258 0.097251 P
0.913176 0.625627 0.597398 P
0.408170 0.120115 0.151907 P
0.410829 0.124449 0.653198 P
0.408170 0.629885 0.151907 P
0.410830 0.625550 0.653197 P
0.088629 0.375000 0.403034 P
0.086134 0.375000 0.903022 P
0.088614 0.875000 0.403715 P
0.088241 0.875000 0.903918 P
0.593304 0.375000 0.349610 P
0.587326 0.375000 0.840005 P
0.590669 0.875000 0.347663 P
0.589644 0.875000 0.845679 P
0.840703 0.021388 0.148126 O
0.842985 0.021354 0.647878 O
0.839014 0.523139 0.147590 O
0.843588 0.523492 0.649850 O
0.330383 0.214450 0.096299 O
0.341900 0.226790 0.599665 O
0.343973 0.737982 0.106984 O
0.341718 0.728907 0.601072 O
0.158618 0.272283 0.352138 O
0.156096 0.272429 0.851778 O
0.158110 0.772181 0.352497 O
0.158480 0.772258 0.853247 O
0.661526 0.478603 0.404273 O
0.654660 0.477703 0.897068 O
0.660040 0.977990 0.399531 O
0.659274 0.977878 0.897339 O
0.158618 0.477718 0.352138 O
0.156096 0.477570 0.851778 O
0.158110 0.977819 0.352497 O
0.158480 0.977742 0.853246 O
0.661526 0.271399 0.404276 O
0.654660 0.272297 0.897068 O
0.660041 0.772010 0.399530 O
0.659274 0.772122 0.897340 O
0.839014 0.226861 0.147589 O
0.843588 0.226508 0.649851 O
0.840703 0.728612 0.148126 O
0.842985 0.728646 0.647877 O
0.343973 0.012018 0.106984 O
0.341718 0.021093 0.601072 O
0.330383 0.535550 0.096298 O
0.341900 0.523210 0.599665 O
0.546851 0.122651 0.099011 O
0.550129 0.123881 0.602979 O
0.546851 0.627349 0.099011 O
0.550129 0.626119 0.602979 O
0.048509 0.124654 0.149997 O
0.051939 0.123954 0.649189 O
0.048509 0.625346 0.149997 O
0.051939 0.626046 0.649190 O
0.454736 0.375000 0.402056 O
0.445226 0.375000 0.871428 O
0.451971 0.875000 0.398850 O
0.450938 0.875000 0.896158 O
0.949919 0.375000 0.350576 O
0.947152 0.375000 0.850821 O
0.949673 0.875000 0.352031 O
0.949903 0.875000 0.850575 O
0.602301 0.374999 0.196636 O
0.602545 0.375000 0.684552 O
0.593298 0.875000 0.191832 O
0.591429 0.875000 0.689638 O
0.085348 0.375000 0.058896 O
0.088728 0.375000 0.559183 O
0.087332 0.875000 0.059757 O
0.089736 0.875000 0.559775 O
0.410883 0.123760 0.308428 O
0.408201 0.124250 0.808966 O
0.410883 0.626240 0.308428 O
0.408201 0.625750 0.808966 O
0.911983 0.124949 0.441385 O
0.910190 0.124509 0.941078 O
0.911984 0.625052 0.441385 O
0.910190 0.625491 0.941078 O
