Na15 V32 O64                            
   1.00000000000000     
     9.1056399999999993    0.0000780000000000   -0.0040670000000000
     0.0007700000000000   11.4430019999999999    0.0002220000000000
    -0.0001780000000000    0.0016150000000000   10.6029780000000002
   Na   V    O 
    15    32    64
Direct
  0.7411655522421868  0.5207592483721365  0.1611103508970824
  0.7419931438024955  0.0786809449090049  0.1531692829907977
  0.7428748706416406  0.8065937132286529  0.1521686516746823
  0.2429026568907053  0.0619522203743791  0.3474328254325714
  0.2430838030837982  0.3122377922236784  0.3466187270803786
  0.2426189620679501  0.5612416169211875  0.3474534658379526
  0.2423240253772534  0.8119821442285382  0.3473014893743080
  0.2580374530756144  0.1872606241623672  0.8486599913916718
  0.2587125380667787  0.4371561371093747  0.8488784108784612
  0.2579710833798998  0.6875964053419495  0.8501850540456682
  0.2576456410781501  0.9370613930472510  0.8492225137451720
  0.7578554920924981  0.1862601200353365  0.6498900731247801
  0.7571824260733002  0.4369942525669835  0.6508183235133802
  0.7579874649721202  0.6861550749412680  0.6499937012779252
  0.7573440976067662  0.9372671318350605  0.6492491942537288
  0.5843332236301869  0.0617233928902455  0.8959113128093837
  0.5895620811742310  0.3109233054520328  0.9004258363951364
  0.5861638829399484  0.5616873377301216  0.8965716406362634
  0.5853919676012277  0.8114055858773424  0.8973761328268384
  0.0878583958035040  0.0612275443521492  0.6021724980827504
  0.0860541592959339  0.3109604104167803  0.6028022749400372
  0.0888072027913390  0.5623681389332179  0.6036308883934969
  0.0842457932839789  0.8117370033660775  0.6024799798269453
  0.4120944468729667  0.1886521148782916  0.1046992947726032
  0.4106079545503110  0.4356744843493592  0.1046079125846018
  0.4160109583678060  0.6856882523353847  0.1053956259729130
  0.4175801347966314  0.9381552740843898  0.1045429687115892
  0.9145670372015116  0.1861905534571545  0.3948109592896082
  0.9158768427641053  0.4360693148949317  0.3976696609433619
  0.9148607311118541  0.6861014355448521  0.3946483906408234
  0.9127644637776722  0.9372512376586256  0.3943473282760658
  0.5604266204374622  0.0625880022713565  0.3880251525735178
  0.5659717331961108  0.3113867142384025  0.3821038654528126
  0.5606995569660538  0.5617346345500208  0.3883909137944995
  0.5614027343542557  0.8106584072225519  0.3869253030202898
  0.0622304068486055  0.0579576246903815  0.1121277186871711
  0.0538336561631976  0.3094608143798680  0.1139337390486773
  0.0613598730852253  0.5649333967358752  0.1121644576880862
  0.0623552251662592  0.8143541743693881  0.1126979132527395
  0.4390705407732530  0.1894802117641136  0.6153489101300877
  0.4391372624416276  0.4334769396991329  0.6159987600913660
  0.4374417874052360  0.6888363858666502  0.6167604587219483
  0.4374285052594837  0.9339329046332082  0.6163595988086060
  0.9386027320191501  0.1860648308580818  0.8825359126987736
  0.9400982441372637  0.4375518510289156  0.8824119364947477
  0.9378305863234477  0.6883815289513379  0.8834329595215502
  0.9363854005301893  0.9373804377007523  0.8828149803107831
  0.7909147196274714  0.0630815762484798  0.8487856390995601
  0.7942000136582111  0.3125105015190316  0.8493952218791679
  0.7928580654272782  0.5612386352288097  0.8497042420884073
  0.7911289963911713  0.8115745432284788  0.8492739861690608
  0.2939788544209845  0.0614178443079549  0.6482972308628422
  0.2923659562553779  0.3111579181980579  0.6507158946698302
  0.2945263485595262  0.5619801639203222  0.6489460853043474
  0.2900016857382854  0.8117364357183080  0.6509664556363697
  0.2047807189491977  0.1894982879972341  0.1475364644150085
  0.2046504645380673  0.4366343637052204  0.1476716210424621
  0.2075993437315385  0.6844045893151777  0.1493216996592552
  0.2087688654218828  0.9378874681152922  0.1500840984891583
  0.7079864429417377  0.1837040468564926  0.3570970080870267
  0.7073436841031310  0.4381094004512113  0.3597888380582592
  0.7070790553955624  0.6870394440588691  0.3548398961741202
  0.7064052325635716  0.9368022476102776  0.3538746795291239
  0.8881609152582981  0.0618646986778988  0.5197214759688343
  0.8883816839194765  0.3116601587713876  0.5205128563565307
  0.8892583618840989  0.5610107710873233  0.5203915777645650
  0.8869100769051143  0.8114157586054341  0.5188604375695394
  0.3857655619717671  0.0619673407221852  0.9807150650224318
  0.3850021783285589  0.3116254402956226  0.9798771536598696
  0.3859561207624079  0.5619443074963834  0.9806425572913746
  0.3873167680627558  0.8121866290991606  0.9820495066423593
  0.1144791655285642  0.1863937627130666  0.4783730244322996
  0.1154155151059647  0.4366426105111665  0.4798900217424845
  0.1139266585407373  0.6867026283873947  0.4783344051173493
  0.1132092146484655  0.9367077914962580  0.4779114723101209
  0.6095883600739839  0.1867891978071981  0.0182187791542724
  0.6083522462409318  0.4358708894115439  0.0172090690425207
  0.6132687391231061  0.6852051731474937  0.0205673120649372
  0.6143553602522943  0.9377242913811544  0.0206910867299191
  0.9790743901822153  0.0617843661122297  0.2807080888187138
  0.9796179617069251  0.3126712822501317  0.2857141346454994
  0.9765489085371748  0.5608249821863510  0.2821850827150292
  0.9791634350396115  0.8117766282183998  0.2808750520136298
  0.4784949257858038  0.0628822824886536  0.2184184700088105
  0.4747240707937948  0.3121036906214947  0.2186902920715915
  0.4793436263610026  0.5603409995999545  0.2190927498829082
  0.4800160942833000  0.8115152648589516  0.2180347003392094
  0.0217844595632360  0.1863436603953441  0.7153269117624834
  0.0227982883053811  0.4373452273171574  0.7153153678282141
  0.0206340867224690  0.6868760539434988  0.7160999195624654
  0.0195912150125663  0.9371037288815828  0.7154577826864102
  0.5206219824354968  0.1877238588450698  0.7834837122016545
  0.5215446980545020  0.4358064299808279  0.7833049417692027
  0.5189370716619292  0.6873578963766995  0.7842057716148786
  0.5180952881953406  0.9357801177837884  0.7841474441782598
  0.5762989954784550  0.0613099908285139  0.5739339127768655
  0.5816517293764583  0.3109163099787461  0.5703261340310679
  0.5767319446295763  0.5624683874080384  0.5737862159019603
  0.5803591236029715  0.8114601690028230  0.5728684031017401
  0.0792849641452765  0.0611634523087108  0.9262685982602135
  0.0776435664014634  0.3116095671847746  0.9254815271065816
  0.0792124888330554  0.5630630981462136  0.9256863846093352
  0.0788804373478154  0.8128033469886088  0.9274944400287687
  0.4216275155004233  0.1871954057598655  0.4296019397470955
  0.4224800002876881  0.4359603645050756  0.4303053379299761
  0.4199383685421770  0.6875406187549867  0.4304453761547216
  0.4215085190876924  0.9359129374643025  0.4299535760966547
  0.9257124077888340  0.1860167632259549  0.0684101549012315
  0.9292567312451273  0.4373432397481334  0.0684288437279640
  0.9224694119098568  0.6856790535699950  0.0693305758481415
  0.9185189336899201  0.9378159455441540  0.0687922809275478
 
             NaN             NaN             NaN
             NaN             NaN             NaN
             NaN             NaN             NaN
             NaN             NaN             NaN
             NaN             NaN             NaN
             NaN             NaN             NaN
             NaN             NaN             NaN
             NaN             NaN             NaN
             NaN             NaN             NaN
             NaN             NaN             NaN
             NaN             NaN             NaN
             NaN             NaN             NaN
             NaN             NaN             NaN
             NaN             NaN             NaN
             NaN             NaN             NaN
             NaN             NaN             NaN
             NaN             NaN             NaN
             NaN             NaN             NaN
             NaN             NaN             NaN
             NaN             NaN             NaN
             NaN             NaN             NaN
             NaN             NaN             NaN
             NaN             NaN             NaN
             NaN             NaN             NaN
             NaN             NaN             NaN
             NaN             NaN             NaN
             NaN             NaN             NaN
             NaN             NaN             NaN
             NaN             NaN             NaN
             NaN             NaN             NaN
             NaN             NaN             NaN
             NaN             NaN             NaN
             NaN             NaN             NaN
             NaN             NaN             NaN
             NaN             NaN             NaN
             NaN             NaN             NaN
             NaN             NaN             NaN
             NaN             NaN             NaN
             NaN             NaN             NaN
             NaN             NaN             NaN
             NaN             NaN             NaN
             NaN             NaN             NaN
             NaN             NaN             NaN
             NaN             NaN             NaN
             NaN             NaN             NaN
             NaN             NaN             NaN
             NaN             NaN             NaN
             NaN             NaN             NaN
             NaN             NaN             NaN
             NaN             NaN             NaN
             NaN             NaN             NaN
             NaN             NaN             NaN
             NaN             NaN             NaN
             NaN             NaN             NaN
             NaN             NaN             NaN
             NaN             NaN             NaN
             NaN             NaN             NaN
             NaN             NaN             NaN
             NaN             NaN             NaN
             NaN             NaN             NaN
             NaN             NaN             NaN
             NaN             NaN             NaN
             NaN             NaN             NaN
             NaN             NaN             NaN
             NaN             NaN             NaN
             NaN             NaN             NaN
             NaN             NaN             NaN
             NaN             NaN             NaN
             NaN             NaN             NaN
             NaN             NaN             NaN
             NaN             NaN             NaN
             NaN             NaN             NaN
             NaN             NaN             NaN
             NaN             NaN             NaN
             NaN             NaN             NaN
             NaN             NaN             NaN
             NaN             NaN             NaN
             NaN             NaN             NaN
             NaN             NaN             NaN
             NaN             NaN             NaN
             NaN             NaN             NaN
             NaN             NaN             NaN
             NaN             NaN             NaN
             NaN             NaN             NaN
             NaN             NaN             NaN
             NaN             NaN             NaN
             NaN             NaN             NaN
             NaN             NaN             NaN
             NaN             NaN             NaN
             NaN             NaN             NaN
             NaN             NaN             NaN
             NaN             NaN             NaN
             NaN             NaN             NaN
             NaN             NaN             NaN
             NaN             NaN             NaN
             NaN             NaN             NaN
             NaN             NaN             NaN
             NaN             NaN             NaN
             NaN             NaN             NaN
             NaN             NaN             NaN
             NaN             NaN             NaN
             NaN             NaN             NaN
             NaN             NaN             NaN
             NaN             NaN             NaN
             NaN             NaN             NaN
             NaN             NaN             NaN
             NaN             NaN             NaN
             NaN             NaN             NaN
             NaN             NaN             NaN
             NaN             NaN             NaN
             NaN             NaN             NaN
