Na15 V32 O64
1.0
9.105640 0.000078 -0.004067
0.000770 11.443002 0.000222
-0.000178 0.001615 10.602978
Na V O
15 32 64
direct
0.742416 0.517569 0.153919 Na
0.742361 0.080155 0.153944 Na
0.742235 0.811027 0.152350 Na
0.242876 0.062885 0.347699 Na
0.243299 0.312672 0.346862 Na
0.242959 0.562136 0.348001 Na
0.242613 0.812620 0.347586 Na
0.257954 0.188001 0.849024 Na
0.258205 0.437770 0.849050 Na
0.257522 0.688181 0.849453 Na
0.257260 0.937404 0.849475 Na
0.757632 0.186966 0.650483 Na
0.757635 0.437682 0.650215 Na
0.757657 0.686804 0.649706 Na
0.757602 0.937839 0.649810 Na
0.584562 0.062306 0.896181 V
0.589284 0.311928 0.900946 V
0.584877 0.561804 0.896465 V
0.584886 0.811892 0.897158 V
0.088216 0.061775 0.603183 V
0.085505 0.311817 0.603073 V
0.087602 0.562238 0.603140 V
0.084397 0.811847 0.602941 V
0.411941 0.188726 0.104919 V
0.413408 0.436580 0.104771 V
0.416443 0.686592 0.105039 V
0.416265 0.938603 0.104585 V
0.915271 0.188418 0.395572 V
0.914743 0.436760 0.395037 V
0.914381 0.686603 0.394803 V
0.914780 0.938110 0.395319 V
0.561214 0.062721 0.387986 V
0.565855 0.311797 0.382585 V
0.561326 0.561683 0.387381 V
0.561795 0.812023 0.387024 V
0.061810 0.059484 0.112361 V
0.055946 0.313529 0.112650 V
0.061855 0.566394 0.112903 V
0.061158 0.811988 0.113291 V
0.439025 0.189748 0.616056 V
0.439058 0.434143 0.615605 V
0.437502 0.688912 0.616191 V
0.437605 0.934985 0.616497 V
0.938718 0.187628 0.883113 V
0.938666 0.439456 0.883349 V
0.936851 0.688275 0.883576 V
0.936877 0.938189 0.883303 V
0.791213 0.063647 0.849642 O
0.793935 0.312597 0.850300 O
0.791379 0.562074 0.849244 O
0.791163 0.813166 0.849737 O
0.294107 0.062108 0.648852 O
0.292084 0.312194 0.650448 O
0.293905 0.562289 0.648618 O
0.290275 0.811970 0.650801 O
0.205149 0.188691 0.147192 O
0.205687 0.436244 0.147014 O
0.208175 0.686534 0.149640 O
0.207542 0.939593 0.149090 O
0.708010 0.185363 0.356471 O
0.708014 0.439343 0.357147 O
0.707309 0.687828 0.353937 O
0.706798 0.937154 0.353749 O
0.888651 0.063094 0.519599 O
0.887755 0.312111 0.520067 O
0.888473 0.561748 0.519639 O
0.887073 0.812557 0.519067 O
0.385771 0.062520 0.980453 O
0.385628 0.312414 0.980186 O
0.385982 0.562535 0.980610 O
0.386823 0.812569 0.981691 O
0.114648 0.187418 0.479244 O
0.114192 0.437035 0.479205 O
0.113674 0.687300 0.478632 O
0.113959 0.937319 0.478749 O
0.609841 0.187572 0.018940 O
0.610027 0.437138 0.018457 O
0.613328 0.686334 0.020432 O
0.613558 0.938311 0.020761 O
0.978333 0.062640 0.281970 O
0.980803 0.312575 0.284349 O
0.979756 0.562520 0.281948 O
0.979043 0.812624 0.281254 O
0.478403 0.063457 0.218818 O
0.474853 0.312481 0.218887 O
0.478387 0.561825 0.218862 O
0.479604 0.812641 0.217958 O
0.021547 0.186837 0.715715 O
0.021343 0.437784 0.715608 O
0.019671 0.687289 0.716099 O
0.019877 0.937666 0.715821 O
0.520849 0.188255 0.783748 O
0.520961 0.436212 0.783764 O
0.518554 0.687909 0.784104 O
0.518365 0.936419 0.784074 O
0.576983 0.061773 0.573742 O
0.581551 0.311989 0.570641 O
0.576722 0.562551 0.573541 O
0.580214 0.811958 0.572881 O
0.079050 0.062052 0.926147 O
0.077705 0.313183 0.925417 O
0.079425 0.564284 0.926566 O
0.077865 0.813090 0.927670 O
0.422205 0.187729 0.430076 O
0.422531 0.436601 0.429857 O
0.421131 0.688013 0.429948 O
0.421257 0.936448 0.430226 O
0.927350 0.187120 0.069040 O
0.927073 0.438840 0.068783 O
0.919709 0.686861 0.069407 O
0.919958 0.939192 0.069596 O
