Li7 Mn16 O32
1.0
8.374651 0.066631 0.015479
0.017540 8.196291 0.029771
-0.017040 0.009472 8.252889
Li Mn O
7 16 32
direct
0.379654 0.371467 0.875991 Li
0.881466 0.872575 0.879195 Li
0.116760 0.128800 0.123969 Li
0.884635 0.373617 0.379498 Li
0.376528 0.874124 0.380962 Li
0.617642 0.126633 0.624720 Li
0.620489 0.626435 0.116965 Li
0.504709 0.250784 0.249326 Mn
0.260125 0.497217 0.244661 Mn
0.256117 0.247980 0.503836 Mn
0.502959 0.495467 0.496027 Mn
0.495193 0.750126 0.750657 Mn
0.748281 0.494735 0.741675 Mn
0.740826 0.751143 0.495165 Mn
0.246151 1.004645 0.760867 Mn
0.253735 0.751921 1.004251 Mn
0.496836 0.006442 0.003492 Mn
0.746876 0.003272 0.254497 Mn
0.751529 0.250990 -0.001914 Mn
-0.001809 0.253410 0.746116 Mn
0.005735 0.498100 0.994508 Mn
0.999524 0.746361 0.253599 Mn
0.996626 -0.000574 0.503870 Mn
0.754437 0.015690 0.025844 O
0.022630 0.733955 0.017752 O
0.013706 0.015044 0.739131 O
0.730027 0.732229 0.731819 O
0.240432 0.981943 0.991385 O
0.983826 0.264544 0.978810 O
0.974557 -0.003821 0.270665 O
0.277774 0.265410 0.242056 O
0.734641 0.514601 0.505506 O
0.019080 0.238840 0.517412 O
0.032783 0.498781 0.234575 O
0.731625 0.234357 0.259252 O
0.276450 0.483122 0.476906 O
0.966749 0.760898 0.482920 O
0.976147 0.484454 0.756773 O
0.266042 0.771117 0.771627 O
0.254285 0.016330 0.529434 O
0.510925 0.728131 0.509809 O
0.515605 0.017660 0.239724 O
0.252560 0.731567 0.235920 O
0.736699 0.979088 0.486233 O
0.492811 0.263447 0.480011 O
0.472476 1.012504 0.774083 O
0.771389 0.264707 0.736654 O
0.262199 0.520093 0.015615 O
0.519154 0.242535 0.020394 O
0.519896 0.488158 0.722673 O
0.224442 0.236468 0.760766 O
0.745197 0.486043 0.969427 O
0.481686 0.767960 0.989100 O
0.493112 0.485371 0.261775 O
0.746234 0.767975 0.264305 O
