Na47 P16 S64                            
   1.00000000000000     
    13.7415170000000000   -0.0042850000000000    0.0000070000000000
    -0.0043380000000000   13.7489740000000005   -0.0006340000000000
    -0.0001180000000000   -0.0003010000000000   14.1967549999999996
   Na   P    S 
    47    16    64
Direct
  0.5660798038567812  0.7494066929908804  0.7323184795740502
  0.9997761776000974  0.2507037191506949  0.2048208721272138
  0.9991878776940771  0.2504420617358111  0.7043781007182059
  0.9989276870569629  0.7506465359891482  0.2096141350816491
  0.9797284743883959  0.7529613767215003  0.7157860702688947
  0.5002009107017767  0.2493369708206385  0.2054674735653901
  0.5008889736809673  0.2498622836099595  0.7049715268052212
  0.5008264440284961  0.7493396706736500  0.2093644745072568
  0.2491420878182368  0.9994727907262511  0.2940816700408306
  0.2488638458924211  0.9986281866223213  0.7937680395833492
  0.2511054113370356  0.5005526304437802  0.2957392285227240
  0.2506277671684272  0.5016768758097745  0.7951125633491863
  0.7489588445351314  0.9988331229235863  0.2922236486690774
  0.7473795188098847  0.9794012538290312  0.7857251161931872
  0.7506941806566659  0.5011018444427846  0.2904536224086431
  0.7548145646300356  0.5205387810397916  0.7842225628715902
  0.2524386974847231  0.9994758334567146  0.0435898649801627
  0.2445320794648256  0.9984481025641716  0.5445978608667912
  0.2472968437492997  0.4999335903371833  0.0457617311389519
  0.2553172469988936  0.5033843342816405  0.5470813943571575
  0.7524744933778680  1.0000305618782368  0.0403720048874404
  0.7455847918463419  0.9990791610670896  0.5403679857688910
  0.7469682900818939  0.5006008408244855  0.0382131371058667
  0.7565531415526835  0.4991907060892631  0.5383499913709372
  0.5001856524564164  0.2521639773255450  0.4554375964391374
  0.5017174279746709  0.2463660681050881  0.9539305739520136
  0.5000910557276776  0.7522626468622721  0.4656622292875147
  0.4992506310245583  0.7454020610964766  0.9606624653375145
  0.9998580297206697  0.2479569823396568  0.4545677163703740
  0.9981249808077445  0.2537328999502966  0.9534314242394836
  1.0001663644150030  0.7476420655734943  0.4619200801314600
  0.9995640115241076  0.7540810090753298  0.9601134646027341
  0.9937236147174723  0.9962055368399779  0.5017554279231174
  0.0040110378085156  0.0090846028379456  0.0008307498686800
  0.0100069468863170  0.4954113587581821  0.4990947389065551
  0.9959701196554578  0.5032642218716847  0.9981283086856731
  0.4901817975466625  0.0036657135286146  0.4985061938455062
  0.5054998101685233  0.9957295042749417  0.9985292512516463
  0.5053509685848339  0.5049596549308776  0.5019481227766468
  0.4932534574605994  0.4915250472193421  0.0023349794243169
  0.2496626065878798  0.2505700412075489  0.2500066480310336
  0.2494979889187064  0.2509163441684572  0.7500233126867888
  0.2505030482582867  0.7494726375311562  0.2507517470808267
  0.2673471988727778  0.7489822870825770  0.7484581425091139
  0.7504026496974056  0.2494278044766208  0.2492423856206716
  0.7505038981274630  0.2490776966396607  0.7507234651214129
  0.7492892514444349  0.7505248998158236  0.2495087147257386
  0.4997302246755981  0.4992882401651683  0.2500925192189211
  0.5006776185403006  0.4973459346600245  0.7530516168158321
  0.4993268067200147  0.0002615256831629  0.2500391275061696
  0.4972114282359354  1.0009695552278601  0.7473778385043693
  0.0009253749906245  0.4995860874435872  0.2500561146691261
  0.0029315185268071  0.4993979027319092  0.7475352576975037
 -0.0000865357090765  0.0008660073113417  0.2497522390242474
  0.9995656657632574  0.0031211014223353  0.7524622170387848
  0.2499482543764234  0.2501859420920462  1.0000263896106703
  0.2498249328453527  0.2505233432504498  0.4998961609378479
  0.2503315413547962  0.7490689583465642  0.0010993063061009
  0.2498998100448006  0.7512693821105859  0.4997916399726119
  0.7499838166620677  0.2496203415111406  0.9995784551770636
  0.7500776293593356  0.2496182557659786  0.4989879385722568
  0.7493312630204491  0.7498064474309950  0.0016683492624214
  0.7512311937082536  0.7492949592863640  0.4962653788950933
  0.1538175815704069  0.1743213102133289  0.0823609742218865
  0.1532599932173401  0.1749372640757719  0.5815449997551709
  0.1529236036740778  0.6753631781518775  0.0837376387244404
  0.1552290925903439  0.6760201851872221  0.5834643728626308
  0.6543230403432597  0.1735303904121971  0.0827281045423984
  0.6531594108305713  0.1754377621586856  0.5810996057914176
  0.6537737712449904  0.6737985626235790  0.0848892952353800
  0.6556178692468640  0.6690798652762554  0.5743934647054315
  0.3464509276471285  0.3255009174883873  0.0824934281186023
  0.3464516251339878  0.3257183111740591  0.5819456830894457
  0.3469868844044497  0.8246365161343943  0.0831450663907780
  0.3461149634158951  0.8276683902822987  0.5802096068702928
  0.8454231004579783  0.3264808159261888  0.0823456531436649
  0.8471626551039440  0.3242572956951441  0.5809284537250662
  0.8445192955352067  0.8267629878770357  0.0846710205053716
  0.8460306475564604  0.8270424880386311  0.5771312104089535
  0.1744336224144705  0.3470338616778423  0.4177571829902303
  0.1745296127608295  0.3470050370231654  0.9186382607784923
  0.1723031587971328  0.8450342035336864  0.4161704987327824
  0.1765124540290609  0.8445141351743497  0.9172159805971297
  0.6757241706437955  0.3463266668680078  0.4161587842086324
  0.6750259116995888  0.3453374636097186  0.9172793815217829
  0.6734068289292935  0.8447952033850298  0.4144453831629613
  0.6705878274535663  0.8456270653409761  0.9216562207440465
  0.3252872721560467  0.1543018525630302  0.4173808114234018
  0.3251358242525650  0.1540006416807218  0.9177547004347789
  0.3265616368637489  0.6551470233247455  0.4174101693832967
  0.3256473527989583  0.6509642203426095  0.9208654541343593
  0.8248217443075238  0.1523570596534120  0.4169783732514241
  0.8253021503921324  0.1531130828925250  0.9180364951125811
  0.8282646925737457  0.6552620458608019  0.4121965052323843
  0.8276219076243494  0.6544423090502921  0.9221815949864053
  0.0971403359214641  0.4240531467516620  0.1676705805280492
  0.1025935233099637  0.4219914793153279  0.6703612454651059
  0.0959435132007692  0.9252987531527812  0.1671155382813411
  0.0924613163463362  0.9236732314766888  0.6701945700890954
  0.5952929398353760  0.4237154887375874  0.1670543676211782
  0.5977394830845246  0.4250960101613014  0.6688538374691703
  0.5955185262377981  0.9248779465547635  0.1680679637114451
  0.5895434198698559  0.9296012357438257  0.6583511206817021
  0.4034637678774756  0.0755617349181232  0.1670906197127806
  0.3976273285640812  0.0783736260190932  0.6702726720906196
  0.4027899262829920  0.5747222815893956  0.1683475602372665
  0.4102974389605881  0.5810497302691863  0.6724411055384399
  0.9039218361347042  0.0766530499302484  0.1674815180757034
  0.9012542993588262  0.0754437487188270  0.6696190237071464
  0.9053466418985403  0.5748693735515098  0.1673600666340914
  0.9115528751757532  0.5725949479916035  0.6592928722354925
  0.0756575747080183  0.0968384506437911  0.3322982784395078
  0.0777239287614447  0.1023643469848615  0.8295094911928531
  0.0765973702979642  0.5953901390796907  0.3326615214761672
  0.0746535555542148  0.5966682771042823  0.8316307809889121
  0.5746640886577706  0.0968098695851783  0.3323314200256640
  0.5770618859149824  0.0943691957296414  0.8290379118662423
  0.5751914267268692  0.5951372632280932  0.3320971562348374
  0.5753529019252761  0.5844445227263568  0.8448444223322487
  0.4245472155619178  0.4030155648158573  0.3327615531044583
  0.4213097455442820  0.3979339264157054  0.8288204840126324
  0.4236743321338728  0.9043940672767062  0.3325156424221500
  0.4260365585176574  0.9026446263679164  0.8308234739546672
  0.9250809609092935  0.4032388672639683  0.3321048336779548
  0.9226172155193144  0.4055281087178172  0.8285204551642738
  0.9246596068373308  0.9050017582907025  0.3320353647301584
  0.9272342046765836  0.9111265802856675  0.8408364462914625
 
             NaN             NaN             NaN
             NaN             NaN             NaN
             NaN             NaN             NaN
             NaN             NaN             NaN
             NaN             NaN             NaN
             NaN             NaN             NaN
             NaN             NaN             NaN
             NaN             NaN             NaN
             NaN             NaN             NaN
             NaN             NaN             NaN
             NaN             NaN             NaN
             NaN             NaN             NaN
             NaN             NaN             NaN
             NaN             NaN             NaN
             NaN             NaN             NaN
             NaN             NaN             NaN
             NaN             NaN             NaN
             NaN             NaN             NaN
             NaN             NaN             NaN
             NaN             NaN             NaN
             NaN             NaN             NaN
             NaN             NaN             NaN
             NaN             NaN             NaN
             NaN             NaN             NaN
             NaN             NaN             NaN
             NaN             NaN             NaN
             NaN             NaN             NaN
             NaN             NaN             NaN
             NaN             NaN             NaN
             NaN             NaN             NaN
             NaN             NaN             NaN
             NaN             NaN             NaN
             NaN             NaN             NaN
             NaN             NaN             NaN
             NaN             NaN             NaN
             NaN             NaN             NaN
             NaN             NaN             NaN
             NaN             NaN             NaN
             NaN             NaN             NaN
             NaN             NaN             NaN
             NaN             NaN             NaN
             NaN             NaN             NaN
             NaN             NaN             NaN
             NaN             NaN             NaN
             NaN             NaN             NaN
             NaN             NaN             NaN
             NaN             NaN             NaN
             NaN             NaN             NaN
             NaN             NaN             NaN
             NaN             NaN             NaN
             NaN             NaN             NaN
             NaN             NaN             NaN
             NaN             NaN             NaN
             NaN             NaN             NaN
             NaN             NaN             NaN
             NaN             NaN             NaN
             NaN             NaN             NaN
             NaN             NaN             NaN
             NaN             NaN             NaN
             NaN             NaN             NaN
             NaN             NaN             NaN
             NaN             NaN             NaN
             NaN             NaN             NaN
             NaN             NaN             NaN
             NaN             NaN             NaN
             NaN             NaN             NaN
             NaN             NaN             NaN
             NaN             NaN             NaN
             NaN             NaN             NaN
             NaN             NaN             NaN
             NaN             NaN             NaN
             NaN             NaN             NaN
             NaN             NaN             NaN
             NaN             NaN             NaN
             NaN             NaN             NaN
             NaN             NaN             NaN
             NaN             NaN             NaN
             NaN             NaN             NaN
             NaN             NaN             NaN
             NaN             NaN             NaN
             NaN             NaN             NaN
             NaN             NaN             NaN
             NaN             NaN             NaN
             NaN             NaN             NaN
             NaN             NaN             NaN
             NaN             NaN             NaN
             NaN             NaN             NaN
             NaN             NaN             NaN
             NaN             NaN             NaN
             NaN             NaN             NaN
             NaN             NaN             NaN
             NaN             NaN             NaN
             NaN             NaN             NaN
             NaN             NaN             NaN
             NaN             NaN             NaN
             NaN             NaN             NaN
             NaN             NaN             NaN
             NaN             NaN             NaN
             NaN             NaN             NaN
             NaN             NaN             NaN
             NaN             NaN             NaN
             NaN             NaN             NaN
             NaN             NaN             NaN
             NaN             NaN             NaN
             NaN             NaN             NaN
             NaN             NaN             NaN
             NaN             NaN             NaN
             NaN             NaN             NaN
             NaN             NaN             NaN
             NaN             NaN             NaN
             NaN             NaN             NaN
             NaN             NaN             NaN
             NaN             NaN             NaN
             NaN             NaN             NaN
             NaN             NaN             NaN
             NaN             NaN             NaN
             NaN             NaN             NaN
             NaN             NaN             NaN
             NaN             NaN             NaN
             NaN             NaN             NaN
             NaN             NaN             NaN
             NaN             NaN             NaN
             NaN             NaN             NaN
             NaN             NaN             NaN
             NaN             NaN             NaN
             NaN             NaN             NaN
             NaN             NaN             NaN
