Li47 P16 O64                            
   1.00000000000000     
    10.4579199999999997   -0.0022940000000000    0.0008280000000000
    -0.0026450000000000   12.2098490000000002    0.0035630000000000
     0.0007500000000000    0.0028670000000000    9.8365860000000005
   Li   P    O 
    47    16    64
Direct
  0.3129766266062538  0.3637946725452911  0.1405628198888421
  0.6585752919138960  0.2507154830461927  0.0982899265050459
  0.6652784631143690  0.2496637159518545  0.5976048716571977
  0.6606293895863383  0.7472366481465779  0.0974665171118711
  0.6642445353816699  0.7503983623096511  0.5978425212843695
  0.1533861601159418  0.5085474774513175  0.1528707171035507
  0.1643317006509356  0.5009174915682991  0.6516695219646853
  0.1652775397217850  0.0020688527188606  0.1500491669864340
  0.1641963128910857  0.0008338507081538  0.6523300459578052
  0.3367509660159330  0.0007487340170761  0.3991668551811225
  0.3367988197072121 -0.0001641622754604  0.9057719180715057
  0.3365504532971912  0.5000146826127665  0.4039644298598958
  0.3368109846690213  0.4989249580102892  0.9029410825417857
  0.8357157123280623  0.2488793478407864  0.3467640358670515
  0.8345032684739538  0.2499642526344251  0.8513372116998675
  0.8363097813399412  0.7491326088402859  0.3478151965065445
  0.8360911386021268  0.7495043043053939  0.8474944758825508
  0.3377642067415013  0.2458064191197105  0.4056495919947505
  0.3372229760313766  0.2480934531107134  0.9018392586434825
  0.3363662149264814  0.7488241258995285  0.4016019970895814
  0.3349472023781020  0.7482287910443732  0.9025338730409428
  0.8376588400016056  0.0022842886278666  0.3462646412529625
  0.8362465441168823  0.0011299334554888  0.8471485438703433
  0.8355059993284325  0.4979923615729360  0.3463069560270362
  0.8342235408812223  0.4998277019656332  0.8516223302651507
  0.6590692651321954  0.4939778056868329  0.0961456876483535
  0.6649287265401150  0.4992114519119439  0.5977359804531660
  0.6624247183585497  0.9956011477125518  0.0963333918900843
  0.6650204916435136  0.9987391712660830  0.5978205857478062
  0.1635896156407378  0.2529698926231755  0.6484586016652778
  0.1632661442761106  0.7533810349338927  0.1537106212866917
  0.1643882080855118  0.7523232538326128  0.6518986555453073
  0.9358107041757897  0.3671542383711213  0.1469800061370764
  0.9240342915820812  0.3755401652681464  0.6526194867940244
  0.9233944584185245  0.8762155806794535  0.1490275069231154
  0.9246214893439939  0.8760257918340423  0.6486921759096679
  0.4257225930631172  0.3740365692700703  0.6049664834945201
  0.4248282807781675  0.8721887398972104  0.1016219504782688
  0.4240069856329511  0.8752591132431166  0.6000901761742913
  0.0806318110944765  0.1334771098674477  0.3368144033274213
  0.0773591454903739  0.1287987135239206  0.8582648498779005
  0.0758163053604163  0.6261086942951990  0.3542323107109868
  0.0756338181807544  0.6252935800516997  0.8496483899653785
  0.5770289569051981  0.1250118373321497  0.3967932595736141
  0.5756386203054328  0.1244591151628771  0.9022284632809470
  0.5756718514222873  0.6232344046968448  0.3994004947164712
  0.5740810743821413  0.6230237417484332  0.8989625584616218
  0.9087766960367938  0.1213171887145259  0.0951706509731810
  0.9138661506838707  0.1251565817205580  0.5953662545100112
  0.9085573738736957  0.6268738020193961  0.0956426972688261
  0.9118355875178294  0.6259038239148244  0.5953844783412664
  0.4132750567489199  0.1222759881801258  0.1526086013218791
  0.4128168116689991  0.1224998688183686  0.6543298971245491
  0.4076194661385019  0.6228340984749233  0.1548273923948405
  0.4115646220309147  0.6258549242103243  0.6548913800893542
  0.0898119579132467  0.3755538763506216  0.4058454816937107
  0.0920707833953214  0.3777668758336585  0.9048283162447333
  0.0891726114922100  0.8764583339209430  0.4045680755815379
  0.0885586081977332  0.8754361527593775  0.9050036705172063
  0.5885452797631184  0.3738930939135185  0.3454355713244462
  0.5855423055853795  0.3744360716085540  0.8412804593567393
  0.5888527541423056  0.8736539281264188  0.3448541956606877
  0.5877821739658688  0.8735555701772659  0.8453083531169873
  0.8357296887918575  0.0189484254922396  0.1445332476641790
  0.8425687035603137  0.0218336000360875  0.6457184066869582
  0.8415316595416824  0.5218359225075535  0.1460722480929276
  0.8422406151604700  0.5230991502337096  0.6496374690614881
  0.3465095700372326  0.2207949503745752  0.0948479633154531
  0.3436816683461498  0.2269720243119297  0.6054064949195943
  0.3394490315420640  0.7261467291094640  0.1034941409331143
  0.3419798729415387  0.7285353083139005  0.6027401232781738
  0.1645377034238411  0.2732096888517259  0.3651671189439518
  0.1593714043108723  0.2750157300612668  0.8492643240697541
  0.1588543779371445  0.7720413114462511  0.3545779789000938
  0.1583536635100917  0.7721624417564434  0.8525627609103184
  0.6570393563909954  0.4778425665204557  0.4000661026814324
  0.6541916919105256  0.4773660924461685  0.8958332602368901
  0.6596790511394366  0.9764711426746512  0.3966436671864215
  0.6583170589588204  0.9763015382448135  0.8955447159130713
  0.1588010895912936  0.4791870120004115  0.3513039033777153
  0.1583640033008144  0.4811542792375698  0.8474353425799473
  0.1592844234413525  0.9781157177138043  0.3524669335438710
  0.1589285442655524  0.9784066386906884  0.8537296528747117
  0.6579617071516576  0.2715182650375542  0.4009369774151177
  0.6533768442253299  0.2719686129756805  0.8968271495704865
  0.6590463268866488  0.7700937999453249  0.3986028318747581
  0.6580861073144842  0.7698700956913226  0.8963515562814086
  0.8398287301561583  0.2254285723967802  0.1471582008693219
  0.8428691282347250  0.2282308421779261  0.6479554811653709
  0.8362545244968425  0.7287610613259492  0.1459885231557984
  0.8417463683875136  0.7293126782520389  0.6461024437106030
  0.3453408206164860  0.0158157995703699  0.1056354243030686
  0.3424125544280038  0.0210182743531838  0.6014630942332326
  0.3323645363239237  0.5208067807458465  0.1063660139305795
  0.3423466043507357  0.5225008591330607  0.6021896695484051
  0.5537567460751445  0.1188951855640412  0.1048816902791367
  0.5514213169843346  0.1229158548711172  0.6020556144658397
  0.5450894873630340  0.6210131737509922  0.1001103403029844
  0.5508131844776973  0.6257225842672832  0.6037449210751379
  0.0457313596323999  0.1170526136090338  0.1460422804646430
  0.0510200144470838  0.1253724595927674  0.6499543895958330
  0.0463263502790000  0.6310828241288942  0.1500035871465327
  0.0506250473223646  0.6274101442090714  0.6459375775122836
  0.4485744525510272  0.3739380465946622  0.3957262075078269
  0.4431280516196774  0.3752594162798778  0.8783421731208205
  0.4506211353650527  0.8737840853563956  0.3972488059183584
  0.4499848468845137  0.8728789349551244  0.8973175646952504
  0.9523402081725216  0.3733075899373320  0.3497730601871259
  0.9505120213962149  0.3761953221766683  0.8596542035085141
  0.9500905655407671  0.8748529963879292  0.3523439834829358
  0.9498364084460352  0.8750670310783192  0.8519244097811928
  0.5946618300531920  0.3736141756179556  0.1907547370930427
  0.5959649104733712  0.3745226636016313  0.6846449046002989
  0.5898179558996141  0.8713246048367982  0.1890676806847855
  0.5890487192186400  0.8735836421592561  0.6877078407535077
  0.1017482094567531  0.3820953085543247  0.0607329517327370
  0.0855007949536140  0.3809775870478285  0.5626669093134408
  0.0888507200883176  0.8747720171426181  0.0612706900646412
  0.0891650801765053  0.8761420911482189  0.5617575302015633
  0.4124901118457082  0.1239393973312928  0.3104409692464755
  0.4124249295742711  0.1208948378408234  0.8118895353268085
  0.4097702609454024  0.6237834125642524  0.3118077469778583
  0.4097115685171490  0.6256809263997625  0.8115772314202619
  0.9137804320582407  0.1257373430923293  0.4385579962743629
  0.9071747291911691  0.1238943472885814  0.9375124782974285
  0.9095866959765687  0.6242373741869746  0.4385829317295952
  0.9101583966420974  0.6264703402579557  0.9385018085005121
 
             NaN             NaN             NaN
             NaN             NaN             NaN
             NaN             NaN             NaN
             NaN             NaN             NaN
             NaN             NaN             NaN
             NaN             NaN             NaN
             NaN             NaN             NaN
             NaN             NaN             NaN
             NaN             NaN             NaN
             NaN             NaN             NaN
             NaN             NaN             NaN
             NaN             NaN             NaN
             NaN             NaN             NaN
             NaN             NaN             NaN
             NaN             NaN             NaN
             NaN             NaN             NaN
             NaN             NaN             NaN
             NaN             NaN             NaN
             NaN             NaN             NaN
             NaN             NaN             NaN
             NaN             NaN             NaN
             NaN             NaN             NaN
             NaN             NaN             NaN
             NaN             NaN             NaN
             NaN             NaN             NaN
             NaN             NaN             NaN
             NaN             NaN             NaN
             NaN             NaN             NaN
             NaN             NaN             NaN
             NaN             NaN             NaN
             NaN             NaN             NaN
             NaN             NaN             NaN
             NaN             NaN             NaN
             NaN             NaN             NaN
             NaN             NaN             NaN
             NaN             NaN             NaN
             NaN             NaN             NaN
             NaN             NaN             NaN
             NaN             NaN             NaN
             NaN             NaN             NaN
             NaN             NaN             NaN
             NaN             NaN             NaN
             NaN             NaN             NaN
             NaN             NaN             NaN
             NaN             NaN             NaN
             NaN             NaN             NaN
             NaN             NaN             NaN
             NaN             NaN             NaN
             NaN             NaN             NaN
             NaN             NaN             NaN
             NaN             NaN             NaN
             NaN             NaN             NaN
             NaN             NaN             NaN
             NaN             NaN             NaN
             NaN             NaN             NaN
             NaN             NaN             NaN
             NaN             NaN             NaN
             NaN             NaN             NaN
             NaN             NaN             NaN
             NaN             NaN             NaN
             NaN             NaN             NaN
             NaN             NaN             NaN
             NaN             NaN             NaN
             NaN             NaN             NaN
             NaN             NaN             NaN
             NaN             NaN             NaN
             NaN             NaN             NaN
             NaN             NaN             NaN
             NaN             NaN             NaN
             NaN             NaN             NaN
             NaN             NaN             NaN
             NaN             NaN             NaN
             NaN             NaN             NaN
             NaN             NaN             NaN
             NaN             NaN             NaN
             NaN             NaN             NaN
             NaN             NaN             NaN
             NaN             NaN             NaN
             NaN             NaN             NaN
             NaN             NaN             NaN
             NaN             NaN             NaN
             NaN             NaN             NaN
             NaN             NaN             NaN
             NaN             NaN             NaN
             NaN             NaN             NaN
             NaN             NaN             NaN
             NaN             NaN             NaN
             NaN             NaN             NaN
             NaN             NaN             NaN
             NaN             NaN             NaN
             NaN             NaN             NaN
             NaN             NaN             NaN
             NaN             NaN             NaN
             NaN             NaN             NaN
             NaN             NaN             NaN
             NaN             NaN             NaN
             NaN             NaN             NaN
             NaN             NaN             NaN
             NaN             NaN             NaN
             NaN             NaN             NaN
             NaN             NaN             NaN
             NaN             NaN             NaN
             NaN             NaN             NaN
             NaN             NaN             NaN
             NaN             NaN             NaN
             NaN             NaN             NaN
             NaN             NaN             NaN
             NaN             NaN             NaN
             NaN             NaN             NaN
             NaN             NaN             NaN
             NaN             NaN             NaN
             NaN             NaN             NaN
             NaN             NaN             NaN
             NaN             NaN             NaN
             NaN             NaN             NaN
             NaN             NaN             NaN
             NaN             NaN             NaN
             NaN             NaN             NaN
             NaN             NaN             NaN
             NaN             NaN             NaN
             NaN             NaN             NaN
             NaN             NaN             NaN
             NaN             NaN             NaN
             NaN             NaN             NaN
             NaN             NaN             NaN
             NaN             NaN             NaN
             NaN             NaN             NaN
