Mg1 Ti16 S32                            
   1.00000000000000     
     9.8638659999999998   -0.0020780000000000    0.0007740000000000
    -0.0020780000000000    9.8638510000000004   -0.0007720000000000
     0.0007700000000000   -0.0007670000000000    9.8656199999999998
   Mg   Ti   S 
     1    16    32
Direct
  0.3484725913106247  0.4015252997545119  0.8464822135098068
  0.2494103517618615  0.7616323768883481  0.0083987903093675
  0.5015114463397333  0.9975296810931829 -0.0005638967934817
  0.7524701545096969  0.2484881554840427 -0.0005642755558291
  0.9883666154571229  0.5005897835507257  0.0083991562570233
  0.5015902513172359  0.2484091957158987  0.2515605406676566
  0.2461481197370531  0.5038517949235101  0.2694056650741390
  0.2485733844469363  0.2387690470740347  0.4863514281276182
  0.5112309055415601  0.5014264583178349  0.4863513752426704
  0.5111555885527994  0.7620674118505133  0.7467244832455163
  0.7710298194785026  0.5039659477606562  0.7437217632257697
  0.7521161998524843  0.7532228238963170  0.4939864664271648
  0.2460327101821960  0.9789678847622687  0.7437224148906010
  0.7503996409480739  0.9995999648448235  0.2473694634181109
  0.9879330729213995  0.2388445203686661  0.7467243422426946
  0.9970039139839101  0.7529957500616253  0.2487570261492960
  0.9967768188447328  0.9978831130133953  0.4939861332016681
  0.7459641214171359  0.0040350839340905 -0.0015455785548666
  0.0028016119447119  0.7471984517566767  0.0027147236702039
 -0.0005362751582233 -0.0047680591816959  0.7434089695663113
  0.7547676075338967  0.7505364464727448  0.7434089225577130
  0.2511475318243784  0.9997782933180767  0.9920023333450446
  0.9952593368386228  0.2517074003679725  0.9955671697251768
  0.9957743803536291  0.9989107320276924  0.2482871842811886
  0.2513214248225905  0.2556155452059207  0.2482383175034670
  0.7547013993399032  0.5038841972451724  0.4971524724818526
  0.0024879191290902  0.2444301680134733  0.5001413637602414
 -0.0004933661292598  0.5038546965745405  0.2521243691101816
  0.7461961943824506  0.2488142279238398  0.2436864975726633
  0.2589801755248349  0.4910190781331131  0.5062137299879660
  0.9973696991912354  0.7526294510233094  0.4944447699617243
  1.0080084361361181  0.4908858761908779  0.7565311843036591
  0.2591143039289854  0.7419914952672758  0.7565317905088593
  0.2461149400900723 -0.0047020993364297  0.4971533218921968
  0.5055694374739599  0.7475121328811410  0.5001413486297415
  0.5011857965542432  0.0038030798194370  0.2436864416677574
  0.2461445960764629  0.7504933253281131  0.2521243580074828
  0.7511284043298604  0.9988716188007152  0.4928108774790251
  0.4980577317478616  0.2519410027203331  0.4934555538485835
  0.4943819860480519  0.9999338872844735  0.7487806059746618
  0.7500662066645528  0.2556160172626233  0.7487807473532404
  0.2382321723373677  0.5117670226099632  0.0210884171343630
  0.5008605660405349  0.2491397305016873 -0.0010034492805750
  0.5229408254542642  0.5119700697337763  0.7360434853343657
  0.2380303637126780  0.2270600356092844  0.7360438656023832
  0.7502211341725442  0.4988525218158847  0.9920035221917466
  0.4982923520131645  0.7547402880642182  0.9955679291426468
  0.4943841922507889  0.4986789855374676  0.2482380594006688
  0.7510891618310332  0.7542251437724029  0.2482871294289696
 
             NaN             NaN             NaN
             NaN             NaN             NaN
             NaN             NaN             NaN
             NaN             NaN             NaN
             NaN             NaN             NaN
             NaN             NaN             NaN
             NaN             NaN             NaN
             NaN             NaN             NaN
             NaN             NaN             NaN
             NaN             NaN             NaN
             NaN             NaN             NaN
             NaN             NaN             NaN
             NaN             NaN             NaN
             NaN             NaN             NaN
             NaN             NaN             NaN
             NaN             NaN             NaN
             NaN             NaN             NaN
             NaN             NaN             NaN
             NaN             NaN             NaN
             NaN             NaN             NaN
             NaN             NaN             NaN
             NaN             NaN             NaN
             NaN             NaN             NaN
             NaN             NaN             NaN
             NaN             NaN             NaN
             NaN             NaN             NaN
             NaN             NaN             NaN
             NaN             NaN             NaN
             NaN             NaN             NaN
             NaN             NaN             NaN
             NaN             NaN             NaN
             NaN             NaN             NaN
             NaN             NaN             NaN
             NaN             NaN             NaN
             NaN             NaN             NaN
             NaN             NaN             NaN
             NaN             NaN             NaN
             NaN             NaN             NaN
             NaN             NaN             NaN
             NaN             NaN             NaN
             NaN             NaN             NaN
             NaN             NaN             NaN
             NaN             NaN             NaN
             NaN             NaN             NaN
             NaN             NaN             NaN
             NaN             NaN             NaN
             NaN             NaN             NaN
             NaN             NaN             NaN
             NaN             NaN             NaN
