Mg1 Ti16 S32
1.0
9.863866 -0.002078 0.000774
-0.002078 9.863851 -0.000772
0.000770 -0.000767 9.865620
Mg Ti S
1 16 32
direct
0.343684 0.406316 0.749708 Mg
0.248685 0.755798 0.007292 Ti
0.501922 -0.003126 0.005554 Ti
0.753125 0.248076 0.005556 Ti
0.994202 0.501313 0.007291 Ti
0.501624 0.248375 0.249712 Ti
0.249008 0.500992 0.249850 Ti
0.246191 0.243755 0.490193 Ti
0.506244 0.503808 0.490193 Ti
0.505869 0.756100 0.750363 Ti
0.753583 0.503443 0.750291 Ti
0.751262 0.751818 0.497835 Ti
0.246557 -0.003585 0.750291 Ti
0.751139 0.998860 0.250732 Ti
0.993899 0.244130 0.750363 Ti
0.998122 0.751878 0.250955 Ti
0.998181 0.998736 0.497835 Ti
0.747623 0.002377 0.003490 S
0.002544 0.747456 0.003913 S
0.001523 1.000721 0.747680 S
0.749279 0.748477 0.747679 S
0.252574 -0.001267 0.997177 S
0.997419 0.252729 0.997125 S
0.997410 0.997620 0.252239 S
0.252579 0.252639 0.249303 S
0.749217 0.503258 0.502755 S
0.001642 0.246234 0.502833 S
0.002383 0.502508 0.249479 S
0.747739 0.247445 0.248847 S
0.254099 0.495901 0.495186 S
0.997470 0.752530 0.497276 S
0.997108 0.495950 0.753882 S
0.254050 0.752891 0.753883 S
0.246742 1.000783 0.502755 S
0.503766 0.748358 0.502834 S
0.502554 0.002261 0.248847 S
0.247489 0.747619 0.249480 S
0.752292 0.997708 0.497343 S
0.496376 0.253625 0.495251 S
0.496521 -0.001513 0.753271 S
0.751512 0.253479 0.753270 S
0.245747 0.504255 0.003939 S
0.503706 0.246294 0.003498 S
0.504654 0.504730 0.744914 S
0.245270 0.245345 0.744913 S
0.751267 0.497426 0.997178 S
0.497270 0.752583 0.997125 S
0.497361 0.497421 0.249303 S
0.752379 0.752589 0.252239 S
