Li47 P16 O64                            
   1.00000000000000     
    10.5650200000000005    0.0002810000000000   -0.0049080000000000
     0.0003280000000000   12.3436409999999999   -0.0009740000000000
    -0.0046310000000000   -0.0007750000000000    9.9805039999999998
   Li   P    O 
    47    16    64
Direct
  0.5906031665139468  0.2674415351852283  0.0788782529478349
  0.6654586958766703  0.2498014246155499  0.5994278272592661
  0.6643033353862224  0.7516862376337021  0.0982996198855678
  0.6645868758012579  0.7516224735777937  0.5995809216310273
  0.1631205044380030  0.4975217765912763  0.1512838316269749
  0.1643041021022746  0.4991021256081239  0.6516454259250566
  0.1628593018811692  0.9954619977806073  0.1535094332069312
  0.1636081775360472  0.9987390646088622  0.6516821008203756
  0.3360287358888358  0.9998298201351502  0.4014613095193819
  0.3356391875034381  0.0005406106408311  0.9015395837900243
  0.3372837249416095  0.5007739146355397  0.3985220041315131
  0.3373239312130694  0.4977582605641191  0.9073487986764045
  0.8351815786172769  0.2493042181312077  0.3474027825671638
  0.8334085344775538  0.2498125446427509  0.8543335797012194
  0.8368299636317521  0.7489422387533445  0.3496173781457435
  0.8369504814066114  0.7489250515041961  0.8488880529351220
  0.3373531860124306  0.2500571599157597  0.3970556295296722
  0.3357298656024567  0.2525614836998294  0.9055975663333359
  0.3363910479062918  0.7500740719452608  0.4012669300252425
  0.3366183008697095  0.7503192859527241  0.9013540990325811
  0.8368631212074331  0.0017923973578214  0.3505053749358956
  0.8374404474517115  0.0012678025530934  0.8489251198714323
  0.8359425488707811  0.5020529002057804  0.3488098736275976
  0.8356215624407479  0.5016631579672522  0.8495287088794390
  0.6588247063470447  0.4990523087496800  0.0967520819801154
  0.6658991475909325  0.5022508302809550  0.5998648879994808
  0.6650044216445256  0.0015189405153718  0.0998513941768264
  0.6642990316474366  0.9995516073804472  0.5986156918059989
  0.1651051481346801  0.2525358430972612  0.1496356545124500
  0.1636077609328027  0.2509466395824064  0.6514466488763238
  0.1625902970825922  0.7516336605260354  0.1519536863847093
  0.1639958473109489  0.7512333592158041  0.6521773315184761
  0.9216026793509320  0.3758234073772461  0.1470178410670899
  0.9244549003270301  0.3746774241685288  0.6500795264175392
  0.9237907513168271  0.8752241643802349  0.1499454685918880
  0.9250864958698003  0.8751724245171637  0.6490212919175483
  0.4240971305468574  0.3757908692791080  0.6062395480547120
  0.4299837848932939  0.8761613713922954  0.1003460933416406
  0.4262020932518433  0.8753057782966542  0.6014970808109528
  0.0752228678879593  0.1250074764031706  0.3520075206458688
  0.0752149280761184  0.1255715646198821  0.8523236134702613
  0.0751592381520814  0.6246330229067165  0.3514544556421026
  0.0756407624544311  0.6244760499899414  0.8526876716297684
  0.5740543446492060  0.1255398669565234  0.3975225788266947
  0.5751164756572968  0.1219173296456181  0.8947631359456265
  0.5747748018453923  0.6261574550908745  0.4008046121475582
  0.5728590310046562  0.6253793503845957  0.8969440699533656
  0.9126372864038984  0.1252277403316608  0.0980120452808161
  0.9118762704017733  0.1251165323281824  0.5976956139559289
  0.9103349063675021  0.6255084948165672  0.0970903098326686
  0.9126435441208449  0.6254612988692420  0.5972292334956066
  0.4059151322147551  0.1184265686801601  0.1522037475883020
  0.4106387188855222  0.1249647847029355  0.6531902704001087
  0.4099990456583884  0.6301402237794236  0.1530001090415389
  0.4106328109650217  0.6260581598270901  0.6539640586952846
  0.0882885542347319  0.3753103620955100  0.4035832236504944
  0.0868447291496684  0.3752294575856701  0.9036108045957907
  0.0880904666917342  0.8746748992620050  0.4048502911175033
  0.0879620023682797  0.8748552709034695  0.9041921347877255
  0.5905692547127666  0.3772110838127678  0.3510949475536512
  0.5865335056666117  0.3763793317582160  0.8383906595191762
  0.5899262806990245  0.8754845231208014  0.3472519403689092
  0.5899854730087494  0.8751229347669430  0.8457737562428818
  0.8419410528425436  0.0225116028931633  0.1499409589287703
  0.8417594427260092  0.0215486964870917  0.6481643416638992
  0.8387061991304896  0.5229443499480916  0.1478060467099027
  0.8428751590721852  0.5225450760246448  0.6493993494407342
  0.3334272231020205  0.2169823190309581  0.0964986608248692
  0.3410990225635432  0.2279712743989770  0.6002488178987155
  0.3434718874174117  0.7369382611732781  0.1064731439299428
  0.3411696551639121  0.7295639973402261  0.6021119134939912
  0.1576030004465427  0.2718079200659685  0.3518093056231864
  0.1565598902070273  0.2720072265031770  0.8518777535900804
  0.1581363756555394  0.7716040201526333  0.3529783000126989
  0.1587026260288377  0.7716440023638137  0.8536741927182113
  0.6598944058869337  0.4801100160333682  0.4047097027404280
  0.6557194091089780  0.4786531955937209  0.8945100468408863
  0.6593347268423756  0.9790219228385943  0.3988873036133748
  0.6605385813614894  0.9779040990630766  0.8978018079488840
  0.1589253518656576  0.4781797722343465  0.3523861937938434
  0.1571691785300087  0.4781705334978672  0.8520530237121069
  0.1580067545928525  0.9780043919581624  0.3539093134660486
  0.1583621687973482  0.9779858883015294  0.8531938468118343
  0.6588569819427160  0.2726807495523222  0.4015158310913517
  0.6524663460555193  0.2722469867975008  0.8940713157432065
  0.6598596595705849  0.7722484583165189  0.3990947765873727
  0.6591869284910681  0.7714625569559721  0.8970873846042646
  0.8480194285969620  0.2294517798851886  0.1508471512472638
  0.8418940690192777  0.2277297693749772  0.6506570439323569
  0.8407760294177877  0.7291776491789580  0.1481578373492330
  0.8421999747959766  0.7286972999364668  0.6481333284427994
  0.3391689224682024  0.0121109609182869  0.1060425667441269
  0.3411668914126418  0.0213803487187143  0.6016521974296981
  0.3308586736323664  0.5355021317575571  0.0965298517310185
  0.3413980463083997  0.5231237943412194  0.6004862983887839
  0.5440543293942595  0.1203359717422069  0.0975469282547972
  0.5498526707269513  0.1249560266710129  0.6018859221029861
  0.5478920270051725  0.6272316232860097  0.0987545002788672
  0.5499917837412678  0.6267136556826771  0.6033328173364010
  0.0523788205769905  0.1228852609274440  0.1484550565642834
  0.0508364997061949  0.1245580812397988  0.6493313684706926
  0.0488117559702050  0.6250060312195777  0.1500506816881013
  0.0514295050321190  0.6256767905527435  0.6491770909811976
  0.4514415431720284  0.3760032595196871  0.4019074459538324
  0.4457693604869307  0.3756867208716126  0.8788635898283238
  0.4511090090586184  0.8750633623869886  0.3988710911162451
  0.4511302073049405  0.8756510381216454  0.8971507305820203
  0.9492892750349865  0.3759479159592728  0.3519326859866626
  0.9477323387566406  0.3754308877236693  0.8518931801418186
  0.9492854127441525  0.8749819231264868  0.3527167163549451
  0.9496613284994820  0.8748871784549213  0.8507088856185384
  0.5944208113352618  0.3802674939645677  0.1966217844841200
  0.5957803673707975  0.3764338788527703  0.6824871917535613
  0.5921584863324697  0.8756335036243166  0.1908638633963015
  0.5909004174095747  0.8756188209821599  0.6894176875147134
  0.0869701219476896  0.3752635610543281  0.0598379279029610
  0.0891288672535901  0.3750035510669997  0.5600340581883764
  0.0867624881517687  0.8744529059866458  0.0605013507855897
  0.0890529167154546  0.8745304073171901  0.5612113687124389
  0.4090689962772940  0.1227837612085149  0.3087241112763763
  0.4091234502994868  0.1250269753553709  0.8094550132393690
  0.4118108955189754  0.6262608130657559  0.3093745046924146
  0.4084648968679701  0.6255910511703384  0.8101854946067961
  0.9107901893818975  0.1260022918272280  0.4412348971867782
  0.9106104085399075  0.1248739853721892  0.9415375652199183
  0.9115333949315039  0.6251067356176631  0.4407778130966125
  0.9105076980370359  0.6254774176168043  0.9405980027067792
 
             NaN             NaN             NaN
             NaN             NaN             NaN
             NaN             NaN             NaN
             NaN             NaN             NaN
             NaN             NaN             NaN
             NaN             NaN             NaN
             NaN             NaN             NaN
             NaN             NaN             NaN
             NaN             NaN             NaN
             NaN             NaN             NaN
             NaN             NaN             NaN
             NaN             NaN             NaN
             NaN             NaN             NaN
             NaN             NaN             NaN
             NaN             NaN             NaN
             NaN             NaN             NaN
             NaN             NaN             NaN
             NaN             NaN             NaN
             NaN             NaN             NaN
             NaN             NaN             NaN
             NaN             NaN             NaN
             NaN             NaN             NaN
             NaN             NaN             NaN
             NaN             NaN             NaN
             NaN             NaN             NaN
             NaN             NaN             NaN
             NaN             NaN             NaN
             NaN             NaN             NaN
             NaN             NaN             NaN
             NaN             NaN             NaN
             NaN             NaN             NaN
             NaN             NaN             NaN
             NaN             NaN             NaN
             NaN             NaN             NaN
             NaN             NaN             NaN
             NaN             NaN             NaN
             NaN             NaN             NaN
             NaN             NaN             NaN
             NaN             NaN             NaN
             NaN             NaN             NaN
             NaN             NaN             NaN
             NaN             NaN             NaN
             NaN             NaN             NaN
             NaN             NaN             NaN
             NaN             NaN             NaN
             NaN             NaN             NaN
             NaN             NaN             NaN
             NaN             NaN             NaN
             NaN             NaN             NaN
             NaN             NaN             NaN
             NaN             NaN             NaN
             NaN             NaN             NaN
             NaN             NaN             NaN
             NaN             NaN             NaN
             NaN             NaN             NaN
             NaN             NaN             NaN
             NaN             NaN             NaN
             NaN             NaN             NaN
             NaN             NaN             NaN
             NaN             NaN             NaN
             NaN             NaN             NaN
             NaN             NaN             NaN
             NaN             NaN             NaN
             NaN             NaN             NaN
             NaN             NaN             NaN
             NaN             NaN             NaN
             NaN             NaN             NaN
             NaN             NaN             NaN
             NaN             NaN             NaN
             NaN             NaN             NaN
             NaN             NaN             NaN
             NaN             NaN             NaN
             NaN             NaN             NaN
             NaN             NaN             NaN
             NaN             NaN             NaN
             NaN             NaN             NaN
             NaN             NaN             NaN
             NaN             NaN             NaN
             NaN             NaN             NaN
             NaN             NaN             NaN
             NaN             NaN             NaN
             NaN             NaN             NaN
             NaN             NaN             NaN
             NaN             NaN             NaN
             NaN             NaN             NaN
             NaN             NaN             NaN
             NaN             NaN             NaN
             NaN             NaN             NaN
             NaN             NaN             NaN
             NaN             NaN             NaN
             NaN             NaN             NaN
             NaN             NaN             NaN
             NaN             NaN             NaN
             NaN             NaN             NaN
             NaN             NaN             NaN
             NaN             NaN             NaN
             NaN             NaN             NaN
             NaN             NaN             NaN
             NaN             NaN             NaN
             NaN             NaN             NaN
             NaN             NaN             NaN
             NaN             NaN             NaN
             NaN             NaN             NaN
             NaN             NaN             NaN
             NaN             NaN             NaN
             NaN             NaN             NaN
             NaN             NaN             NaN
             NaN             NaN             NaN
             NaN             NaN             NaN
             NaN             NaN             NaN
             NaN             NaN             NaN
             NaN             NaN             NaN
             NaN             NaN             NaN
             NaN             NaN             NaN
             NaN             NaN             NaN
             NaN             NaN             NaN
             NaN             NaN             NaN
             NaN             NaN             NaN
             NaN             NaN             NaN
             NaN             NaN             NaN
             NaN             NaN             NaN
             NaN             NaN             NaN
             NaN             NaN             NaN
             NaN             NaN             NaN
             NaN             NaN             NaN
             NaN             NaN             NaN
             NaN             NaN             NaN
