Li47 P16 O64                            
   1.00000000000000     
    10.5650200000000005    0.0002810000000000   -0.0049080000000000
     0.0003280000000000   12.3436409999999999   -0.0009740000000000
    -0.0046310000000000   -0.0007750000000000    9.9805039999999998
   Li   P    O 
    47    16    64
Direct
  0.5927029126074453  0.2679412694604584  0.0798092477588050
  0.6658273843297698  0.2497008437448521  0.5994026105595205
  0.6644620822184368  0.7518059030140553  0.0985300439602207
  0.6643799519048742  0.7517874594167062  0.5994604621447949
  0.1638332316139646  0.4970604994164038  0.1507886160674728
  0.1641306010323509  0.4991198150218807  0.6516512127261518
  0.1630637683373474  0.9961522705701662  0.1527552023722210
  0.1639392545261270  0.9987186121138321  0.6513423111355695
  0.3361209478822306 -0.0000622446383929  0.4014048430085426
  0.3360708730661953  0.0004628484389156  0.9016226183063841
  0.3370227515167701  0.5005758558467328  0.3989905678961458
  0.3377264634406963  0.4972613441332951  0.9071039001176070
  0.8350937009892485  0.2488866411253472  0.3471412043303790
  0.8337732754002886  0.2495800607747107  0.8533850387780469
  0.8368407455320814  0.7488711274525770  0.3495321868525059
  0.8369062947348688  0.7489500536488384  0.8490480266238564
  0.3376797410345471  0.2503925632672858  0.3980687824256825
  0.3360828487451860  0.2524335941687387  0.9060351843443588
  0.3364912145546666  0.7494823167865164  0.4008944680910377
  0.3364456905378365  0.7496901763567994  0.9009778578750339
  0.8368384226228850  0.0014278763829067  0.3497775325253504
  0.8370894048520008  0.0011388493257485  0.8490519312626412
  0.8362898078414619  0.5017129017400297  0.3493439514802703
  0.8362491199807880  0.5013030665257580  0.8495888534533542
  0.6596633004293082  0.4994648288888262  0.0973492060966798
  0.6660980531532081  0.5029070019434342  0.6014745455648808
  0.6642422362415314  1.0017117552077119  0.1001207944608575
  0.6642697532074560  0.9993743561366295  0.5986629028885622
  0.1649981147075918  0.2527849694366746  0.1498036457712231
  0.1636798975897990  0.2509139247277819  0.6514630489978251
  0.1629211612579161  0.7513160642835058  0.1515006572803765
  0.1639408406484499  0.7512655579487418  0.6516460611571148
  0.9214231230862779  0.3752847941119938  0.1469446876797746
  0.9244964489646275  0.3746541777455964  0.6493941654611840
  0.9242608517993181  0.8750583314932304  0.1493516253409249
  0.9254568439814298  0.8752328251736951  0.6488997671377734
  0.4242022343356867  0.3758001799586768  0.6073685817935178
  0.4289165481810822  0.8753117501970826  0.1006474502168102
  0.4260191168027565  0.8751422243989896  0.6012288953281866
  0.0752173718633229  0.1249710762612344  0.3516707403541189
  0.0753220044519869  0.1254645744144477  0.8520416877706191
  0.0750996631906489  0.6245297979628360  0.3510416392099560
  0.0755463408770601  0.6244213551900826  0.8524264769301011
  0.5743797735473056  0.1257699122157122  0.3974732965886280
  0.5753270178626512  0.1220399706381913  0.8955797228181501
  0.5748599634066753  0.6259257411120399  0.4010697536281072
  0.5731117882222005  0.6254958527300180  0.8972424827705890
  0.9120976197045921  0.1252333044765045  0.0976217699804791
  0.9119591022481699  0.1248761087548985  0.5973151544228268
  0.9107339428958141  0.6252518590277987  0.0970647120053518
  0.9126698730866090  0.6255947837571111  0.5972940076791803
  0.4062167623669268  0.1191108185967222  0.1527413096546386
  0.4110388826358044  0.1249103279237479  0.6534477767217316
  0.4106054009762223  0.6291587202965312  0.1528522597358088
  0.4105790480371508  0.6259635961321874  0.6540517031674853
  0.0883246328511180  0.3751027772713207  0.4034263127136702
  0.0870167560967520  0.3750309887421654  0.9033429063624435
  0.0883825870768715  0.8746592407061532  0.4041396488051738
  0.0882705430902490  0.8748762150870371  0.9039493720929195
  0.5909718506527145  0.3777064181567877  0.3521637078326461
  0.5872062586728442  0.3762845918948049  0.8385688465392955
  0.5896271449772140  0.8753278010406137  0.3469909265670909
  0.5896189633321735  0.8750322045182676  0.8460576047150319
  0.8416434381043469  0.0222133685275829  0.1491840526795288
  0.8418312759863483  0.0214319132722093  0.6481418202671959
  0.8393538766773107  0.5226716318583968  0.1480913543588684
  0.8431356044831355  0.5227172807418363  0.6498409283890824
  0.3333569621576307  0.2174118916098982  0.0969340149928534
  0.3412945341587114  0.2279472966424741  0.6009029289543695
  0.3432471015895592  0.7354760378856166  0.1059039158687105
  0.3409876029557712  0.7294032877307094  0.6021920915448491
  0.1579755480494339  0.2716949669140185  0.3518898361878904
  0.1570359232541359  0.2718724086707475  0.8518524304006664
  0.1584496685770680  0.7715198046940880  0.3524689119373746
  0.1587245424893931  0.7715962503780055  0.8532132802274297
  0.6607146136592510  0.4803913076551400  0.4058134902445598
  0.6560965856742046  0.4787176794788897  0.8945360300832328
  0.6591309398450437  0.9788211519101242  0.3986363900733184
  0.6598437544868819  0.9779844557809655  0.8980689494756601
  0.1587812297681831  0.4780425431022883  0.3520452595408555
  0.1574048294448845  0.4780616440490075  0.8520308898437341
  0.1583032327483736  0.9779892320865458  0.3531714257663371
  0.1587098934412055  0.9779845156575744  0.8528752247615539
  0.6590210829755643  0.2729084894865827  0.4019993912344401
  0.6532550902413365  0.2723863990846560  0.8944874790682188
  0.6596575709758352  0.7721013948174036  0.3986967425190514
  0.6592380557916592  0.7715807000422620  0.8973856866707676
  0.8468012211207829  0.2291666834965883  0.1503483651423564
  0.8421233925638202  0.2276036358082258  0.6501118107730319
  0.8412164767685936  0.7289153620811788  0.1482015763168325
  0.8421608662194373  0.7288382473262425  0.6480658842261046
  0.3398741413798209  0.0126961170178010  0.1061983721917089
  0.3415376556622041  0.0213433669307119  0.6018119212174700
  0.3323460002050400  0.5336639418208513  0.0964031240496488
  0.3412764838293855  0.5229964171806070  0.6007759838556160
  0.5444791746268307  0.1214319923031250  0.0984559890974892
  0.5500997348808273  0.1250062996996319  0.6017952634644412
  0.5484372381275565  0.6270549019237338  0.0988332957089704
  0.5498488226717267  0.6267578750779936  0.6032812034332649
  0.0517557697461073  0.1232184631512586  0.1484030413678956
  0.0509960071017733  0.1244237487038493  0.6488713521334245
  0.0493956849766732  0.6247950096464082  0.1495340927109986
  0.0515466148943383  0.6258957780050266  0.6491011500652492
  0.4520702237465530  0.3761000678479354  0.4034156668349351
  0.4462820052393195  0.3753951241445244  0.8786559188215461
  0.4508026759366617  0.8748217813716720  0.3986854200205655
  0.4507501332987013  0.8751705659124212  0.8974736440637555
  0.9493423629949095  0.3753845247950000  0.3518625145348327
  0.9481109097354888  0.3751159002967311  0.8511128488529922
  0.9496018518860224  0.8748641614060276  0.3520088405319170
  0.9498437023889095  0.8749656314869478  0.8508424891796851
  0.5942808983917381  0.3814354730441737  0.1976628080782567
  0.5963503448115086  0.3763294273797260  0.6827262355549812
  0.5915308775400516  0.8756051234645446  0.1906096098877269
  0.5905144110504535  0.8755029128163110  0.6896890540104598
  0.0866618030136369  0.3750775271604108  0.0595607209740134
  0.0892594063323592  0.3750441225182912  0.5599029703489391
  0.0875373412415157  0.8745183996337632  0.0602604046619701
  0.0893086654858421  0.8746138995913562  0.5605473381271107
  0.4092015072296168  0.1231635857405785  0.3092599811043389
  0.4097871102154412  0.1248628512146138  0.8097156413680849
  0.4119293012427487  0.6255622601114966  0.3091212545133555
  0.4087455298850466  0.6253530626977435  0.8102555097044142
  0.9107378619157934  0.1255159686459840  0.4408614434265119
  0.9105496935281367  0.1248650418153018  0.9410877676110889
  0.9115557998394096  0.6250324875388154  0.4408693539741975
  0.9104879530367412  0.6252055401827615  0.9405588220318347
 
             NaN             NaN             NaN
             NaN             NaN             NaN
             NaN             NaN             NaN
             NaN             NaN             NaN
             NaN             NaN             NaN
             NaN             NaN             NaN
             NaN             NaN             NaN
             NaN             NaN             NaN
             NaN             NaN             NaN
             NaN             NaN             NaN
             NaN             NaN             NaN
             NaN             NaN             NaN
             NaN             NaN             NaN
             NaN             NaN             NaN
             NaN             NaN             NaN
             NaN             NaN             NaN
             NaN             NaN             NaN
             NaN             NaN             NaN
             NaN             NaN             NaN
             NaN             NaN             NaN
             NaN             NaN             NaN
             NaN             NaN             NaN
             NaN             NaN             NaN
             NaN             NaN             NaN
             NaN             NaN             NaN
             NaN             NaN             NaN
             NaN             NaN             NaN
             NaN             NaN             NaN
             NaN             NaN             NaN
             NaN             NaN             NaN
             NaN             NaN             NaN
             NaN             NaN             NaN
             NaN             NaN             NaN
             NaN             NaN             NaN
             NaN             NaN             NaN
             NaN             NaN             NaN
             NaN             NaN             NaN
             NaN             NaN             NaN
             NaN             NaN             NaN
             NaN             NaN             NaN
             NaN             NaN             NaN
             NaN             NaN             NaN
             NaN             NaN             NaN
             NaN             NaN             NaN
             NaN             NaN             NaN
             NaN             NaN             NaN
             NaN             NaN             NaN
             NaN             NaN             NaN
             NaN             NaN             NaN
             NaN             NaN             NaN
             NaN             NaN             NaN
             NaN             NaN             NaN
             NaN             NaN             NaN
             NaN             NaN             NaN
             NaN             NaN             NaN
             NaN             NaN             NaN
             NaN             NaN             NaN
             NaN             NaN             NaN
             NaN             NaN             NaN
             NaN             NaN             NaN
             NaN             NaN             NaN
             NaN             NaN             NaN
             NaN             NaN             NaN
             NaN             NaN             NaN
             NaN             NaN             NaN
             NaN             NaN             NaN
             NaN             NaN             NaN
             NaN             NaN             NaN
             NaN             NaN             NaN
             NaN             NaN             NaN
             NaN             NaN             NaN
             NaN             NaN             NaN
             NaN             NaN             NaN
             NaN             NaN             NaN
             NaN             NaN             NaN
             NaN             NaN             NaN
             NaN             NaN             NaN
             NaN             NaN             NaN
             NaN             NaN             NaN
             NaN             NaN             NaN
             NaN             NaN             NaN
             NaN             NaN             NaN
             NaN             NaN             NaN
             NaN             NaN             NaN
             NaN             NaN             NaN
             NaN             NaN             NaN
             NaN             NaN             NaN
             NaN             NaN             NaN
             NaN             NaN             NaN
             NaN             NaN             NaN
             NaN             NaN             NaN
             NaN             NaN             NaN
             NaN             NaN             NaN
             NaN             NaN             NaN
             NaN             NaN             NaN
             NaN             NaN             NaN
             NaN             NaN             NaN
             NaN             NaN             NaN
             NaN             NaN             NaN
             NaN             NaN             NaN
             NaN             NaN             NaN
             NaN             NaN             NaN
             NaN             NaN             NaN
             NaN             NaN             NaN
             NaN             NaN             NaN
             NaN             NaN             NaN
             NaN             NaN             NaN
             NaN             NaN             NaN
             NaN             NaN             NaN
             NaN             NaN             NaN
             NaN             NaN             NaN
             NaN             NaN             NaN
             NaN             NaN             NaN
             NaN             NaN             NaN
             NaN             NaN             NaN
             NaN             NaN             NaN
             NaN             NaN             NaN
             NaN             NaN             NaN
             NaN             NaN             NaN
             NaN             NaN             NaN
             NaN             NaN             NaN
             NaN             NaN             NaN
             NaN             NaN             NaN
             NaN             NaN             NaN
             NaN             NaN             NaN
             NaN             NaN             NaN
             NaN             NaN             NaN
