Na15 V32 O64                            
   1.00000000000000     
     9.2151910000000008    0.0001090000000000   -0.0022450000000000
     0.0001370000000000   11.5238379999999996    0.0000450000000000
    -0.0026040000000000    0.0000420000000000   10.7092399999999994
   Na   V    O 
    15    32    64
Direct
  0.7380019178980929  0.3838940390526427  0.1652280551065238
  0.7418104182985477  0.0718655504090451  0.1516790613505055
  0.7412609970311095  0.7974728251653492  0.1526307068351328
  0.2415549729213296  0.0624061319772019  0.3481520471048394
  0.2417163275165303  0.3131429352248957  0.3480548887325092
  0.2421791071499497  0.5621416886615412  0.3477494896182333
  0.2417578218483981  0.8125074847576238  0.3484939272069221
  0.2582512450387963  0.1870849881547197  0.8486597949945006
  0.2590893353954029  0.4375300027208719  0.8477808102053348
  0.2584236627369054  0.6881914989865042  0.8482065513377604
  0.2582387904778144  0.9375985225604331  0.8489700603561993
  0.7585071020665655  0.1876582359403189  0.6508660162823828
  0.7577749951374853  0.4373225098660111  0.6508903289942083
  0.7583795124291547  0.6878687086428069  0.6508241487818530
  0.7584462889509007  0.9372482249058844  0.6510107038043579
  0.5868797829916838  0.0623029948314734  0.8965413318212870
  0.5871775002678392  0.3119358263781749  0.8952686750431011
  0.5892360911762152  0.5642063417212123  0.8973564593371868
  0.5864514262923192  0.8130694620146257  0.8956290519652647
  0.0859927209075960  0.0621162275008430  0.6034302614834637
  0.0884779088220446  0.3118183526363812  0.6040456607988390
  0.0875811574217076  0.5633031764895983  0.6040173927356329
  0.0874747621119356  0.8130019636565958  0.6035387038084284
  0.4149080061834413  0.1885139572814443  0.1039449065227976
  0.4096278440129684  0.4386536440070743  0.1025627989560264
  0.4136115619085761  0.6867916217342248  0.1036970084559991
  0.4141253807987324  0.9374978184096158  0.1043437752225612
  0.9125088495982286  0.1881467340586297  0.3956587085234303
  0.9145390237692057  0.4385339894085764  0.3987436553523611
  0.9126014614172616  0.6872136243065921  0.3957352802367763
  0.9122293357043225  0.9374244697331203  0.3952709032556930
  0.5613544248414466  0.0633269575414959  0.3851463666440839
  0.5600644583945494  0.3113304316082334  0.3864157293750053
  0.5632485577198140  0.5639560448126338  0.3817355920380651
  0.5602848182148519  0.8116314686801982  0.3860298802432856
  0.0612526187698321  0.0635372685818156  0.1147161115500313
  0.0596264689241024  0.3102012652521037  0.1143868592467405
  0.0557864671545485  0.5654115403322549  0.1154030148116439
  0.0616280113792134  0.8122036293939149  0.1147143594126331
  0.4384865185938517  0.1856308878795732  0.6151898504597382
  0.4402893056343500  0.4396468431223688  0.6144155336421826
  0.4393201021985989  0.6857794071337766  0.6145006504076626
  0.4386034529860798  0.9390931816833186  0.6147589210446806
  0.9385690682463482  0.1875178007116511  0.8847719968182063
  0.9408033496551297  0.4380051200406700  0.8839149393982582
  0.9390928543367940  0.6878255796179558  0.8846092830490353
  0.9390374371491145  0.9376519361482291  0.8858612257489928
  0.7929892295030534  0.0625309253591778  0.8530096978862379
  0.7935955454390801  0.3130274256387185  0.8520550375393497
  0.7941653561837032  0.5625499430291145  0.8514697224779477
  0.7929856044049119  0.8128249053964235  0.8527047732259757
  0.2917523644144245  0.0623075194627535  0.6474762418809963
  0.2946283407212667  0.3125304033631506  0.6460667677795243
  0.2929988975731670  0.5625783759891512  0.6473389229912188
  0.2940204486783725  0.8127654797720911  0.6460369821069752
  0.2078653428382270  0.1877880009141128  0.1479413917109164
  0.2045768552548952  0.4376265400990850  0.1459354616989847
  0.2068547360373831  0.6877167914892772  0.1474006161123715
  0.2068310893573884  0.9378168081734463  0.1467209129751378
  0.7066867268462376  0.1873863639876805  0.3568536317127923
  0.7063519991149515  0.4373915334207180  0.3650011179445973
  0.7070031358885949  0.6893604924331984  0.3581080219599114
  0.7058260941526647  0.9374724368746823  0.3551981421590047
  0.8888660418151094  0.0624609263101275  0.5196184657044922
  0.8905496550015551  0.3123296548468572  0.5212242028605996
  0.8901689647063256  0.5632263858551726  0.5216759483602039
  0.8894793137759126  0.8127845640074371  0.5198724803784429
  0.3887899969893691  0.0624788677526561  0.9806319053647682
  0.3867766135336402  0.3121105476909753  0.9796353764046302
  0.3861141519522180  0.5635669161345087  0.9792030293909736
  0.3882159432471813  0.8131929866628657  0.9802208892326354
  0.1117191533767434  0.1873202397439063  0.4794343224633241
  0.1127730594996271  0.4376065933474311  0.4803414541977945
  0.1120731371027979  0.6879051342227619  0.4797378121743275
  0.1113225020214112  0.9375928223907476  0.4791608183497229
  0.6103634834157794  0.1885472125190070  0.0184654804707700
  0.6046223433266265  0.4386302493408317  0.0132802235311100
  0.6087261613789655  0.6878838434929166  0.0172374047398819
  0.6119668435406642  0.9373958013885465  0.0206088804157855
  0.9787746933118876  0.0631906063355036  0.2823595804933476
  0.9772817633881773  0.3138088338521707  0.2826548026618336
  0.9798410148414751  0.5622558201865774  0.2842784591095139
  0.9790161305444900  0.8121696059470228  0.2822936699096221
  0.4804711707543562  0.0631414768034634  0.2173491929325190
  0.4807930859333084  0.3147173251398029  0.2165075293896915
  0.4775681986207637  0.5615163347923707  0.2166722611465542
  0.4797255205615967  0.8120302817636178  0.2174408564584344
  0.0206116377471656  0.1872674705486847  0.7166958961041534
  0.0217725630617407  0.4373483984953848  0.7163612588649668
  0.0209938255841180  0.6882395162180696  0.7166379841688784
  0.0204093936371106  0.9375060967148866  0.7170927783318860
  0.5199079047227309  0.1868731416084572  0.7825231958298032
  0.5208593662901506  0.4380984175049812  0.7817817373553725
  0.5205924796616637  0.6875758282256695  0.7821024421865813
  0.5194866025122761  0.9381926055411202  0.7829444046162219
  0.5796345612189739  0.0624859688691511  0.5708492855517857
  0.5765757975404054  0.3115713714251718  0.5719584915868466
  0.5798719894043244  0.5633685485173058  0.5696255471707249
  0.5767401081175253  0.8127687459704930  0.5718037212698206
  0.0789274193430775  0.0625920542262114  0.9290818316712874
  0.0793520758420541  0.3115398271835818  0.9275155088949484
  0.0791450243651370  0.5637859365165727  0.9275042611339219
  0.0792472769888501  0.8131399053381366  0.9286660558490062
  0.4200413574753512  0.1870728851806467  0.4293281662370838
  0.4229296846134741  0.4379402446673377  0.4290898354453237
  0.4209293851015774  0.6871703834011029  0.4290236630308524
  0.4217017154528088  0.9379745588849040  0.4292040142095739
  0.9217513731189351  0.1881005515873421  0.0688292671593032
  0.9298195422293405  0.4381140014743331  0.0668337802959180
  0.9232183573024341  0.6884015630100955  0.0680023134846918
  0.9221250981044911  0.9376228602868810  0.0709420021878244
 
             NaN             NaN             NaN
             NaN             NaN             NaN
             NaN             NaN             NaN
             NaN             NaN             NaN
             NaN             NaN             NaN
             NaN             NaN             NaN
             NaN             NaN             NaN
             NaN             NaN             NaN
             NaN             NaN             NaN
             NaN             NaN             NaN
             NaN             NaN             NaN
             NaN             NaN             NaN
             NaN             NaN             NaN
             NaN             NaN             NaN
             NaN             NaN             NaN
             NaN             NaN             NaN
             NaN             NaN             NaN
             NaN             NaN             NaN
             NaN             NaN             NaN
             NaN             NaN             NaN
             NaN             NaN             NaN
             NaN             NaN             NaN
             NaN             NaN             NaN
             NaN             NaN             NaN
             NaN             NaN             NaN
             NaN             NaN             NaN
             NaN             NaN             NaN
             NaN             NaN             NaN
             NaN             NaN             NaN
             NaN             NaN             NaN
             NaN             NaN             NaN
             NaN             NaN             NaN
             NaN             NaN             NaN
             NaN             NaN             NaN
             NaN             NaN             NaN
             NaN             NaN             NaN
             NaN             NaN             NaN
             NaN             NaN             NaN
             NaN             NaN             NaN
             NaN             NaN             NaN
             NaN             NaN             NaN
             NaN             NaN             NaN
             NaN             NaN             NaN
             NaN             NaN             NaN
             NaN             NaN             NaN
             NaN             NaN             NaN
             NaN             NaN             NaN
             NaN             NaN             NaN
             NaN             NaN             NaN
             NaN             NaN             NaN
             NaN             NaN             NaN
             NaN             NaN             NaN
             NaN             NaN             NaN
             NaN             NaN             NaN
             NaN             NaN             NaN
             NaN             NaN             NaN
             NaN             NaN             NaN
             NaN             NaN             NaN
             NaN             NaN             NaN
             NaN             NaN             NaN
             NaN             NaN             NaN
             NaN             NaN             NaN
             NaN             NaN             NaN
             NaN             NaN             NaN
             NaN             NaN             NaN
             NaN             NaN             NaN
             NaN             NaN             NaN
             NaN             NaN             NaN
             NaN             NaN             NaN
             NaN             NaN             NaN
             NaN             NaN             NaN
             NaN             NaN             NaN
             NaN             NaN             NaN
             NaN             NaN             NaN
             NaN             NaN             NaN
             NaN             NaN             NaN
             NaN             NaN             NaN
             NaN             NaN             NaN
             NaN             NaN             NaN
             NaN             NaN             NaN
             NaN             NaN             NaN
             NaN             NaN             NaN
             NaN             NaN             NaN
             NaN             NaN             NaN
             NaN             NaN             NaN
             NaN             NaN             NaN
             NaN             NaN             NaN
             NaN             NaN             NaN
             NaN             NaN             NaN
             NaN             NaN             NaN
             NaN             NaN             NaN
             NaN             NaN             NaN
             NaN             NaN             NaN
             NaN             NaN             NaN
             NaN             NaN             NaN
             NaN             NaN             NaN
             NaN             NaN             NaN
             NaN             NaN             NaN
             NaN             NaN             NaN
             NaN             NaN             NaN
             NaN             NaN             NaN
             NaN             NaN             NaN
             NaN             NaN             NaN
             NaN             NaN             NaN
             NaN             NaN             NaN
             NaN             NaN             NaN
             NaN             NaN             NaN
             NaN             NaN             NaN
             NaN             NaN             NaN
             NaN             NaN             NaN
             NaN             NaN             NaN
