Na15 V32 O64
1.0
9.215191 0.000109 -0.002245
0.000137 11.523838 0.000045
-0.002604 0.000042 10.709240
Na V O
15 32 64
direct
0.740829 0.385286 0.153827 Na
0.741724 0.067717 0.151683 Na
0.741109 0.797074 0.153030 Na
0.241624 0.062651 0.348341 Na
0.241913 0.312822 0.348546 Na
0.242087 0.562476 0.347869 Na
0.241797 0.812383 0.348761 Na
0.258312 0.187264 0.848888 Na
0.258663 0.437388 0.848249 Na
0.258522 0.687534 0.848516 Na
0.258280 0.937536 0.848919 Na
0.758325 0.187685 0.650955 Na
0.758360 0.437237 0.651050 Na
0.758324 0.687583 0.650950 Na
0.758382 0.937193 0.651018 Na
0.586773 0.062578 0.896470 V
0.587133 0.312712 0.896316 V
0.589198 0.562408 0.898671 V
0.586264 0.812317 0.895569 V
0.086137 0.062497 0.603804 V
0.087802 0.312439 0.603867 V
0.086871 0.562532 0.603740 V
0.087616 0.812577 0.603858 V
0.413738 0.188108 0.104021 V
0.412114 0.438030 0.103602 V
0.412694 0.686589 0.103795 V
0.414284 0.937255 0.104138 V
0.912756 0.188013 0.395714 V
0.912608 0.437744 0.396039 V
0.912662 0.687044 0.395889 V
0.912687 0.937250 0.395680 V
0.561376 0.062696 0.385238 V
0.561017 0.312702 0.384894 V
0.563452 0.562474 0.381564 V
0.560323 0.812213 0.386135 V
0.060846 0.062384 0.114704 V
0.059574 0.312228 0.114970 V
0.055385 0.562616 0.115550 V
0.061428 0.812722 0.114714 V
0.438993 0.186412 0.614771 V
0.440293 0.439187 0.614296 V
0.439899 0.685520 0.614453 V
0.438649 0.938858 0.614859 V
0.938926 0.187734 0.885420 V
0.939719 0.437533 0.885128 V
0.939365 0.687412 0.885174 V
0.938779 0.937287 0.885520 V
0.793129 0.062520 0.853467 O
0.793354 0.312507 0.852813 O
0.794027 0.562488 0.852635 O
0.793000 0.812445 0.853071 O
0.292225 0.062526 0.647265 O
0.294444 0.312516 0.645897 O
0.293099 0.562500 0.647014 O
0.294185 0.812477 0.645928 O
0.206713 0.187335 0.146546 O
0.205299 0.437483 0.145972 O
0.205820 0.687572 0.146149 O
0.207196 0.937620 0.146923 O
0.706548 0.187237 0.355839 O
0.706671 0.436472 0.358526 O
0.706679 0.688932 0.357596 O
0.706358 0.937338 0.355065 O
0.889143 0.062516 0.519498 O
0.889782 0.312447 0.520048 O
0.889526 0.562526 0.520150 O
0.889644 0.812542 0.519819 O
0.388933 0.062429 0.980709 O
0.387827 0.312242 0.980083 O
0.387380 0.562571 0.979873 O
0.388303 0.812728 0.980368 O
0.111394 0.187474 0.480030 O
0.111716 0.437470 0.480237 O
0.111583 0.687577 0.480157 O
0.111286 0.937550 0.479963 O
0.610516 0.188231 0.019188 O
0.607773 0.437477 0.017019 O
0.608656 0.687269 0.017703 O
0.611407 0.936995 0.019931 O
0.979004 0.062628 0.282635 O
0.979523 0.312754 0.283054 O
0.980186 0.562451 0.284135 O
0.979149 0.812231 0.282570 O
0.480059 0.062750 0.217318 O
0.478172 0.312968 0.217398 O
0.476517 0.562356 0.217311 O
0.479388 0.811940 0.217405 O
0.020592 0.187500 0.716966 O
0.021136 0.437234 0.716831 O
0.020906 0.687839 0.716833 O
0.020423 0.937406 0.716994 O
0.520091 0.187011 0.782833 O
0.521291 0.437865 0.782433 O
0.520864 0.687192 0.782563 O
0.519685 0.938002 0.782955 O
0.579470 0.062466 0.570933 O
0.577146 0.312209 0.571369 O
0.580118 0.562608 0.569651 O
0.576923 0.812742 0.571811 O
0.078234 0.062315 0.929199 O
0.078795 0.312001 0.928560 O
0.078308 0.562675 0.928385 O
0.078796 0.812936 0.928808 O
0.421724 0.187189 0.429510 O
0.422769 0.437878 0.429244 O
0.422349 0.687134 0.429360 O
0.421589 0.937892 0.429525 O
0.922526 0.187819 0.069998 O
0.925170 0.437175 0.068477 O
0.924241 0.687807 0.068957 O
0.921667 0.937119 0.070502 O
