Na47 P16 S64                            
   1.00000000000000     
    13.9350349999999992   -0.0053110000000000    0.0000100000000000
    -0.0053430000000000   13.9422669999999993    0.0001520000000000
     0.0000350000000000    0.0001190000000000   14.2940640000000005
   Na   P    S 
    47    16    64
Direct
  0.5681600827913053  0.7495856133281786  0.7342752417337131
  0.9997937196842842  0.2509170167929317  0.2065392472869090
  0.9990013379430056  0.2504001885539445  0.7058660012502099
  0.9990210821442146  0.7509440215412376  0.2121558737567251
  0.9772447410378806  0.7529925906859360  0.7188530187646159
  0.5001693875854001  0.2490853742926824  0.2072101466383612
  0.5010750146033554  0.2498108371987603  0.7065832948415486
  0.5008283156126390  0.7491169041625314  0.2120473564712504
  0.2489463916658270  0.9995564194119517  0.2917591936270336
  0.2489756401092460  0.9986151339533187  0.7918522040455992
  0.2514231474350265  0.5004101166353989  0.2942970357672827
  0.2504810449273113  0.5019157009019651  0.7940219798865212
  0.7486468575067772  0.9989965209068864  0.2902827515389992
  0.7474106258632567  0.9770471125317217  0.7832215486721265
  0.7509636053021133  0.5010741248810422  0.2876610881082559
  0.7547463152085089  0.5227518261165985  0.7811306228235305
  0.2528260552546598  0.9992408354499759  0.0417036200436953
  0.2436523352338379  0.9986666602203266  0.5424570958569302
  0.2470224616068972  0.4999857272818444  0.0446915129574136
  0.2559948470874130  0.5034562571727981  0.5458447288715733
  0.7526438781177514  0.0002859807865966  0.0379306090011188
  0.7445869057050689  0.9994324746292298  0.5380467165659543
  0.7467319902414803  0.5004857350794426  0.0350064548278908
  0.7575740470280511  0.4987599111576769  0.5351659296155785
  0.9997428589537287  0.2478990391878236  0.4559437699252067
  0.9980722342756814  0.2543039977654050  0.9550027520406622
  1.0002344708422244  0.7476688325724454  0.4650185955226891
  1.0000301114112644  0.7549357057304510  0.9631617997680532
  0.5003174244635005  0.2521548598821035  0.4567806240736954
  0.5017843429289405  0.2457200454198667  0.9555539749969129
  0.4999379704125131  0.7521478421980075  0.4694660411433023
  0.4987441698758275  0.7446386226449846  0.9633105589082878
  0.9930074823605616  0.9971274768895136  0.5018144668633800
  0.0043501324432944  0.0103310078184395  0.0011301964183179
  0.0113212778671693  0.4950199581579908  0.4988035961187582
  0.9964557678145120  0.5032825513648135  0.9980588340289538
  0.4891979270296977  0.0040884210075200  0.4982633547499673
  0.5052322594002414  0.9953235400477862  0.9984281527025373
  0.5057015760330396  0.5038960103475991  0.5020028690943339
  0.4926824294913312  0.4905993025644783  0.0025302294579917
  0.2494210764427095  0.2506865228365846  0.2499289296231278
  0.2495510496569389  0.2512385532839793  0.7499838838913298
  0.2506186909685557  0.7492553446995899  0.2507032892667767
  0.2677390979951956  0.7491057596477935  0.7488925487523377
  0.7506211954757631  0.2493273509653026  0.2491410580172252
  0.7505153794337347  0.2486819882836928  0.7505351995784499
  0.7492234030007433  0.7507499751193589  0.2495490104927181
  0.9994358152201563  0.0010427552792552  0.2499174846882191
  0.9992916035210551  0.0030761029250450  0.7524370962138732
  0.0010999294121370  0.5000379128121369  0.2498316340308244
  0.0028643636836821  0.4995211874798145  0.7475023348984922
  0.4991782072889753  0.9997678895342963  0.2498701255103514
  0.4973833426250082  1.0006850061092576  0.7474228980968981
  0.5001901404660495  0.4991694241977444  0.2503272483996482
  0.5006803055574851  0.4974661493950482  0.7530109178323628
  0.2498985990585056  0.2500635634634376  0.0002138704469098
  0.2498443736161230  0.2505999252401877  0.4995739270902561
  0.2501847910728718  0.7490442126157718  0.0012658222689619
  0.2496948408207404  0.7513332044576059  0.4996705699308201
  0.7500698128312081  0.2497314368955460  0.9997111149226817
  0.7501788422393663  0.2495396567106983  0.4987213772570945
  0.7494471880462641  0.7497955255229451  0.0016805138534629
  0.7511764796154466  0.7492366436906096  0.4963222883635994
  0.1546689534317717  0.1739059210276127  0.0827917013625278
  0.1542708797755620  0.1749585683219139  0.5818128053194588
  0.1534600509306050  0.6755462515730637  0.0842838948719927
  0.1562988311903826  0.6760886803984150  0.5841609685803714
  0.6553673638990551  0.1732587731100518  0.0830411202915520
  0.6539969787714416  0.1753290245915101  0.5811932728307305
  0.6551181863879233  0.6733034263149984  0.0851622539990519
  0.6572289920558408  0.6682544657174845  0.5749549837533261
  0.3455107554181046  0.3254882014624461  0.0829953026053442
  0.3456831163210264  0.3258129278870184  0.5818621775373850
  0.3460479107737787  0.8243911153937264  0.0837722173276020
  0.3446192636907572  0.8283833983151752  0.5803304106184276
  0.8444796329812431  0.3271321286197960  0.0825477514339141
  0.8462883346482991  0.3242250842474625  0.5810898593666463
  0.8433984567371731  0.8273667935477789  0.0848495891501224
  0.8445696604058835  0.8276653992957851  0.5774706608253493
  0.1741756347449403  0.3462263151038719  0.4172410615197376
  0.1742741147930809  0.3460302133300455  0.9185448874188253
  0.1717267944856764  0.8437980938186956  0.4154625919059574
  0.1766203220756520  0.8437275520029398  0.9168371652841258
  0.6759007253677115  0.3454081125665874  0.4155099309150715
  0.6748963258050981  0.3442447529978706  0.9167590009375518
  0.6726208724799115  0.8435514447316035  0.4145968447130809
  0.6701994878534864  0.8442323518931675  0.9212039366074350
  0.3251896411108154  0.1551688638393632  0.4166854755060491
  0.3251170712662084  0.1549169674930324  0.9174229129052156
  0.3269799899093616  0.6561058386305930  0.4174510188619215
  0.3254031920656992  0.6515435811594862  0.9208347911143875
  0.8248596973176127  0.1531096095364035  0.4163938861402312
  0.8256742150920496  0.1542537030012170  0.9178373699665717
  0.8287321386826403  0.6566005098398139  0.4119158648148994
  0.8283228291582126  0.6557587343773312  0.9218469175030494
  0.0960184933256714  0.4239721504825871  0.1670966647476989
  0.1017549280750059  0.4217744759224524  0.6704557989071321
  0.0944074670635570  0.9256155643144418  0.1665919573749817
  0.0906463210369371  0.9230574227392587  0.6697514135607543
  0.5947888922929891  0.4233324672434496  0.1670106350155857
  0.5970310651507742  0.4251717048948640  0.6687898701194964
  0.5949878053103401  0.9242318667403671  0.1680053789209152
  0.5885546694553635  0.9289429669975044  0.6577260258855958
  0.4048005289224935  0.0752303638576832  0.1661503486835239
  0.3988680234997337  0.0783803338900105  0.6701650642974090
  0.4042789375532789  0.5747450363568022  0.1681698230799871
  0.4114383818908364  0.5814193473391036  0.6721613511325794
  0.9042543988446785  0.0773318247317828  0.1677357198375825
  0.9014292696272352  0.0753960232029090  0.6697053958451089
  0.9063436758858699  0.5753970763504892  0.1668091575017933
  0.9128206449866350  0.5729873836674743  0.6583337595213622
  0.0755957117005350  0.0955463134503093  0.3331142505557708
  0.0779992919468121  0.1013253764513040  0.8293940315134558
  0.0771584919306267  0.5951107366849319  0.3324445947940634
  0.0744202545940743  0.5960813351692784  0.8318383726391595
  0.5743475139140194  0.0952765200251269  0.3328752297372272
  0.5779701747386915  0.0927277136344281  0.8293165680281465
  0.5758977404450296  0.5943602176123246  0.3324945571375748
  0.5756001302198078  0.5837005664634829  0.8453202984270078
  0.4248645769663374  0.4041969475909072  0.3336008421025103
  0.4211462344685119  0.3990820499242130  0.8290310621647989
  0.4230761140296005  0.9047341598660062  0.3323602239591774
  0.4260616752640807  0.9033366173902451  0.8311310050242904
  0.9251331662060137  0.4049740366129097  0.3325908411639263
  0.9217391738305092  0.4070647636868031  0.8285466226253900
  0.9240508700842638  0.9057151635330669  0.3322760686744784
  0.9269656598604240  0.9121623402587142  0.8416681340644693
 
             NaN             NaN             NaN
             NaN             NaN             NaN
             NaN             NaN             NaN
             NaN             NaN             NaN
             NaN             NaN             NaN
             NaN             NaN             NaN
             NaN             NaN             NaN
             NaN             NaN             NaN
             NaN             NaN             NaN
             NaN             NaN             NaN
             NaN             NaN             NaN
             NaN             NaN             NaN
             NaN             NaN             NaN
             NaN             NaN             NaN
             NaN             NaN             NaN
             NaN             NaN             NaN
             NaN             NaN             NaN
             NaN             NaN             NaN
             NaN             NaN             NaN
             NaN             NaN             NaN
             NaN             NaN             NaN
             NaN             NaN             NaN
             NaN             NaN             NaN
             NaN             NaN             NaN
             NaN             NaN             NaN
             NaN             NaN             NaN
             NaN             NaN             NaN
             NaN             NaN             NaN
             NaN             NaN             NaN
             NaN             NaN             NaN
             NaN             NaN             NaN
             NaN             NaN             NaN
             NaN             NaN             NaN
             NaN             NaN             NaN
             NaN             NaN             NaN
             NaN             NaN             NaN
             NaN             NaN             NaN
             NaN             NaN             NaN
             NaN             NaN             NaN
             NaN             NaN             NaN
             NaN             NaN             NaN
             NaN             NaN             NaN
             NaN             NaN             NaN
             NaN             NaN             NaN
             NaN             NaN             NaN
             NaN             NaN             NaN
             NaN             NaN             NaN
             NaN             NaN             NaN
             NaN             NaN             NaN
             NaN             NaN             NaN
             NaN             NaN             NaN
             NaN             NaN             NaN
             NaN             NaN             NaN
             NaN             NaN             NaN
             NaN             NaN             NaN
             NaN             NaN             NaN
             NaN             NaN             NaN
             NaN             NaN             NaN
             NaN             NaN             NaN
             NaN             NaN             NaN
             NaN             NaN             NaN
             NaN             NaN             NaN
             NaN             NaN             NaN
             NaN             NaN             NaN
             NaN             NaN             NaN
             NaN             NaN             NaN
             NaN             NaN             NaN
             NaN             NaN             NaN
             NaN             NaN             NaN
             NaN             NaN             NaN
             NaN             NaN             NaN
             NaN             NaN             NaN
             NaN             NaN             NaN
             NaN             NaN             NaN
             NaN             NaN             NaN
             NaN             NaN             NaN
             NaN             NaN             NaN
             NaN             NaN             NaN
             NaN             NaN             NaN
             NaN             NaN             NaN
             NaN             NaN             NaN
             NaN             NaN             NaN
             NaN             NaN             NaN
             NaN             NaN             NaN
             NaN             NaN             NaN
             NaN             NaN             NaN
             NaN             NaN             NaN
             NaN             NaN             NaN
             NaN             NaN             NaN
             NaN             NaN             NaN
             NaN             NaN             NaN
             NaN             NaN             NaN
             NaN             NaN             NaN
             NaN             NaN             NaN
             NaN             NaN             NaN
             NaN             NaN             NaN
             NaN             NaN             NaN
             NaN             NaN             NaN
             NaN             NaN             NaN
             NaN             NaN             NaN
             NaN             NaN             NaN
             NaN             NaN             NaN
             NaN             NaN             NaN
             NaN             NaN             NaN
             NaN             NaN             NaN
             NaN             NaN             NaN
             NaN             NaN             NaN
             NaN             NaN             NaN
             NaN             NaN             NaN
             NaN             NaN             NaN
             NaN             NaN             NaN
             NaN             NaN             NaN
             NaN             NaN             NaN
             NaN             NaN             NaN
             NaN             NaN             NaN
             NaN             NaN             NaN
             NaN             NaN             NaN
             NaN             NaN             NaN
             NaN             NaN             NaN
             NaN             NaN             NaN
             NaN             NaN             NaN
             NaN             NaN             NaN
             NaN             NaN             NaN
             NaN             NaN             NaN
             NaN             NaN             NaN
             NaN             NaN             NaN
             NaN             NaN             NaN
