Li48 P16 O64                            
   1.00000000000000     
    10.4286673485263162   -0.0000003291675417   -0.0155484360695390
    -0.0000000861834693   12.2548883281943439   -0.0000006378202159
    -0.0147156287308508   -0.0000005343971483    9.8298183914317665
   Li   P    O 
    47    16    64
Direct
  0.6546221955705316  0.2534491993438518  0.0972536301162562
  0.6666334386484020  0.2491449056867337  0.5977079590230452
  0.6632648851760460  0.7500463782580049  0.0976324496200948
  0.6643293392565451  0.7506106281799082  0.5984621581287870
  0.1648327039887010  0.4972707112345625  0.1510354885182170
  0.1653892740107081  0.4983681993503999  0.6524156291712385
  0.1644841937770568  0.9986284872582220  0.1519008413954175
  0.1652603922675396  0.9986556014176289  0.6526002089488023
  0.3370371309388109  0.0007775482975291  0.4004140138072507
  0.3364403032338195  0.0009801152310062  0.9051851233352713
  0.3397990389111584  0.4982626588112423  0.3971507974907922
  0.3382048791762953  0.4961525197490071  0.9096412370094968
  0.8353065489060214  0.2490149929468180  0.3471072290044376
  0.8332317144806530  0.2491234948704949  0.8493865078536165
  0.8365936794831355  0.7483551593834132  0.3479259437070248
  0.8364205368736147  0.7487293303582958  0.8474648632661161
  0.3397989963590499  0.2517372509226577  0.3971508058472064
  0.3382048791875386  0.2538472666060627  0.9096411731792530
  0.3370371150088194  0.7492222779060257  0.4004140090778298
  0.3364403325269039  0.7490195923219182  0.9051851576529656
  0.8365936212903712  0.0016448516705741  0.3479257432348170
  0.8364204205039045  0.0012707895982669  0.8474651279973786
  0.8353065992459714  0.5009851188389426  0.3471072540645281
  0.8332319360347432  0.5008764354167798  0.8493866392686099
  0.6546226549549149  0.4965509466077973  0.0972534255153186
  0.6666336571829619  0.5008551077622467  0.5977083391412912
  0.6632644297601686  0.9999534896948384  0.0976323714510082
  0.6643291559901428  0.9993896598860640  0.5984621280656068
  0.1648325068040950  0.2527292626891114  0.1510355815345264
  0.1653892003048123  0.2516321336367349  0.6524158359076655
  0.1644843752426228  0.7513717015946175  0.1519007693137317
  0.1652604816327840  0.7513447105014610  0.6526002942409621
  0.9187177151484318  0.3749999566715294  0.1478099975044865
  0.9216999378855020  0.3750001097751918  0.6493329929752242
  0.9221671165565832  0.8749999583821485  0.1492677015342891
  0.9239572796410844  0.8750001150051874  0.6485119629844251
  0.4277085289407696  0.3749999875554929  0.6078896733959682
  0.4282131656735965  0.8749997774542837  0.1016486634217096
  0.4245040109413054  0.8749999753393323  0.6004358086939913
  0.0778447379659785  0.1259510390351971  0.3504983675588671
  0.0777556767016260  0.1260266916882727  0.8524134370946377
  0.0778446576395852  0.6240490382142172  0.3504979499123355
  0.0777557910444669  0.6239735632978844  0.8524134905434828
  0.5762415109818914  0.1266780709145754  0.3995992577804641
  0.5734831918027947  0.1261851535604851  0.8993576134855675
  0.5762417547870964  0.6233219345946218  0.3995996462652278
  0.5734831301312527  0.6238147679283841  0.8993574301614592
  0.9107140344811254  0.1248426570416156  0.0953383917944724
  0.9137910659878925  0.1243589675185752  0.5954554285936033
  0.9107144364362872  0.6251570943916395  0.0953386834170839
  0.9137911999364747  0.6256411798822520  0.5954553283556339
  0.4090720361576249  0.1206387014016594  0.1539911749297586
  0.4112339791172183  0.1244952675240008  0.6547791829200776
  0.4090722202054039  0.6293610955548310  0.1539910012612583
  0.4112339962046021  0.6255046922500516  0.6547793233460446
  0.0878232583792616  0.3750001245816429  0.4045979464047531
  0.0855599358234400  0.3750000698744561  0.9045727804345906
  0.0879306808280833  0.8750000725808837  0.4049195885621583
  0.0875977759986547  0.8750002301646503  0.9051080281550864
  0.5923408047130719  0.3750000420560349  0.3488266330364457
  0.5868766101138022  0.3749999154081101  0.8386392167431360
  0.5900170412796525  0.8749998919794135  0.3458872081354452
  0.5889503670226418  0.8750000111940832  0.8447401642283545
  0.8412501332634753  0.0214212402433827  0.1465931011153812
  0.8434502017363675  0.0212451103284735  0.6461955486610952
  0.8391264373957432  0.5231226349687952  0.1459684990392808
  0.8439746567184263  0.5236112411739181  0.6485456964207680
  0.3316145770904590  0.2154077346945930  0.0981879082151766
  0.3420231725593282  0.2267237796572598  0.6006893543866674
  0.3442519695103211  0.7372924683602038  0.1083271134541672
  0.3421970189384139  0.7290067239038243  0.6021658062495533
  0.1580959003327602  0.2722584708005855  0.3535622642420631
  0.1557808349565905  0.2724239217767793  0.8529945973980700
  0.1575983756842660  0.7721495593483761  0.3533933239807531
  0.1580659347884621  0.7722377314068167  0.8541638835470277
  0.6613139406609367  0.4786529447199491  0.4031797032495592
  0.6540768152049287  0.4777646115161960  0.8963584930422002
  0.6595539587851768  0.9780210260912733  0.3983085711033038
  0.6588945939913311  0.9779694763434653  0.8964441024306109
  0.1580961443830094  0.4777416158558156  0.3535620212562348
  0.1557809455598518  0.4775762629856944  0.8529945675542128
  0.1575983969010177  0.9778505779463288  0.3533933625949404
  0.1580659896222573  0.9777626767292537  0.8541637152883289
  0.6613138949195981  0.2713470565524533  0.4031795408640546
  0.6540767851226380  0.2722352721184724  0.8963586183865165
  0.6595540815868096  0.7719788811171611  0.3983086563506969
  0.6588947447255328  0.7720306044948965  0.8964440422036507
  0.8391260898759882  0.2268769241806929  0.1459685696512754
  0.8439745044361872  0.2263890184354557  0.6485455905979503
  0.8412509517578876  0.7285781313720631  0.1465951610354566
  0.8434503294688001  0.7287549927456066  0.6461953944631568
  0.3442518740257758  0.0127074401077088  0.1083271678997908
  0.3421967799199251  0.0209932589193822  0.6021657844161075
  0.3316150772675547  0.5345916207284874  0.0981880502817141
  0.3420234260930824  0.5232761479399124  0.6006892422840888
  0.5482323835922941  0.1226213819485330  0.1011118320336858
  0.5511360031299890  0.1239626007338088  0.6049682294916046
  0.5482327297964549  0.6273786141823325  0.1011120609006106
  0.5511359806335199  0.6260373795431705  0.6049685742536413
  0.0495976249636871  0.1249812563188736  0.1481927079287588
  0.0529990690010906  0.1239146448427405  0.6473020560998279
  0.0495982516253778  0.6250184682160912  0.1481924054814816
  0.0529991519240502  0.6260856851139871  0.6473020329960798
  0.4538438196611044  0.3750000663873270  0.4023731493181072
  0.4439904500417651  0.3749998971222260  0.8684058006691804
  0.4508577508325701  0.8749998887219763  0.3969309933743913
  0.4499214515013017  0.8749998944836122  0.8956399718896083
  0.9487697959680356  0.3749999402382779  0.3516367059346966
  0.9461362445528660  0.3750000281704061  0.8521536557044589
  0.9485193237888867  0.8750001213484210  0.3532085407650146
  0.9488250180469808  0.8750000297945172  0.8516262925196627
  0.6004343117153582  0.3750002912049065  0.1946639883398319
  0.6029570613998027  0.3749998924873739  0.6823271681030603
  0.5931465656323008  0.8749998281171956  0.1890687575333507
  0.5906544707987547  0.8750000696899441  0.6877207741983271
  0.0847090046848887  0.3749999833605744  0.0614189294006470
  0.0878052275682965  0.3750000042129191  0.5617460664274448
  0.0870141809674711  0.8750000496976066  0.0619518359908258
  0.0893548282539472  0.8750001386790149  0.5619839904948519
  0.4113847332930448  0.1239221588306652  0.3115203482332811
  0.4081200133117117  0.1244384552342635  0.8115765665205229
  0.4113853401551075  0.6260776529769776  0.3115200579982813
  0.4081201763012558  0.6255614941041958  0.8115767351671482
  0.9123003043731069  0.1250447777933436  0.4384358618154473
  0.9106208777708199  0.1245402088393158  0.9381738248508800
  0.9123002980270449  0.6249552532583292  0.4384357730938478
  0.9106207541481280  0.6254600079319319  0.9381740512889062
 
  0.00000000E+00  0.00000000E+00  0.00000000E+00
  0.00000000E+00  0.00000000E+00  0.00000000E+00
  0.00000000E+00  0.00000000E+00  0.00000000E+00
  0.00000000E+00  0.00000000E+00  0.00000000E+00
  0.00000000E+00  0.00000000E+00  0.00000000E+00
  0.00000000E+00  0.00000000E+00  0.00000000E+00
  0.00000000E+00  0.00000000E+00  0.00000000E+00
  0.00000000E+00  0.00000000E+00  0.00000000E+00
  0.00000000E+00  0.00000000E+00  0.00000000E+00
  0.00000000E+00  0.00000000E+00  0.00000000E+00
  0.00000000E+00  0.00000000E+00  0.00000000E+00
  0.00000000E+00  0.00000000E+00  0.00000000E+00
  0.00000000E+00  0.00000000E+00  0.00000000E+00
  0.00000000E+00  0.00000000E+00  0.00000000E+00
  0.00000000E+00  0.00000000E+00  0.00000000E+00
  0.00000000E+00  0.00000000E+00  0.00000000E+00
  0.00000000E+00  0.00000000E+00  0.00000000E+00
  0.00000000E+00  0.00000000E+00  0.00000000E+00
  0.00000000E+00  0.00000000E+00  0.00000000E+00
  0.00000000E+00  0.00000000E+00  0.00000000E+00
  0.00000000E+00  0.00000000E+00  0.00000000E+00
  0.00000000E+00  0.00000000E+00  0.00000000E+00
  0.00000000E+00  0.00000000E+00  0.00000000E+00
  0.00000000E+00  0.00000000E+00  0.00000000E+00
  0.00000000E+00  0.00000000E+00  0.00000000E+00
  0.00000000E+00  0.00000000E+00  0.00000000E+00
  0.00000000E+00  0.00000000E+00  0.00000000E+00
  0.00000000E+00  0.00000000E+00  0.00000000E+00
  0.00000000E+00  0.00000000E+00  0.00000000E+00
  0.00000000E+00  0.00000000E+00  0.00000000E+00
  0.00000000E+00  0.00000000E+00  0.00000000E+00
  0.00000000E+00  0.00000000E+00  0.00000000E+00
  0.00000000E+00  0.00000000E+00  0.00000000E+00
  0.00000000E+00  0.00000000E+00  0.00000000E+00
  0.00000000E+00  0.00000000E+00  0.00000000E+00
  0.00000000E+00  0.00000000E+00  0.00000000E+00
  0.00000000E+00  0.00000000E+00  0.00000000E+00
  0.00000000E+00  0.00000000E+00  0.00000000E+00
  0.00000000E+00  0.00000000E+00  0.00000000E+00
  0.00000000E+00  0.00000000E+00  0.00000000E+00
  0.00000000E+00  0.00000000E+00  0.00000000E+00
  0.00000000E+00  0.00000000E+00  0.00000000E+00
  0.00000000E+00  0.00000000E+00  0.00000000E+00
  0.00000000E+00  0.00000000E+00  0.00000000E+00
  0.00000000E+00  0.00000000E+00  0.00000000E+00
  0.00000000E+00  0.00000000E+00  0.00000000E+00
  0.00000000E+00  0.00000000E+00  0.00000000E+00
  0.00000000E+00  0.00000000E+00  0.00000000E+00
  0.00000000E+00  0.00000000E+00  0.00000000E+00
  0.00000000E+00  0.00000000E+00  0.00000000E+00
  0.00000000E+00  0.00000000E+00  0.00000000E+00
  0.00000000E+00  0.00000000E+00  0.00000000E+00
  0.00000000E+00  0.00000000E+00  0.00000000E+00
  0.00000000E+00  0.00000000E+00  0.00000000E+00
  0.00000000E+00  0.00000000E+00  0.00000000E+00
  0.00000000E+00  0.00000000E+00  0.00000000E+00
  0.00000000E+00  0.00000000E+00  0.00000000E+00
  0.00000000E+00  0.00000000E+00  0.00000000E+00
  0.00000000E+00  0.00000000E+00  0.00000000E+00
  0.00000000E+00  0.00000000E+00  0.00000000E+00
  0.00000000E+00  0.00000000E+00  0.00000000E+00
  0.00000000E+00  0.00000000E+00  0.00000000E+00
  0.00000000E+00  0.00000000E+00  0.00000000E+00
  0.00000000E+00  0.00000000E+00  0.00000000E+00
  0.00000000E+00  0.00000000E+00  0.00000000E+00
  0.00000000E+00  0.00000000E+00  0.00000000E+00
  0.00000000E+00  0.00000000E+00  0.00000000E+00
  0.00000000E+00  0.00000000E+00  0.00000000E+00
  0.00000000E+00  0.00000000E+00  0.00000000E+00
  0.00000000E+00  0.00000000E+00  0.00000000E+00
  0.00000000E+00  0.00000000E+00  0.00000000E+00
  0.00000000E+00  0.00000000E+00  0.00000000E+00
  0.00000000E+00  0.00000000E+00  0.00000000E+00
  0.00000000E+00  0.00000000E+00  0.00000000E+00
  0.00000000E+00  0.00000000E+00  0.00000000E+00
  0.00000000E+00  0.00000000E+00  0.00000000E+00
  0.00000000E+00  0.00000000E+00  0.00000000E+00
  0.00000000E+00  0.00000000E+00  0.00000000E+00
  0.00000000E+00  0.00000000E+00  0.00000000E+00
  0.00000000E+00  0.00000000E+00  0.00000000E+00
  0.00000000E+00  0.00000000E+00  0.00000000E+00
  0.00000000E+00  0.00000000E+00  0.00000000E+00
  0.00000000E+00  0.00000000E+00  0.00000000E+00
  0.00000000E+00  0.00000000E+00  0.00000000E+00
  0.00000000E+00  0.00000000E+00  0.00000000E+00
  0.00000000E+00  0.00000000E+00  0.00000000E+00
  0.00000000E+00  0.00000000E+00  0.00000000E+00
  0.00000000E+00  0.00000000E+00  0.00000000E+00
  0.00000000E+00  0.00000000E+00  0.00000000E+00
  0.00000000E+00  0.00000000E+00  0.00000000E+00
  0.00000000E+00  0.00000000E+00  0.00000000E+00
  0.00000000E+00  0.00000000E+00  0.00000000E+00
  0.00000000E+00  0.00000000E+00  0.00000000E+00
  0.00000000E+00  0.00000000E+00  0.00000000E+00
  0.00000000E+00  0.00000000E+00  0.00000000E+00
  0.00000000E+00  0.00000000E+00  0.00000000E+00
  0.00000000E+00  0.00000000E+00  0.00000000E+00
  0.00000000E+00  0.00000000E+00  0.00000000E+00
  0.00000000E+00  0.00000000E+00  0.00000000E+00
  0.00000000E+00  0.00000000E+00  0.00000000E+00
  0.00000000E+00  0.00000000E+00  0.00000000E+00
  0.00000000E+00  0.00000000E+00  0.00000000E+00
  0.00000000E+00  0.00000000E+00  0.00000000E+00
  0.00000000E+00  0.00000000E+00  0.00000000E+00
  0.00000000E+00  0.00000000E+00  0.00000000E+00
  0.00000000E+00  0.00000000E+00  0.00000000E+00
  0.00000000E+00  0.00000000E+00  0.00000000E+00
  0.00000000E+00  0.00000000E+00  0.00000000E+00
  0.00000000E+00  0.00000000E+00  0.00000000E+00
  0.00000000E+00  0.00000000E+00  0.00000000E+00
  0.00000000E+00  0.00000000E+00  0.00000000E+00
  0.00000000E+00  0.00000000E+00  0.00000000E+00
  0.00000000E+00  0.00000000E+00  0.00000000E+00
  0.00000000E+00  0.00000000E+00  0.00000000E+00
  0.00000000E+00  0.00000000E+00  0.00000000E+00
  0.00000000E+00  0.00000000E+00  0.00000000E+00
  0.00000000E+00  0.00000000E+00  0.00000000E+00
  0.00000000E+00  0.00000000E+00  0.00000000E+00
  0.00000000E+00  0.00000000E+00  0.00000000E+00
  0.00000000E+00  0.00000000E+00  0.00000000E+00
  0.00000000E+00  0.00000000E+00  0.00000000E+00
  0.00000000E+00  0.00000000E+00  0.00000000E+00
  0.00000000E+00  0.00000000E+00  0.00000000E+00
  0.00000000E+00  0.00000000E+00  0.00000000E+00
  0.00000000E+00  0.00000000E+00  0.00000000E+00
  0.00000000E+00  0.00000000E+00  0.00000000E+00
  0.00000000E+00  0.00000000E+00  0.00000000E+00
