Li17 Co18 O36                           
   1.00000000000000     
     8.0557280000000002   -0.0035030000000000    2.3736009999999998
     3.6800970000000000    7.1672200000000004    2.3705020000000001
    -0.0129210000000000   -0.0041040000000000    9.8886179999999992
   Li   Co   O 
    17    18    36
Direct
  0.3105757978297983  0.5954007363883724  0.5094704128862291
  0.3331023932903501  0.3341869513706701  0.9975336605856899
  0.3329250108028257  0.6688080093394680  0.9974117164853331
  0.3318221828294439  0.9970192788368852  0.5057109057972861
  0.3327579114796247  0.9982113543142251  0.9973875915939391
  0.6631830942639098  0.3323132368575633  0.5054843839289896
  0.6678680104366213  0.3351650349860991  0.9966303955761694
  0.6518852444462078  0.6635852972393050  0.5048613398628622
  0.6658597964818060  0.6669272919424337  0.9993036507108023
  0.6501804721774028  0.0129924456214323  0.5055227052644226
  0.6680893912607732  0.9972850287397412  0.9971217408133031
  0.0089981596632995  0.3334135692748045  0.5052516869262935
  0.9988011068151813  0.3329359686986000  0.9985764422000371
  0.9835505156352629  0.6686058130103995  0.5023194868547857
  0.9982256439749065  0.6671045763782766  0.9986380014510537
  0.0072463092928170  0.9908612844314952  0.5016936847378354
  0.0024186309685186  0.0000905385971875  0.9954022344322648
  0.1623615337281410  0.1684765001523598  0.2476553751409712
  0.1690647915872723  0.1651196661452281  0.7510595780298643
  0.1625366247206165  0.5016374543490576  0.2487663245169756
  0.1685159543469788  0.4955063373163503  0.7551021100615150
  0.1621304515032279  0.8349797542976379  0.2472576836737869
  0.1688723711992020  0.8297506829185710  0.7510231970573327
  0.4952298239457621  0.1683163691257348  0.2518914923259596
  0.5021062214544976  0.1631013833047701  0.7539622618468061
  0.4953764175380041  0.5008216030597032  0.2482452380400597
  0.5019464585670100  0.4982779971820150  0.7548415056058848
  0.4946329562991323  0.8332526221279960  0.2509662310070829
  0.5000547906535737  0.8308631534137886  0.7541901239210040
  0.8311505919666150  0.1676404541959560  0.2493042557345731
  0.8353321883529227  0.1641963945401882  0.7504769206082894
  0.8289714277829466  0.5003776057976870  0.2496830695020923
  0.8342052098834684  0.4979249907479578  0.7529999374702279
  0.8290145385230040  0.8333383530896691  0.2510495072759811
  0.8344183376715926  0.8295612336786072  0.7508623955560624
  0.2542116291685084  0.2532034399869973  0.3538510846678959
  0.2549255586358354  0.2491826233689108  0.8646008597211603
  0.2466236512544976  0.5917186082665927  0.3514822846202099
  0.2542398290539531  0.5849232580962287  0.8641705606954503
  0.2480010390868695  0.9242461649120680  0.3561344544273976
  0.2524198976277804  0.9181817802632732  0.8626491781523667
  0.5839111989781577  0.2529563362469025  0.3548895017983623
  0.5904689877035219  0.2498069890739383  0.8638977585771352
  0.5818213238629328  0.5860645424584968  0.3591022583811235
  0.5876975256207801  0.5841869179475085  0.8654513293296986
  0.5809353816846478  0.9234554807895757  0.3603615586753227
  0.5892826309597888  0.9166248464093214  0.8638642055789002
  0.9176021587611495  0.2539092330582716  0.3586534880144117
  0.9212062118947758  0.2504354532537320  0.8616891826606634
  0.9167350535991886  0.5870343438811829  0.3594703107342318
  0.9204386930573931  0.5847466431777445  0.8630125055526308
  0.9165822218848654  0.9211689096590094  0.3590395834329165
  0.9213264331271944  0.9175732944492300  0.8603631364544014
  0.0755246299228660  0.0826230624859337  0.1376368594838032
  0.0822985515335812  0.0774441514116033  0.6402892644582558
  0.0756129856713596  0.4156631542741882  0.1388579003125364
  0.0775252001568734  0.4132201009787586  0.6453674484484991
  0.0736281078955126  0.7479708732767190  0.1387645749191314
  0.0821348891463977  0.7402216529820793  0.6416647190564853
  0.4139934886985992  0.0817713043542340  0.1412997590287398
  0.4157808765787157  0.0731251015787254  0.6464932835434163
  0.4106800734833280  0.4109611436613216  0.1396848299605504
  0.4179633431453453  0.4069960813835444  0.6501187521988173
  0.4100650727856545  0.7478626779943177  0.1386426398995547
  0.4148525850076583  0.7442055372229363  0.6449439882125311
  0.7372321764209732  0.0814575171776820  0.1423532983024082
  0.7476367210610648  0.0771668376894280  0.6411426619352365
  0.7431629074931668  0.4136906882598487  0.1394459948114597
  0.7474408511994053  0.4115218508275343  0.6421565591999484
  0.7417966960594772  0.7474583114822929  0.1413277615130288
  0.7454399874811024  0.7442340911860592  0.6423485614381922
 
             NaN             NaN             NaN
             NaN             NaN             NaN
             NaN             NaN             NaN
             NaN             NaN             NaN
             NaN             NaN             NaN
             NaN             NaN             NaN
             NaN             NaN             NaN
             NaN             NaN             NaN
             NaN             NaN             NaN
             NaN             NaN             NaN
             NaN             NaN             NaN
             NaN             NaN             NaN
             NaN             NaN             NaN
             NaN             NaN             NaN
             NaN             NaN             NaN
             NaN             NaN             NaN
             NaN             NaN             NaN
             NaN             NaN             NaN
             NaN             NaN             NaN
             NaN             NaN             NaN
             NaN             NaN             NaN
             NaN             NaN             NaN
             NaN             NaN             NaN
             NaN             NaN             NaN
             NaN             NaN             NaN
             NaN             NaN             NaN
             NaN             NaN             NaN
             NaN             NaN             NaN
             NaN             NaN             NaN
             NaN             NaN             NaN
             NaN             NaN             NaN
             NaN             NaN             NaN
             NaN             NaN             NaN
             NaN             NaN             NaN
             NaN             NaN             NaN
             NaN             NaN             NaN
             NaN             NaN             NaN
             NaN             NaN             NaN
             NaN             NaN             NaN
             NaN             NaN             NaN
             NaN             NaN             NaN
             NaN             NaN             NaN
             NaN             NaN             NaN
             NaN             NaN             NaN
             NaN             NaN             NaN
             NaN             NaN             NaN
             NaN             NaN             NaN
             NaN             NaN             NaN
             NaN             NaN             NaN
             NaN             NaN             NaN
             NaN             NaN             NaN
             NaN             NaN             NaN
             NaN             NaN             NaN
             NaN             NaN             NaN
             NaN             NaN             NaN
             NaN             NaN             NaN
             NaN             NaN             NaN
             NaN             NaN             NaN
             NaN             NaN             NaN
             NaN             NaN             NaN
             NaN             NaN             NaN
             NaN             NaN             NaN
             NaN             NaN             NaN
             NaN             NaN             NaN
             NaN             NaN             NaN
             NaN             NaN             NaN
             NaN             NaN             NaN
             NaN             NaN             NaN
             NaN             NaN             NaN
             NaN             NaN             NaN
             NaN             NaN             NaN
