Mg1 Ti16 S32                            
   1.00000000000000     
    10.0339480000000005   -0.0221680000000000   -0.0000170000000000
    -0.0221710000000000   10.0347320000000000    0.0000510000000000
     0.0001870000000000    0.0000080000000000   10.0572859999999995
   Mg   Ti   S 
     1    16    32
Direct
  0.3750132586513018  0.3750206946490794  0.8735200947315391
  0.2475336331905572  0.7594080684144648  0.0000232130085893
  0.5024592161634763  0.9905943832690268  0.0000274968547318
  0.7593999461273125  0.2475384015323183  0.0000176154811530
  0.9905883194385902  0.5024631333790667  0.0000134131418304
  0.5027808829241656  0.2472438581943409  0.2573777431410156
  0.2472293407287304  0.5027681834955026  0.2573851223682542
  0.2474071305258216  0.2474008509706075  0.4881367216071095
  0.5026030495460376  0.5025940148434531  0.4881323370076827
  0.5029464417233168  0.7597853137726550  0.7447298782978594
  0.7598080906485014  0.5029323163480834  0.7447357411618006
  0.7513824928639042  0.7514034909681724  0.4957828078166466
  0.2470378400335700  0.9901976421338583  0.7447315706504025
  0.7512235499032187  0.9987745520368875  0.2485777291174439
  0.9902102569349500  0.2470665888251189  0.7447355086626387
  0.9987641812510553  0.7512156823216607  0.2485759340616617
  0.9986009727554017  0.9985924459026091  0.4957893077020450
  0.7474554090713792  0.0025589982558407  0.0018936690347100
  0.0025441634261291  0.7474425299525509  0.0019070472436823
  0.0019564390771581  0.0019592128359178  0.7425464683505945
  0.7480421079478335  0.7480384589384891  0.7425481098852688
  0.2546553453724015  0.9990961698532097  0.9922483933611784
  0.9991050146408736  0.2546689426717531  0.9922594776147834
  0.9966514406299206  0.9966430105268568  0.2509141043290584
  0.2546260009795934  0.2546297896590008  0.2488901117207075
  0.7476106982566575  0.5043973005316141  0.5002111266621703
  0.0023861849928132  0.2456050521063311  0.5002227683061409
  0.0022754003133064  0.5040900793900721  0.2447615891339941
  0.7477205395902029  0.2459153006708516  0.2447741538255589
  0.2548751157638012  0.4951036095724076  0.4966890470973244
  0.9965133508696646  0.7534915223874380  0.4932878176892110
  0.9994346797230983  0.4950997615597817  0.7526342205045545
  0.2548934683532188  0.7505801526475929  0.7526221020760200
  0.2456303382635496  0.0024143677383824  0.5002129720967688
  0.5043835980978375  0.7475801399853540  0.5002240239450891
  0.5040665138298994  0.0022900976525824  0.2447628063221410
  0.2459288031808768  0.7477070836906876  0.2447846170661443
  0.7534861605341520  0.9965138852754420  0.4932651927881533
  0.4951194188731856  0.2548793386230630  0.4966623953343317
  0.4951192162384112  0.9994281069390720  0.7526113841319331
  0.7505843255071050  0.2549020380168685  0.7526310863748675
  0.2390274126837310  0.5109788502429883  0.0093519307758743
  0.5109476755080967  0.2390305470583894  0.0093327237591320
  0.5109298798721309  0.5109229287408850  0.7363673100558078
  0.2390765632952122  0.2390369994656428  0.7363387716126292
  0.7508777006865174  0.4953288205474785  0.9922635182985237
  0.4953449864828720  0.7509082401386726  0.9922519593816311
  0.4953706064247616  0.4953568474956832  0.2489059015616379
  0.7533574136490763  0.7533686312195877  0.2509128711959751
 
             NaN             NaN             NaN
             NaN             NaN             NaN
             NaN             NaN             NaN
             NaN             NaN             NaN
             NaN             NaN             NaN
             NaN             NaN             NaN
             NaN             NaN             NaN
             NaN             NaN             NaN
             NaN             NaN             NaN
             NaN             NaN             NaN
             NaN             NaN             NaN
             NaN             NaN             NaN
             NaN             NaN             NaN
             NaN             NaN             NaN
             NaN             NaN             NaN
             NaN             NaN             NaN
             NaN             NaN             NaN
             NaN             NaN             NaN
             NaN             NaN             NaN
             NaN             NaN             NaN
             NaN             NaN             NaN
             NaN             NaN             NaN
             NaN             NaN             NaN
             NaN             NaN             NaN
             NaN             NaN             NaN
             NaN             NaN             NaN
             NaN             NaN             NaN
             NaN             NaN             NaN
             NaN             NaN             NaN
             NaN             NaN             NaN
             NaN             NaN             NaN
             NaN             NaN             NaN
             NaN             NaN             NaN
             NaN             NaN             NaN
             NaN             NaN             NaN
             NaN             NaN             NaN
             NaN             NaN             NaN
             NaN             NaN             NaN
             NaN             NaN             NaN
             NaN             NaN             NaN
             NaN             NaN             NaN
             NaN             NaN             NaN
             NaN             NaN             NaN
             NaN             NaN             NaN
             NaN             NaN             NaN
             NaN             NaN             NaN
             NaN             NaN             NaN
             NaN             NaN             NaN
             NaN             NaN             NaN
