Mg1 Ti16 S32
1.0
10.033948 -0.022168 -0.000017
-0.022171 10.034732 0.000051
0.000187 0.000008 10.057286
Mg Ti S
1 16 32
direct
0.374954 0.375050 0.749757 Mg
0.248593 0.752766 0.004587 Ti
0.501472 -0.002777 0.004468 Ti
0.752796 0.248514 0.004448 Ti
0.997225 0.501385 0.004565 Ti
0.500944 0.249084 0.250302 Ti
0.249093 0.500896 0.250298 Ti
0.247501 0.247528 0.492433 Ti
0.502472 0.502517 0.492462 Ti
0.503180 0.753217 0.750032 Ti
0.753195 0.503185 0.750025 Ti
0.751098 0.751150 0.498702 Ti
0.246814 -0.003194 0.750026 Ti
0.750921 -0.000915 0.249808 Ti
0.996787 0.246815 0.750017 Ti
0.999054 0.750929 0.249823 Ti
0.998858 0.998881 0.498685 Ti
0.747021 0.002967 0.004066 S
0.003036 0.746931 0.004126 S
0.002748 0.002747 0.746436 S
0.747250 0.747257 0.746454 S
0.254145 0.996873 0.995023 S
0.996874 0.254082 0.995009 S
0.996585 0.996578 0.254164 S
0.252363 0.252339 0.253673 S
0.747119 0.504399 0.505023 S
0.002870 0.245624 0.505019 S
1.000618 0.505087 0.246224 S
0.749418 0.244878 0.246118 S
0.255030 0.494967 0.498728 S
0.996237 0.753748 0.495972 S
0.996973 0.495577 0.754284 S
0.254411 0.753031 0.754270 S
0.245621 0.002869 0.505017 S
0.504359 0.747149 0.505031 S
0.505117 0.000656 0.246138 S
0.244862 0.749339 0.246204 S
0.753698 0.996310 0.495948 S
0.494928 0.255101 0.498725 S
0.495576 0.996992 0.754185 S
0.753008 0.254415 0.754165 S
0.244241 0.505755 1.001415 S
0.505825 0.244191 0.001403 S
0.504733 0.504760 0.745222 S
0.245251 0.245258 0.745232 S
0.753131 0.495832 0.995014 S
0.495894 0.753142 0.995023 S
0.497693 0.497686 0.253658 S
0.753365 0.753423 0.254175 S
