Mg1 Ti16 S32                            
   1.00000000000000     
     9.8639130000000002   -0.0021950000000000   -0.0015470000000000
    -0.0021950000000000    9.8639100000000006    0.0015540000000000
    -0.0015390000000000    0.0015460000000000    9.8649900000000006
   Mg   Ti   S 
     1    16    32
Direct
  0.4387462297888592  0.3112531000165482  0.8093270029553926
  0.2480568283427863  0.7498115753762249 -0.0001269183920429
  0.4991252396210080  0.9898867301130497  0.0106282994681148
  0.7601129678136642  0.2508744470776831  0.0106281646478472
  1.0001881589721182  0.5019429252438751 -0.0001268827651167
  0.5028103121030926  0.2471892939846395  0.2701667409965324
  0.2479724844588173  0.5020271727109064  0.2491085804868273
  0.2365417187559214  0.2499455187901752  0.4878492968472362
  0.5000541357233371  0.5134578057024909  0.4878492544045163
  0.5029258603127528  0.7718063210058006  0.7447562851769387
  0.7605868227994874  0.5133528546705214  0.7481805517451618
  0.7532746023969035  0.7521227224452834  0.4939135638979044
  0.2366466254204375  0.9894127627995496  0.7481804125843085
  0.7530665748275642  0.9969330647699746  0.2487314782386121
  0.9781934793321276  0.2470737708908403  0.7447561320966249
  0.9996487660955011  0.7503508371673652  0.2473294208172382
  0.9978768277694176  0.9967248859292990  0.4939134883470657
  0.7460342261011192  0.0039652916490021  0.0031402770295204
  0.0036235790238673  0.7463761402091620 -0.0014203774246605
 -0.0058761974419552 -0.0000125335432017  0.7436672613022549
  0.7500119992843393  0.7558757740897579  0.7436672712147773
  0.2510365319482382  0.9952220628339898  0.9962375409446993
  0.9983780660935423  0.2510880458690226  0.9923173921851578
  0.9987907275534607  0.9959296919644579  0.2483402419330745
  0.2553410946846119  0.2512736487680159  0.2495877459032074
  0.7463844584249907  0.5059864287330563  0.5012287110765736
 -0.0057849457060705  0.2463778788948551  0.4976514146372725
  0.0033630601344057  0.5013266294168809  0.2441269663627757
  0.7499365570882744  0.2464034937136888  0.2532186019289751
  0.2512921874686274  0.4987074449568341  0.4933818001457578
  0.9987845007357203  0.7512149861876738  0.4929559736499602
  0.9985802819857353  0.4946823659043007  0.7486900901840428
  0.2553173884564146  0.7514193137280905  0.7486902020526466
  0.2440130823638431  0.0036150732620157  0.5012286505894589
  0.5036217894696324  0.7557845755737094  0.4976515176494085
  0.5035961304567373  0.0000629594674429  0.2532187189925158
  0.2486728700439779  0.7466366137346041  0.2441269466724764
  0.7525279301691824  0.9974717062662682  0.4945126905730478
  0.4902343644556999  0.2597651359759728  0.5090917187253212
  0.4901067718953705  1.0109962490244200  0.7572890801259818
  0.7390034921558677  0.2598927756997930  0.7572891268355371
  0.2488685100251590  0.5011310450458725 -0.0007726393374541
  0.5082400077706178  0.2417597054509456  0.0233076443975115
  0.5084813589197608  0.5252452512294755  0.7394756239929664
  0.2247543561189393  0.2415182788386085  0.7394756135414924
  0.7547776186890651  0.4989631588759142  0.9962376296623511
  0.4989114969203616  0.7516214913796603  0.9923174732463964
  0.4987259760777156  0.4946586789329212  0.2495876703002358
  0.7540700575964329  0.7512088774903142  0.2483403823140326
 
             NaN             NaN             NaN
             NaN             NaN             NaN
             NaN             NaN             NaN
             NaN             NaN             NaN
             NaN             NaN             NaN
             NaN             NaN             NaN
             NaN             NaN             NaN
             NaN             NaN             NaN
             NaN             NaN             NaN
             NaN             NaN             NaN
             NaN             NaN             NaN
             NaN             NaN             NaN
             NaN             NaN             NaN
             NaN             NaN             NaN
             NaN             NaN             NaN
             NaN             NaN             NaN
             NaN             NaN             NaN
             NaN             NaN             NaN
             NaN             NaN             NaN
             NaN             NaN             NaN
             NaN             NaN             NaN
             NaN             NaN             NaN
             NaN             NaN             NaN
             NaN             NaN             NaN
             NaN             NaN             NaN
             NaN             NaN             NaN
             NaN             NaN             NaN
             NaN             NaN             NaN
             NaN             NaN             NaN
             NaN             NaN             NaN
             NaN             NaN             NaN
             NaN             NaN             NaN
             NaN             NaN             NaN
             NaN             NaN             NaN
             NaN             NaN             NaN
             NaN             NaN             NaN
             NaN             NaN             NaN
             NaN             NaN             NaN
             NaN             NaN             NaN
             NaN             NaN             NaN
             NaN             NaN             NaN
             NaN             NaN             NaN
             NaN             NaN             NaN
             NaN             NaN             NaN
             NaN             NaN             NaN
             NaN             NaN             NaN
             NaN             NaN             NaN
             NaN             NaN             NaN
             NaN             NaN             NaN
