Mg1 Ti16 S32
1.0
9.863913 -0.002195 -0.001547
-0.002195 9.863910 0.001554
-0.001539 0.001546 9.864990
Mg Ti S
1 16 32
direct
0.437670 0.312329 0.749687 Mg
0.247767 0.751797 0.004716 Ti
0.501026 -0.007118 0.008120 Ti
0.757117 0.248971 0.008121 Ti
0.998202 0.502232 0.004715 Ti
0.500662 0.249337 0.249888 Ti
0.248052 0.501948 0.249687 Ti
0.242544 0.247385 0.490183 Ti
0.502614 0.507455 0.490182 Ti
0.502184 0.752310 0.750272 Ti
0.757360 0.507101 0.750412 Ti
0.752105 0.750970 0.497861 Ti
0.242899 -0.007361 0.750412 Ti
0.752237 0.997762 0.251057 Ti
0.997688 0.247815 0.750271 Ti
0.999198 0.750801 0.250694 Ti
0.999028 0.997893 0.497860 Ti
0.747379 0.002620 0.004106 S
0.002297 0.747704 0.003306 S
0.000346 1.001898 0.747689 S
0.748101 0.749653 0.747688 S
0.252814 -0.003212 0.997093 S
0.999363 0.252486 0.997193 S
0.997727 0.997305 0.252252 S
0.252685 0.252532 0.249300 S
0.747921 0.504018 0.502868 S
0.000350 0.246968 0.502712 S
0.002191 0.502573 0.248537 S
0.747544 0.247519 0.249774 S
0.253377 0.496624 0.495290 S
0.997842 0.752158 0.497398 S
0.999181 0.496787 0.752971 S
0.253213 0.750819 0.752972 S
0.245983 1.002078 0.502868 S
0.503033 0.749649 0.502713 S
0.502481 0.002456 0.249773 S
0.247426 0.747810 0.248537 S
0.752654 0.997346 0.497243 S
0.495653 0.254350 0.495119 S
0.495665 -0.003589 0.754168 S
0.753589 0.254335 0.754167 S
0.246536 0.503466 0.003293 S
0.504514 0.245486 0.004123 S
0.504751 0.504606 0.744898 S
0.245394 0.245249 0.744898 S
0.753212 0.497186 0.997094 S
0.497513 0.750639 0.997193 S
0.497468 0.497315 0.249301 S
0.752694 0.752273 0.252252 S
