Mg7 Sc16 Se32
1.0
11.208795 0.000000 0.000001
0.000000 11.208796 -0.000000
0.000001 -0.000000 11.208796
Mg Sc Se
7 16 32
direct
0.438625 0.438625 0.438625 Mg
0.624395 0.125605 0.125605 Mg
0.125605 0.624395 0.125605 Mg
0.125605 0.125605 0.624395 Mg
0.376730 0.873270 0.873270 Mg
0.873270 0.376730 0.873270 Mg
0.873270 0.873270 0.376730 Mg
0.995382 0.749851 0.749851 Sc
0.749851 0.995382 0.749851 Sc
0.749851 0.749851 0.995382 Sc
1.000100 1.000100 1.000100 Sc
0.001726 0.249956 0.249956 Sc
0.249956 0.001726 0.249956 Sc
0.249956 0.249956 0.001726 Sc
0.748225 0.500093 0.254675 Sc
0.748225 0.254675 0.500093 Sc
-0.002992 0.500093 0.500093 Sc
0.254675 0.500093 0.748225 Sc
0.254675 0.748225 0.500093 Sc
0.500093 0.748225 0.254675 Sc
0.500093 -0.002992 0.500093 Sc
0.500093 0.254675 0.748225 Sc
0.500093 0.500093 -0.002993 Sc
0.757859 0.992956 0.992956 Se
0.992956 0.757859 0.992956 Se
0.992956 0.992956 0.757859 Se
0.756664 0.756664 0.756664 Se
0.242728 0.007043 0.007043 Se
0.007043 0.242728 0.007043 Se
0.007043 0.007043 0.242728 Se
0.243227 0.243227 0.243227 Se
0.757423 0.493293 0.493293 Se
0.992196 0.257087 0.492098 Se
0.992196 0.492098 0.257088 Se
0.758618 0.257088 0.257088 Se
0.241045 0.506880 0.506880 Se
0.009225 0.742850 0.507378 Se
0.009225 0.507378 0.742850 Se
0.240546 0.742850 0.742850 Se
0.257088 0.992196 0.492098 Se
0.493293 0.757424 0.493293 Se
0.492098 0.992196 0.257088 Se
0.257087 0.758618 0.257088 Se
0.742850 0.009225 0.507378 Se
0.506880 0.241045 0.506880 Se
0.507378 0.009225 0.742850 Se
0.742850 0.240546 0.742850 Se
0.257088 0.492098 0.992196 Se
0.492098 0.257088 0.992196 Se
0.493293 0.493293 0.757423 Se
0.257087 0.257088 0.758618 Se
0.742850 0.507378 0.009225 Se
0.507378 0.742850 0.009225 Se
0.506880 0.506880 0.241045 Se
0.742850 0.742850 0.240546 Se
