Li15 Fe16 P16 O64
1.0
10.241383 0.002652 0.023413
0.002100 11.964925 -0.006809
0.012275 -0.008564 9.372533
Li Fe P O
15 16 16 64
direct
0.505880 0.495154 0.748737 Li
0.502171 0.000841 0.251628 Li
0.499407 0.010923 0.753287 Li
0.499542 0.500304 0.251438 Li
0.997287 0.249496 0.496024 Li
0.996678 0.247043 0.001557 Li
0.999525 0.749524 0.500793 Li
0.999426 0.751783 0.002160 Li
0.501633 0.247683 0.252824 Li
0.499771 0.750721 0.248287 Li
0.500037 0.751435 0.747821 Li
0.998183 0.500055 0.496563 Li
0.996701 0.502312 0.001669 Li
0.999149 0.001412 0.500679 Li
0.999184 0.999796 0.001879 Li
0.779553 0.124074 0.266582 Fe
0.777578 0.125202 0.761122 Fe
0.780898 0.625118 0.263944 Fe
0.781161 0.625196 0.763928 Fe
0.282118 0.125000 0.485476 Fe
0.282146 0.124876 0.984842 Fe
0.281233 0.624996 0.485890 Fe
0.280919 0.625621 0.986228 Fe
0.217740 0.375157 0.231655 Fe
0.224850 0.374266 0.744724 Fe
0.219084 0.875041 0.236180 Fe
0.219257 0.875158 0.736095 Fe
0.719800 0.373967 0.011657 Fe
0.718400 0.373062 0.516956 Fe
0.718608 0.875192 0.014375 Fe
0.717931 0.875430 0.515186 Fe
0.595676 0.122983 0.041939 P
0.592653 0.126130 0.541209 P
0.594430 0.623942 0.041603 P
0.593739 0.623978 0.542699 P
0.093468 0.124618 0.208522 P
0.094390 0.127962 0.710735 P
0.093347 0.625484 0.207624 P
0.093971 0.622501 0.710603 P
0.398027 0.376693 0.457955 P
0.407909 0.374546 0.957299 P
0.405594 0.874242 0.456904 P
0.407136 0.874558 0.956945 P
0.906071 0.375410 0.289211 P
0.910665 0.375290 0.788634 P
0.906863 0.874829 0.293760 P
0.907418 0.875537 0.792792 P
0.594737 0.125636 0.377700 O
0.601532 0.116911 0.881844 O
0.595490 0.623442 0.380636 O
0.596842 0.624089 0.879556 O
0.095196 0.125759 0.370814 O
0.094796 0.126765 0.872536 O
0.094843 0.624110 0.369775 O
0.094092 0.624124 0.872325 O
0.403417 0.375316 0.119302 O
0.383005 0.382091 0.619464 O
0.404986 0.874311 0.118959 O
0.402292 0.873337 0.618820 O
0.905991 0.376024 0.126823 O
0.908243 0.375421 0.627083 O
0.905454 0.874723 0.131572 O
0.906683 0.874869 0.630721 O
0.955009 0.124573 0.146165 O
0.957788 0.127303 0.644891 O
0.954988 0.625490 0.144969 O
0.957092 0.623476 0.644861 O
0.455903 0.125957 0.103115 O
0.453927 0.125048 0.599211 O
0.455413 0.623188 0.104003 O
0.455152 0.622769 0.605613 O
0.044399 0.376131 0.352187 O
0.052495 0.375791 0.848630 O
0.045134 0.874112 0.356870 O
0.045976 0.874737 0.855651 O
0.539316 0.375271 0.405024 O
0.545032 0.378872 0.897728 O
0.544218 0.874242 0.394097 O
0.545272 0.873855 0.893611 O
0.664237 0.021162 0.114199 O
0.662319 0.021886 0.606686 O
0.666643 0.522367 0.107868 O
0.666281 0.522511 0.609565 O
0.164817 0.226236 0.140802 O
0.165574 0.233444 0.648100 O
0.164445 0.727734 0.142084 O
0.168485 0.722441 0.643491 O
0.329240 0.274253 0.390903 O
0.324204 0.278143 0.892938 O
0.334758 0.771840 0.390076 O
0.334868 0.772426 0.891085 O
0.833726 0.476757 0.356824 O
0.841820 0.477554 0.857076 O
0.836260 0.977055 0.360575 O
0.836895 0.978071 0.858729 O
0.331615 0.478931 0.385940 O
0.331415 0.475452 0.887632 O
0.333352 0.975771 0.390602 O
0.335031 0.976630 0.891399 O
0.835522 0.273296 0.355299 O
0.842048 0.273784 0.857569 O
0.834635 0.772863 0.359676 O
0.835592 0.773378 0.858805 O
0.667133 0.225889 0.106734 O
0.674488 0.223674 0.601955 O
0.664621 0.726454 0.108394 O
0.664627 0.726345 0.608708 O
0.164921 0.022529 0.142394 O
0.168818 0.027729 0.643919 O
0.164963 0.524053 0.138955 O
0.164716 0.517056 0.647841 O
