Mg7 Sc16 Se32                           
   1.00000000000000     
    11.2465759999999992    0.0000110000000000   -0.0000290000000000
     0.0000110000000000   11.2466399999999993    0.0000860000000000
    -0.0000290000000000    0.0001280000000000   11.2462560000000007
   Mg   Sc   Se
     7    16    32
Direct
  0.4696537548154681  0.4696740169150985  0.4696937725823165
  0.6252253046833868  0.1273189906488443  0.1273180099700765
  0.1273204445907068  0.6251962749166150  0.1273224093945632
  0.1273261415953352  0.1273342921351795  0.6251819931127542
  0.3767105749034350  0.8725727671619612  0.8725661631769821
  0.8725680064680942  0.3766889803091643  0.8725714769216569
  0.8725704963799773  0.8725862020375232  0.3766782534726089
  0.9941260624861309  0.7509510152913791  0.7509489330284704
  0.7509458805996532  0.9940327605332120  0.7509381678671974
  0.7509265801866742  0.7509193827432458  0.9940804363540839
  0.9992734984615915  0.9992624269570244  0.9992580975304854
  0.0056504554735796  0.2481494135598697  0.2481442103131576
  0.2481323912884230  0.0056727450772456  0.2481350105562854
  0.2481323363483305  0.2481308320055058  0.0056634197001296
  0.7500178341950462  0.5003496609183254  0.2528534077223778
  0.7500075702245427  0.2528612583668343  0.5003394336102571
  0.9931305095390126  0.4991170783212718  0.4991016146483631
  0.2528860675657650  0.5003259294226916  0.7499820527319342
  0.2528782274145569  0.7499921277316696  0.5003221200874616
  0.5003296593697415  0.7500102462373995  0.2528508943287015
  0.4990945078466775  0.9932203173589244  0.4990528690752760
  0.5003473678396290  0.2528718447514336  0.7499808645618626
  0.4990662846328711  0.4990274667741734  0.9933206558451566
  0.7574033006232032  0.9938040634381654  0.9938156603519621
  0.9938161939035300  0.7574041898656637  0.9938265589491471
  0.9938245846488472  0.9938124047267802  0.7573842568867366
  0.7591919056636471  0.7591446283262223  0.7591644746007487
  0.2421725756430923  0.0056810161345894  0.0056654803255855
  0.0056753894668559  0.2421720535544370  0.0056738838971913
  0.0056755292143588  0.0056910930488595  0.2421793488867604
  0.2408021405753422  0.2408122947065585  0.2408063055997270
  0.7521828765437474  0.4911576301303467  0.4911519854248897
  0.9932683262922630  0.2574538417309979  0.4920879111579553
  0.9932637909061057  0.4920873763161402  0.2574249012080750
  0.7601107971936977  0.2569879693018368  0.2569708015392722
  0.2437811931148640  0.5085548231894343  0.5085317887594496
  0.0078863277146979  0.7414770918239076  0.5073746075919079
  0.0078853139775203  0.5073872369831979  0.7414580892955115
  0.2401371806370004  0.7433628047488214  0.7433701674333760
  0.2574256755387623  0.9932794627236927  0.4920717487008343
  0.4911481680261376  0.7522375222108266  0.4911274932253090
  0.4920707175602590  0.9932757651519732  0.2573731686655488
  0.2569703976462850  0.7601180723358651  0.2569621533620617
  0.7414545679241502  0.0078939273704504  0.5073628835888960
  0.5085434550189269  0.2438037386275452  0.5085203362169473
  0.5073874241968940  0.0078748266079314  0.7414128973569066
  0.7433728671207148  0.2401091463676553  0.7433727109544289
  0.2574038453689402  0.4920648805690978  0.9932920375733671
  0.4920719942394998  0.2573787448895788  0.9932887334581492
  0.4911379150589754  0.4911262385908500  0.7522788043959285
  0.2569810645548244  0.2569712976300396  0.7601089082655610
  0.7414329993576806  0.5073678435328060  0.0078922476939039
  0.5073743506994635  0.7414016042408065  0.0078789072405651
  0.5085345601044879  0.5085375779143571  0.2438162950110653
  0.7433638861552133  0.7433752394124823  0.2401230639650991
 
             NaN             NaN             NaN
             NaN             NaN             NaN
             NaN             NaN             NaN
             NaN             NaN             NaN
             NaN             NaN             NaN
             NaN             NaN             NaN
             NaN             NaN             NaN
             NaN             NaN             NaN
             NaN             NaN             NaN
             NaN             NaN             NaN
             NaN             NaN             NaN
             NaN             NaN             NaN
             NaN             NaN             NaN
             NaN             NaN             NaN
             NaN             NaN             NaN
             NaN             NaN             NaN
             NaN             NaN             NaN
             NaN             NaN             NaN
             NaN             NaN             NaN
             NaN             NaN             NaN
             NaN             NaN             NaN
             NaN             NaN             NaN
             NaN             NaN             NaN
             NaN             NaN             NaN
             NaN             NaN             NaN
             NaN             NaN             NaN
             NaN             NaN             NaN
             NaN             NaN             NaN
             NaN             NaN             NaN
             NaN             NaN             NaN
             NaN             NaN             NaN
             NaN             NaN             NaN
             NaN             NaN             NaN
             NaN             NaN             NaN
             NaN             NaN             NaN
             NaN             NaN             NaN
             NaN             NaN             NaN
             NaN             NaN             NaN
             NaN             NaN             NaN
             NaN             NaN             NaN
             NaN             NaN             NaN
             NaN             NaN             NaN
             NaN             NaN             NaN
             NaN             NaN             NaN
             NaN             NaN             NaN
             NaN             NaN             NaN
             NaN             NaN             NaN
             NaN             NaN             NaN
             NaN             NaN             NaN
             NaN             NaN             NaN
             NaN             NaN             NaN
             NaN             NaN             NaN
             NaN             NaN             NaN
             NaN             NaN             NaN
             NaN             NaN             NaN
