Mg7 Sc16 Se32
1.0
11.246576 0.000011 -0.000029
0.000011 11.246640 0.000086
-0.000029 0.000128 11.246256
Mg Sc Se
7 16 32
direct
0.469151 0.469182 0.469195 Mg
0.624145 0.125860 0.125864 Mg
0.125850 0.624139 0.125863 Mg
0.125849 0.125859 0.624137 Mg
0.376270 0.873710 0.873695 Mg
0.873701 0.376280 0.873684 Mg
0.873702 0.873725 0.376311 Mg
-0.003757 0.749349 0.749370 Sc
0.749358 -0.003872 0.749374 Sc
0.749380 0.749372 -0.003723 Sc
-0.000196 -0.000195 -0.000193 Sc
0.002133 0.250704 0.250695 Sc
0.250697 0.002132 0.250693 Sc
0.250698 0.250698 0.002122 Sc
0.747059 0.500134 0.254225 Sc
0.747027 0.254381 0.500117 Sc
-0.001457 0.500150 0.500134 Sc
0.254371 0.500116 0.747098 Sc
0.254357 0.747042 0.500085 Sc
0.500107 0.747061 0.254192 Sc
0.500131 -0.001425 0.500089 Sc
0.500138 0.254255 0.747083 Sc
0.500110 0.500091 -0.001367 Sc
0.757633 0.992936 0.992957 Se
0.992945 0.757640 0.992958 Se
0.992937 0.992932 0.757632 Se
0.758018 0.757974 0.758047 Se
0.242422 0.007248 0.007235 Se
0.007242 0.242423 0.007232 Se
0.007241 0.007251 0.242438 Se
0.242317 0.242316 0.242314 Se
0.758779 0.492092 0.492009 Se
0.992152 0.257017 0.492430 Se
0.992171 0.492416 0.256986 Se
0.758409 0.257009 0.256985 Se
0.241157 0.507525 0.507545 Se
0.008424 0.742943 0.507408 Se
0.008427 0.507386 0.742922 Se
0.241278 0.742902 0.742910 Se
0.256999 0.992171 0.492418 Se
0.492064 0.758797 0.491992 Se
0.492403 0.992184 0.256966 Se
0.256989 0.758421 0.256969 Se
0.742910 0.008429 0.507406 Se
0.507501 0.241172 0.507538 Se
0.507404 0.008395 0.742917 Se
0.742925 0.241242 0.742915 Se
0.256989 0.492411 0.992195 Se
0.492407 0.256980 0.992197 Se
0.492078 0.492028 0.758842 Se
0.257002 0.256991 0.758412 Se
0.742907 0.507398 0.008402 Se
0.507391 0.742904 0.008391 Se
0.507501 0.507531 0.241168 Se
0.742903 0.742939 0.241273 Se
