Li47 P16 O64
1.0
10.625364 -0.002967 -0.009090
-0.003430 12.345222 -0.004427
-0.008536 -0.003539 10.031274
Li P O
47 16 64
direct
0.462333 0.352594 0.097499 Li
0.662275 0.252872 0.602283 Li
0.663301 0.750441 0.098564 Li
0.663241 0.751835 0.599604 Li
0.164654 0.497923 0.150766 Li
0.163534 0.499309 0.651018 Li
0.163271 0.996148 0.151948 Li
0.163883 0.998935 0.650783 Li
0.336907 0.001114 0.400795 Li
0.337629 0.001371 0.903216 Li
0.337457 0.500357 0.399261 Li
0.338182 0.498960 0.902325 Li
0.831854 0.249190 0.343963 Li
0.834609 0.248857 0.854884 Li
0.836360 0.748913 0.349052 Li
0.836341 0.749054 0.849362 Li
0.337065 0.249872 0.399755 Li
0.337699 0.248730 0.901512 Li
0.337167 0.749117 0.400380 Li
0.337392 0.749522 0.901936 Li
0.836737 0.002044 0.348227 Li
0.836976 0.002271 0.850161 Li
0.833848 0.500348 0.349822 Li
0.835320 0.499796 0.849765 Li
0.662100 0.492758 0.096785 Li
0.662705 0.501294 0.598384 Li
0.665184 1.003293 0.101215 Li
0.662921 1.001309 0.599453 Li
0.163836 0.249476 0.149359 Li
0.163434 0.250569 0.650808 Li
0.164101 0.750248 0.150819 Li
0.163484 0.750905 0.651584 Li
0.923644 0.373350 0.148066 Li
0.925377 0.374124 0.648885 Li
0.925740 0.875935 0.148969 Li
0.925405 0.875800 0.649380 Li
0.424151 0.375896 0.600420 Li
0.427625 0.876220 0.101590 Li
0.426744 0.876001 0.601310 Li
0.073680 0.125394 0.348562 Li
0.074637 0.124977 0.852384 Li
0.073420 0.623999 0.350653 Li
0.074087 0.624201 0.851563 Li
0.574025 0.129232 0.393749 Li
0.576484 0.131979 0.909674 Li
0.573877 0.624366 0.399006 Li
0.573947 0.623247 0.899094 Li
0.915142 0.125177 0.098116 P
0.911653 0.125336 0.596492 P
0.910849 0.624789 0.097020 P
0.911140 0.625228 0.597251 P
0.408562 0.121249 0.152582 P
0.410979 0.124643 0.653297 P
0.411204 0.625143 0.151968 P
0.410254 0.626602 0.653389 P
0.088075 0.375479 0.403348 P
0.089007 0.375060 0.902900 P
0.088469 0.874281 0.404156 P
0.088923 0.874236 0.903015 P
0.587612 0.377496 0.349319 P
0.588317 0.374390 0.840679 P
0.589893 0.875218 0.347052 P
0.590072 0.875594 0.847387 P
0.844071 0.021791 0.149028 O
0.841567 0.022009 0.647765 O
0.840757 0.522010 0.147974 O
0.841584 0.522281 0.648854 O
0.338272 0.223592 0.099209 O
0.339682 0.227266 0.602330 O
0.341940 0.729652 0.102525 O
0.340660 0.730385 0.602897 O
0.157443 0.272302 0.351478 O
0.158750 0.271983 0.851320 O
0.158294 0.771017 0.352722 O
0.158781 0.770904 0.851958 O
0.658303 0.480422 0.403831 O
0.658266 0.476938 0.896095 O
0.659296 0.978681 0.398235 O
0.661007 0.977737 0.898950 O
0.158550 0.478631 0.352272 O
0.158932 0.478374 0.851624 O
0.158544 0.977330 0.353918 O
0.159253 0.977162 0.852094 O
0.657877 0.274364 0.401256 O
0.658352 0.269879 0.879415 O
0.659629 0.772014 0.399016 O
0.659008 0.771234 0.897295 O
0.853166 0.228765 0.151689 O
0.842772 0.228472 0.647899 O
0.841577 0.728460 0.147997 O
0.841330 0.728604 0.648208 O
0.336235 0.017209 0.105104 O
0.341133 0.020894 0.602048 O
0.339712 0.523471 0.100089 O
0.339453 0.524363 0.600988 O
0.544118 0.117216 0.100390 O
0.548025 0.125324 0.599249 O
0.548917 0.625292 0.099306 O
0.548046 0.627593 0.601368 O
0.054979 0.120238 0.146676 O
0.049881 0.124314 0.648886 O
0.049070 0.624716 0.149093 O
0.049249 0.625409 0.649415 O
0.449943 0.375909 0.404745 O
0.450635 0.373796 0.893696 O
0.451780 0.874814 0.398971 O
0.452034 0.875335 0.899391 O
0.949844 0.376655 0.352845 O
0.951012 0.375317 0.850670 O
0.950535 0.874393 0.351649 O
0.951043 0.874590 0.850189 O
0.585710 0.382316 0.196611 O
0.585777 0.381401 0.685039 O
0.591123 0.874492 0.191478 O
0.589974 0.875927 0.691377 O
0.089619 0.375104 0.058504 O
0.089958 0.375269 0.559336 O
0.088516 0.873130 0.058637 O
0.088590 0.874008 0.559953 O
0.407502 0.124483 0.308958 O
0.411065 0.124150 0.808872 O
0.411130 0.625223 0.308013 O
0.409924 0.625554 0.809128 O
0.911128 0.125094 0.440752 O
0.912896 0.124319 0.941799 O
0.910598 0.625208 0.441476 O
0.910508 0.624953 0.941100 O
