Mg15 Mn32 O64
1.0
11.499158 -0.000012 -0.000144
-0.000021 11.515270 -0.000000
0.000037 0.000002 9.171078
Mg Mn O
15 32 64
direct
0.499911 0.625077 0.624922 Mg
0.500147 0.250943 0.747824 Mg
1.000104 0.249892 0.751052 Mg
0.999715 0.750104 0.749054 Mg
0.500035 -0.001018 0.502174 Mg
0.000108 0.000128 0.499041 Mg
0.999835 0.499871 0.501360 Mg
0.249974 1.001232 0.251029 Mg
0.251861 0.498769 0.249176 Mg
0.750796 0.001285 0.250461 Mg
0.747544 0.498715 0.249357 Mg
0.249883 0.248717 -0.000922 Mg
0.251584 0.751285 0.000852 Mg
0.750868 0.248647 -0.000116 Mg
0.747802 0.751352 0.000529 Mg
0.126213 0.250973 0.375336 Mn
0.124479 0.749027 0.373867 Mn
0.624660 0.250267 0.375371 Mn
0.623832 0.749734 0.375027 Mn
0.376549 0.250812 0.375511 Mn
0.374803 0.749190 0.374376 Mn
0.875722 0.250881 0.375207 Mn
0.873979 0.749119 0.373333 Mn
0.126007 -0.000956 0.874772 Mn
0.124348 0.500956 0.876232 Mn
0.624598 -0.000224 0.874532 Mn
0.623821 0.500224 0.874825 Mn
0.376449 -0.000833 0.874426 Mn
0.374630 0.500839 0.875497 Mn
0.875290 -0.000285 0.874917 Mn
0.873521 0.500282 0.876830 Mn
0.001228 0.124980 0.125252 Mn
0.999517 0.624971 0.124988 Mn
0.500193 0.124931 0.125033 Mn
0.499821 0.625157 0.124012 Mn
1.000451 0.375305 0.126125 Mn
0.000290 0.874738 0.124105 Mn
0.500034 0.372918 0.123060 Mn
0.499979 0.876995 0.125984 Mn
0.250435 0.375295 0.626606 Mn
0.250271 0.874672 0.623644 Mn
0.749700 0.375238 0.626072 Mn
0.749738 0.874747 0.623855 Mn
0.248843 0.125033 0.625260 Mn
0.251862 0.625001 0.624988 Mn
0.751625 0.125022 0.624934 Mn
0.747813 0.624993 0.624993 Mn
0.136601 0.250736 0.621410 O
0.137607 0.749263 0.620024 O
0.638268 0.249829 0.621443 O
0.638001 0.750172 0.600783 O
0.362037 0.249993 0.621744 O
0.361653 0.750008 0.600691 O
0.863823 0.250777 0.621129 O
0.861919 0.749223 0.619989 O
0.137735 0.500653 0.630192 O
0.136574 0.999347 0.628841 O
0.638000 0.499841 0.649208 O
0.638279 0.000159 0.628422 O
0.361681 0.500034 0.649391 O
0.361969 -0.000034 0.628451 O
0.861883 0.500669 0.630165 O
0.863767 -0.000668 0.628919 O
0.500307 0.114048 0.878240 O
0.499443 0.609045 0.887002 O
0.000804 0.112608 0.879616 O
0.998869 0.613127 0.879034 O
0.499239 0.387730 0.878477 O
0.500505 0.889183 0.886765 O
0.999321 0.387714 0.879574 O
0.000351 0.886547 0.879072 O
0.500550 0.360781 0.362714 O
0.499324 0.862309 0.371269 O
1.000713 0.363686 0.371110 O
0.999442 0.862149 0.370660 O
0.500381 0.135861 0.371684 O
0.499491 0.641051 0.362299 O
1.000964 0.137554 0.370635 O
0.999190 0.636609 0.371135 O
0.386034 0.499366 0.110821 O
0.386902 1.000634 0.122687 O
0.886502 0.499975 0.121723 O
0.887748 1.000022 0.121030 O
0.113668 -0.000450 0.120959 O
0.113023 0.500447 0.121527 O
0.613479 1.000614 0.122742 O
0.613492 0.499388 0.110782 O
0.386943 0.249285 0.127069 O
0.386028 0.750715 0.138582 O
0.887838 0.250071 0.129234 O
0.886502 0.749925 0.128458 O
0.113738 0.250418 0.129318 O
0.112927 0.749581 0.128616 O
0.613470 0.249280 0.127154 O
0.613513 0.750722 0.138612 O
0.250661 0.364240 0.380901 O
0.250214 0.861453 0.375668 O
0.750403 0.363859 0.380652 O
0.748728 0.861729 0.375599 O
0.250151 0.137743 0.380023 O
0.250724 0.636564 0.376547 O
0.751430 0.137609 0.379783 O
0.747700 0.636803 0.376468 O
0.250039 0.112212 0.870174 O
0.250565 0.613445 0.873553 O
0.751048 0.112699 0.870197 O
0.747674 0.612991 0.873680 O
0.250144 0.388534 0.874470 O
0.250459 0.885813 0.869257 O
0.748344 0.387923 0.874420 O
0.750375 0.886383 0.869455 O
