Mg1 Ti16 S32                            
   1.00000000000000     
     9.9112380000000009    0.0063810000000000    0.0036380000000000
    -0.0023570000000000    9.9113910000000001    0.0009720000000000
    -0.0041550000000000   -0.0005250000000000    9.9139370000000007
   Mg   Ti   S 
     1    16    32
Direct
  0.3477763641410855  0.4021984720602075  0.8448637096463421
  0.2495542397021414  0.7589829352140816  0.0057663347919964
  0.5002643219250602  0.9985334458971483 -0.0014412001394974
  0.7514788041617271  0.2497622223181698 -0.0014638469672691
  0.9910539680355775  0.5004030441235660  0.0057575858261683
  0.5004958351524040  0.2495027732810734  0.2497751412470117
  0.2467413769764396  0.5032549784339490  0.2656388606775532
  0.2495868641758649  0.2418418799322210  0.4877148649965281
  0.5081397561224944  0.5003990925681213  0.4877498535075612
  0.5085595400856876  0.7596227137488207  0.7468069735335812
  0.7680939129606682  0.5035542049548194  0.7446829928662725
  0.7522057193347115  0.7521966339170717  0.4955489047759853
  0.2465824694659410  0.9819282679318510  0.7447472710218228
  0.7499425779779362  1.0000408418766416  0.2480603580888331
  0.9903508876370469  0.2414303368324413  0.7467939678277383
  0.9983182818277809  0.7516799397936580  0.2492344938575289
  0.9977906058722033  0.9977714736584590  0.4955790678629081
  0.7449906015859874  0.0050422120705803 -0.0000599040726499
  0.0035146592775521  0.7464887857895075  0.0030309275231026
  0.0008202553356699 -0.0030899143174874  0.7435791825548219
  0.7531017571338157  0.7492377971623979  0.7435721602811893
  0.2514890838782384  0.9984928618827993  0.9924299878982112
  0.9948029794722000  0.2522341939862418  0.9950377103546724
  0.9955376744404186  0.9976222305070777  0.2499561221809461
  0.2517229794365841  0.2552569655670728  0.2488786656746645
  0.7529563369649849  0.5040234760741247  0.4989028158531308
  0.0031041649508180  0.2443497551660837  0.5008910177568366
  0.0012478570497214  0.5036905887721672  0.2502251415906619
  0.7451554166772807  0.2482928648490743  0.2430351540469257
  0.2582312194141446  0.4917649288487027  0.5045499310345859
  0.9973688182276074  0.7526316130633273  0.4945660137859677
  1.0068768647657154  0.4915175668663244  0.7560083899918310
  0.2584979520697323  0.7431914527850642  0.7560073922930146
  0.2460216804788972 -0.0029476486271014  0.4988950874129824
  0.5056507540389379  0.7469044189395653  0.5009133614505481
  0.5017317586582608  0.0048658531304249  0.2430424845177652
  0.2463090771163750  0.7487379036932067  0.2502029799927898
  0.7521780312968255  0.9978329548453885  0.4934526220760294
  0.4976375809032036  0.2523628326158689  0.4929701960326637
  0.4943658453532766  0.9988712506271156  0.7497928242393721
  0.7511417487249746  0.2557191280172122  0.7497690665215725
  0.2395933717005051  0.5104572168025556  0.0187256390700347
  0.5003956924410278  0.2496028577647609 -0.0014155650278680
  0.5212628705339168  0.5111429892465323  0.7365827521330154
  0.2388886652122604  0.2288092029850683  0.7365749343468156
  0.7515916936046612  0.4985374344750166  0.9924154386979348
  0.4977770220686530  0.7552058272937453  0.9950503982576180
  0.4947434322959682  0.4982897098421850  0.2488873150936012
  0.7523805295846262  0.7544869633726898  0.2499547743711446
 
             NaN             NaN             NaN
             NaN             NaN             NaN
             NaN             NaN             NaN
             NaN             NaN             NaN
             NaN             NaN             NaN
             NaN             NaN             NaN
             NaN             NaN             NaN
             NaN             NaN             NaN
             NaN             NaN             NaN
             NaN             NaN             NaN
             NaN             NaN             NaN
             NaN             NaN             NaN
             NaN             NaN             NaN
             NaN             NaN             NaN
             NaN             NaN             NaN
             NaN             NaN             NaN
             NaN             NaN             NaN
             NaN             NaN             NaN
             NaN             NaN             NaN
             NaN             NaN             NaN
             NaN             NaN             NaN
             NaN             NaN             NaN
             NaN             NaN             NaN
             NaN             NaN             NaN
             NaN             NaN             NaN
             NaN             NaN             NaN
             NaN             NaN             NaN
             NaN             NaN             NaN
             NaN             NaN             NaN
             NaN             NaN             NaN
             NaN             NaN             NaN
             NaN             NaN             NaN
             NaN             NaN             NaN
             NaN             NaN             NaN
             NaN             NaN             NaN
             NaN             NaN             NaN
             NaN             NaN             NaN
             NaN             NaN             NaN
             NaN             NaN             NaN
             NaN             NaN             NaN
             NaN             NaN             NaN
             NaN             NaN             NaN
             NaN             NaN             NaN
             NaN             NaN             NaN
             NaN             NaN             NaN
             NaN             NaN             NaN
             NaN             NaN             NaN
             NaN             NaN             NaN
             NaN             NaN             NaN
