Mg1 Ti16 S32
1.0
9.911238 0.006381 0.003638
-0.002357 9.911391 0.000972
-0.004155 -0.000525 9.913937
Mg Ti S
1 16 32
direct
0.343814 0.406221 0.749928 Mg
0.249119 0.754312 0.005433 Ti
0.500774 -0.002385 0.003573 Ti
0.752373 0.249185 0.003521 Ti
0.995447 0.500552 0.005140 Ti
0.500851 0.249266 0.249340 Ti
0.249350 0.500545 0.249693 Ti
0.247399 0.245448 0.492441 Ti
0.504634 0.502857 0.492532 Ti
0.504465 0.754722 0.750196 Ti
0.752828 0.502817 0.749959 Ti
0.750928 0.751177 0.498848 Ti
0.247239 -0.002842 0.750031 Ti
0.750558 -0.000498 0.250424 Ti
0.995311 0.245491 0.750031 Ti
0.999019 0.750912 0.250899 Ti
0.998905 0.999077 0.498814 Ti
0.746782 0.003259 0.003826 S
0.003082 0.746832 0.004421 S
0.002561 0.001922 0.747548 S
0.748095 0.747489 0.747566 S
0.252799 0.997841 0.996524 S
0.996792 0.253065 0.996545 S
0.996920 0.996889 0.253421 S
0.252946 0.253229 0.250719 S
0.748352 0.503413 0.503528 S
0.002395 0.246093 0.503497 S
0.003359 0.502765 0.248336 S
0.746686 0.247162 0.247581 S
0.254354 0.495648 0.495964 S
0.996985 0.753030 0.497255 S
0.997499 0.495646 0.754124 S
0.254355 0.752517 0.754218 S
0.246686 0.001670 0.503573 S
0.503916 0.747748 0.503567 S
0.502932 0.003436 0.247637 S
0.247172 0.746565 0.248470 S
0.753127 0.996980 0.497083 S
0.496139 0.253998 0.495525 S
0.495895 0.998215 0.753486 S
0.751819 0.254141 0.753416 S
0.245670 0.504272 0.003421 S
0.503722 0.246347 0.003052 S
0.504122 0.504483 0.744965 S
0.245559 0.245890 0.744931 S
0.752098 0.497225 0.996464 S
0.496865 0.753255 0.996642 S
0.496721 0.497154 0.250759 S
0.753075 0.753169 0.253427 S
