Li47 P16 O64                            
   1.00000000000000     
    10.4309130000000003    0.0015300000000000    0.0034960000000000
     0.0017650000000000   12.1609499999999997    0.0035110000000000
     0.0032800000000000    0.0028220000000000    9.7964230000000008
   Li   P    O 
    47    16    64
Direct
  0.3582910037208151  0.3691794621443814  0.1462562954858748
  0.6598991355302953  0.2521291953126529  0.0981485934586832
  0.6652956154750528  0.2490944017625670  0.5969435556294873
  0.6604338129585808  0.7478313084004087  0.0971659398593901
  0.6641247008203447  0.7500465013522782  0.5981878195576047
  0.1567114069090361  0.5049671522847201  0.1526050554266329
  0.1648694233366695  0.5016982395695185  0.6517444258320324
  0.1652462120095713  0.0007695708412779  0.1504335291015959
  0.1640507482311047  0.0005143216496335  0.6523305643958660
  0.3357728100366731 -0.0000690181160752  0.4010408792514404
  0.3360500285041289 -0.0010625341665591  0.9024677051402231
  0.3355591702694705  0.5017042833060315  0.4050272505097431
  0.3360145259898901  0.4995701654239977  0.9039022157545638
  0.8354073429728062  0.2495333652019397  0.3476768364970603
  0.8348044592241515  0.2498430757552142  0.8499665574707033
  0.8351816846613016  0.7484869468532688  0.3480415303967067
  0.8356309973581806  0.7495308225104313  0.8475391696597084
  0.3372997831381997  0.2453130895957497  0.4062256478146025
  0.3351610450383669  0.2477813166937659  0.9008604857640836
  0.3358689267995186  0.7488971352275274  0.4019395452141815
  0.3347286752433483  0.7483419622292300  0.9023213711352160
  0.8369501763389476  0.0017666606878304  0.3490835351252655
  0.8357195328998059  0.0009571820985779  0.8458199563750899
  0.8348075114926851  0.4988409707141711  0.3455136796723326
  0.8344486858515852  0.5008987225643965  0.8517180406904293
  0.6590867264480854  0.4953045922229626  0.0974414041827981
  0.6654440274234095  0.4992693539152298  0.5972584274561298
  0.6637381502379917  0.9936156492451393  0.0956103482888136
  0.6648784061041987  0.9976695152443700  0.5975046047074516
  0.1640248111343045  0.2521315044569253  0.6482822335264050
  0.1627188417923686  0.7525944061646800  0.1531750405475259
  0.1642245283453956  0.7523710553787928  0.6514455430520051
  0.9324576380343448  0.3706287847405072  0.1467532750958461
  0.9230844244504917  0.3758876230457808  0.6536871886844499
  0.9220242660734247  0.8740157604571756  0.1482081627881324
  0.9237417512212496  0.8756151839514714  0.6484827618336341
  0.4236293363653763  0.3743466552966744  0.6048851573308583
  0.4236413562802003  0.8719757993256614  0.1016084723428837
  0.4239335962936218  0.8744591906928737  0.6001053455359308
  0.0798828439482640  0.1314764504990981  0.3420675816938303
  0.0775489785167987  0.1274087082998568  0.8548310551496513
  0.0754369059957786  0.6263933620682541  0.3530783193329754
  0.0752155304337045  0.6261049285710070  0.8498519760362911
  0.5774867423330184  0.1237250544331820  0.3985199242493859
  0.5767575045717077  0.1227952978247080  0.8984003694242471
  0.5754195889963925  0.6238594975356540  0.3988940148783263
  0.5746406154892102  0.6231176050935849  0.8983445074068869
  0.9088553944236720  0.1236149350541504  0.0949533585004351
  0.9133068956840130  0.1259488409037861  0.5952133626240456
  0.9089997960245543  0.6253934456046362  0.0955759756532583
  0.9116377197988176  0.6251638145032393  0.5953982228399410
  0.4141474607112531  0.1207270595218821  0.1541806196613767
  0.4126438040692275  0.1230555878351599  0.6550147419618215
  0.4086257450860086  0.6242955566557583  0.1548935470710681
  0.4116939670839301  0.6249582537028353  0.6549199051291589
  0.0890497424881045  0.3759273520086326  0.4054940833946188
  0.0901796893617752  0.3769208699799259  0.9049531143077315
  0.0882032714847292  0.8762819826953577  0.4044601942007239
  0.0876758351864073  0.8756695748801757  0.9046656011762580
  0.5860195442537279  0.3739291802190636  0.3444502434456880
  0.5858476566726368  0.3739739562443357  0.8423583352946835
  0.5882813157140038  0.8735955364962052  0.3452368998588656
  0.5878839701320416  0.8730249540281323  0.8448574427200489
  0.8372184082454139  0.0202366490817093  0.1462335041773170
  0.8421826853647626  0.0222037069934510  0.6456204522276260
  0.8405502815422746  0.5204840201761518  0.1452756016129083
  0.8422283625299242  0.5222953782271934  0.6499559366961177
  0.3487779104328632  0.2225723699724598  0.0951496740785284
  0.3430521173385381  0.2272387115344111  0.6046703946723146
  0.3394812495003184  0.7285269267936673  0.1036868986153854
  0.3416472280595544  0.7284556469704313  0.6028050975290392
  0.1626911074145361  0.2717128210697549  0.3669268572177804
  0.1585279793439666  0.2739632660959050  0.8495509231841020
  0.1587006837557469  0.7724184629541906  0.3540383767123061
  0.1578846316330507  0.7722157975050532  0.8526613792274087
  0.6562679747499269  0.4773118038635670  0.3974773925139859
  0.6552747898990283  0.4768695115344858  0.8966877555859305
  0.6589540077642257  0.9770009081948711  0.3962310125366879
  0.6589564502614637  0.9761200152556763  0.8963109383858264
  0.1592017415809462  0.4789166146108649  0.3516482940618669
  0.1578776324447641  0.4806075677703847  0.8488338332842419
  0.1582022139119428  0.9794359160618696  0.3520190691970344
  0.1583841289549593  0.9791079254755002  0.8536428244813024
  0.6565127321283852  0.2707515186664592  0.3978913823297519
  0.6542291385646164  0.2703180345356617  0.8970655406052509
  0.6579847814731733  0.7701672875707619  0.3977033529478504
  0.6577884624521050  0.7693007174565326  0.8961853127858934
  0.8399363979386069  0.2275594565626054  0.1467499989289097
  0.8426127076701849  0.2290752907844404  0.6479451969162588
  0.8370471195437753  0.7280986713935610  0.1470570540107521
  0.8416474674687997  0.7290959297451323  0.6462195163025993
  0.3443287861755847  0.0167766354988177  0.1044833118959123
  0.3417182741835034  0.0204980558742983  0.6017597998026649
  0.3343769330228545  0.5225848835076525  0.1046453687325080
  0.3419695141533260  0.5216557768319605  0.6022454574336635
  0.5541422769640614  0.1198446409409072  0.1040469075483949
  0.5515973100929140  0.1230046756655867  0.6026310624941027
  0.5467478420662488  0.6227372599132023  0.1008784085929871
  0.5509445838715776  0.6247874668656974  0.6035607052125102
  0.0457839327298423  0.1186886383908121  0.1486124755337678
  0.0514631302414957  0.1259328884429816  0.6490305782556428
  0.0471795219032806  0.6282576668123209  0.1499459707735573
  0.0511710614075172  0.6267144045265415  0.6454490525143128
  0.4457123811918567  0.3739244992424697  0.3952045963519849
  0.4440129521834809  0.3739311460940067  0.8822038831118431
  0.4492496169775822  0.8743239250933359  0.3971453402248030
  0.4492229687210771  0.8732525917681432  0.8976347998691335
  0.9515586260221278  0.3737074905513246  0.3496464330149998
  0.9491261028178840  0.3754870504686827  0.8573128754146407
  0.9492633970831341  0.8750858384130621  0.3518715573417338
  0.9488757501437793  0.8756279040150492  0.8520143231548418
  0.5854441601890769  0.3735914494599623  0.1883137799205124
  0.5940902253878266  0.3739829576122982  0.6848469378814019
  0.5886279110088105  0.8723770323811053  0.1879011886216377
  0.5886186415122656  0.8737394476095677  0.6875266533555699
  0.0960767072894872  0.3803027643046542  0.0606783487231416
  0.0854584079719114  0.3804788802412320  0.5632304808227230
  0.0878194699608651  0.8754269730091626  0.0619902918541240
  0.0886313654248456  0.8767285578783598  0.5618355487542646
  0.4118035355829503  0.1238113444293945  0.3112515653438356
  0.4116298283090589  0.1216972437398624  0.8121950850233262
  0.4097403867648645  0.6244476167142153  0.3122946738252330
  0.4096289846683251  0.6246618697661696  0.8121445975607430
  0.9131490624770604  0.1265943123178423  0.4378875508119754
  0.9084688039415867  0.1244471664340146  0.9376327179960080
  0.9091957019064609  0.6233460949103056  0.4379690905136915
  0.9104657704495476  0.6261718789133298  0.9381696292780776
 
             NaN             NaN             NaN
             NaN             NaN             NaN
             NaN             NaN             NaN
             NaN             NaN             NaN
             NaN             NaN             NaN
             NaN             NaN             NaN
             NaN             NaN             NaN
             NaN             NaN             NaN
             NaN             NaN             NaN
             NaN             NaN             NaN
             NaN             NaN             NaN
             NaN             NaN             NaN
             NaN             NaN             NaN
             NaN             NaN             NaN
             NaN             NaN             NaN
             NaN             NaN             NaN
             NaN             NaN             NaN
             NaN             NaN             NaN
             NaN             NaN             NaN
             NaN             NaN             NaN
             NaN             NaN             NaN
             NaN             NaN             NaN
             NaN             NaN             NaN
             NaN             NaN             NaN
             NaN             NaN             NaN
             NaN             NaN             NaN
             NaN             NaN             NaN
             NaN             NaN             NaN
             NaN             NaN             NaN
             NaN             NaN             NaN
             NaN             NaN             NaN
             NaN             NaN             NaN
             NaN             NaN             NaN
             NaN             NaN             NaN
             NaN             NaN             NaN
             NaN             NaN             NaN
             NaN             NaN             NaN
             NaN             NaN             NaN
             NaN             NaN             NaN
             NaN             NaN             NaN
             NaN             NaN             NaN
             NaN             NaN             NaN
             NaN             NaN             NaN
             NaN             NaN             NaN
             NaN             NaN             NaN
             NaN             NaN             NaN
             NaN             NaN             NaN
             NaN             NaN             NaN
             NaN             NaN             NaN
             NaN             NaN             NaN
             NaN             NaN             NaN
             NaN             NaN             NaN
             NaN             NaN             NaN
             NaN             NaN             NaN
             NaN             NaN             NaN
             NaN             NaN             NaN
             NaN             NaN             NaN
             NaN             NaN             NaN
             NaN             NaN             NaN
             NaN             NaN             NaN
             NaN             NaN             NaN
             NaN             NaN             NaN
             NaN             NaN             NaN
             NaN             NaN             NaN
             NaN             NaN             NaN
             NaN             NaN             NaN
             NaN             NaN             NaN
             NaN             NaN             NaN
             NaN             NaN             NaN
             NaN             NaN             NaN
             NaN             NaN             NaN
             NaN             NaN             NaN
             NaN             NaN             NaN
             NaN             NaN             NaN
             NaN             NaN             NaN
             NaN             NaN             NaN
             NaN             NaN             NaN
             NaN             NaN             NaN
             NaN             NaN             NaN
             NaN             NaN             NaN
             NaN             NaN             NaN
             NaN             NaN             NaN
             NaN             NaN             NaN
             NaN             NaN             NaN
             NaN             NaN             NaN
             NaN             NaN             NaN
             NaN             NaN             NaN
             NaN             NaN             NaN
             NaN             NaN             NaN
             NaN             NaN             NaN
             NaN             NaN             NaN
             NaN             NaN             NaN
             NaN             NaN             NaN
             NaN             NaN             NaN
             NaN             NaN             NaN
             NaN             NaN             NaN
             NaN             NaN             NaN
             NaN             NaN             NaN
             NaN             NaN             NaN
             NaN             NaN             NaN
             NaN             NaN             NaN
             NaN             NaN             NaN
             NaN             NaN             NaN
             NaN             NaN             NaN
             NaN             NaN             NaN
             NaN             NaN             NaN
             NaN             NaN             NaN
             NaN             NaN             NaN
             NaN             NaN             NaN
             NaN             NaN             NaN
             NaN             NaN             NaN
             NaN             NaN             NaN
             NaN             NaN             NaN
             NaN             NaN             NaN
             NaN             NaN             NaN
             NaN             NaN             NaN
             NaN             NaN             NaN
             NaN             NaN             NaN
             NaN             NaN             NaN
             NaN             NaN             NaN
             NaN             NaN             NaN
             NaN             NaN             NaN
             NaN             NaN             NaN
             NaN             NaN             NaN
             NaN             NaN             NaN
             NaN             NaN             NaN
             NaN             NaN             NaN
