Li47 P16 O64
1.0
10.430913 0.001530 0.003496
0.001765 12.160950 0.003511
0.003280 0.002822 9.796423
Li P O
47 16 64
direct
0.357537 0.345309 0.115329 Li
0.662531 0.251419 0.098370 Li
0.664265 0.249931 0.597799 Li
0.664701 0.749987 0.098178 Li
0.664055 0.750898 0.597698 Li
0.164905 0.494772 0.153707 Li
0.164216 0.501726 0.651876 Li
0.165438 0.000695 0.150720 Li
0.163890 0.000087 0.652446 Li
0.335899 0.001136 0.402169 Li
0.336129 0.001054 0.901894 Li
0.336497 0.500177 0.401510 Li
0.334973 0.500165 0.903339 Li
0.836426 0.248222 0.348875 Li
0.834809 0.249110 0.847451 Li
0.836347 0.749101 0.347887 Li
0.836331 0.749142 0.848050 Li
0.336724 0.249659 0.398888 Li
0.333861 0.250260 0.905082 Li
0.335909 0.749219 0.401897 Li
0.335792 0.749156 0.902308 Li
0.836432 0.001044 0.348243 Li
0.836077 0.000833 0.847215 Li
0.836527 0.500802 0.347436 Li
0.835108 0.501544 0.848055 Li
0.663091 0.498506 0.097832 Li
0.664514 0.500161 0.598046 Li
0.664162 0.995958 0.095840 Li
0.664289 0.998538 0.598210 Li
0.163572 0.251083 0.647440 Li
0.163986 0.750622 0.152376 Li
0.164222 0.752010 0.651754 Li
0.926325 0.371786 0.150907 Li
0.919585 0.375819 0.648687 Li
0.924121 0.874481 0.148694 Li
0.924027 0.875527 0.648790 Li
0.423495 0.374998 0.603857 Li
0.424658 0.874587 0.100924 Li
0.423388 0.875210 0.601066 Li
0.078632 0.128428 0.344607 Li
0.076717 0.126481 0.854085 Li
0.076989 0.624556 0.351004 Li
0.076537 0.625750 0.850825 Li
0.577363 0.124636 0.399423 Li
0.576165 0.124500 0.898259 Li
0.576407 0.624756 0.398927 Li
0.575475 0.624758 0.898882 Li
0.909726 0.123933 0.095309 P
0.912302 0.124736 0.595200 P
0.912450 0.623920 0.095476 P
0.911770 0.626143 0.595162 P
0.414096 0.123461 0.154633 P
0.411914 0.125152 0.654943 P
0.411428 0.625958 0.154724 P
0.411623 0.625229 0.654732 P
0.087425 0.375131 0.408708 P
0.086231 0.376392 0.901997 P
0.088506 0.875533 0.404439 P
0.088460 0.875311 0.904949 P
0.589386 0.375102 0.346388 P
0.587546 0.375162 0.843772 P
0.588462 0.874616 0.345411 P
0.588149 0.874394 0.844876 P
0.838594 0.020112 0.145844 O
0.841655 0.021239 0.646627 O
0.841683 0.520600 0.146805 O
0.840906 0.523342 0.647658 O
0.348915 0.226357 0.099099 O
0.342604 0.228699 0.602542 O
0.342200 0.730384 0.104216 O
0.341520 0.728775 0.602929 O
0.158486 0.269766 0.369174 O
0.157021 0.273180 0.850824 O
0.158351 0.771514 0.353514 O
0.158886 0.772036 0.852788 O
0.659510 0.478591 0.398331 O
0.657219 0.478349 0.896819 O
0.658874 0.977895 0.397147 O
0.658571 0.977898 0.895952 O
0.158727 0.477132 0.354471 O
0.157313 0.479565 0.849892 O
0.159045 0.978541 0.352179 O
0.158562 0.979003 0.853742 O
0.659152 0.271340 0.398224 O
0.656334 0.271519 0.897382 O
0.658578 0.771021 0.397006 O
0.658517 0.771064 0.896910 O
0.839958 0.227189 0.148177 O
0.841003 0.227956 0.646434 O
0.842250 0.727648 0.147102 O
0.841520 0.729879 0.646103 O
0.343883 0.019979 0.103459 O
0.341529 0.021759 0.603149 O
0.339021 0.524709 0.101644 O
0.341678 0.521906 0.602410 O
0.553958 0.121990 0.103802 O
0.551187 0.124448 0.603293 O
0.550335 0.625132 0.102364 O
0.550753 0.625251 0.602940 O
0.047119 0.120323 0.148389 O
0.050424 0.125269 0.649211 O
0.051303 0.623819 0.147854 O
0.050623 0.626781 0.647218 O
0.450504 0.375261 0.398523 O
0.447268 0.375612 0.889587 O
0.449455 0.874919 0.397457 O
0.449300 0.874716 0.897255 O
0.949470 0.374083 0.353830 O
0.947490 0.375411 0.848606 O
0.949521 0.875279 0.352228 O
0.949500 0.875145 0.852818 O
0.591217 0.375272 0.189487 O
0.592230 0.374972 0.686468 O
0.589385 0.874088 0.188013 O
0.588688 0.874319 0.687576 O
0.084747 0.378729 0.058077 O
0.084845 0.379658 0.566163 O
0.089358 0.874783 0.062267 O
0.089160 0.875996 0.561869 O
0.412514 0.124352 0.311846 O
0.410571 0.125306 0.812269 O
0.411043 0.624963 0.312114 O
0.410333 0.625032 0.812063 O
0.912510 0.124601 0.437936 O
0.908837 0.125244 0.937906 O
0.911310 0.625085 0.437760 O
0.911552 0.624708 0.937997 O
