Na47 P16 S64                            
   1.00000000000000     
    14.0117659999999997   -0.0096630000000000   -0.0000590000000000
    -0.0097480000000000   14.0258780000000005   -0.0000060000000000
    -0.0000360000000000   -0.0000440000000000   14.4012130000000003
   Na   P    S 
    47    16    64
Direct
  0.6049563198763650  0.7526011380501956  0.7431064352912529
  0.9998552950305211  0.2507334657561344  0.2040100298972902
  0.9994824781475202  0.2501471421770844  0.7033711804252647
  0.9989880987050057  0.7508922407154657  0.2095680239481936
  0.9841632380886836  0.7524192880681255  0.7140094443807570
  0.5000912251025085  0.2492781469307417  0.2053078602915477
  0.5006509961420065  0.2503508486012649  0.7048484200423317
  0.5007121859274548  0.7492918595205680  0.2114756832603462
  0.2486881608627414  0.9991571520120885  0.2927612858141444
  0.2483554718947616  0.9989281969913151  0.7921433756966749
  0.2519362142746715  0.5005657230499239  0.2971702804029661
  0.2502336935645815  0.5025252910889932  0.7960534074472250
  0.7481329978415303  0.9988723703289182  0.2941031470809392
  0.7483481544732555  0.9834199218353774  0.7887916321542434
  0.7511833235995624  0.5014567283368478  0.2895707309873075
  0.7548974452747927  0.5162798500791865  0.7852151207196627
  0.2531326837072925  0.9992098295740988  0.0421983156120618
  0.2426370265199367  0.9993183131479810  0.5425498195955498
  0.2467859027614026  0.4999286605466224  0.0471980476616736
  0.2564249756779233  0.5042622004688369  0.5485554601155158
  0.7523726258270358  0.0004602087482937  0.0424977903020078
  0.7446046894436762  0.9982787445744705  0.5421049683926000
  0.7463320076396442  0.5004384062131209  0.0378765027423711
  0.7584140551963827  0.4988220907240901  0.5370279241407658
  0.9998245595096691  0.2484091318315151  0.4536345881771098
  0.9983372710481291  0.2530490374174619  0.9524364745559666
  0.0003335202225330  0.7481707434141356  0.4614570960155078
  0.9999924196542622  0.7534544165823149  0.9595606922247200
  0.5002016304497019  0.2517164934386429  0.4550058358785662
  0.5014106010372288  0.2470484064599106  0.9534003666661093
  0.5000547660646717  0.7516965982930159  0.4717356067065168
  0.4979883084676970  0.7457864507185548  0.9609678960862169
  0.9908002658258468  0.9971339756397981  0.5012897101966871
  0.0029250172741513  0.0090594866475371  0.0003584010460500
  0.0122496517469202  0.4968221155027805  0.4993144111736711
  0.9965683526171460  0.5011759898411867  0.9982373755037059
  0.4896762279194675  0.0023264859549030  0.4988864512276336
  0.5062324567428931  0.9972261299676930  0.9992649739991890
  0.5061060975100489  0.5039263569749366  0.5019678371360285
  0.4920802343691548  0.4922347037468811  0.0027310818526587
  0.2491523509918565  0.2513169412709431  0.2498722121008043
  0.2491100086737532  0.2527550587497771  0.7499935861120832
  0.2507069307755430  0.7481662368720379  0.2505479471682648
  0.2852155869647035  0.7487559465233886  0.7486892181375282
  0.7508856420423626  0.2487455593987988  0.2492337834779264
  0.7511179361859774  0.2471668392522091  0.7507587856857612
  0.7489445749331907  0.7518788598204580  0.2491605411587656
  0.9991406857365561  0.0012829807780648  0.2493725595936525
  0.9989644388742960  0.0033410937208345  0.7516211991065163
  0.0015614431222346  0.4996072929294755  0.2496970145817556
  0.0028748281664761  0.4983492647830658  0.7481448066062342
  0.4991095575905788  0.0001478540880768  0.2499735310325164
  0.4972849800530739  0.0014186887539367  0.7487565519384205
  0.5002161176176187  0.4989852154278083  0.2504509622330602
  0.4999759709164664  0.4977776767873934  0.7523856620301999
  0.2497871514084764  0.2503969026434518  0.0001734368238644
  0.2497558893833158  0.2509470666007445  0.4994421147064401
  0.2501843584678483  0.7486887146293739  0.0014086590956666
  0.2492943050843905  0.7519699302301888  0.4986339560814699
  0.7500702783620667  0.2493232056544130  0.9998297311907578
  0.7501997609222144  0.2490795963279879  0.4988887620477342
  0.7493346895770259  0.7489593370102270  0.0016009253786038
  0.7517996702124847  0.7490088356400122  0.4952523400763909
  0.1553062012223734  0.1742082633441981  0.0821624666540757
  0.1546611304812870  0.1757375122255240  0.5811274543339096
  0.1534170053025008  0.6759977319092130  0.0836468413523761
  0.1568312883632572  0.6772716160902306  0.5832379943238166
  0.6552378889059653  0.1739860254936616  0.0826008927953907
  0.6542546227314290  0.1754907312255582  0.5807246588893165
  0.6546568717051997  0.6742342913219517  0.0846869337131437
  0.6584253768653312  0.6686805121359143  0.5740563001851484
  0.3451646295955442  0.3252147770311780  0.0824883023223961
  0.3454255032476752  0.3255288691271261  0.5810812788626905
  0.3453111322412354  0.8238930030743958  0.0835901572007103
  0.3437149957524852  0.8300876535442470  0.5775630705695036
  0.8442568671918664  0.3262270057424672  0.0819433221190025
  0.8458903846444557  0.3234396981640302  0.5806140297215947
  0.8431175479195048  0.8265940314563949  0.0834573186575085
  0.8453131908812495  0.8262075595692480  0.5759176610664909
  0.1745518038002913  0.3462826922135136  0.4178826109934803
  0.1743826862305866  0.3461527927733741  0.9196091641124866
  0.1715877151837262  0.8430199095697191  0.4141211115073915
  0.1779090255635296  0.8421604586482943  0.9163613908755579
  0.6766705447083012  0.3444445460243628  0.4159867604401200
  0.6759011895336329  0.3434064228533700  0.9170559546057859
  0.6728889628015651  0.8430088474482744  0.4150534373674759
  0.6709684911032738  0.8438535080934031  0.9212554825377026
  0.3243306987317069  0.1559350645180757  0.4168715490984951
  0.3243289988291735  0.1560084403575246  0.9175199264272536
  0.3267037786580005  0.6567278703705881  0.4178741988675156
  0.3256284488465369  0.6506649822806665  0.9229388950895370
  0.8245892452885784  0.1529360289629835  0.4173523743981775
  0.8252344185859855  0.1534875656386276  0.9192085216361647
  0.8283280016568142  0.6571941818747149  0.4106776416920752
  0.8267609584772373  0.6548088058564119  0.9224582077370584
  0.0963065751893311  0.4236886275304173  0.1680581391696023
  0.1017304192327373  0.4221292571955786  0.6709783857202964
  0.0935329651254193  0.9266314999140732  0.1662516983168842
  0.0901165225873868  0.9255444618463997  0.6684367494381647
  0.5942142833703414  0.4238541356005925  0.1672492423659051
  0.5960466290799289  0.4258393867944292  0.6689469439659348
  0.5947368974270688  0.9250533421215437  0.1689078998955154
  0.5885306704689768  0.9289743363214953  0.6609304933836384
  0.4051247338789210  0.0750129102214601  0.1666124466752450
  0.4000047255647772  0.0778390241203439  0.6703362349714155
  0.4044432205308937  0.5741914344272487  0.1692083578629493
  0.4100709694951590  0.5794261853344835  0.6721145413815037
  0.9041437565005523  0.0772434253760821  0.1681274571329752
  0.9007017297682012  0.0756934660443207  0.6705390047054252
  0.9073826881832687  0.5741107679641431  0.1667328421383516
  0.9126437028189969  0.5716909356220299  0.6604896999769068
  0.0749576238534715  0.0952728326748513  0.3320879443664637
  0.0771305258840158  0.1009158764073703  0.8286221025797644
  0.0770359810719583  0.5946016977342410  0.3314574032293507
  0.0735342383760766  0.5939678404838418  0.8325944486686652
  0.5736435055673041  0.0954802269012731  0.3323799991099960
  0.5772119340994664  0.0943122209259428  0.8291667561415892
  0.5753613595296585  0.5935382648239553  0.3321039610451635
  0.5750745771099801  0.5833393489440795  0.8441478981059234
  0.4254497126848946  0.4038906807349463  0.3328197845899865
  0.4216186412309426  0.3997348635090532  0.8287597546078800
  0.4235826212853411  0.9056099584707979  0.3318874763608761
  0.4254042061171290  0.9070072960976319  0.8334964501678641
  0.9257837839393090  0.4052626480867616  0.3320945448574832
  0.9228453025031271  0.4048390233156525  0.8279661551896567
  0.9243052665615039  0.9060287493387236  0.3309376870813168
  0.9278303031204729  0.9114384646812113  0.8394457919800757
 
             NaN             NaN             NaN
             NaN             NaN             NaN
             NaN             NaN             NaN
             NaN             NaN             NaN
             NaN             NaN             NaN
             NaN             NaN             NaN
             NaN             NaN             NaN
             NaN             NaN             NaN
             NaN             NaN             NaN
             NaN             NaN             NaN
             NaN             NaN             NaN
             NaN             NaN             NaN
             NaN             NaN             NaN
             NaN             NaN             NaN
             NaN             NaN             NaN
             NaN             NaN             NaN
             NaN             NaN             NaN
             NaN             NaN             NaN
             NaN             NaN             NaN
             NaN             NaN             NaN
             NaN             NaN             NaN
             NaN             NaN             NaN
             NaN             NaN             NaN
             NaN             NaN             NaN
             NaN             NaN             NaN
             NaN             NaN             NaN
             NaN             NaN             NaN
             NaN             NaN             NaN
             NaN             NaN             NaN
             NaN             NaN             NaN
             NaN             NaN             NaN
             NaN             NaN             NaN
             NaN             NaN             NaN
             NaN             NaN             NaN
             NaN             NaN             NaN
             NaN             NaN             NaN
             NaN             NaN             NaN
             NaN             NaN             NaN
             NaN             NaN             NaN
             NaN             NaN             NaN
             NaN             NaN             NaN
             NaN             NaN             NaN
             NaN             NaN             NaN
             NaN             NaN             NaN
             NaN             NaN             NaN
             NaN             NaN             NaN
             NaN             NaN             NaN
             NaN             NaN             NaN
             NaN             NaN             NaN
             NaN             NaN             NaN
             NaN             NaN             NaN
             NaN             NaN             NaN
             NaN             NaN             NaN
             NaN             NaN             NaN
             NaN             NaN             NaN
             NaN             NaN             NaN
             NaN             NaN             NaN
             NaN             NaN             NaN
             NaN             NaN             NaN
             NaN             NaN             NaN
             NaN             NaN             NaN
             NaN             NaN             NaN
             NaN             NaN             NaN
             NaN             NaN             NaN
             NaN             NaN             NaN
             NaN             NaN             NaN
             NaN             NaN             NaN
             NaN             NaN             NaN
             NaN             NaN             NaN
             NaN             NaN             NaN
             NaN             NaN             NaN
             NaN             NaN             NaN
             NaN             NaN             NaN
             NaN             NaN             NaN
             NaN             NaN             NaN
             NaN             NaN             NaN
             NaN             NaN             NaN
             NaN             NaN             NaN
             NaN             NaN             NaN
             NaN             NaN             NaN
             NaN             NaN             NaN
             NaN             NaN             NaN
             NaN             NaN             NaN
             NaN             NaN             NaN
             NaN             NaN             NaN
             NaN             NaN             NaN
             NaN             NaN             NaN
             NaN             NaN             NaN
             NaN             NaN             NaN
             NaN             NaN             NaN
             NaN             NaN             NaN
             NaN             NaN             NaN
             NaN             NaN             NaN
             NaN             NaN             NaN
             NaN             NaN             NaN
             NaN             NaN             NaN
             NaN             NaN             NaN
             NaN             NaN             NaN
             NaN             NaN             NaN
             NaN             NaN             NaN
             NaN             NaN             NaN
             NaN             NaN             NaN
             NaN             NaN             NaN
             NaN             NaN             NaN
             NaN             NaN             NaN
             NaN             NaN             NaN
             NaN             NaN             NaN
             NaN             NaN             NaN
             NaN             NaN             NaN
             NaN             NaN             NaN
             NaN             NaN             NaN
             NaN             NaN             NaN
             NaN             NaN             NaN
             NaN             NaN             NaN
             NaN             NaN             NaN
             NaN             NaN             NaN
             NaN             NaN             NaN
             NaN             NaN             NaN
             NaN             NaN             NaN
             NaN             NaN             NaN
             NaN             NaN             NaN
             NaN             NaN             NaN
             NaN             NaN             NaN
             NaN             NaN             NaN
             NaN             NaN             NaN
             NaN             NaN             NaN
             NaN             NaN             NaN
