Li47 P16 O64                            
   1.00000000000000     
    10.5596470000000000    0.0000880000000000   -0.0050780000000000
     0.0001020000000000   12.3526129999999998   -0.0005190000000000
    -0.0047990000000000   -0.0004130000000000    9.9787420000000004
   Li   P    O 
    47    16    64
Direct
  0.6255440714380447  0.2596978476691402  0.0888092505254492
  0.6658241241265112  0.2495239277602069  0.5990093936847681
  0.6644179444172401  0.7516881567030064  0.0982687398270177
  0.6646333105535700  0.7517519145929080  0.5995053647341414
  0.1633581704995542  0.4972409901460437  0.1511626166182075
  0.1639845880056138  0.4990850985858735  0.6515866043642760
  0.1618289398123795  0.9970186075531593  0.1526637811370726
  0.1636618183449032  0.9988277339762683  0.6515386924457256
  0.3359401360789147  0.0001023433054608  0.4009640286986207
  0.3357276128112487  0.0004877393930703  0.9015230597715769
  0.3371199175476211  0.5006173333754264  0.3987261832492169
  0.3369911696802850  0.4979749150364939  0.9068924663654022
  0.8357085433285771  0.2490588090145393  0.3471582038795277
  0.8338824517525387  0.2493774676595677  0.8528081002567200
  0.8369260466290485  0.7489133975021541  0.3495397479316520
  0.8370180024559215  0.7489573104352154  0.8488834340300820
  0.3372648888513326  0.2504037875200248  0.3973962077109898
  0.3366797832792714  0.2527617758767179  0.9065494799018740
  0.3362956825632868  0.7499237277370555  0.4009700413283608
  0.3363646658860284  0.7502359614946885  0.9014761319405481
  0.8367664895790933  0.0016851225808501  0.3498960993700788
  0.8372111428327321  0.0012313636170787  0.8490567683188365
  0.8365055337889173  0.5017770264521337  0.3490650579554997
  0.8354823914456881  0.5015265744812727  0.8497329362421630
  0.6578927349024366  0.4990987667795502  0.0971021467624862
  0.6661305382484202  0.5023638126084949  0.5998983131364575
  0.6643566340957083  0.0006626254021855  0.0994700223555831
  0.6642787194080336  0.9994287333670255  0.5987339155387957
  0.1633050725175298  0.2524406504893495  0.1504188072880037
  0.1636386175898950  0.2510548781163537  0.6513269406256171
  0.1624758174086796  0.7517556269482096  0.1518433724943344
  0.1639245354768103  0.7514494466206402  0.6520019281063870
  0.9212165513985532  0.3751043782012233  0.1475153876108512
  0.9242891982552343  0.3747488458682874  0.6496284953415312
  0.9236697396040897  0.8755048131059788  0.1496228125891304
  0.9251976234156963  0.8752456873345705  0.6489536223697382
  0.4240573540467994  0.3757457805740630  0.6083114593622359
  0.4294585188865511  0.8756509680808809  0.1005914372614019
  0.4259273444908803  0.8753366447359960  0.6012976603675891
  0.0749261197470469  0.1253535249279497  0.3515361299342381
  0.0750217330514284  0.1256010529042585  0.8526475114979385
  0.0752654265487551  0.6245570865654796  0.3512864692683365
  0.0756322680705759  0.6245619755373727  0.8526766707585755
  0.5740495532502742  0.1254351416790103  0.3982258395331008
  0.5737824867952181  0.1229956858036705  0.8952945502052204
  0.5747864864930423  0.6260622191574012  0.4007354849922101
  0.5728042719954938  0.6255447023067655  0.8971108657958548
  0.9103124776535823  0.1257496478975762  0.0975955606008731
  0.9119463656392307  0.1249166878834225  0.5974742726635255
  0.9103111394658059  0.6252872105748856  0.0970777227787368
  0.9127059609620490  0.6256300575887431  0.5972724688970421
  0.4065727224008348  0.1193529084843447  0.1522199500636683
  0.4106022347758415  0.1249737213291453  0.6531639586770317
  0.4099634259382468  0.6298893920758886  0.1528755787382541
  0.4105913075001763  0.6261221540125638  0.6539483649638791
  0.0882488194277868  0.3751979140214386  0.4035991251367935
  0.0866137075528223  0.3751397870175283  0.9035421609186290
  0.0881066571320802  0.8748492032897398  0.4043940378741188
  0.0879463109958734  0.8749416257464213  0.9041766258419381
  0.5907016208001039  0.3769873936611495  0.3508598147685393
  0.5866830844484427  0.3760111901922455  0.8390282494065049
  0.5897027730475035  0.8753964186543713  0.3471970947983542
  0.5896886173633110  0.8751713214956474  0.8457718218546229
  0.8407962697861039  0.0221745288054275  0.1492112741715449
  0.8418023244277162  0.0214656859530014  0.6480674304465743
  0.8386451150220711  0.5227789258864264  0.1478421502168055
  0.8428605409720831  0.5228220968106719  0.6496128246196559
  0.3307620945040093  0.2158399898887991  0.0961743352513938
  0.3412807257108621  0.2279999775463573  0.6002425366290687
  0.3432950046882610  0.7365628149616058  0.1064634955067720
  0.3411683636013518  0.7294805891859694  0.6018583039907368
  0.1580287324486098  0.2719203846033387  0.3522072357583071
  0.1566006075590611  0.2720903797263854  0.8519749875789406
  0.1581150283418946  0.7717499554916600  0.3527054565719600
  0.1586595040583336  0.7717868125993699  0.8535968273214225
  0.6600063614646597  0.4799355001634003  0.4043980795949584
  0.6549893241518885  0.4784313331893186  0.8955573529236408
  0.6590882182172110  0.9789184850319854  0.3988040198930508
  0.6598523782127345  0.9781028472590225  0.8977709769851369
  0.1587749630652671  0.4781545787769325  0.3523569093597329
  0.1568326614490418  0.4781441507391781  0.8521838855582058
  0.1579333291127762  0.9781313576187370  0.3532249039536195
  0.1584073403336709  0.9780340927538562  0.8531722054138363
  0.6590502775326037  0.2724793075214006  0.4014660713732320
  0.6526860792857154  0.2722712739756966  0.8950006179510630
  0.6596881909949888  0.7722747326192644  0.3990816326276899
  0.6591636751968263  0.7716920559134539  0.8970909520525980
  0.8408547729112618  0.2289216985204252  0.1482032124688450
  0.8419834101053110  0.2275232976827586  0.6503343033807696
  0.8408818043888363  0.7289584400207632  0.1481629565532498
  0.8422403602552889  0.7288288163103392  0.6480727552705955
  0.3402741440269162  0.0125811456639803  0.1062973395975700
  0.3412416215695320  0.0215148160260956  0.6012822861991884
  0.3314086148804196  0.5350571560213584  0.0961789164020432
  0.3414223755971948  0.5231595959175501  0.6006044563107605
  0.5446757629001729  0.1216201796505509  0.0976930332938287
  0.5500049799533170  0.1249524809940419  0.6020767670570391
  0.5479925504354386  0.6273161514169129  0.0988929188483508
  0.5500928512408619  0.6266393920890800  0.6034059647708485
  0.0496181997570960  0.1245344625427739  0.1493297268265475
  0.0509511451033154  0.1245084318496633  0.6491343074280985
  0.0489519988267870  0.6248266835669217  0.1498359242860893
  0.0515518303358473  0.6258620893414257  0.6492249946859970
  0.4516624115584320  0.3760079422338107  0.4020195078821979
  0.4445845658432491  0.3760668170350445  0.8744782480370710
  0.4507748189468936  0.8750495127165401  0.3987092523374078
  0.4507496558967370  0.8754277287062687  0.8971677454775517
  0.9492500737740904  0.3755480802821734  0.3516275865953020
  0.9474929035593489  0.3752238218190866  0.8515346639231192
  0.9491787614147430  0.8750179061250023  0.3524119007580660
  0.9495848662763403  0.8749232031983633  0.8507095269822154
  0.5949039893783649  0.3793179628249381  0.1962459260988029
  0.5976543121967008  0.3760836628744206  0.6829843765810675
  0.5918448897683519  0.8754248367346311  0.1907821738396086
  0.5906532989537172  0.8755920337474102  0.6893683096058116
  0.0862551184568448  0.3751820534998382  0.0598188736621835
  0.0889432064015633  0.3751417861360066  0.5601476873581163
  0.0869307687881527  0.8747020825843020  0.0605042215071765
  0.0892040181190624  0.8747758444174173  0.5608193051310659
  0.4096340828604809  0.1236051501478944  0.3087010225896926
  0.4087891154939380  0.1249177850748869  0.8094136098360757
  0.4116861684506399  0.6259709249153278  0.3092528239577015
  0.4083580528126909  0.6258195138740287  0.8101756624142025
  0.9106516984987175  0.1257678369784080  0.4409880378224086
  0.9100049248822142  0.1249149022334587  0.9409030576356479
  0.9115685866018346  0.6251239531410825  0.4408039582031372
  0.9103258241644490  0.6253004678319725  0.9405375837051950
 
             NaN             NaN             NaN
             NaN             NaN             NaN
             NaN             NaN             NaN
             NaN             NaN             NaN
             NaN             NaN             NaN
             NaN             NaN             NaN
             NaN             NaN             NaN
             NaN             NaN             NaN
             NaN             NaN             NaN
             NaN             NaN             NaN
             NaN             NaN             NaN
             NaN             NaN             NaN
             NaN             NaN             NaN
             NaN             NaN             NaN
             NaN             NaN             NaN
             NaN             NaN             NaN
             NaN             NaN             NaN
             NaN             NaN             NaN
             NaN             NaN             NaN
             NaN             NaN             NaN
             NaN             NaN             NaN
             NaN             NaN             NaN
             NaN             NaN             NaN
             NaN             NaN             NaN
             NaN             NaN             NaN
             NaN             NaN             NaN
             NaN             NaN             NaN
             NaN             NaN             NaN
             NaN             NaN             NaN
             NaN             NaN             NaN
             NaN             NaN             NaN
             NaN             NaN             NaN
             NaN             NaN             NaN
             NaN             NaN             NaN
             NaN             NaN             NaN
             NaN             NaN             NaN
             NaN             NaN             NaN
             NaN             NaN             NaN
             NaN             NaN             NaN
             NaN             NaN             NaN
             NaN             NaN             NaN
             NaN             NaN             NaN
             NaN             NaN             NaN
             NaN             NaN             NaN
             NaN             NaN             NaN
             NaN             NaN             NaN
             NaN             NaN             NaN
             NaN             NaN             NaN
             NaN             NaN             NaN
             NaN             NaN             NaN
             NaN             NaN             NaN
             NaN             NaN             NaN
             NaN             NaN             NaN
             NaN             NaN             NaN
             NaN             NaN             NaN
             NaN             NaN             NaN
             NaN             NaN             NaN
             NaN             NaN             NaN
             NaN             NaN             NaN
             NaN             NaN             NaN
             NaN             NaN             NaN
             NaN             NaN             NaN
             NaN             NaN             NaN
             NaN             NaN             NaN
             NaN             NaN             NaN
             NaN             NaN             NaN
             NaN             NaN             NaN
             NaN             NaN             NaN
             NaN             NaN             NaN
             NaN             NaN             NaN
             NaN             NaN             NaN
             NaN             NaN             NaN
             NaN             NaN             NaN
             NaN             NaN             NaN
             NaN             NaN             NaN
             NaN             NaN             NaN
             NaN             NaN             NaN
             NaN             NaN             NaN
             NaN             NaN             NaN
             NaN             NaN             NaN
             NaN             NaN             NaN
             NaN             NaN             NaN
             NaN             NaN             NaN
             NaN             NaN             NaN
             NaN             NaN             NaN
             NaN             NaN             NaN
             NaN             NaN             NaN
             NaN             NaN             NaN
             NaN             NaN             NaN
             NaN             NaN             NaN
             NaN             NaN             NaN
             NaN             NaN             NaN
             NaN             NaN             NaN
             NaN             NaN             NaN
             NaN             NaN             NaN
             NaN             NaN             NaN
             NaN             NaN             NaN
             NaN             NaN             NaN
             NaN             NaN             NaN
             NaN             NaN             NaN
             NaN             NaN             NaN
             NaN             NaN             NaN
             NaN             NaN             NaN
             NaN             NaN             NaN
             NaN             NaN             NaN
             NaN             NaN             NaN
             NaN             NaN             NaN
             NaN             NaN             NaN
             NaN             NaN             NaN
             NaN             NaN             NaN
             NaN             NaN             NaN
             NaN             NaN             NaN
             NaN             NaN             NaN
             NaN             NaN             NaN
             NaN             NaN             NaN
             NaN             NaN             NaN
             NaN             NaN             NaN
             NaN             NaN             NaN
             NaN             NaN             NaN
             NaN             NaN             NaN
             NaN             NaN             NaN
             NaN             NaN             NaN
             NaN             NaN             NaN
             NaN             NaN             NaN
             NaN             NaN             NaN
             NaN             NaN             NaN
             NaN             NaN             NaN
