Li46 P16 O64                            
   1.00000000000000     
    10.5836480000000002   -0.0019180000000000   -0.0088570000000000
    -0.0022410000000000   12.3442380000000007   -0.0050420000000000
    -0.0083380000000000   -0.0040850000000000    9.9839090000000006
   Li   P    O 
    46    16    64
Direct
  0.2032925467876681  0.2882090452472109  0.1592318287403814
  0.6668468084274949  0.2472024009074810  0.6057255101412697
  0.6616899368272119  0.7477397668044818  0.0982554820624858
  0.6643284648287004  0.7510403465212218  0.5999647031160682
  0.1610035989490400  0.5070127975164347  0.1494395025098071
  0.1650307851698144  0.5007823328072167  0.6511638800623055
  0.1652754815315824  0.9944606622748653  0.1529833414373447
  0.1645235166458821  0.9992364962838198  0.6519650596687802
  0.3372400191040989  0.9996657406004852  0.4010340954549605
  0.3378689525246315  0.9995933924570400  0.9007507073496075
  0.3372461593859830  0.5018067806813850  0.4002748636138121
  0.3391314838990230  0.4965429696827454  0.9080908985549950
  0.8385866694151592  0.2492895646047535  0.3473925594023825
  0.8372271988288938  0.2495527891649691  0.8544113042734498
  0.8361231143497231  0.7488198089688468  0.3492895757269500
  0.8364557390053123  0.7490862809072357  0.8489152448725121
  0.3400921323567378  0.2469572485579616  0.4048606749512682
  0.3410907524411463  0.2500583279889892  0.9019305527993099
  0.3374242060036208  0.7489659299797100  0.4004864868440449
  0.3366960408666690  0.7481948500510835  0.9017075236450615
  0.8389637496645784  0.0017961779742004  0.3507978295506173
  0.8374065361084106  0.0015722387033850  0.8474328185323151
  0.8367672847894088  0.5009906804867925  0.3465819744564106
  0.8364849926504876  0.5002793875963231  0.8511439418333894
  0.6574098466151436  0.4894734180448189  0.0936161657351895
  0.6679073807082162  0.5034708787087105  0.5968913181226403
  0.6683104715551093  0.9968544271714056  0.0993224151724695
  0.6650744511540916  0.9989075200081224  0.5983858369266163
  0.1650016160203264  0.2515577227564100  0.6531762375256888
  0.1638723932122988  0.7515109114479339  0.1515673510652908
  0.1646404984759842  0.7517578879806990  0.6511060295387692
  0.9287341284951171  0.3751600151677827  0.1454019155137691
  0.9272935465852823  0.3754228345162177  0.6512471116442626
  0.9245174499186865  0.8735409801881510  0.1492737616222183
  0.9260435286048041  0.8753053886823429  0.6485747887627271
  0.4216294000531858  0.3761003218986448  0.6119564408241870
  0.4293363812349876  0.8723554393368301  0.1011224750542185
  0.4266725550989527  0.8745835325504343  0.6011778975822768
  0.0792849822919126  0.1285732917215866  0.3448477309099355
  0.0781358443890468  0.1266137469630286  0.8556492664950073
  0.0737337165476769  0.6268879132311513  0.3527998526817158
  0.0747522782930937  0.6251937744442967  0.8507656819735216
  0.5762921402641163  0.1239782955557475  0.3937208097483993
  0.5777686201576158  0.1283284156119144  0.9073719503865569
  0.5748423266677046  0.6256225370411588  0.3989972072561672
  0.5737387589022369  0.6225006342628751  0.8982488572314832
  0.9159569156382594  0.1233073913086661  0.0973122133416544
  0.9150350689178447  0.1256882107259289  0.5965806342624557
  0.9085786917745460  0.6254126365113662  0.0968336631737870
  0.9124120771757152  0.6255701045749731  0.5968869136090982
  0.4113652625771294  0.1181835497434912  0.1525157437229785
  0.4129364541800354  0.1234331935710378  0.6534589093130609
  0.4099513237549532  0.6258445756806467  0.1526587548695713
  0.4114721237533978  0.6254398279622819  0.6537426072038660
  0.0908994457593391  0.3775414275423488  0.4036778039426581
  0.0912348529468173  0.3769821889287347  0.9036387711382637
  0.0892877522448378  0.8751899461329886  0.4040815278401378
  0.0887548877046445  0.8747918844118485  0.9035422065553984
  0.5894892932862904  0.3755191114914151  0.3514781886861761
  0.5888313314617055  0.3740718232579806  0.8343332256157533
  0.5904187812813422  0.8741151882332016  0.3469738100962652
  0.5900298495375029  0.8739645508210371  0.8463928442801502
  0.8428538829045955  0.0221286951938173  0.1498494214524939
  0.8432640149660930  0.0226565888985254  0.6462848591207094
  0.8393937598862580  0.5212523374559981  0.1463966888908443
  0.8439655997211690  0.5223255112916781  0.6500689952145331
  0.3421145073752385  0.2164368156520787  0.0917104020262189
  0.3425130362248227  0.2270542739980255  0.6028941751403463
  0.3437625466106808  0.7327582267606426  0.1052165975076483
  0.3420244896665962  0.7290934869001621  0.6025603564115944
  0.1643560354764814  0.2761364459170983  0.3509161146420547
  0.1606195367761432  0.2736058282029993  0.8524886768058326
  0.1594888443926771  0.7719439231377901  0.3530480631254552
  0.1589102390905238  0.7715105344002683  0.8525327225987208
  0.6599968521213363  0.4787162259133665  0.4016776851833415
  0.6571309650535936  0.4746742886194709  0.8947941013830087
  0.6606330325730790  0.9776423262905708  0.3975415015831693
  0.6613144492079432  0.9762080942878021  0.8985472329406374
  0.1591076770424301  0.4814611343231162  0.3523398819591280
  0.1592780529914545  0.4799213477498831  0.8491528569052130
  0.1594362715157045  0.9781847479817209  0.3528160670638062
  0.1596636492892899  0.9778511605586500  0.8533765841434772
  0.6601743796963868  0.2719350594131678  0.4000055572469045
  0.6566208001405479  0.2679755126687927  0.8748191737166736
  0.6597336741211325  0.7711128269684795  0.3998960001360831
  0.6585007108615307  0.7696674159821772  0.8967927514714407
  0.8578086040209193  0.2291003629335113  0.1533307118899072
  0.8452143949100235  0.2288946038513126  0.6480655191462590
  0.8376539754791644  0.7281810804908762  0.1479918098610379
  0.8420705241595913  0.7286803601572280  0.6479934778865308
  0.3410356591821381  0.0132605941004852  0.1055207910763659
  0.3421870431740949  0.0207097897096307  0.6012755746558844
  0.3321264498946505  0.5293788444637213  0.0992998359779501
  0.3415475340120592  0.5229051021696118  0.6001150156861244
  0.5480056828757951  0.1125338907995220  0.0997793547536988
  0.5505175263421480  0.1241944544333909  0.5983786309925220
  0.5479378807852281  0.6222434323258628  0.0988827926140189
  0.5502120548956694  0.6259689133621517  0.6020929823446016
  0.0550530903145004  0.1187585728304867  0.1468581749537851
  0.0527939139048226  0.1251191037997560  0.6508293813101614
  0.0464649822561291  0.6276679308435814  0.1510901612290346
  0.0514757098453886  0.6265859252767277  0.6472640729257574
  0.4513745830766102  0.3747862960923640  0.4038858568959007
  0.4469094752024070  0.3735223348561548  0.8696843743210436
  0.4517719429731106  0.8746877606394728  0.3985876195659491
  0.4514370615657508  0.8743053811840729  0.8980942192385407
  0.9525557243152938  0.3756903371926518  0.3512503483022913
  0.9512761093337867  0.3753787022063222  0.8550365267689827
  0.9507791983685596  0.8746424561046775  0.3514034259318030
  0.9505228961392734  0.8752106474164532  0.8502457026710415
  0.5869038427254504  0.3731175420498943  0.1965159384460922
  0.5962072246715906  0.3797078282612387  0.6776306278957578
  0.5919928945556281  0.8727098314564746  0.1907350232642506
  0.5906931745849044  0.8750958369471249  0.6899431435860197
  0.0945347155925391  0.3802219111361714  0.0599428304853984
  0.0915036937443946  0.3759605175965393  0.5598793591820758
  0.0877617035409118  0.8739104277318485  0.0599097434948557
  0.0896282463127623  0.8754479914315130  0.5604107279440205
  0.4097162136227595  0.1238768893899414  0.3086394401376691
  0.4134710754572208  0.1225394206934898  0.8092773980983824
  0.4122698148392701  0.6247450381023714  0.3094133194948536
  0.4101476263105961  0.6242653097673022  0.8098987606570086
  0.9157206514977956  0.1262741451853938  0.4401362165753970
  0.9116307765828047  0.1239514535467256  0.9412076532225215
  0.9098033719903141  0.6246354077717242  0.4404579527113106
  0.9101359684513628  0.6256240487474051  0.9403897469462559
 
             NaN             NaN             NaN
             NaN             NaN             NaN
             NaN             NaN             NaN
             NaN             NaN             NaN
             NaN             NaN             NaN
             NaN             NaN             NaN
             NaN             NaN             NaN
             NaN             NaN             NaN
             NaN             NaN             NaN
             NaN             NaN             NaN
             NaN             NaN             NaN
             NaN             NaN             NaN
             NaN             NaN             NaN
             NaN             NaN             NaN
             NaN             NaN             NaN
             NaN             NaN             NaN
             NaN             NaN             NaN
             NaN             NaN             NaN
             NaN             NaN             NaN
             NaN             NaN             NaN
             NaN             NaN             NaN
             NaN             NaN             NaN
             NaN             NaN             NaN
             NaN             NaN             NaN
             NaN             NaN             NaN
             NaN             NaN             NaN
             NaN             NaN             NaN
             NaN             NaN             NaN
             NaN             NaN             NaN
             NaN             NaN             NaN
             NaN             NaN             NaN
             NaN             NaN             NaN
             NaN             NaN             NaN
             NaN             NaN             NaN
             NaN             NaN             NaN
             NaN             NaN             NaN
             NaN             NaN             NaN
             NaN             NaN             NaN
             NaN             NaN             NaN
             NaN             NaN             NaN
             NaN             NaN             NaN
             NaN             NaN             NaN
             NaN             NaN             NaN
             NaN             NaN             NaN
             NaN             NaN             NaN
             NaN             NaN             NaN
             NaN             NaN             NaN
             NaN             NaN             NaN
             NaN             NaN             NaN
             NaN             NaN             NaN
             NaN             NaN             NaN
             NaN             NaN             NaN
             NaN             NaN             NaN
             NaN             NaN             NaN
             NaN             NaN             NaN
             NaN             NaN             NaN
             NaN             NaN             NaN
             NaN             NaN             NaN
             NaN             NaN             NaN
             NaN             NaN             NaN
             NaN             NaN             NaN
             NaN             NaN             NaN
             NaN             NaN             NaN
             NaN             NaN             NaN
             NaN             NaN             NaN
             NaN             NaN             NaN
             NaN             NaN             NaN
             NaN             NaN             NaN
             NaN             NaN             NaN
             NaN             NaN             NaN
             NaN             NaN             NaN
             NaN             NaN             NaN
             NaN             NaN             NaN
             NaN             NaN             NaN
             NaN             NaN             NaN
             NaN             NaN             NaN
             NaN             NaN             NaN
             NaN             NaN             NaN
             NaN             NaN             NaN
             NaN             NaN             NaN
             NaN             NaN             NaN
             NaN             NaN             NaN
             NaN             NaN             NaN
             NaN             NaN             NaN
             NaN             NaN             NaN
             NaN             NaN             NaN
             NaN             NaN             NaN
             NaN             NaN             NaN
             NaN             NaN             NaN
             NaN             NaN             NaN
             NaN             NaN             NaN
             NaN             NaN             NaN
             NaN             NaN             NaN
             NaN             NaN             NaN
             NaN             NaN             NaN
             NaN             NaN             NaN
             NaN             NaN             NaN
             NaN             NaN             NaN
             NaN             NaN             NaN
             NaN             NaN             NaN
             NaN             NaN             NaN
             NaN             NaN             NaN
             NaN             NaN             NaN
             NaN             NaN             NaN
             NaN             NaN             NaN
             NaN             NaN             NaN
             NaN             NaN             NaN
             NaN             NaN             NaN
             NaN             NaN             NaN
             NaN             NaN             NaN
             NaN             NaN             NaN
             NaN             NaN             NaN
             NaN             NaN             NaN
             NaN             NaN             NaN
             NaN             NaN             NaN
             NaN             NaN             NaN
             NaN             NaN             NaN
             NaN             NaN             NaN
             NaN             NaN             NaN
             NaN             NaN             NaN
             NaN             NaN             NaN
             NaN             NaN             NaN
             NaN             NaN             NaN
             NaN             NaN             NaN
             NaN             NaN             NaN
             NaN             NaN             NaN
