Li7 Mn16 O32
1.0
8.036106 -0.000008 -0.000046
-0.000002 8.036142 -0.000108
-0.000053 0.000001 8.033058
Li Mn O
7 16 32
direct
0.372729 0.377319 0.872688 Li
0.877306 0.872740 0.872726 Li
0.124948 0.124993 0.124994 Li
0.877308 0.377272 0.377266 Li
0.372716 0.872675 0.377308 Li
0.625003 0.124999 0.625005 Li
0.625012 0.625000 0.124993 Li
0.499879 0.249877 0.249965 Mn
0.249792 0.500190 0.251867 Mn
0.249796 0.251863 0.500213 Mn
0.498111 0.500173 0.500160 Mn
0.498114 0.749831 0.749834 Mn
0.751859 0.500169 0.749781 Mn
0.751854 0.749828 0.500214 Mn
0.249806 -0.001863 0.749782 Mn
0.249791 0.749806 0.998132 Mn
0.499904 0.000101 1.000047 Mn
0.749717 1.000075 0.249990 Mn
0.749758 0.249949 1.000052 Mn
0.000153 0.251881 0.749829 Mn
0.000156 0.500165 0.998115 Mn
1.000148 0.749839 0.251876 Mn
1.000151 0.998123 0.500161 Mn
0.737735 0.012234 0.012218 O
0.012792 0.737262 0.012643 O
0.012812 0.012683 0.737293 O
0.737392 0.737249 0.737289 O
0.262484 0.987752 0.987780 O
0.987468 0.262245 0.987782 O
0.987448 0.987758 0.262218 O
0.262474 0.262244 0.262215 O
0.737387 0.512748 0.512703 O
0.012806 0.237314 0.512697 O
0.012786 0.512741 0.237341 O
0.737726 0.237775 0.237804 O
0.264404 0.485683 0.485718 O
0.985724 0.764359 0.485692 O
0.985724 0.485635 0.764295 O
0.264405 0.764313 0.764277 O
0.237330 0.012705 0.512698 O
0.512759 0.737257 0.512700 O
0.512148 0.012186 0.237840 O
0.237312 0.737264 0.237314 O
0.762273 0.987773 0.487582 O
0.487806 0.262240 0.487522 O
0.487811 0.987761 0.762483 O
0.762276 0.262225 0.762443 O
0.237322 0.512736 0.012680 O
0.512171 0.237804 0.012179 O
0.512761 0.512741 0.737295 O
0.237333 0.237293 0.737299 O
0.762284 0.487506 0.987781 O
0.487795 0.762532 0.987784 O
0.487790 0.487469 0.262213 O
0.762276 0.762507 0.262216 O
