Li46 P16 O64
1.0
10.648834 -0.005021 -0.009721
-0.005875 12.447323 -0.004053
-0.009183 -0.003292 10.082646
Li P O
46 16 64
direct
0.470832 0.250779 0.117859 Li
0.665084 0.250485 0.599675 Li
0.662572 0.749132 0.098625 Li
0.663487 0.751041 0.599375 Li
0.165623 0.491999 0.150950 Li
0.163927 0.500151 0.651611 Li
0.165254 -0.000910 0.150298 Li
0.164625 0.000383 0.651339 Li
0.338271 0.001934 0.398998 Li
0.338211 0.002177 0.905535 Li
0.340127 0.497624 0.395004 Li
0.337037 0.495747 0.907728 Li
0.834687 0.248412 0.347633 Li
0.833255 0.249259 0.852991 Li
0.837622 0.748618 0.349101 Li
0.837231 0.748876 0.849532 Li
0.338890 0.252807 0.385234 Li
0.336323 0.255726 0.913482 Li
0.337854 0.749291 0.399002 Li
0.337414 0.749863 0.903669 Li
0.838210 0.001950 0.347952 Li
0.837521 0.001689 0.849538 Li
0.835163 0.499751 0.348316 Li
0.833637 0.500282 0.851540 Li
0.653273 0.492541 0.096079 Li
0.665254 0.501469 0.598321 Li
0.662955 0.998958 0.098802 Li
0.663761 1.000379 0.599816 Li
0.164343 0.252828 0.648854 Li
0.163989 0.750876 0.151287 Li
0.164359 0.751905 0.651301 Li
0.927028 0.368959 0.150530 Li
0.923235 0.375418 0.650315 Li
0.925435 0.875744 0.149289 Li
0.926944 0.875950 0.649116 Li
0.429194 0.374104 0.604495 Li
0.430175 0.875955 0.103008 Li
0.426935 0.876270 0.600595 Li
0.077161 0.130641 0.342025 Li
0.075471 0.129122 0.857113 Li
0.074755 0.622387 0.350017 Li
0.074576 0.623499 0.852623 Li
0.573209 0.128731 0.396809 Li
0.571115 0.131281 0.906924 Li
0.573317 0.622394 0.399190 Li
0.570420 0.622455 0.898887 Li
0.910787 0.121682 0.098523 P
0.913173 0.124207 0.597507 P
0.909880 0.624993 0.098324 P
0.912150 0.626880 0.597557 P
0.409801 0.118661 0.150882 P
0.411156 0.124678 0.653449 P
0.407598 0.630077 0.150961 P
0.410051 0.626600 0.652590 P
0.088219 0.374827 0.406612 P
0.084734 0.377115 0.900948 P
0.089594 0.874834 0.403626 P
0.089203 0.874664 0.903417 P
0.593322 0.375992 0.350419 P
0.586607 0.375300 0.837756 P
0.591423 0.874289 0.348389 P
0.590266 0.874580 0.845709 P
0.838098 0.018882 0.146678 O
0.843162 0.021170 0.647800 O
0.838608 0.523689 0.148418 O
0.842201 0.525768 0.650492 O
0.337925 0.213751 0.094090 O
0.342363 0.226609 0.601256 O
0.344245 0.738437 0.107349 O
0.341314 0.729833 0.601154 O
0.157778 0.271286 0.365159 O
0.154896 0.274943 0.850067 O
0.158180 0.771493 0.353517 O
0.159195 0.772293 0.852335 O
0.661332 0.479427 0.406428 O
0.654176 0.477679 0.895343 O
0.660994 0.976753 0.399715 O
0.660910 0.976177 0.896752 O
0.158827 0.476499 0.353348 O
0.155201 0.479078 0.847759 O
0.159856 0.976437 0.352965 O
0.159163 0.977194 0.853582 O
0.661336 0.273035 0.405860 O
0.654205 0.272679 0.889705 O
0.660404 0.771527 0.400165 O
0.659053 0.771223 0.896125 O
0.845162 0.224200 0.151887 O
0.843036 0.225756 0.649105 O
0.840667 0.728582 0.148159 O
0.842414 0.729991 0.647145 O
0.343002 0.010710 0.107987 O
0.341848 0.021408 0.601427 O
0.329020 0.536933 0.095154 O
0.341015 0.524960 0.599035 O
0.548027 0.115209 0.100306 O
0.549132 0.123695 0.601260 O
0.545247 0.627055 0.097519 O
0.548396 0.627476 0.602068 O
0.047447 0.115432 0.149436 O
0.050411 0.124060 0.651109 O
0.047266 0.625585 0.151516 O
0.049879 0.628040 0.649597 O
0.455280 0.375661 0.403418 O
0.445484 0.375989 0.870325 O
0.453613 0.874499 0.400097 O
0.452608 0.874711 0.897077 O
0.950830 0.375030 0.352367 O
0.946855 0.375869 0.846412 O
0.951597 0.874702 0.351433 O
0.951770 0.874543 0.849623 O
0.601443 0.377196 0.199359 O
0.600035 0.377596 0.682826 O
0.593241 0.873032 0.193569 O
0.590835 0.874772 0.690367 O
0.081346 0.381004 0.053980 O
0.085307 0.379852 0.561885 O
0.087736 0.873294 0.058213 O
0.089674 0.875104 0.558995 O
0.411412 0.122750 0.307250 O
0.409912 0.123647 0.808242 O
0.410797 0.626102 0.306725 O
0.407979 0.626637 0.807510 O
0.912934 0.124157 0.442460 O
0.909116 0.123826 0.942635 O
0.911628 0.625467 0.442408 O
0.910343 0.625642 0.942781 O
