Li46 P16 O64                            
   1.00000000000000     
    10.4933809999999994   -0.0065320000000000   -0.0257900000000000
    -0.0075830000000000   12.2878910000000001   -0.0125540000000000
    -0.0241680000000000   -0.0101050000000000    9.8840070000000004
   Li   P    O 
    46    16    64
Direct
  0.2126225156628561  0.2920512135792188  0.1607775290619730
  0.6658050033310430  0.2510719815085350  0.5984614508377886
  0.6610827107687390  0.7468960501929957  0.0957091326556322
  0.6640563777357471  0.7509839803154658  0.5992167514862516
  0.1607353130233355  0.5068528348475809  0.1515017824431773
  0.1660333252004445  0.5002238126043814  0.6516984409147092
  0.1651706246541890  0.9948712618707310  0.1520700039961566
  0.1655551801164349  0.9996078670627254  0.6535888409877548
  0.3373591815487118  0.0002329905243561  0.4009434078631823
  0.3391299741343858  0.0007934803107403  0.9073444956973645
  0.3409217346642225  0.4988773710319740  0.3992021822597993
  0.3405671398823530  0.4952408794841997  0.9086748175640519
  0.8321052941202938  0.2493788833543278  0.3416509430891400
  0.8331574063780223  0.2487162696405550  0.8560642547693644
  0.8356185404763506  0.7481216773383397  0.3475450428969671
  0.8363289164760416  0.7488420192243224  0.8472103784524830
  0.3430516565439807  0.2485738523094405  0.4065102706589380
  0.3443125109347839  0.2511024481200814  0.9054171368219265
  0.3381103195213643  0.7488974153798400  0.4005721430622796
  0.3371707589178831  0.7490940600055255  0.9047607395738967
  0.8392521312345396  0.0035736973430382  0.3463842523373074
  0.8374448709336534  0.0025704102432183  0.8468496518730949
  0.8319851385947372  0.4983259276863848  0.3453335690193201
  0.8334893973635322  0.4989516046958231  0.8514578345372885
  0.6531002555192759  0.4862085949507880  0.0924491013617498
  0.6662290259696415  0.5020747728025287  0.5957914309535901
  0.6676331642083685 -0.0021274953529908  0.0995421223125462
  0.6648094000093600  0.0011192588165004  0.5969047487113812
  0.1661995684106863  0.2513786908580912  0.6542750616725621
  0.1648891439517839  0.7515790213729416  0.1530553508753516
  0.1652361720683934  0.7519957022819289  0.6519389887727240
  0.9261601557618495  0.3701111053450643  0.1462812115300636
  0.9244915666061346  0.3742525601416848  0.6514436616447601
  0.9226670915303788  0.8755052682124614  0.1488522342950887
  0.9243999297778819  0.8762154737075974  0.6481340026607493
  0.4263338055004870  0.3756463179031565  0.6080820985000588
  0.4289850668485702  0.8740815406285126  0.1020787622868175
  0.4265002361257117  0.8755963012194875  0.6004497387763108
  0.0804043755696443  0.1314508407835075  0.3368915667177700
  0.0800347198499405  0.1269648661124389  0.8607057382448388
  0.0745998064876066  0.6259329115158423  0.3524508680268308
  0.0763385019056178  0.6244317509321887  0.8500523149238882
  0.5774441644883721  0.1293324830390999  0.3879955581636787
  0.5786491317847171  0.1343360912545338  0.9180530797818731
  0.5761373540949868  0.6220862488794349  0.3993574808837757
  0.5737815479315985  0.6208963637536270  0.8981612041595316
  0.9172783195059664  0.1228693388149973  0.0959161175318809
  0.9162002596551931  0.1258898167942139  0.5951409439027748
  0.9091757179272631  0.6250506226524458  0.0953577744740790
  0.9128687777578555  0.6253510562969046  0.5953358309142043
  0.4102553172716537  0.1153642221761912  0.1538468905836854
  0.4137124624656467  0.1225808018366485  0.6553601372387465
  0.4088242934885036  0.6269227044069058  0.1529672081187711
  0.4110421522204166  0.6268803124543211  0.6549599504202815
  0.0899088833112684  0.3779703954493462  0.4048803486664529
  0.0906378447013940  0.3771820142479013  0.9046530845010246
  0.0884198188124689  0.8749793405198302  0.4053538295330699
  0.0883887776362393  0.8737330713921230  0.9044151652214369
  0.5881750986291050  0.3761027941516936  0.3484389997887161
  0.5874083141012697  0.3738393598070572  0.8321891785440206
  0.5912726357099345  0.8734769176295709  0.3459555352324248
  0.5906340708965616  0.8742886757315476  0.8450962150969877
  0.8438218257294511  0.0206108740561663  0.1466064613924449
  0.8447846216054775  0.0227935133395585  0.6440215911087872
  0.8408203869062518  0.5217528597050426  0.1441780166780338
  0.8450424223099174  0.5234628463513602  0.6497052834797213
  0.3405674044212976  0.2114135315691698  0.0912949023631316
  0.3417295755990694  0.2244393110722800  0.6051492180312795
  0.3437161369140959  0.7344072201883064  0.1070546166823359
  0.3423368291273136  0.7303984186154987  0.6032812346689296
  0.1643322106626104  0.2782074044250059  0.3522654651235345
  0.1598328970185461  0.2750014118805081  0.8528344965885643
  0.1580826492061270  0.7718727668692560  0.3549155996562718
  0.1582931460527104  0.7711931034397665  0.8526746068462252
  0.6589209081787087  0.4795095321494553  0.4048009516945685
  0.6548046536826340  0.4761067985140202  0.8922572719454781
  0.6612304665864029  0.9765111856027785  0.3962294387399022
  0.6626130722794030  0.9748595152740334  0.8977628933459174
  0.1579857007212551  0.4818368571823554  0.3543509854436225
  0.1578245018798487  0.4797974164018092  0.8496940329016792
  0.1582254230363418  0.9768233183794441  0.3545960997431234
  0.1596253952871507  0.9758943611388217  0.8550613186494482
  0.6594528632732645  0.2737889141394219  0.4029555334891251
  0.6555357676038639  0.2704217955165175  0.8768916365104406
  0.6600532241076962  0.7711426051638273  0.4002559168106072
  0.6586070512220390  0.7696964441672530  0.8942342611856918
  0.8578786282735043  0.2262824499311265  0.1511451440463747
  0.8467862598535086  0.2277345457593277  0.6474876940383305
  0.8384121272370912  0.7273940482358960  0.1462558722412544
  0.8432310187200237  0.7282765884428903  0.6461468110353157
  0.3396093022316926  0.0089285057819027  0.1107912965931376
  0.3430233511211945  0.0195317814311327  0.6034572660150341
  0.3297125470278516  0.5321635727690418  0.0997252826243773
  0.3409344055433369  0.5257371649855784  0.6004324679381691
  0.5474489223441809  0.1079330172066545  0.1070474826593445
  0.5500520798193577  0.1233397034324071  0.5992008265327822
  0.5459685000393816  0.6241315925950383  0.0980154881672499
  0.5496675278337873  0.6278155906395733  0.6048353376026856
  0.0566656122843431  0.1146823268770210  0.1418530063667269
  0.0536581324846596  0.1244988131673769  0.6504848799514737
  0.0468973652283866  0.6280723077340825  0.1499693669045777
  0.0519992892487091  0.6269048503662210  0.6454947909723996
  0.4514667655547138  0.3747806026156221  0.4084540466098909
  0.4453841274462267  0.3747723901372683  0.8652011587952206
  0.4529582001511176  0.8742214457895319  0.3974368926481744
  0.4525374017225434  0.8740471532433691  0.8966237130819811
  0.9520646045249631  0.3763400429073737  0.3524984779285752
  0.9507327982572817  0.3756757343947348  0.8562878874629297
  0.9499665714434253  0.8737826319518608  0.3528144053256659
  0.9506798260645719  0.8743799555785731  0.8496480673959285
  0.5876448662577465  0.3796445582483100  0.1974153134093081
  0.5979427877228347  0.3801573686250578  0.6759340193804158
  0.5935452762633143  0.8703535746890457  0.1901419089929818
  0.5913072312659214  0.8754612053806738  0.6885212996023256
  0.0950278479923391  0.3806837957543071  0.0607870975797394
  0.0906929439930903  0.3764313051338264  0.5612902490706640
  0.0865577488128510  0.8714566813236385  0.0602805149470725
  0.0889315548965511  0.8749754882230650  0.5617438756827949
  0.4062858211924537  0.1234481477124664  0.3109940746503610
  0.4146167999797880  0.1213947972911005  0.8112064855695087
  0.4122198450898487  0.6257627805809455  0.3098582548849627
  0.4084629454822827  0.6261146394458373  0.8109472657182328
  0.9172007109547986  0.1265767251890683  0.4388120591813032
  0.9118356067129841  0.1230865104301206  0.9387094964989929
  0.9098514655896806  0.6241519116440878  0.4390829574400847
  0.9109885874368354  0.6258850247012304  0.9388535291004931
 
             NaN             NaN             NaN
             NaN             NaN             NaN
             NaN             NaN             NaN
             NaN             NaN             NaN
             NaN             NaN             NaN
             NaN             NaN             NaN
             NaN             NaN             NaN
             NaN             NaN             NaN
             NaN             NaN             NaN
             NaN             NaN             NaN
             NaN             NaN             NaN
             NaN             NaN             NaN
             NaN             NaN             NaN
             NaN             NaN             NaN
             NaN             NaN             NaN
             NaN             NaN             NaN
             NaN             NaN             NaN
             NaN             NaN             NaN
             NaN             NaN             NaN
             NaN             NaN             NaN
             NaN             NaN             NaN
             NaN             NaN             NaN
             NaN             NaN             NaN
             NaN             NaN             NaN
             NaN             NaN             NaN
             NaN             NaN             NaN
             NaN             NaN             NaN
             NaN             NaN             NaN
             NaN             NaN             NaN
             NaN             NaN             NaN
             NaN             NaN             NaN
             NaN             NaN             NaN
             NaN             NaN             NaN
             NaN             NaN             NaN
             NaN             NaN             NaN
             NaN             NaN             NaN
             NaN             NaN             NaN
             NaN             NaN             NaN
             NaN             NaN             NaN
             NaN             NaN             NaN
             NaN             NaN             NaN
             NaN             NaN             NaN
             NaN             NaN             NaN
             NaN             NaN             NaN
             NaN             NaN             NaN
             NaN             NaN             NaN
             NaN             NaN             NaN
             NaN             NaN             NaN
             NaN             NaN             NaN
             NaN             NaN             NaN
             NaN             NaN             NaN
             NaN             NaN             NaN
             NaN             NaN             NaN
             NaN             NaN             NaN
             NaN             NaN             NaN
             NaN             NaN             NaN
             NaN             NaN             NaN
             NaN             NaN             NaN
             NaN             NaN             NaN
             NaN             NaN             NaN
             NaN             NaN             NaN
             NaN             NaN             NaN
             NaN             NaN             NaN
             NaN             NaN             NaN
             NaN             NaN             NaN
             NaN             NaN             NaN
             NaN             NaN             NaN
             NaN             NaN             NaN
             NaN             NaN             NaN
             NaN             NaN             NaN
             NaN             NaN             NaN
             NaN             NaN             NaN
             NaN             NaN             NaN
             NaN             NaN             NaN
             NaN             NaN             NaN
             NaN             NaN             NaN
             NaN             NaN             NaN
             NaN             NaN             NaN
             NaN             NaN             NaN
             NaN             NaN             NaN
             NaN             NaN             NaN
             NaN             NaN             NaN
             NaN             NaN             NaN
             NaN             NaN             NaN
             NaN             NaN             NaN
             NaN             NaN             NaN
             NaN             NaN             NaN
             NaN             NaN             NaN
             NaN             NaN             NaN
             NaN             NaN             NaN
             NaN             NaN             NaN
             NaN             NaN             NaN
             NaN             NaN             NaN
             NaN             NaN             NaN
             NaN             NaN             NaN
             NaN             NaN             NaN
             NaN             NaN             NaN
             NaN             NaN             NaN
             NaN             NaN             NaN
             NaN             NaN             NaN
             NaN             NaN             NaN
             NaN             NaN             NaN
             NaN             NaN             NaN
             NaN             NaN             NaN
             NaN             NaN             NaN
             NaN             NaN             NaN
             NaN             NaN             NaN
             NaN             NaN             NaN
             NaN             NaN             NaN
             NaN             NaN             NaN
             NaN             NaN             NaN
             NaN             NaN             NaN
             NaN             NaN             NaN
             NaN             NaN             NaN
             NaN             NaN             NaN
             NaN             NaN             NaN
             NaN             NaN             NaN
             NaN             NaN             NaN
             NaN             NaN             NaN
             NaN             NaN             NaN
             NaN             NaN             NaN
             NaN             NaN             NaN
             NaN             NaN             NaN
             NaN             NaN             NaN
             NaN             NaN             NaN
             NaN             NaN             NaN
