Li46 P16 O64
1.0
10.493381 -0.006532 -0.025790
-0.007583 12.287891 -0.012554
-0.024168 -0.010105 9.884007
Li P O
46 16 64
direct
0.225889 0.250298 0.142948 Li
0.664766 0.251631 0.600569 Li
0.662814 0.749134 0.096932 Li
0.664040 0.751462 0.599025 Li
0.164634 0.496053 0.151769 Li
0.165091 0.499026 0.652446 Li
0.164117 -0.004902 0.153530 Li
0.165274 -0.001116 0.652839 Li
0.337244 0.000781 0.401180 Li
0.338077 0.002239 0.907612 Li
0.340047 0.498220 0.396357 Li
0.339001 0.495441 0.909432 Li
0.831446 0.249363 0.343434 Li
0.832519 0.248836 0.853946 Li
0.836183 0.748138 0.347584 Li
0.836379 0.748693 0.847644 Li
0.339323 0.252105 0.394796 Li
0.340486 0.254143 0.911994 Li
0.337519 0.749695 0.400468 Li
0.337410 0.750272 0.905400 Li
0.837178 0.002500 0.346827 Li
0.837306 0.002378 0.848146 Li
0.832214 0.500066 0.346795 Li
0.832835 0.499639 0.849670 Li
0.652884 0.489862 0.093430 Li
0.665405 0.503160 0.596961 Li
0.665109 1.001933 0.099424 Li
0.663765 1.001817 0.598647 Li
0.165260 0.251528 0.652189 Li
0.164948 0.750565 0.151977 Li
0.164744 0.751393 0.653010 Li
0.918623 0.372733 0.147470 Li
0.921952 0.374446 0.649091 Li
0.922702 0.875299 0.149122 Li
0.923997 0.875730 0.648871 Li
0.426337 0.375624 0.604939 Li
0.430183 0.876199 0.102109 Li
0.425956 0.876303 0.601115 Li
0.077535 0.126769 0.346422 Li
0.078519 0.126388 0.854973 Li
0.076167 0.623132 0.350134 Li
0.076926 0.623448 0.852331 Li
0.575221 0.130590 0.393802 Li
0.574936 0.135137 0.913193 Li
0.575193 0.622734 0.399561 Li
0.573005 0.622419 0.898900 Li
0.915491 0.123748 0.096632 P
0.914101 0.124738 0.595363 P
0.910248 0.624773 0.095439 P
0.913175 0.625821 0.595473 P
0.406597 0.116700 0.154031 P
0.411468 0.124541 0.655089 P
0.408739 0.629955 0.152764 P
0.410239 0.627155 0.654798 P
0.087124 0.375447 0.405220 P
0.086184 0.375564 0.903879 P
0.087724 0.874209 0.405478 P
0.088044 0.874136 0.904901 P
0.590415 0.376782 0.348985 P
0.586672 0.375031 0.833763 P
0.591115 0.874850 0.346930 P
0.590543 0.875585 0.845179 P
0.843811 0.020894 0.146857 O
0.843789 0.021757 0.645825 O
0.839156 0.523139 0.145240 O
0.843898 0.524281 0.648612 O
0.330743 0.210983 0.096228 O
0.340852 0.225789 0.601635 O
0.345021 0.738324 0.108324 O
0.341512 0.730743 0.603232 O
0.156283 0.272755 0.355137 O
0.156330 0.273463 0.852402 O
0.157166 0.771485 0.354148 O
0.158182 0.771553 0.853909 O
0.659641 0.480519 0.405941 O
0.654303 0.477433 0.893136 O
0.660436 0.977804 0.398487 O
0.661856 0.976799 0.897403 O
0.157803 0.477808 0.354133 O
0.156024 0.478077 0.852028 O
0.157495 0.976536 0.355447 O
0.158768 0.976374 0.854806 O
0.659966 0.274294 0.405385 O
0.655309 0.271640 0.878814 O
0.660158 0.772134 0.399796 O
0.658833 0.771484 0.895239 O
0.853806 0.226462 0.151038 O
0.845128 0.226543 0.647954 O
0.841135 0.728170 0.146299 O
0.843321 0.728797 0.646098 O
0.338585 0.008646 0.111880 O
0.342100 0.020596 0.603561 O
0.329385 0.536578 0.097154 O
0.340468 0.525862 0.600051 O
0.542920 0.112396 0.102271 O
0.549102 0.124321 0.601907 O
0.546477 0.626942 0.099055 O
0.548984 0.628535 0.604770 O
0.055027 0.117750 0.145399 O
0.052412 0.123546 0.648312 O
0.048352 0.625081 0.148796 O
0.051710 0.626592 0.647355 O
0.452761 0.375910 0.405645 O
0.445144 0.375380 0.868017 O
0.452794 0.874795 0.398177 O
0.452345 0.875641 0.896278 O
0.948684 0.376757 0.353663 O
0.947736 0.375423 0.850648 O
0.949297 0.874138 0.353033 O
0.950277 0.874470 0.850386 O
0.594720 0.379261 0.197702 O
0.597049 0.380850 0.677490 O
0.594285 0.873441 0.191001 O
0.591389 0.875921 0.688657 O
0.084966 0.376460 0.059534 O
0.088161 0.376106 0.561805 O
0.086253 0.872574 0.060819 O
0.088445 0.874037 0.561847 O
0.407674 0.122964 0.311334 O
0.410306 0.124430 0.811029 O
0.411325 0.626766 0.309662 O
0.407667 0.626547 0.810840 O
0.913224 0.124935 0.439118 O
0.912731 0.123698 0.939668 O
0.911674 0.625113 0.439198 O
0.910708 0.625504 0.938878 O
