Na47 P16 S64                            
   1.00000000000000     
    13.9424580000000002   -0.0135250000000000    0.0000110000000000
    -0.0135760000000000   13.9604970000000002    0.0000840000000000
     0.0000360000000000    0.0000480000000000   14.2669730000000001
   Na   P    S 
    47    16    64
Direct
  0.6300478693550389  0.7531984861407679  0.7473750189847763
  0.9998914251613158  0.2504941017783366  0.2067250282803315
  0.9994662881009404  0.2502199885005041  0.7059947062089975
  0.9993751837470128  0.7505547788142266  0.2124822028543747
  0.9873484736400471  0.7515925399841379  0.7170682329784412
  0.5000603773016010  0.2495156323136101  0.2081703698218718
  0.5006662491461213  0.2500405190593327  0.7076672279258744
  0.5004181090483684  0.7495220960477766  0.2117772273346432
  0.2492227890423848  0.9993699600702826  0.2894540534898766
  0.2480081727332788  0.9987909099886849  0.7884591996668675
  0.2516683287546684  0.5005887395949031  0.2950936623859732
  0.2504413137607102  0.5027427599291769  0.7936066186682709
  0.7484106964984534  0.9990863648585915  0.2929328201266514
  0.7490207646015961  0.9873796323806729  0.7880181407111309
  0.7507114196333902  0.5010043658997105  0.2871740977566475
  0.7541690247889221  0.5119988796782380  0.7831637661492934
  0.2531556525007446  0.9987401203094350  0.0383786955437202
  0.2434010892318099  0.0003228145457967  0.5390253239832745
  0.2470067925613648  0.4994835540266038  0.0453030862949220
  0.2554831414474279  0.5037355517059439  0.5459722570928491
  0.7525711323546034  0.0008913525577725  0.0417227772868785
  0.7450702695049856  0.9979452126806123  0.5413823025291222
  0.7466559448785830  0.5010781412239353  0.0349726917226008
  0.7577681444578488  0.4978620658106863  0.5347493882352623
  0.9998919601637795  0.2488234560456348  0.4560801434977080
  0.9989058724637943  0.2522836825625987  0.9555075317794461
  0.0002517821367221  0.7487514579807666  0.4652369442974518
  0.0000661418494587  0.7526110641343990  0.9620682262821276
  0.5001238752999839  0.2512179140523187  0.4579878959849424
  0.5009788991095476  0.2477035985988891  0.9565523841987229
  0.4998465831591830  0.7513229672843735  0.4755108007389950
  0.4977081105814634  0.7473038675804204  0.9565852519211546
  0.9921158229931208  0.9993204333673020  0.5011182119902884
  0.0025304111891700  0.0081513588370896  0.0003507678189933
  0.0103557787456126  0.4962661163740592  0.4995008379247494
  0.9978420590216999  0.4994105504462709  0.9986752845533289
  0.4915983342265520  0.0013297633884193  0.4991257416052690
  0.5062366861566758  0.9974717054268112  0.9996429410331089
  0.5049964895881089  0.5032248997374182  0.5013869043526071
  0.4919508850525034  0.4949414843615685  0.0022020486319789
  0.2487198724416189  0.2515117734133696  0.2498338794345898
  0.2490572768475019  0.2527453762212133  0.7499785863248221
  0.2514299932044750  0.7484132524982172  0.2502687629555993
  0.2884752149392398  0.7486237784507779  0.7494263859150223
  0.7513184756879667  0.2485101623910069  0.2493764429522187
  0.7510615951280570  0.2471305984466952  0.7502910618161494
  0.7483541890205032  0.7515914572469811  0.2493122858046561
  0.9991776472368628  0.0008876445213843  0.2497197311190575
  0.9989039060398426  0.0029447398999309  0.7513481147386756
  0.0010821426606213  0.4997094224406595  0.2497755904879853
  0.0024564258214710  0.4984092891558234  0.7484990321200655
  0.4995325840079232  0.9998759478762338  0.2500747319445296
  0.4973150989776869  0.0008854968704100  0.7490745105560919
  0.5000983427216426  0.4995009507654800  0.2504164702404168
  0.5000855541268479  0.4983759204182192  0.7515262594177159
  0.2497964967576536  0.2502707548471577  0.0000906323491989
  0.2496403537721932  0.2511222116730352  0.4994193757506835
  0.2503237575958366  0.7479459470846379  0.0010152178985479
  0.2493175872344793  0.7524753310540078  0.4990883205624073
  0.7501917565537042  0.2495862749649120  0.9996844500353674
  0.7503754305715731  0.2488007525050122  0.4989839863967802
  0.7495230574759972  0.7502362763065662  0.0009021354657008
  0.7515094144378267  0.7480580783230053  0.4963605718938666
  0.1549746831822603  0.1733766814777127  0.0826564955856597
  0.1541480668811772  0.1753064890609792  0.5817887614263242
  0.1533767162774637  0.6751587349214532  0.0844911630202247
  0.1571843328104023  0.6773203155035858  0.5850944947557366
  0.6550468552690276  0.1739920972832394  0.0832570422849201
  0.6542596279834001  0.1746432440389540  0.5817159104497023
  0.6543231740660502  0.6743195474083947  0.0836167155957099
  0.6574978461826220  0.6662754106221129  0.5743828525667567
  0.3453493033124033  0.3254291512975769  0.0832943676028250
  0.3454889059571897  0.3259271755627253  0.5819583655930884
  0.3456944541824001  0.8243209573164734  0.0832424306827448
  0.3438476904969718  0.8315803618463349  0.5782747906900454
  0.8446164084849599  0.3270630512713595  0.0823444530185213
  0.8461174083059007  0.3240648810593996  0.5814639885487907
  0.8441633714909429  0.8266243600877772  0.0840484970478954
  0.8435842237092004  0.8250366646662783  0.5801442245068529
  0.1739346614321704  0.3469617144847064  0.4173960805332584
  0.1738445614430972  0.3464433761510577  0.9189334673656830
  0.1709399717254527  0.8432433500017567  0.4136374376869085
  0.1774917492343207  0.8408427559784357  0.9145364042016055
  0.6760504880717519  0.3440391131905258  0.4152155609671055
  0.6753340576075360  0.3436432186461076  0.9159497928247120
  0.6725499195675226  0.8429095932894981  0.4156932426918019
  0.6712525624299559  0.8475355914033855  0.9216784853329685
  0.3245391097749177  0.1560899920883045  0.4158998340390099
  0.3247402732017619  0.1559607554769187  0.9165292428591840
  0.3270161119950643  0.6568585391072901  0.4177729866120501
  0.3262303258560024  0.6490729108486022  0.9225720045617507
  0.8255363599518546  0.1525357623723878  0.4170239770380277
  0.8259096537953496  0.1534901115481588  0.9184227953572659
  0.8294493189037127  0.6570625900335756  0.4108704500669234
  0.8257419373624870  0.6571546077983257  0.9182296724138226
  0.0962116884866973  0.4232830865387740  0.1676201020662020
  0.1011795378909923  0.4219837119970578  0.6700558634340084
  0.0935422620569497  0.9256743093665847  0.1656777286341935
  0.0903429501805988  0.9251804522495632  0.6671005009740725
  0.5940842859246018  0.4240798137169435  0.1660920444140928
  0.5960209042234652  0.4250036455527706  0.6675899880180083
  0.5959138191134770  0.9243691196053732  0.1687011860755092
  0.5889123176657804  0.9267728837101856  0.6617912424801489
  0.4056664942313404  0.0750299687040155  0.1656020938859086
  0.4010157814153956  0.0778448276628367  0.6685052319109488
  0.4036651683425774  0.5750573006509612  0.1689451431138664
  0.4091637847807164  0.5791595652732298  0.6701119855350157
  0.9038578493402483  0.0773966009973321  0.1679420056653029
  0.9006377207217824  0.0763179062992094  0.6697348357265795
  0.9069168746950993  0.5749013400805154  0.1659002022786566
  0.9116322227387812  0.5725506165991234  0.6607895508426154
  0.0757662486960768  0.0951461612779099  0.3329246625289954
  0.0775734461295912  0.1002711432557248  0.8295998598239009
  0.0769614336220741  0.5948414109587716  0.3325243936475317
  0.0740343536849366  0.5939738651622761  0.8336577632171114
  0.5742772709764665  0.0954685728603764  0.3334537121047845
  0.5775356109796874  0.0945590157571559  0.8300410411383723
  0.5761196582607582  0.5945262460465557  0.3324788328422770
  0.5763144709472812  0.5846138463658548  0.8430476507654063
  0.4253026525379795  0.4042305030665219  0.3339070364178482
  0.4217693575951316  0.4007590944488513  0.8299115348367678
  0.4233394058093722  0.9049576138713107  0.3324251543350201
  0.4231991719393449  0.9083777127403820  0.8352693640750175
  0.9245970364864036  0.4051216867043337  0.3326718368114072
  0.9224445514028119  0.4043467365337605  0.8291495972827363
  0.9238066551585717  0.9055474807365940  0.3322819445515464
  0.9270094134897846  0.9104664550328323  0.8392438748324622
 
             NaN             NaN             NaN
             NaN             NaN             NaN
             NaN             NaN             NaN
             NaN             NaN             NaN
             NaN             NaN             NaN
             NaN             NaN             NaN
             NaN             NaN             NaN
             NaN             NaN             NaN
             NaN             NaN             NaN
             NaN             NaN             NaN
             NaN             NaN             NaN
             NaN             NaN             NaN
             NaN             NaN             NaN
             NaN             NaN             NaN
             NaN             NaN             NaN
             NaN             NaN             NaN
             NaN             NaN             NaN
             NaN             NaN             NaN
             NaN             NaN             NaN
             NaN             NaN             NaN
             NaN             NaN             NaN
             NaN             NaN             NaN
             NaN             NaN             NaN
             NaN             NaN             NaN
             NaN             NaN             NaN
             NaN             NaN             NaN
             NaN             NaN             NaN
             NaN             NaN             NaN
             NaN             NaN             NaN
             NaN             NaN             NaN
             NaN             NaN             NaN
             NaN             NaN             NaN
             NaN             NaN             NaN
             NaN             NaN             NaN
             NaN             NaN             NaN
             NaN             NaN             NaN
             NaN             NaN             NaN
             NaN             NaN             NaN
             NaN             NaN             NaN
             NaN             NaN             NaN
             NaN             NaN             NaN
             NaN             NaN             NaN
             NaN             NaN             NaN
             NaN             NaN             NaN
             NaN             NaN             NaN
             NaN             NaN             NaN
             NaN             NaN             NaN
             NaN             NaN             NaN
             NaN             NaN             NaN
             NaN             NaN             NaN
             NaN             NaN             NaN
             NaN             NaN             NaN
             NaN             NaN             NaN
             NaN             NaN             NaN
             NaN             NaN             NaN
             NaN             NaN             NaN
             NaN             NaN             NaN
             NaN             NaN             NaN
             NaN             NaN             NaN
             NaN             NaN             NaN
             NaN             NaN             NaN
             NaN             NaN             NaN
             NaN             NaN             NaN
             NaN             NaN             NaN
             NaN             NaN             NaN
             NaN             NaN             NaN
             NaN             NaN             NaN
             NaN             NaN             NaN
             NaN             NaN             NaN
             NaN             NaN             NaN
             NaN             NaN             NaN
             NaN             NaN             NaN
             NaN             NaN             NaN
             NaN             NaN             NaN
             NaN             NaN             NaN
             NaN             NaN             NaN
             NaN             NaN             NaN
             NaN             NaN             NaN
             NaN             NaN             NaN
             NaN             NaN             NaN
             NaN             NaN             NaN
             NaN             NaN             NaN
             NaN             NaN             NaN
             NaN             NaN             NaN
             NaN             NaN             NaN
             NaN             NaN             NaN
             NaN             NaN             NaN
             NaN             NaN             NaN
             NaN             NaN             NaN
             NaN             NaN             NaN
             NaN             NaN             NaN
             NaN             NaN             NaN
             NaN             NaN             NaN
             NaN             NaN             NaN
             NaN             NaN             NaN
             NaN             NaN             NaN
             NaN             NaN             NaN
             NaN             NaN             NaN
             NaN             NaN             NaN
             NaN             NaN             NaN
             NaN             NaN             NaN
             NaN             NaN             NaN
             NaN             NaN             NaN
             NaN             NaN             NaN
             NaN             NaN             NaN
             NaN             NaN             NaN
             NaN             NaN             NaN
             NaN             NaN             NaN
             NaN             NaN             NaN
             NaN             NaN             NaN
             NaN             NaN             NaN
             NaN             NaN             NaN
             NaN             NaN             NaN
             NaN             NaN             NaN
             NaN             NaN             NaN
             NaN             NaN             NaN
             NaN             NaN             NaN
             NaN             NaN             NaN
             NaN             NaN             NaN
             NaN             NaN             NaN
             NaN             NaN             NaN
             NaN             NaN             NaN
             NaN             NaN             NaN
             NaN             NaN             NaN
             NaN             NaN             NaN
             NaN             NaN             NaN
             NaN             NaN             NaN
