Mg8 Sc16 Se32                           
   1.00000000000000     
    11.1313334132793091    0.0000004510872592   -0.0000013632672421
     0.0000004266990140   11.1313251902811050    0.0000084101565433
    -0.0000013497853864   -0.0000357179708139   11.1314565799239542
   Mg   Sc   Se
     7    16    32
Direct
  0.6227501155692039  0.6227503289063634  0.6227522482916825
  0.6227500956928225  0.1272496886875985  0.1272477225493205
  0.1272497787303308  0.6227493760580742  0.1272469826437259
  0.1272497241057238  0.1272504916186676  0.6227528590361189
  0.3750001968739554  0.8750000433559393  0.8750000515293905
  0.8750003315692467  0.3749997401318694  0.8750000107987361
  0.8750012650849399  0.8750002175127989  0.3750001338437983
  0.9999405462604400  0.7500612500666861  0.7500651459387981
  0.7500620762118402  0.9999410277139802  0.7500609235199533
  0.7500620941385563  0.7500597393646373  0.9999398160014934
  0.9999406564590174  0.9999394892027311  0.9999355607130838
  0.0062771023482213  0.2502561462924007  0.2502527862946025
  0.2502578382392926  0.0062748146327394  0.2502532798523873
  0.2502588402317940  0.2502539314775589  0.0062770640408800
  0.7437250465612024  0.4997453351506280  0.2502539253078240
  0.7437245123574172  0.2502542373448691  0.4997455453087198
  0.0062767942889934  0.4997429241586744  0.4997465538938926
  0.2502591004585213  0.4997452252786019  0.7437237809799697
  0.2502581589070729  0.7437257394221035  0.4997459523904411
  0.4997466221182449  0.7437236291467357  0.2502524016207630
  0.4997465822076848  0.0062772179791608  0.4997469782004913
  0.4997466297407911  0.2502564702501786  0.7437216276153364
  0.4997468247545882  0.4997430869875430  0.0062784351907794
  0.7565759104668004  0.9934219172500676  0.9934240666471084
  0.9934199329568258  0.7565781789285992  0.9934250209381545
  0.9934198241570869  0.9934227244807303  0.7565757420845856
  0.7565753969130427  0.7565785805747680  0.7565763439028146
  0.2422676884544259  0.0067261199554878  0.0067201141027198
  0.0067250220994737  0.2422699761834863  0.0067220779001573
  0.0067233290660198  0.0067234861737049  0.2422689015393615
  0.2444896735553286  0.2444875995274387  0.2444803718391384
  0.7595415523735696  0.4932683049727089  0.4932689769344591
  0.9904588287787917  0.2567322558892542  0.4932687818799764
  0.9904590404674209  0.4932671382907685  0.2567307951864635
  0.7595417012508747  0.2567314020905087  0.2567307187523724
  0.2444898330262006  0.5055115806458090  0.5055194878019051
  0.0067233361078394  0.7432767321999663  0.5077303534027493
  0.0067249360967097  0.5077292575099719  0.7432784076557795
  0.2422681158277129  0.7432740905815862  0.7432804829892703
  0.2567297018727714  0.9904595747157003  0.4932681677284734
  0.4932658928707596  0.7595416887801463  0.4932690793896910
  0.4932655638474372  0.9904587300537457  0.2567305849220958
  0.2567297895838365  0.7595408465182913  0.2567311804270958
  0.7432745668746534  0.0067244555914030  0.5077290013354698
  0.5055146628456981  0.2444877909319985  0.5055194003317496
  0.5077279043728851  0.0067262735718927  0.7432780969272272
  0.7432716002138235  0.2422697855573261  0.7432800482332169
  0.2567319742017986  0.4932671693106343  0.9904570763135467
  0.4932659790838727  0.2567331463707347  0.9904581775392387
  0.4932659528788932  0.4932665409463937  0.7595420382079539
  0.2567317976604713  0.2567325290889357  0.7595432748489941
  0.7432717641551250  0.5077299007961926  0.0067202099767130
  0.5077278349328012  0.7432739895959202  0.0067221871682648
  0.5055149281781866  0.5055119998929314  0.2444802112202282
  0.7432747001146041  0.7432760619074088  0.2422708203698107
 
  0.00000000E+00  0.00000000E+00  0.00000000E+00
  0.00000000E+00  0.00000000E+00  0.00000000E+00
  0.00000000E+00  0.00000000E+00  0.00000000E+00
  0.00000000E+00  0.00000000E+00  0.00000000E+00
  0.00000000E+00  0.00000000E+00  0.00000000E+00
  0.00000000E+00  0.00000000E+00  0.00000000E+00
  0.00000000E+00  0.00000000E+00  0.00000000E+00
  0.00000000E+00  0.00000000E+00  0.00000000E+00
  0.00000000E+00  0.00000000E+00  0.00000000E+00
  0.00000000E+00  0.00000000E+00  0.00000000E+00
  0.00000000E+00  0.00000000E+00  0.00000000E+00
  0.00000000E+00  0.00000000E+00  0.00000000E+00
  0.00000000E+00  0.00000000E+00  0.00000000E+00
  0.00000000E+00  0.00000000E+00  0.00000000E+00
  0.00000000E+00  0.00000000E+00  0.00000000E+00
  0.00000000E+00  0.00000000E+00  0.00000000E+00
  0.00000000E+00  0.00000000E+00  0.00000000E+00
  0.00000000E+00  0.00000000E+00  0.00000000E+00
  0.00000000E+00  0.00000000E+00  0.00000000E+00
  0.00000000E+00  0.00000000E+00  0.00000000E+00
  0.00000000E+00  0.00000000E+00  0.00000000E+00
  0.00000000E+00  0.00000000E+00  0.00000000E+00
  0.00000000E+00  0.00000000E+00  0.00000000E+00
  0.00000000E+00  0.00000000E+00  0.00000000E+00
  0.00000000E+00  0.00000000E+00  0.00000000E+00
  0.00000000E+00  0.00000000E+00  0.00000000E+00
  0.00000000E+00  0.00000000E+00  0.00000000E+00
  0.00000000E+00  0.00000000E+00  0.00000000E+00
  0.00000000E+00  0.00000000E+00  0.00000000E+00
  0.00000000E+00  0.00000000E+00  0.00000000E+00
  0.00000000E+00  0.00000000E+00  0.00000000E+00
  0.00000000E+00  0.00000000E+00  0.00000000E+00
  0.00000000E+00  0.00000000E+00  0.00000000E+00
  0.00000000E+00  0.00000000E+00  0.00000000E+00
  0.00000000E+00  0.00000000E+00  0.00000000E+00
  0.00000000E+00  0.00000000E+00  0.00000000E+00
  0.00000000E+00  0.00000000E+00  0.00000000E+00
  0.00000000E+00  0.00000000E+00  0.00000000E+00
  0.00000000E+00  0.00000000E+00  0.00000000E+00
  0.00000000E+00  0.00000000E+00  0.00000000E+00
  0.00000000E+00  0.00000000E+00  0.00000000E+00
  0.00000000E+00  0.00000000E+00  0.00000000E+00
  0.00000000E+00  0.00000000E+00  0.00000000E+00
  0.00000000E+00  0.00000000E+00  0.00000000E+00
  0.00000000E+00  0.00000000E+00  0.00000000E+00
  0.00000000E+00  0.00000000E+00  0.00000000E+00
  0.00000000E+00  0.00000000E+00  0.00000000E+00
  0.00000000E+00  0.00000000E+00  0.00000000E+00
  0.00000000E+00  0.00000000E+00  0.00000000E+00
  0.00000000E+00  0.00000000E+00  0.00000000E+00
  0.00000000E+00  0.00000000E+00  0.00000000E+00
  0.00000000E+00  0.00000000E+00  0.00000000E+00
  0.00000000E+00  0.00000000E+00  0.00000000E+00
  0.00000000E+00  0.00000000E+00  0.00000000E+00
  0.00000000E+00  0.00000000E+00  0.00000000E+00
