Mg7 Sc16 Se32
1.0
11.131333 0.000000 -0.000001
0.000000 11.131325 0.000008
-0.000001 -0.000036 11.131457
Mg Sc Se
7 16 32
direct
0.622750 0.622750 0.622752 Mg
0.622750 0.127250 0.127248 Mg
0.127250 0.622749 0.127247 Mg
0.127250 0.127250 0.622753 Mg
0.375000 0.875000 0.875000 Mg
0.875000 0.375000 0.875000 Mg
0.875001 0.875000 0.375000 Mg
0.999941 0.750061 0.750065 Sc
0.750062 0.999941 0.750061 Sc
0.750062 0.750060 0.999940 Sc
0.999941 0.999939 0.999936 Sc
0.006277 0.250256 0.250253 Sc
0.250258 0.006275 0.250253 Sc
0.250259 0.250254 0.006277 Sc
0.743725 0.499745 0.250254 Sc
0.743725 0.250254 0.499746 Sc
0.006277 0.499743 0.499747 Sc
0.250259 0.499745 0.743724 Sc
0.250258 0.743726 0.499746 Sc
0.499747 0.743724 0.250252 Sc
0.499747 0.006277 0.499747 Sc
0.499747 0.250256 0.743722 Sc
0.499747 0.499743 0.006278 Sc
0.756576 0.993422 0.993424 Se
0.993420 0.756578 0.993425 Se
0.993420 0.993423 0.756576 Se
0.756575 0.756579 0.756576 Se
0.242268 0.006726 0.006720 Se
0.006725 0.242270 0.006722 Se
0.006723 0.006723 0.242269 Se
0.244490 0.244488 0.244480 Se
0.759542 0.493268 0.493269 Se
0.990459 0.256732 0.493269 Se
0.990459 0.493267 0.256731 Se
0.759542 0.256731 0.256731 Se
0.244490 0.505512 0.505519 Se
0.006723 0.743277 0.507730 Se
0.006725 0.507729 0.743278 Se
0.242268 0.743274 0.743280 Se
0.256730 0.990460 0.493268 Se
0.493266 0.759542 0.493269 Se
0.493266 0.990459 0.256731 Se
0.256730 0.759541 0.256731 Se
0.743275 0.006724 0.507729 Se
0.505515 0.244488 0.505519 Se
0.507728 0.006726 0.743278 Se
0.743272 0.242270 0.743280 Se
0.256732 0.493267 0.990457 Se
0.493266 0.256733 0.990458 Se
0.493266 0.493267 0.759542 Se
0.256732 0.256733 0.759543 Se
0.743272 0.507730 0.006720 Se
0.507728 0.743274 0.006722 Se
0.505515 0.505512 0.244480 Se
0.743275 0.743276 0.242271 Se
