Na15 V32 O64                            
   1.00000000000000     
     9.2497080000000000   -0.0174940000000000    0.0041440000000000
    -0.0224230000000000   11.8404360000000004    0.0548010000000000
     0.0041990000000000    0.0504050000000000   10.8011999999999997
   Na   V    O 
    15    32    64
Direct
  0.7451547438519874  0.3452646320469183  0.1506816563578078
  0.7381278634878784  0.0775943378615649  0.1520102597313644
  0.7415763521171942  0.8084456817289790  0.1534436619837259
  0.2386343877031366  0.0772597826618461  0.3459875413253596
  0.2406274583209825  0.3273865152389260  0.3508185198179409
  0.2385516420414781  0.5772964296217598  0.3438703065347321
  0.2412520632402588  0.8273471819649512  0.3524409115078051
  0.2526646650329930  0.2040720316853388  0.8437873462211035
  0.2494898889469455  0.4550144726802161  0.8511651544708239
  0.2564428361033689  0.7041197247206572  0.8475213944216625
  0.2517916798232622  0.9545808010993513  0.8543515466589459
  0.7539337250388510  0.2037093558341815  0.6541895502939862
  0.7517627422065288  0.4522930416656337  0.6461879240548136
  0.7525037355040415  0.7031474120271098  0.6547791473899252
  0.7509139206581206  0.9515689363503460  0.6488637574806918
  0.5806009051185382  0.0794164786165767  0.8934299467956800
  0.5777690470939497  0.3291903146119892  0.8958007218877967
  0.5804955079551929  0.5783191370732136  0.8948687968367284
  0.5760462236732417  0.8295059134704559  0.8996611335390670
  0.0784317422829501  0.0763398635017539  0.6028859841567106
  0.0779561491884385  0.3269611685269616  0.6056615349549074
  0.0785117091023872  0.5770624611821669  0.6017442215251858
  0.0795183231716577  0.8270027684985808  0.6062753065537141
  0.4155174361709106  0.2013502752193599  0.1002682505256384
  0.4122625379392034  0.4531203642108622  0.1038500000666651
  0.4144352975245086  0.7025008082505227  0.1030526784655230
  0.4165281316036871  0.9550599269390537  0.1077093760236773
  0.9166751303286834  0.2031472745390655  0.3981047830632573
  0.9159602148307043  0.4537393275217567  0.3932300714385845
  0.9144200972158033  0.7029460864009476  0.3992911846577537
  0.9140498556822002  0.9522799317505524  0.3956325378967036
  0.5591821083503605  0.0814977820494639  0.3888954110643357
  0.5623892839329417  0.3263232612997045  0.3857597738738791
  0.5618438894785912  0.5729298621177747  0.3818604565247127
  0.5612697355809829  0.8270992932874575  0.3854386201382654
  0.0581581279949220  0.0754445624560207  0.1141795584482574
  0.0673823761307390  0.3228718918465411  0.1104666842542630
  0.0486509057987181  0.5831078807219972  0.1131289297423655
  0.0632322657210592  0.8256457923206860  0.1119369630786488
  0.4335246676663678  0.2027744036216064  0.6137676403535374
  0.4297686004002702  0.4508051404963392  0.6105503447911649
  0.4346111822318616  0.6991282147515838  0.6112022127665190
  0.4288599072891592  0.9510996114022296  0.6125365601316658
  0.9345416794292061  0.2006884765227711  0.8867732349975389
  0.9298147665697771  0.4548914583992186  0.8884022580465045
  0.9339780441249370  0.7025749443053323  0.8850027536809609
  0.9292917640957987  0.9531249920056651  0.8885760093201250
  0.7907051880556388  0.0842750768300424  0.8479509671677237
  0.7881927212464099  0.3236817694473875  0.8496484176859865
  0.7911933548452071  0.5832648010010265  0.8466308085135386
  0.7889346043831569  0.8236325637408159  0.8465465342859089
  0.2882190334331537  0.0827033710144038  0.6521872028461818
  0.2901309660739647  0.3216207817264642  0.6495534374566770
  0.2894478804514855  0.5826899801544220  0.6497103383281669
  0.2920170344435545  0.8212756078043204  0.6477779105579143
  0.2069240016556399  0.1937777126392657  0.1506576294907079
  0.2144667095741034  0.4501727532129845  0.1486806763558820
  0.1996820994806508  0.6933257824845391  0.1503665885801181
  0.2027686817684802  0.9567947429103689  0.1539148052791469
  0.7055103079393530  0.1950993167077384  0.3512105895177817
  0.7029199310816751  0.4548732995471801  0.3521205374553749
  0.7013132797875619  0.6997028122256893  0.3574554294259876
  0.6986627622026064  0.9544854817169048  0.3541150780418815
  0.8829978780987707  0.0829863038579449  0.5199714891719585
  0.8829810968737849  0.3245734070745884  0.5189635444806241
  0.8830984912928600  0.5831672513627512  0.5202077755307368
  0.8833124066844892  0.8248223487248965  0.5215298946248399
  0.3841099196910209  0.0849843504210718  0.9810157985040946
  0.3805236560504356  0.3255167998200099  0.9794598498872578
  0.3844974576674686  0.5762230737393339  0.9809554075943911
  0.3797903640809613  0.8298550141001625  0.9822818818523498
  0.1106274093263605  0.1969693671321777  0.4809342992975050
  0.1114428145445228  0.4557092489034005  0.4803979927585597
  0.1108137246690279  0.6972620270871087  0.4808227694730027
  0.1112723888404167  0.9558803921882127  0.4801620657703244
  0.6107710307593061  0.2095519673433786  0.0177589415881380
  0.6039496855942214  0.4470258847608634  0.0197657348672829
  0.6081404600825575  0.7113055095416800  0.0126519369996293
  0.6108687553015200  0.9512014275914312  0.0198538756304235
  0.9725724706252855  0.0794210009369770  0.2812085607643947
  0.9764173416480483  0.3174950249915900  0.2838852177686658
  0.9782786528410111  0.5806269075435569  0.2838611155300131
  0.9723640128704877  0.8175012839015607  0.2850101275467832
  0.4781492777183314  0.0829519548891884  0.2197929864144579
  0.4732188837000008  0.3219413517855578  0.2120500607991075
  0.4724619635348611  0.5736166583896813  0.2156993675733042
  0.4817338863093256  0.8254088521981522  0.2241985881627312
  0.0193303735198511  0.1993501098067780  0.7196244300949522
  0.0203246513720389  0.4613693788623063  0.7155113263127389
  0.0211657699879052  0.6996687946340592  0.7193114179100953
  0.0199802785485245  0.9613456054462080  0.7162279711326804
  0.5187327080783970  0.2065883082220978  0.7790635602199092
  0.5202861411589731  0.4453724693441568  0.7822268791669131
  0.5183519886344914  0.7049763709720083  0.7776724621547021
  0.5191773512950885  0.9466325279503697  0.7836174130757383
  0.5724907180589707  0.0813097080207278  0.5728895376770249
  0.5717862175836484  0.3224990857099642  0.5693708690992474
  0.5735558941458381  0.5788976585846805  0.5687635684032111
  0.5725951741426144  0.8227755029460656  0.5653146357257340
  0.0746368197731848  0.0809252812553077  0.9306582184228986
  0.0713513909075978  0.3229668937516219  0.9249951395450661
  0.0738410433842630  0.5842300313860700  0.9290441831728302
  0.0718772193429762  0.8249918007757372  0.9264091460845130
  0.4173921384965062  0.1984594621710266  0.4287752387085543
  0.4200360287644312  0.4555485531876134  0.4246278437372224
  0.4217803927744133  0.6976353733842080  0.4255065936777168
  0.4229501111406868  0.9561325032931742  0.4261117551638119
  0.9199732684444473  0.1972452319142421  0.0703414740124901
  0.9312075178653462  0.4545583287539916  0.0738642505503559
  0.9174768897533324  0.6998760893813245  0.0682007108906097
  0.9209230138724200  0.9546519040905055  0.0745411513600933
 
             NaN             NaN             NaN
             NaN             NaN             NaN
             NaN             NaN             NaN
             NaN             NaN             NaN
             NaN             NaN             NaN
             NaN             NaN             NaN
             NaN             NaN             NaN
             NaN             NaN             NaN
             NaN             NaN             NaN
             NaN             NaN             NaN
             NaN             NaN             NaN
             NaN             NaN             NaN
             NaN             NaN             NaN
             NaN             NaN             NaN
             NaN             NaN             NaN
             NaN             NaN             NaN
             NaN             NaN             NaN
             NaN             NaN             NaN
             NaN             NaN             NaN
             NaN             NaN             NaN
             NaN             NaN             NaN
             NaN             NaN             NaN
             NaN             NaN             NaN
             NaN             NaN             NaN
             NaN             NaN             NaN
             NaN             NaN             NaN
             NaN             NaN             NaN
             NaN             NaN             NaN
             NaN             NaN             NaN
             NaN             NaN             NaN
             NaN             NaN             NaN
             NaN             NaN             NaN
             NaN             NaN             NaN
             NaN             NaN             NaN
             NaN             NaN             NaN
             NaN             NaN             NaN
             NaN             NaN             NaN
             NaN             NaN             NaN
             NaN             NaN             NaN
             NaN             NaN             NaN
             NaN             NaN             NaN
             NaN             NaN             NaN
             NaN             NaN             NaN
             NaN             NaN             NaN
             NaN             NaN             NaN
             NaN             NaN             NaN
             NaN             NaN             NaN
             NaN             NaN             NaN
             NaN             NaN             NaN
             NaN             NaN             NaN
             NaN             NaN             NaN
             NaN             NaN             NaN
             NaN             NaN             NaN
             NaN             NaN             NaN
             NaN             NaN             NaN
             NaN             NaN             NaN
             NaN             NaN             NaN
             NaN             NaN             NaN
             NaN             NaN             NaN
             NaN             NaN             NaN
             NaN             NaN             NaN
             NaN             NaN             NaN
             NaN             NaN             NaN
             NaN             NaN             NaN
             NaN             NaN             NaN
             NaN             NaN             NaN
             NaN             NaN             NaN
             NaN             NaN             NaN
             NaN             NaN             NaN
             NaN             NaN             NaN
             NaN             NaN             NaN
             NaN             NaN             NaN
             NaN             NaN             NaN
             NaN             NaN             NaN
             NaN             NaN             NaN
             NaN             NaN             NaN
             NaN             NaN             NaN
             NaN             NaN             NaN
             NaN             NaN             NaN
             NaN             NaN             NaN
             NaN             NaN             NaN
             NaN             NaN             NaN
             NaN             NaN             NaN
             NaN             NaN             NaN
             NaN             NaN             NaN
             NaN             NaN             NaN
             NaN             NaN             NaN
             NaN             NaN             NaN
             NaN             NaN             NaN
             NaN             NaN             NaN
             NaN             NaN             NaN
             NaN             NaN             NaN
             NaN             NaN             NaN
             NaN             NaN             NaN
             NaN             NaN             NaN
             NaN             NaN             NaN
             NaN             NaN             NaN
             NaN             NaN             NaN
             NaN             NaN             NaN
             NaN             NaN             NaN
             NaN             NaN             NaN
             NaN             NaN             NaN
             NaN             NaN             NaN
             NaN             NaN             NaN
             NaN             NaN             NaN
             NaN             NaN             NaN
             NaN             NaN             NaN
             NaN             NaN             NaN
             NaN             NaN             NaN
             NaN             NaN             NaN
             NaN             NaN             NaN
