Na15 V32 O64                            
   1.00000000000000     
     9.2497080000000000   -0.0174940000000000    0.0041440000000000
    -0.0224230000000000   11.8404360000000004    0.0548010000000000
     0.0041990000000000    0.0504050000000000   10.8011999999999997
   Na   V    O 
    15    32    64
Direct
  0.7489637439828610  0.3356879127801060  0.1533541749501769
  0.7410611390027836  0.0650440129741019  0.1529882295399216
  0.7454253369425590  0.7957816896369238  0.1538813314590005
  0.2421552730084444  0.0661977525220976  0.3450744622349581
  0.2462794662297360  0.3166259077952397  0.3541703548187629
  0.2440397516739392  0.5659064259616554  0.3450481542043303
  0.2452406425392379  0.8155380381401111  0.3531780370983665
  0.2561212082706197  0.1919030394117925  0.8448269058772035
  0.2551588000140593  0.4431470098630386  0.8549225348041735
  0.2571688189069461  0.6928556095074185  0.8432036236355939
  0.2525838138539761  0.9430296052673864  0.8504984698632955
  0.7576242326439451  0.1910509870761393  0.6543294461419404
  0.7549581482049814  0.4398820921094247  0.6469019465530629
  0.7569377970100879  0.6909076588972676  0.6538356780270493
  0.7547364402228012  0.9389171164911905  0.6451459061282572
  0.5833952782991471  0.0674896158993062  0.8927862809565585
  0.5816867961368661  0.3160252102792998  0.8963482928200057
  0.5892034005269688  0.5688579402757910  0.8954642946710960
  0.5816991616784325  0.8206914873472499  0.8945649331279683
  0.0805393091727742  0.0651058565671679  0.6010715866107860
  0.0813413587930089  0.3143790763819849  0.6067077354127406
  0.0815985689835548  0.5648912131419961  0.6021395179321183
  0.0811919258343932  0.8141672628689870  0.6049017095568159
  0.4196954686424023  0.1849680909834911  0.1067557607500080
  0.4184457688499412  0.4402928752300909  0.1165061704017964
  0.4197114958921566  0.7020481958683522  0.1069958177589964
  0.4189596226798668  0.9399330049029605  0.1079950310617173
  0.9196540539350315  0.1896514013916039  0.3983942692460954
  0.9184718162433885  0.4426742795905569  0.3942910283015787
  0.9169315461592243  0.6888840858264422  0.3977056596896310
  0.9156932871985426  0.9407006247348180  0.3917739672903078
  0.5626260584260030  0.0666338274318221  0.3888723063322178
  0.5664591066953376  0.3151535404358143  0.3879108554336111
  0.5675724322056022  0.5690941665504980  0.3857970086113621
  0.5668813076299616  0.8156070809120642  0.3852280700839584
  0.0605654677242215  0.0636245075031784  0.1139039594825339
  0.0711806281943078  0.3108224106745890  0.1113740723719282
  0.0528120270191700  0.5721191485844277  0.1142032878953034
  0.0656467090483295  0.8146924297567999  0.1115635303515527
  0.4371308297412321  0.1909191341324214  0.6128424599124553
  0.4336545539676209  0.4404106635662444  0.6120591322552047
  0.4396471542157514  0.6897646163813858  0.6094828814511499
  0.4321429986686038  0.9400591296095303  0.6090593003150133
  0.9373331403432112  0.1894850543568191  0.8865803881282684
  0.9339163466827132  0.4429233176989486  0.8882265079068233
  0.9369794267482857  0.6899993330648060  0.8842120399301967
  0.9303906757529909  0.9420966386401630  0.8875472582108519
  0.7924568134944799  0.0732136597278685  0.8486610851051851
  0.7900467358946172  0.3126517712115741  0.8527346301384939
  0.7937584352950198  0.5718662260118481  0.8496309761614548
  0.7901312671813777  0.8123354401964034  0.8468251368409722
  0.2909300036015669  0.0715143882350519  0.6519405613223446
  0.2931767008886947  0.3104476955978521  0.6509596309554908
  0.2926175769503229  0.5706908132206092  0.6526255680589704
  0.2931315649572637  0.8101782665518514  0.6490648959121775
  0.2101802768362838  0.1830668811466230  0.1493129175359747
  0.2195260357158598  0.4406850428838284  0.1488981187390047
  0.2060498815087118  0.6819096900314233  0.1469678028169140
  0.2045632480367303  0.9455645374883543  0.1502594269054598
  0.7091892675746045  0.1843161163655094  0.3513697256209930
  0.7070817545374402  0.4428904967936458  0.3533675593728505
  0.7100131040979617  0.6834836573299288  0.3547430997197719
  0.7057680235016525  0.9447238156659328  0.3494231358208437
  0.8868138813067795  0.0708346943907898  0.5180105473159320
  0.8864138845314630  0.3123928000669665  0.5194117267313830
  0.8876421201053374  0.5695831118011641  0.5208449350956388
  0.8867790901307815  0.8115590021978309  0.5188856234273509
  0.3862558124301285  0.0711697577094631  0.9771821722318452
  0.3826231958724132  0.3140020827761689  0.9835272787365698
  0.3856859222709566  0.5694180649825270  0.9842112457654792
  0.3812501226936686  0.8140874352762814  0.9767240055017252
  0.1138538326143999  0.1851789219050388  0.4812050470212578
  0.1155898193537422  0.4432403616781471  0.4808331719839837
  0.1148944207266802  0.6844397286148516  0.4817304974130562
  0.1147529831892151  0.9437099616656139  0.4795231985334491
  0.6133851294296678  0.1984342168246608  0.0194942391709168
  0.6039174270797918  0.4376800080291920  0.0232921820767200
  0.6089223368348514  0.6998470472957996  0.0143251725458119
  0.6137779726531083  0.9387509137037473  0.0182550781898909
  0.9780658286041962  0.0688403972957976  0.2794417436924918
  0.9808621927073974  0.3071495848444921  0.2836287070722662
  0.9849876954431255  0.5685285007327344  0.2827496179713846
  0.9791979884818461  0.8062241877063214  0.2825086281232362
  0.4792452782331614  0.0747617748564180  0.2152636245512227
  0.4734224468206263  0.3155185041629717  0.2146237631761390
  0.4709453791785455  0.5649654530371993  0.2157723047652944
  0.4712361262561092  0.8045059574505066  0.2103390800065579
  0.0213222503256927  0.1874601346488447  0.7196730339344625
  0.0225092993171211  0.4489162215862488  0.7165033992958194
  0.0230147851159641  0.6880025775362727  0.7186729024048744
  0.0206943762341787  0.9493070648333271  0.7149487560534198
  0.5215740868392525  0.1957089707886553  0.7821852546950893
  0.5212778556469845  0.4345349854785441  0.7883675934127388
  0.5222496103288056  0.6929215307664909  0.7813304627196244
  0.5207907762631065  0.9349449814627622  0.7836647929980832
  0.5766589470019277  0.0695149363551203  0.5738261362549308
  0.5752070363699638  0.3110557297628131  0.5721290610252010
  0.5773646745538942  0.5684813546768930  0.5716811790615756
  0.5745239556874489  0.8115607787181291  0.5727264099689210
  0.0772438404315177  0.0695369557015195  0.9289902797502202
  0.0761626169355928  0.3120725655509641  0.9260137719573159
  0.0804003583771234  0.5716975752024265  0.9287700424601678
  0.0734771598589427  0.8133869522635204  0.9246502353706531
  0.4214100766864334  0.1878753373095416  0.4308523717653029
  0.4252039611470317  0.4451606814838993  0.4276147885642404
  0.4236834563388739  0.6853256860054632  0.4297329605420618
  0.4252015714756835  0.9475140413062181  0.4263041192128090
  0.9238620014087651  0.1865465613768497  0.0704430798254304
  0.9348989051226577  0.4432300693678241  0.0745664825180195
  0.9226008826479563  0.6870504674114146  0.0680549639612885
  0.9235007187131621  0.9433177026155741  0.0728354595672025
 
             NaN             NaN             NaN
             NaN             NaN             NaN
             NaN             NaN             NaN
             NaN             NaN             NaN
             NaN             NaN             NaN
             NaN             NaN             NaN
             NaN             NaN             NaN
             NaN             NaN             NaN
             NaN             NaN             NaN
             NaN             NaN             NaN
             NaN             NaN             NaN
             NaN             NaN             NaN
             NaN             NaN             NaN
             NaN             NaN             NaN
             NaN             NaN             NaN
             NaN             NaN             NaN
             NaN             NaN             NaN
             NaN             NaN             NaN
             NaN             NaN             NaN
             NaN             NaN             NaN
             NaN             NaN             NaN
             NaN             NaN             NaN
             NaN             NaN             NaN
             NaN             NaN             NaN
             NaN             NaN             NaN
             NaN             NaN             NaN
             NaN             NaN             NaN
             NaN             NaN             NaN
             NaN             NaN             NaN
             NaN             NaN             NaN
             NaN             NaN             NaN
             NaN             NaN             NaN
             NaN             NaN             NaN
             NaN             NaN             NaN
             NaN             NaN             NaN
             NaN             NaN             NaN
             NaN             NaN             NaN
             NaN             NaN             NaN
             NaN             NaN             NaN
             NaN             NaN             NaN
             NaN             NaN             NaN
             NaN             NaN             NaN
             NaN             NaN             NaN
             NaN             NaN             NaN
             NaN             NaN             NaN
             NaN             NaN             NaN
             NaN             NaN             NaN
             NaN             NaN             NaN
             NaN             NaN             NaN
             NaN             NaN             NaN
             NaN             NaN             NaN
             NaN             NaN             NaN
             NaN             NaN             NaN
             NaN             NaN             NaN
             NaN             NaN             NaN
             NaN             NaN             NaN
             NaN             NaN             NaN
             NaN             NaN             NaN
             NaN             NaN             NaN
             NaN             NaN             NaN
             NaN             NaN             NaN
             NaN             NaN             NaN
             NaN             NaN             NaN
             NaN             NaN             NaN
             NaN             NaN             NaN
             NaN             NaN             NaN
             NaN             NaN             NaN
             NaN             NaN             NaN
             NaN             NaN             NaN
             NaN             NaN             NaN
             NaN             NaN             NaN
             NaN             NaN             NaN
             NaN             NaN             NaN
             NaN             NaN             NaN
             NaN             NaN             NaN
             NaN             NaN             NaN
             NaN             NaN             NaN
             NaN             NaN             NaN
             NaN             NaN             NaN
             NaN             NaN             NaN
             NaN             NaN             NaN
             NaN             NaN             NaN
             NaN             NaN             NaN
             NaN             NaN             NaN
             NaN             NaN             NaN
             NaN             NaN             NaN
             NaN             NaN             NaN
             NaN             NaN             NaN
             NaN             NaN             NaN
             NaN             NaN             NaN
             NaN             NaN             NaN
             NaN             NaN             NaN
             NaN             NaN             NaN
             NaN             NaN             NaN
             NaN             NaN             NaN
             NaN             NaN             NaN
             NaN             NaN             NaN
             NaN             NaN             NaN
             NaN             NaN             NaN
             NaN             NaN             NaN
             NaN             NaN             NaN
             NaN             NaN             NaN
             NaN             NaN             NaN
             NaN             NaN             NaN
             NaN             NaN             NaN
             NaN             NaN             NaN
             NaN             NaN             NaN
             NaN             NaN             NaN
             NaN             NaN             NaN
             NaN             NaN             NaN
             NaN             NaN             NaN
