Na15 V32 O64
1.0
9.249708 -0.017494 0.004144
-0.022423 11.840436 0.054801
0.004199 0.050405 10.801200
Na V O
15 32 64
direct
0.748857 0.358887 0.153137 Na
0.741675 0.064377 0.152689 Na
0.745406 0.794619 0.153561 Na
0.242060 0.063053 0.345957 Na
0.245810 0.313447 0.352901 Na
0.243996 0.562469 0.345621 Na
0.244362 0.812230 0.352454 Na
0.256391 0.188705 0.845079 Na
0.255849 0.439861 0.854968 Na
0.257460 0.689328 0.844088 Na
0.252939 0.939660 0.850686 Na
0.757489 0.187568 0.653929 Na
0.755265 0.436439 0.647351 Na
0.757301 0.687323 0.653635 Na
0.755022 0.935811 0.646273 Na
0.582473 0.064099 0.894274 V
0.580201 0.313727 0.898030 V
0.584913 0.564700 0.898345 V
0.581346 0.815586 0.895333 V
0.081127 0.061352 0.602026 V
0.081647 0.311859 0.605738 V
0.082368 0.561157 0.602525 V
0.081144 0.812192 0.604198 V
0.418650 0.184632 0.102065 V
0.417840 0.438590 0.110727 V
0.417775 0.690923 0.100261 V
0.417703 0.938286 0.104064 V
0.919369 0.188261 0.397506 V
0.918777 0.438142 0.394290 V
0.919049 0.686090 0.397258 V
0.917398 0.937402 0.392766 V
0.563204 0.065105 0.389783 V
0.566399 0.312683 0.387142 V
0.566471 0.563081 0.385128 V
0.566420 0.811932 0.387464 V
0.061402 0.060984 0.112586 V
0.069760 0.309026 0.111515 V
0.055700 0.566922 0.112890 V
0.065399 0.811427 0.111220 V
0.436656 0.187822 0.614052 V
0.434016 0.437204 0.612493 V
0.438650 0.686062 0.612672 V
0.432220 0.935934 0.611080 V
0.937724 0.186898 0.886971 V
0.934443 0.439258 0.888532 V
0.938344 0.686829 0.885248 V
0.930907 0.938664 0.887454 V
0.792680 0.069488 0.848309 O
0.791306 0.308564 0.851554 O
0.794837 0.568505 0.848849 O
0.790820 0.808457 0.846754 O
0.291973 0.067606 0.650947 O
0.294031 0.307664 0.650486 O
0.293161 0.566154 0.651902 O
0.294077 0.808705 0.649044 O
0.209543 0.180917 0.149652 O
0.216661 0.436474 0.149513 O
0.206119 0.681071 0.148058 O
0.205331 0.940830 0.150625 O
0.707807 0.181364 0.352234 O
0.706521 0.438998 0.353622 O
0.708934 0.682059 0.354118 O
0.704527 0.939932 0.349102 O
0.886221 0.066431 0.518289 O
0.886617 0.309816 0.519503 O
0.887332 0.565666 0.520299 O
0.886287 0.809571 0.518344 O
0.386400 0.067080 0.979010 O
0.384298 0.308722 0.984352 O
0.387354 0.567539 0.985862 O
0.382399 0.810850 0.978491 O
0.113716 0.183333 0.481191 O
0.115250 0.439648 0.480903 O
0.114462 0.682903 0.481659 O
0.114012 0.940086 0.479273 O
0.612408 0.192757 0.018667 O
0.605157 0.435363 0.021309 O
0.609454 0.695908 0.015762 O
0.613461 0.936097 0.019273 O
0.977327 0.064417 0.280289 O
0.980489 0.305173 0.284496 O
0.983561 0.564735 0.283238 O
0.978146 0.804443 0.282986 O
0.479332 0.070412 0.217399 O
0.473960 0.310346 0.217287 O
0.472449 0.563573 0.217891 O
0.474092 0.803722 0.215783 O
0.021733 0.184842 0.719303 O
0.022916 0.443657 0.716001 O
0.022814 0.685294 0.718448 O
0.021299 0.944218 0.714617 O
0.520758 0.191163 0.780100 O
0.521766 0.432031 0.786461 O
0.521987 0.688720 0.780817 O
0.520694 0.933003 0.783333 O
0.576263 0.064682 0.573100 O
0.575018 0.308302 0.572276 O
0.577939 0.564627 0.571577 O
0.575363 0.808974 0.571179 O
0.076326 0.066457 0.928769 O
0.075826 0.308423 0.925981 O
0.078474 0.568846 0.928257 O
0.073647 0.809884 0.925292 O
0.421723 0.184619 0.430971 O
0.426197 0.441469 0.427723 O
0.423921 0.683966 0.428743 O
0.425198 0.942315 0.425247 O
0.923922 0.183726 0.070301 O
0.934315 0.439379 0.073686 O
0.922275 0.684928 0.068385 O
0.923579 0.939240 0.072895 O
