Mg1 Ti16 S32                            
   1.00000000000000     
     9.9115669999999998    0.0065800000000000    0.0029570000000000
    -0.0020500000000000    9.9114789999999999    0.0013420000000000
    -0.0048660000000000    0.0000820000000000    9.9137900000000005
   Mg   Ti   S 
     1    16    32
Direct
  0.2772410498523962  0.4727859264257705  0.7746202652971966
  0.2521721983270265  0.7549271942460540  0.0087509893711101
  0.5015779084599490  1.0003907168559161 -0.0003255421305046
  0.7496154145421486  0.2484195401017534 -0.0003280567266384
  0.9950824430367675  0.4978169337035928  0.0087332262600638
  0.5014844271544244  0.2485169639177137  0.2482222111842748
  0.2496096404504359  0.5003839653960099  0.2618788524298815
  0.2513518138158927  0.2382532054828125  0.4924625242794793
  0.5117524613774399  0.4986386608747989  0.4924599138686681
  0.5115624344286522  0.7559680599215237  0.7493845086139692
  0.7634759430832637  0.5007593781131580  0.7473821239328774
  0.7525892627472212  0.7518313733292514  0.4957701311035830
  0.2492484705962349  0.9865428920548889  0.7473961548057410
  0.7500561671333206  0.9999636128403430  0.2479596290802468
  0.9940401302475177  0.2384455578010653  0.7493610786691302
  0.9986594465787691  0.7513572868426412  0.2493717989489424
  0.9981760125923023  0.9974053687370309  0.4957625247572928
  0.7466380574915925  0.0033855563664459  0.0006798083552584
  0.0057843182056319  0.7442371372062269  0.0035465940998962
  0.0028402946191999 -0.0040659881243352  0.7446033073845759
  0.7541035830240796  0.7471776742278943  0.7446005542101337
  0.2524189221316734  0.9958886412934257  0.9936840233982240
  0.9958077280632024  0.2508219697148880  0.9964699878092891
  0.9966510851405942  0.9967887686444746  0.2505431818791731
  0.2525594362993642  0.2540083572116639  0.2516970717965734
  0.7541463299570715  0.5027485173004248  0.5008712556066637
  0.0052488492002686  0.2433226689654291  0.5027955170754003
  0.0031352685616381  0.5024999000782039  0.2512870445424796
  0.7468220083639884  0.2472238608953974  0.2445402516013646
  0.2590455589861654  0.4909741683807398  0.5058762565296099
  0.9979814884475420  0.7520353927661952  0.4949327799687186
  1.0079641222358775  0.4908565159905359  0.7564586717363325
  0.2591617587081347  0.7420543058916919  0.7564670726917839
  0.2472654431653407 -0.0041294941316737  0.5008835705721092
  0.5066985730623290  0.7447761984700418  0.5028126754895149
  0.5027982438752826  0.0031940319402237  0.2445480052132472
  0.2475174363127037  0.7468902877954831  0.2512925519616173
  0.7529330097285164  0.9970891512875592  0.4942325153747213
  0.4988331558272613  0.2511773986729219  0.4938491898478546
  0.4958404831858303  0.9964802587967808  0.7505422519935584
  0.7535528025743730  0.2541702285785821  0.7505273760772547
  0.2466989027441287  0.5033176099724724  0.0142938037366690
  0.5027847570941255  0.2472398426919004  0.0010616965662001
  0.5168524184322310  0.5041053014966933  0.7439418046919765
  0.2459096809871316  0.2331777195951706  0.7439301360852169
  0.7541540197684108  0.4975950792000807  0.9936699995654059
  0.4991959630983174  0.7542287449511649  0.9964938643339194
  0.4960000382400292  0.4974499794035184  0.2517072328740412
  0.7532245549042624  0.7533640269914814  0.2505374760038349
 
             NaN             NaN             NaN
             NaN             NaN             NaN
             NaN             NaN             NaN
             NaN             NaN             NaN
             NaN             NaN             NaN
             NaN             NaN             NaN
             NaN             NaN             NaN
             NaN             NaN             NaN
             NaN             NaN             NaN
             NaN             NaN             NaN
             NaN             NaN             NaN
             NaN             NaN             NaN
             NaN             NaN             NaN
             NaN             NaN             NaN
             NaN             NaN             NaN
             NaN             NaN             NaN
             NaN             NaN             NaN
             NaN             NaN             NaN
             NaN             NaN             NaN
             NaN             NaN             NaN
             NaN             NaN             NaN
             NaN             NaN             NaN
             NaN             NaN             NaN
             NaN             NaN             NaN
             NaN             NaN             NaN
             NaN             NaN             NaN
             NaN             NaN             NaN
             NaN             NaN             NaN
             NaN             NaN             NaN
             NaN             NaN             NaN
             NaN             NaN             NaN
             NaN             NaN             NaN
             NaN             NaN             NaN
             NaN             NaN             NaN
             NaN             NaN             NaN
             NaN             NaN             NaN
             NaN             NaN             NaN
             NaN             NaN             NaN
             NaN             NaN             NaN
             NaN             NaN             NaN
             NaN             NaN             NaN
             NaN             NaN             NaN
             NaN             NaN             NaN
             NaN             NaN             NaN
             NaN             NaN             NaN
             NaN             NaN             NaN
             NaN             NaN             NaN
             NaN             NaN             NaN
             NaN             NaN             NaN
