Mg1 Ti16 S32
1.0
9.911567 0.006580 0.002957
-0.002050 9.911479 0.001342
-0.004866 0.000082 9.913790
Mg Ti S
1 16 32
direct
0.281197 0.468843 0.749962 Mg
0.249341 0.756434 0.007001 Ti
0.501060 -0.000199 0.002123 Ti
0.750162 0.248883 0.002099 Ti
0.993274 0.500237 0.006637 Ti
0.501163 0.248965 0.249168 Ti
0.249733 0.500195 0.249863 Ti
0.249208 0.243591 0.492432 Ti
0.506501 0.501039 0.492535 Ti
0.506183 0.756773 0.750243 Ti
0.750798 0.501089 0.749913 Ti
0.750808 0.751282 0.498841 Ti
0.248959 -0.000832 0.749981 Ti
0.750287 -0.000252 0.250246 Ti
0.993265 0.243788 0.750100 Ti
0.998765 0.751160 0.251106 Ti
0.998781 0.999202 0.498811 Ti
0.746737 0.003290 0.003405 S
0.003053 0.746851 0.004852 S
0.003197 0.001278 0.747536 S
0.748748 0.746847 0.747552 S
0.252537 0.998947 0.996444 S
0.995662 0.253304 0.996622 S
0.996964 0.996818 0.253412 S
0.252666 0.253514 0.250698 S
0.749002 0.502827 0.503594 S
0.002994 0.245519 0.503413 S
0.003512 0.502596 0.248936 S
0.746793 0.246982 0.247011 S
0.254797 0.495230 0.496227 S
0.997098 0.752918 0.497301 S
0.996659 0.495376 0.754739 S
0.254637 0.753349 0.754829 S
0.247236 0.001026 0.503616 S
0.504505 0.747145 0.503463 S
0.503095 0.003338 0.247051 S
0.247347 0.746470 0.249092 S
0.753239 0.996856 0.497041 S
0.496537 0.253592 0.495223 S
0.496153 0.999069 0.752869 S
0.750974 0.253867 0.752822 S
0.245076 0.504869 0.003543 S
0.503112 0.246976 0.002910 S
0.503678 0.504957 0.744968 S
0.245083 0.246343 0.744925 S
0.750989 0.497489 0.996407 S
0.496605 0.754390 0.996694 S
0.496472 0.497449 0.250747 S
0.753145 0.753083 0.253416 S
