Na15 V32 O64                            
   1.00000000000000     
     9.1037280000000003    0.0014440000000000   -0.0019610000000000
     0.0027540000000000   11.4408709999999996   -0.0000960000000000
     0.0001410000000000    0.0005740000000000   10.6073459999999997
   Na   V    O 
    15    32    64
Direct
  0.7385352686891132  0.4079013317405537  0.1693881214776009
  0.7422548250447359  0.0741694418148592  0.1521859047089734
  0.7423725109405613  0.7988840519194235  0.1527889963588827
  0.2425494616060042  0.0622586577409004  0.3469792836136788
  0.2419663471964342  0.3136202578145713  0.3461322920735276
  0.2432687765541283  0.5617022342379233  0.3470082647788033
  0.2420716567086760  0.8127315433691877  0.3467422124154013
  0.2578902751061022  0.1875157128015811  0.8495463905338614
  0.2595804188683257  0.4378710887371374  0.8486111922346071
  0.2577905166796695  0.6884698241780105  0.8500512036668165
  0.2579052375286132  0.9377341838757053  0.8486609733800730
  0.7584948669205213  0.1871910294594379  0.6498912440440614
  0.7565766704757731  0.4375564818665718  0.6505525827704089
  0.7583822473209882  0.6875071570027173  0.6500339389684641
  0.7568858101955255  0.9376758749631443  0.6489832316166950
  0.5848583611996850  0.0614461868223207  0.8960963113895295
  0.5882025865753611  0.3114655944563895  0.8964585957792994
  0.5889651585331523  0.5652227538095098  0.8972906701999480
  0.5850149764703666  0.8139823159184830  0.8965363123564987
  0.0861472028445968  0.0616246595676268  0.6019422477362206
  0.0885450832587412  0.3108059957886610  0.6032410483215558
  0.0886637297461192  0.5641634095622184  0.6038373015228384
  0.0845045884835038  0.8123347753011583  0.6015587270392544
  0.4161940566426265  0.1891948291839881  0.1041338823591931
  0.4096570944987081  0.4390188390891580  0.1038386306156775
  0.4152708751859896  0.6859439959927255  0.1050611885210032
  0.4176837180148490  0.9383488235542766  0.1046389665528562
  0.9145489344830342  0.1868759150375117  0.3947703072219799
  0.9165263036121353  0.4381363250752459  0.4007273015626668
  0.9147148490726157  0.6866803633867077  0.3944474647532669
  0.9109771400568359  0.9377616998708818  0.3938891307228335
  0.5606829145450032  0.0658292543314433  0.3875194473829530
  0.5612482087251630  0.3107603591662081  0.3874118953415901
  0.5631248741485153  0.5653094465497531  0.3865391669438926
  0.5607990522615542  0.8104416502166241  0.3870980487587212
  0.0619349594740130  0.0593445921832045  0.1123588970597041
  0.0580162668600276  0.3084917892677303  0.1128452763069065
  0.0570971078441081  0.5658856131906067  0.1136604025373800
  0.0616943502405880  0.8168757634974785  0.1128032404042355
  0.4378955490200221  0.1886440364309852  0.6169114925468417
  0.4389410588680195  0.4375608079957325  0.6162424023680714
  0.4376929104773790  0.6889455002457830  0.6166136141796060
  0.4365348095891862  0.9368538333297879  0.6138163715019312
  0.9383951427855133  0.1869250695429659  0.8824226173634286
  0.9418867410348651  0.4378960607344220  0.8816474392084892
  0.9383770456758707  0.6888514506146780  0.8832959487091611
  0.9365720198215832  0.9381811943967959  0.8828751020540706
  0.7909103233492049  0.0629063888289270  0.8485363195552514
  0.7945791165379078  0.3137887342308929  0.8486878727541659
  0.7947005694763141  0.5622513844143275  0.8487148566651012
  0.7910228338985668  0.8125268649458570  0.8492227425354332
  0.2923116675921675  0.0626553305448160  0.6488815337995313
  0.2930595624717723  0.3114907024990954  0.6509658774518576
  0.2940318540356203  0.5635814241751451  0.6500713061294676
  0.2906838132254603  0.8122607621852534  0.6495484531120279
  0.2064389802670661  0.1907954831538414  0.1486641513975151
  0.2052354567481566  0.4381259227153701  0.1479317731293074
  0.2063726741565735  0.6852033366436647  0.1484855895859379
  0.2087398741766720  0.9374623731455667  0.1502052934897415
  0.7076285856733248  0.1867420104823724  0.3563187905838207
  0.7055512593764022  0.4379108240168902  0.3680992055361085
  0.7082461456464011  0.6898813925923668  0.3569193160503421
  0.7051059321810257  0.9380197950380174  0.3543767032317789
  0.8871683269986990  0.0625756835369713  0.5194525058974094
  0.8897519470671152  0.3123506072440512  0.5213215799083594
  0.8895570254970598  0.5625527940360614  0.5220427150573006
  0.8871639888992350  0.8121369562673505  0.5188578400006729
  0.3866915495366233  0.0626527658472861  0.9809778791132494
  0.3858295212086777  0.3126350668096746  0.9804638010449448
  0.3853498061706538  0.5636482763314169  0.9797746706458460
  0.3869156292665762  0.8134515557790012  0.9815755587853687
  0.1142844331474958  0.1868302065926971  0.4778976961147771
  0.1160875516911027  0.4374851591872456  0.4806736169998168
  0.1143041211277129  0.6876439736403988  0.4778534037067867
  0.1125115112704254  0.9373014588241660  0.4773727534276395
  0.6120531563643455  0.1880882063833128  0.0177706446996888
  0.6062080985059985  0.4389417858610634  0.0126364667001140
  0.6110977326569926  0.6880669292376017  0.0180133453121663
  0.6147117572304983  0.9379264401974697  0.0211809566183796
  0.9782928049150759  0.0626810431205731  0.2803100752847553
  0.9750095163048217  0.3146601519970491  0.2836493504169152
  0.9773606328003334  0.5605189991554140  0.2844735390184587
  0.9784431151678933  0.8123816499984907  0.2810047346996699
  0.4794510457526120  0.0643258097600905  0.2184646289389393
  0.4811632492870219  0.3149179745408629  0.2176060228808371
  0.4781442240466075  0.5614739737251835  0.2194486219374026
  0.4800880939408826  0.8117967076547153  0.2178157433147721
  0.0217306177215609  0.1866653832347580  0.7158002450811175
  0.0241603374899125  0.4374713841242950  0.7148652286968917
  0.0212355928330186  0.6881617140051010  0.7162004892190662
  0.0193084795679440  0.9375905897350583  0.7148263909903628
  0.5193766022077446  0.1881480851498470  0.7841990680803307
  0.5222299038642498  0.4375900959782140  0.7817907663994662
  0.5197268923872405  0.6876122014605730  0.7841369828528334
  0.5176016930136673  0.9373267671865801  0.7826454146990791
  0.5771374969506438  0.0635498658005295  0.5732675144311268
  0.5793963024312774  0.3104376681358760  0.5727433093324800
  0.5779849381835137  0.5651913829388189  0.5725571045015379
  0.5789373053613548  0.8122800380669922  0.5728962613051214
  0.0791741803404169  0.0617582721241733  0.9267898199886777
  0.0793192120247547  0.3116800820895700  0.9252393807073893
  0.0791222687417137  0.5637469078366975  0.9253343463328618
  0.0790394580868494  0.8142502160047280  0.9267265886503222
  0.4180588068164981  0.1883261816528189  0.4302816775341989
  0.4229839871164675  0.4374649094217526  0.4307273086112149
  0.4187609622409093  0.6886896023185100  0.4304239358696220
  0.4221279509449886  0.9375907689150309  0.4288535489156461
  0.9235978781836693  0.1879674046305196  0.0680689121130655
  0.9325586622323518  0.4379609147941395  0.0666758205227942
  0.9257473382965153  0.6883846857275395  0.0685599255439253
  0.9177850356883499  0.9375899135284574  0.0687528590270890
 
             NaN             NaN             NaN
             NaN             NaN             NaN
             NaN             NaN             NaN
             NaN             NaN             NaN
             NaN             NaN             NaN
             NaN             NaN             NaN
             NaN             NaN             NaN
             NaN             NaN             NaN
             NaN             NaN             NaN
             NaN             NaN             NaN
             NaN             NaN             NaN
             NaN             NaN             NaN
             NaN             NaN             NaN
             NaN             NaN             NaN
             NaN             NaN             NaN
             NaN             NaN             NaN
             NaN             NaN             NaN
             NaN             NaN             NaN
             NaN             NaN             NaN
             NaN             NaN             NaN
             NaN             NaN             NaN
             NaN             NaN             NaN
             NaN             NaN             NaN
             NaN             NaN             NaN
             NaN             NaN             NaN
             NaN             NaN             NaN
             NaN             NaN             NaN
             NaN             NaN             NaN
             NaN             NaN             NaN
             NaN             NaN             NaN
             NaN             NaN             NaN
             NaN             NaN             NaN
             NaN             NaN             NaN
             NaN             NaN             NaN
             NaN             NaN             NaN
             NaN             NaN             NaN
             NaN             NaN             NaN
             NaN             NaN             NaN
             NaN             NaN             NaN
             NaN             NaN             NaN
             NaN             NaN             NaN
             NaN             NaN             NaN
             NaN             NaN             NaN
             NaN             NaN             NaN
             NaN             NaN             NaN
             NaN             NaN             NaN
             NaN             NaN             NaN
             NaN             NaN             NaN
             NaN             NaN             NaN
             NaN             NaN             NaN
             NaN             NaN             NaN
             NaN             NaN             NaN
             NaN             NaN             NaN
             NaN             NaN             NaN
             NaN             NaN             NaN
             NaN             NaN             NaN
             NaN             NaN             NaN
             NaN             NaN             NaN
             NaN             NaN             NaN
             NaN             NaN             NaN
             NaN             NaN             NaN
             NaN             NaN             NaN
             NaN             NaN             NaN
             NaN             NaN             NaN
             NaN             NaN             NaN
             NaN             NaN             NaN
             NaN             NaN             NaN
             NaN             NaN             NaN
             NaN             NaN             NaN
             NaN             NaN             NaN
             NaN             NaN             NaN
             NaN             NaN             NaN
             NaN             NaN             NaN
             NaN             NaN             NaN
             NaN             NaN             NaN
             NaN             NaN             NaN
             NaN             NaN             NaN
             NaN             NaN             NaN
             NaN             NaN             NaN
             NaN             NaN             NaN
             NaN             NaN             NaN
             NaN             NaN             NaN
             NaN             NaN             NaN
             NaN             NaN             NaN
             NaN             NaN             NaN
             NaN             NaN             NaN
             NaN             NaN             NaN
             NaN             NaN             NaN
             NaN             NaN             NaN
             NaN             NaN             NaN
             NaN             NaN             NaN
             NaN             NaN             NaN
             NaN             NaN             NaN
             NaN             NaN             NaN
             NaN             NaN             NaN
             NaN             NaN             NaN
             NaN             NaN             NaN
             NaN             NaN             NaN
             NaN             NaN             NaN
             NaN             NaN             NaN
             NaN             NaN             NaN
             NaN             NaN             NaN
             NaN             NaN             NaN
             NaN             NaN             NaN
             NaN             NaN             NaN
             NaN             NaN             NaN
             NaN             NaN             NaN
             NaN             NaN             NaN
             NaN             NaN             NaN
             NaN             NaN             NaN
             NaN             NaN             NaN
