Na15 V32 O64
1.0
9.103728 0.001444 -0.001961
0.002754 11.440871 -0.000096
0.000141 0.000574 10.607346
Na V O
15 32 64
direct
0.742397 0.410889 0.153664 Na
0.742314 0.070226 0.152518 Na
0.742244 0.801539 0.152824 Na
0.242777 0.062686 0.347805 Na
0.242831 0.312855 0.347562 Na
0.243339 0.562257 0.348112 Na
0.242359 0.812410 0.347787 Na
0.257459 0.187595 0.848895 Na
0.258101 0.437691 0.848622 Na
0.257897 0.687648 0.849050 Na
0.257266 0.937455 0.849116 Na
0.757446 0.187086 0.650702 Na
0.757505 0.437556 0.650905 Na
0.757592 0.687093 0.650637 Na
0.757264 0.937563 0.650027 Na
0.584632 0.062203 0.896140 V
0.586559 0.311929 0.897937 V
0.587614 0.561945 0.897985 V
0.584413 0.811729 0.896450 V
0.086004 0.061830 0.603296 V
0.085281 0.311789 0.603565 V
0.086106 0.562017 0.603481 V
0.084820 0.811804 0.603398 V
0.414302 0.188366 0.104476 V
0.414105 0.438030 0.104168 V
0.415177 0.686045 0.104866 V
0.416370 0.938233 0.104349 V
0.915168 0.188409 0.395651 V
0.914441 0.437296 0.395595 V
0.914428 0.686978 0.395306 V
0.914744 0.937096 0.395103 V
0.561959 0.062444 0.387160 V
0.563344 0.311997 0.385044 V
0.563867 0.562320 0.384121 V
0.561357 0.811837 0.386835 V
0.061336 0.060714 0.113070 V
0.060180 0.312081 0.113207 V
0.058305 0.564202 0.115034 V
0.062393 0.813490 0.113013 V
0.437773 0.188931 0.615396 V
0.438985 0.436881 0.614585 V
0.438235 0.688075 0.614779 V
0.437113 0.936933 0.615683 V
0.937833 0.187960 0.884424 V
0.938823 0.438893 0.884969 V
0.938024 0.688312 0.885041 V
0.936648 0.938355 0.883804 V
0.791045 0.063156 0.849924 O
0.792935 0.312805 0.850695 O
0.792880 0.562394 0.849686 O
0.791534 0.812680 0.850330 O
0.292485 0.062382 0.649131 O
0.292190 0.312414 0.649456 O
0.293459 0.562544 0.648517 O
0.291357 0.812331 0.649597 O
0.206819 0.188323 0.148291 O
0.206240 0.437567 0.147669 O
0.207293 0.686310 0.148686 O
0.208030 0.938368 0.149259 O
0.707673 0.186804 0.354435 O
0.707955 0.436747 0.357046 O
0.707831 0.689114 0.355405 O
0.707054 0.937079 0.353264 O
0.887610 0.062685 0.519274 O
0.887573 0.312215 0.520397 O
0.887757 0.562064 0.520122 O
0.887279 0.812291 0.519794 O
0.386371 0.062607 0.980344 O
0.385855 0.312337 0.980135 O
0.386198 0.562373 0.979782 O
0.386356 0.812585 0.981205 O
0.114038 0.187385 0.479358 O
0.113794 0.437024 0.479657 O
0.113599 0.687228 0.479318 O
0.113542 0.937122 0.479038 O
0.611976 0.187950 0.019643 O
0.610257 0.437185 0.017753 O
0.611514 0.686777 0.018800 O
0.613549 0.937220 0.020328 O
0.978763 0.062561 0.282095 O
0.980060 0.312700 0.283011 O
0.980951 0.562446 0.284267 O
0.979494 0.812402 0.281387 O
0.479511 0.063008 0.218359 O
0.477793 0.312925 0.217847 O
0.476497 0.562291 0.219003 O
0.479790 0.812208 0.217482 O
0.020444 0.186974 0.716522 O
0.021268 0.437397 0.716552 O
0.020445 0.687275 0.716776 O
0.019494 0.937514 0.716285 O
0.519685 0.187563 0.783262 O
0.521260 0.437025 0.782976 O
0.520171 0.687337 0.783222 O
0.518595 0.936945 0.783493 O
0.577614 0.062394 0.572811 O
0.579898 0.312044 0.571572 O
0.578272 0.562868 0.571343 O
0.579137 0.812641 0.572526 O
0.078577 0.062438 0.927302 O
0.078622 0.312555 0.926708 O
0.079038 0.563471 0.927559 O
0.078644 0.813551 0.927346 O
0.421412 0.187705 0.429496 O
0.422498 0.436830 0.429186 O
0.421386 0.688097 0.429186 O
0.421170 0.937015 0.429568 O
0.923573 0.187914 0.069964 O
0.926599 0.437946 0.069586 O
0.923485 0.687588 0.069744 O
0.919928 0.937882 0.069775 O
