Mg7 Sc16 Se32
1.0
11.128708 -0.000010 -0.000019
-0.000010 11.128711 -0.000030
-0.000019 -0.000006 11.128876
Mg Sc Se
7 16 32
direct
0.438663 0.438665 0.438660 Mg
0.624440 0.125564 0.125562 Mg
0.125565 0.624439 0.125562 Mg
0.125565 0.125564 0.624438 Mg
0.376726 0.873275 0.873276 Mg
0.873276 0.376726 0.873277 Mg
0.873277 0.873278 0.376724 Mg
0.995289 0.749825 0.749826 Sc
0.749826 0.995287 0.749825 Sc
0.749827 0.749824 0.995285 Sc
1.000025 1.000022 1.000021 Sc
0.001610 0.250027 0.250026 Sc
0.250031 0.001606 0.250027 Sc
0.250031 0.250026 0.001606 Sc
0.748245 0.500126 0.254763 Sc
0.748241 0.254763 0.500126 Sc
-0.003127 0.500123 0.500124 Sc
0.254763 0.500125 0.748241 Sc
0.254764 0.748242 0.500127 Sc
0.500129 0.748242 0.254761 Sc
0.500126 -0.003127 0.500124 Sc
0.500126 0.254761 0.748242 Sc
0.500127 0.500124 -0.003128 Sc
0.757389 0.993303 0.993304 Se
0.993302 0.757391 0.993306 Se
0.993303 0.993303 0.757388 Se
0.755736 0.755735 0.755739 Se
0.243144 0.006603 0.006599 Se
0.006601 0.243145 0.006601 Se
0.006602 0.006603 0.243146 Se
0.243700 0.243701 0.243701 Se
0.756477 0.494227 0.494222 Se
0.992562 0.256734 0.492572 Se
0.992564 0.492569 0.256730 Se
0.758130 0.256735 0.256736 Se
0.241449 0.506426 0.506420 Se
0.008858 0.743274 0.506975 Se
0.008856 0.506974 0.743273 Se
0.240892 0.743267 0.743284 Se
0.256732 0.992564 0.492570 Se
0.494228 0.756476 0.494222 Se
0.492568 0.992565 0.256731 Se
0.256734 0.758132 0.256735 Se
0.743271 0.008859 0.506973 Se
0.506418 0.241449 0.506426 Se
0.506972 0.008856 0.743273 Se
0.743266 0.240892 0.743284 Se
0.256732 0.492569 0.992565 Se
0.492567 0.256734 0.992567 Se
0.494227 0.494227 0.756481 Se
0.256732 0.256733 0.758133 Se
0.743271 0.506976 0.008855 Se
0.506974 0.743273 0.008857 Se
0.506424 0.506424 0.241445 Se
0.743275 0.743275 0.240891 Se
