Li47 P16 O64                            
   1.00000000000000     
    10.4583560000000002   -0.0019800000000000   -0.0127470000000000
    -0.0022790000000000   12.2101319999999998   -0.0036800000000000
    -0.0120290000000000   -0.0029590000000000    9.8369540000000004
   Li   P    O 
    47    16    64
Direct
  0.5059039516586380  0.2982161655731997  0.0729646328071216
  0.6641495125975212  0.2520977836184487  0.6003641590057376
  0.6637181369868406  0.7512896409930142  0.0975918835400519
  0.6643410879100649  0.7518899946502665  0.5985626505346898
  0.1653232817323287  0.4976709203355151  0.1522014099039565
  0.1649134817209142  0.4989552122830129  0.6521056790290600
  0.1634327661088992  0.9947970098625716  0.1534063134070960
  0.1641140050276430  0.9986562015296921  0.6524535652472178
  0.3356170183901320 -0.0001020734661252  0.4033958320967497
  0.3367850158816124  0.0002115793980626  0.9029523720012385
  0.3383874312050957  0.4999521885058771  0.3966447266513675
  0.3390447771535601  0.4963685691485601  0.9116707856325360
  0.8324528514046966  0.2493464898388083  0.3425944194543004
  0.8348235633089210  0.2491759999036849  0.8552980996364612
  0.8361855115069178  0.7487519281704452  0.3476600462204492
  0.8365085074885021  0.7488432803105267  0.8478312341164457
  0.3368017695732650  0.2506250182884334  0.3996379289325010
  0.3320022529573262  0.2496063259002263  0.9005460824528081
  0.3369807744997187  0.7496928778334288  0.4014590910275784
  0.3367668376164993  0.7488108924725487  0.9046711916990954
  0.8368381491035596  0.0024133231722466  0.3473897110007185
  0.8371025644193790  0.0016661505164317  0.8486045235828661
  0.8339273592706546  0.5007880278079625  0.3481557203636986
  0.8353608803659949  0.5009586090337972  0.8487895237446077
  0.6600073093342375  0.4969026325797299  0.0968070268880505
  0.6640619285233463  0.5022123829157208  0.5991956403305178
  0.6661563877986711  0.0054326831673675  0.1005581586616630
  0.6641378242406695  0.0011171941343661  0.5977076156077248
  0.1645651383749822  0.2514841441159993  0.1505983778904170
  0.1630328123088306  0.2506295524508836  0.6516616704663127
  0.1652620637420736  0.7504077292234915  0.1522512395247486
  0.1643547594419028  0.7508744233097201  0.6529537467399902
  0.9196037905369889  0.3741124786503970  0.1474774060103093
  0.9231887044024017  0.3745459146604669  0.6492701112191510
  0.9231652515280103  0.8756596983093158  0.1492530665701771
  0.9235668480850053  0.8754516336964248  0.6489031036150341
  0.4224272801880427  0.3760501561835642  0.5996467828317791
  0.4281426564507470  0.8752216220545177  0.1006006205649659
  0.4252559083820295  0.8754003228402939  0.6016992774618389
  0.0758462159413620  0.1255189474593297  0.3480031806339050
  0.0764324906902489  0.1245572088589022  0.8525793785128966
  0.0763566430605701  0.6239885124209358  0.3506518622743125
  0.0776355271003975  0.6237665771476061  0.8522600133917634
  0.5762486290149771  0.1288523528592648  0.3957937563388513
  0.5802371876471673  0.1274340684843337  0.9035769748341173
  0.5760264425293721  0.6251164933345343  0.4001476193870807
  0.5744761020735961  0.6243940199491212  0.8992296418315706
  0.9162173277639239  0.1251611924796301  0.0960346494082261
  0.9124463888386075  0.1253394537774300  0.5955418254773146
  0.9113177652321357  0.6253936991065561  0.0955203457239737
  0.9125261036401801  0.6252590590112960  0.5954924238716052
  0.4069257909080826  0.1185130650327709  0.1543898673056784
  0.4115649809428383  0.1247577545432165  0.6551336950634512
  0.4104796793878927  0.6288837657361421  0.1542899427323516
  0.4108716035958055  0.6260414351894784  0.6551595735485288
  0.0872408657224436  0.3754851442803412  0.4047706513740078
  0.0872110673375512  0.3753294820205063  0.9046118043382858
  0.0877215719861293  0.8742859728895790  0.4054788202681271
  0.0881512793920366  0.8740142077281458  0.9048029956134850
  0.5892903848283073  0.3772246824958724  0.3498444251619753
  0.5885845124100997  0.3750369157258110  0.8388371398459525
  0.5897876196604807  0.8762117263596850  0.3456578243048717
  0.5897687829013259  0.8757374900822362  0.8453116807404490
  0.8449781348938004  0.0219231044178244  0.1479279636512210
  0.8421932859057849  0.0218285704938564  0.6464981602863052
  0.8401117345045961  0.5231415473056314  0.1465277968196821
  0.8426173349124416  0.5226721421438427  0.6479594936915767
  0.3372060067673098  0.2199820885197480  0.0987383130364557
  0.3402983041112773  0.2273442985876848  0.6035546705172323
  0.3446079854816039  0.7362026950476394  0.1073690361046893
  0.3414586002194209  0.7299707179248778  0.6041503995655300
  0.1568800517132073  0.2722527998252399  0.3527050916017681
  0.1559859856830696  0.2717136506723147  0.8523075013344412
  0.1577485482834319  0.7712909806282060  0.3539575683478107
  0.1586054937352856  0.7709680328235022  0.8536348104799618
  0.6589746419889122  0.4806187709119142  0.4046640617739584
  0.6572800478844320  0.4783875953026268  0.8932717389260176
  0.6591924280765099  0.9797425941999988  0.3975464602392424
  0.6599727147969804  0.9783170748331061  0.8981094863592382
  0.1581200680132062  0.4783842060042527  0.3538979169261602
  0.1587432442873256  0.4775181286757797  0.8525979073352453
  0.1577687883037200  0.9773725040109440  0.3546763148830873
  0.1588127618651484  0.9769164974642066  0.8536566306491933
  0.6591528492981531  0.2740998474574716  0.4030905644498314
  0.6574130980231405  0.2711473860400148  0.8852150610034547
  0.6596871792275468  0.7730911592068150  0.3977485665182603
  0.6591352795330353  0.7719204833320720  0.8959423043166318
  0.8541535470051853  0.2284875125785174  0.1499991701802308
  0.8432140131533075  0.2278357768708492  0.6487494284148606
  0.8416606200650135  0.7290863802770747  0.1464231694660313
  0.8423593126275800  0.7285762905029640  0.6467075832112356
  0.3389157686607690  0.0134598320120691  0.1062315122810581
  0.3417120590666038  0.0210143545325408  0.6038857123308086
  0.3336193807412182  0.5323853359967050  0.1006492014593387
  0.3410586793371838  0.5238881983057798  0.6006312427270306
  0.5438973982900603  0.1233874785775404  0.1007901268562968
  0.5496041668802507  0.1252923399575480  0.6019049265301961
  0.5489246598231654  0.6271923267400977  0.1007071255021353
  0.5499542375833647  0.6277015004578743  0.6045632814604531
  0.0570564045391478  0.1201156537120904  0.1439246793767901
  0.0513446282928034  0.1239822178613935  0.6476924890747116
  0.0497981269765916  0.6251530166451092  0.1483714586215827
  0.0512269073270714  0.6254606705406891  0.6477636701646521
  0.4507869368657629  0.3752673845993930  0.4034564787859121
  0.4511543672570262  0.3711634338399112  0.8939803789928750
  0.4512156696197974  0.8755783600149163  0.3977301351884193
  0.4509466591807035  0.8752037981950126  0.8961510124260170
  0.9484697583595711  0.3766558501419142  0.3538916934162011
  0.9486285385742720  0.3761026808572390  0.8521527717812067
  0.9489846700317626  0.8745555530249214  0.3534155286817894
  0.9499035147750186  0.8744680848788061  0.8512053082424701
  0.5918579605511745  0.3811739193491355  0.1959596161943395
  0.5872653597679280  0.3793515128045546  0.6822581956510739
  0.5920808524347336  0.8766877929602700  0.1889083232844128
  0.5909644081315055  0.8764977353149481  0.6883090065181119
  0.0875001675584566  0.3753629979875105  0.0611256025926468
  0.0891039988993484  0.3749879909004733  0.5619006403092637
  0.0874226541119627  0.8730181683088827  0.0614152409778333
  0.0886418934186368  0.8742182958691728  0.5623705969052986
  0.4071611592645606  0.1224177741793525  0.3115620822428964
  0.4113700104854187  0.1244844936564086  0.8119577814971328
  0.4125488853308650  0.6271051668679188  0.3117267187693174
  0.4089576592147030  0.6242302757307933  0.8118940334564000
  0.9115273363185810  0.1257659969674987  0.4387247477628680
  0.9129039312122320  0.1237163537564968  0.9386516651514488
  0.9114542455234804  0.6252137958779933  0.4386963406811004
  0.9114549263022210  0.6254399406422854  0.9384681420938060
 
             NaN             NaN             NaN
             NaN             NaN             NaN
             NaN             NaN             NaN
             NaN             NaN             NaN
             NaN             NaN             NaN
             NaN             NaN             NaN
             NaN             NaN             NaN
             NaN             NaN             NaN
             NaN             NaN             NaN
             NaN             NaN             NaN
             NaN             NaN             NaN
             NaN             NaN             NaN
             NaN             NaN             NaN
             NaN             NaN             NaN
             NaN             NaN             NaN
             NaN             NaN             NaN
             NaN             NaN             NaN
             NaN             NaN             NaN
             NaN             NaN             NaN
             NaN             NaN             NaN
             NaN             NaN             NaN
             NaN             NaN             NaN
             NaN             NaN             NaN
             NaN             NaN             NaN
             NaN             NaN             NaN
             NaN             NaN             NaN
             NaN             NaN             NaN
             NaN             NaN             NaN
             NaN             NaN             NaN
             NaN             NaN             NaN
             NaN             NaN             NaN
             NaN             NaN             NaN
             NaN             NaN             NaN
             NaN             NaN             NaN
             NaN             NaN             NaN
             NaN             NaN             NaN
             NaN             NaN             NaN
             NaN             NaN             NaN
             NaN             NaN             NaN
             NaN             NaN             NaN
             NaN             NaN             NaN
             NaN             NaN             NaN
             NaN             NaN             NaN
             NaN             NaN             NaN
             NaN             NaN             NaN
             NaN             NaN             NaN
             NaN             NaN             NaN
             NaN             NaN             NaN
             NaN             NaN             NaN
             NaN             NaN             NaN
             NaN             NaN             NaN
             NaN             NaN             NaN
             NaN             NaN             NaN
             NaN             NaN             NaN
             NaN             NaN             NaN
             NaN             NaN             NaN
             NaN             NaN             NaN
             NaN             NaN             NaN
             NaN             NaN             NaN
             NaN             NaN             NaN
             NaN             NaN             NaN
             NaN             NaN             NaN
             NaN             NaN             NaN
             NaN             NaN             NaN
             NaN             NaN             NaN
             NaN             NaN             NaN
             NaN             NaN             NaN
             NaN             NaN             NaN
             NaN             NaN             NaN
             NaN             NaN             NaN
             NaN             NaN             NaN
             NaN             NaN             NaN
             NaN             NaN             NaN
             NaN             NaN             NaN
             NaN             NaN             NaN
             NaN             NaN             NaN
             NaN             NaN             NaN
             NaN             NaN             NaN
             NaN             NaN             NaN
             NaN             NaN             NaN
             NaN             NaN             NaN
             NaN             NaN             NaN
             NaN             NaN             NaN
             NaN             NaN             NaN
             NaN             NaN             NaN
             NaN             NaN             NaN
             NaN             NaN             NaN
             NaN             NaN             NaN
             NaN             NaN             NaN
             NaN             NaN             NaN
             NaN             NaN             NaN
             NaN             NaN             NaN
             NaN             NaN             NaN
             NaN             NaN             NaN
             NaN             NaN             NaN
             NaN             NaN             NaN
             NaN             NaN             NaN
             NaN             NaN             NaN
             NaN             NaN             NaN
             NaN             NaN             NaN
             NaN             NaN             NaN
             NaN             NaN             NaN
             NaN             NaN             NaN
             NaN             NaN             NaN
             NaN             NaN             NaN
             NaN             NaN             NaN
             NaN             NaN             NaN
             NaN             NaN             NaN
             NaN             NaN             NaN
             NaN             NaN             NaN
             NaN             NaN             NaN
             NaN             NaN             NaN
             NaN             NaN             NaN
             NaN             NaN             NaN
             NaN             NaN             NaN
             NaN             NaN             NaN
             NaN             NaN             NaN
             NaN             NaN             NaN
             NaN             NaN             NaN
             NaN             NaN             NaN
             NaN             NaN             NaN
             NaN             NaN             NaN
             NaN             NaN             NaN
             NaN             NaN             NaN
             NaN             NaN             NaN
             NaN             NaN             NaN
             NaN             NaN             NaN
