Li16 Co18 O36                           
   1.00000000000000     
     8.0633520000000001    0.0216390000000000    2.3671690000000001
     3.6626080000000001    7.1811160000000003    2.3717779999999999
     0.0313660000000000    0.0121200000000000    9.8894839999999995
   Li   Co   O 
    16    18    36
Direct
  0.7584087512742599  0.4244459640278677  0.4778067835219062
  0.3338506717282925  0.3329796716814855  0.9991080930397018
  0.3330853185943923  0.3337509579483253  0.4987274321826547
  0.3333017476316229  0.6668546739847727  0.0010314897048147
  0.3484837517963442  0.6592469295496386  0.5005268820724638
  0.3338367783191529  0.9996502455407992  0.9995425737378909
  0.3334836395742045  0.9999957820481455  0.4990645697936387
  0.6671885254115395  0.3333142519274617  0.0002772005684264
  0.6649836633500072  0.6679788012189434  0.9995454120034211
  0.6669509553395727  0.9997263540272670  0.9995199848607257
  0.6679376179333900  0.9990443415594328  0.4986222638042577
  0.0020805642278745  0.3311683864425561  0.9991166969217744
  0.0010055674638778  0.6670116190334312  0.9991307586415985
  0.9852206418397813  0.6509297083492172  0.5000353397782433
  0.0005532577775611  0.9993815042333694  0.0009734540481716
  0.9932514843601936  0.0147977358459315  0.5003785875240396
  0.1686961520066745  0.1687768394564415  0.2482486571116382
  0.1651090323080453  0.1654136838889002  0.7486302602290493
  0.1674555272575873  0.5002125318520712  0.2477210847082674
  0.1646729322640255  0.4983059766125066  0.7517858134693682
  0.1661458688726469  0.8341817518662111  0.2502153354791545
  0.1644887650932887  0.8308983809690815  0.7535404473465235
  0.5017272851778927  0.1693941671734009  0.2446581953974700
  0.4999627511378861  0.1656201739575849  0.7489648125161779
  0.5010159385634836  0.5008874685341027  0.2484609277610446
  0.4967277399465004  0.4992574226099578  0.7531122963993155
  0.5011074387200836  0.8356898903376546  0.2490498443726921
  0.4990853157929678  0.8315251260656780  0.7484585652401492
  0.8334812037551274  0.1686384999686652  0.2479447838011524
  0.8324832930673409  0.1634586352377170  0.7532020147024880
  0.8361797625887277  0.5030252788504797  0.2412363702380418
  0.8323981465597399  0.4992194548040914  0.7528881928656546
  0.8326564774898699  0.8344245518638687  0.2480073360608941
  0.8317397683881467  0.8309702572084845  0.7521784470026063
  0.2603592768668364  0.2539112790574762  0.3520057889177082
  0.2532507911034401  0.2505423594260421  0.8586738860153176
  0.2539288347736033  0.5866276188226962  0.3576318963104583
  0.2511968019652926  0.5843329262871322  0.8629294595592327
  0.2541941775425798  0.9219021411950479  0.3582645507550666
  0.2531365505619050  0.9192104241932810  0.8597881676738410
  0.5868075221091829  0.2538908667222870  0.3523555341537232
  0.5843661196160781  0.2508349436244188  0.8615373910339414
  0.5895741148787152  0.5889976597604729  0.3510726239898716
  0.5840586233364959  0.5875567103802979  0.8616043041131221
  0.5864722786730781  0.9276950658456116  0.3522407164868397
  0.5842468865054826  0.9191488296679609  0.8590037342317274
  0.9222777914652909  0.2565356502489209  0.3505916290405651
  0.9209989281196584  0.2506619721427867  0.8615747726479270
  0.9213039161280463  0.5881113059974510  0.3499412104690975
  0.9186146271404709  0.5847833109367855  0.8627836498173380
  0.9191293780173950  0.9214924150318211  0.3575003022721361
  0.9178542847761264  0.9177057557008084  0.8630606930523328
  0.0814125626776061  0.0802281263875599  0.1398629308370758
  0.0781371809636369  0.0737127499646277  0.6463279759032474
  0.0838444669154157  0.4136160456560276  0.1358451706423978
  0.0780636116556011  0.4131377844625987  0.6457514468173571
  0.0804841580961906  0.7479333857175021  0.1396142697453371
  0.0779904562347866  0.7445570736411184  0.6449451858651685
  0.4140832589878158  0.0807674492068244  0.1373165806202579
  0.4125887071747840  0.0788206678678449  0.6395623774891064
  0.4139986077624940  0.4167906464941211  0.1368342152119411
  0.4089855379251759  0.4134975890214747  0.6453368502775376
  0.4127436877648307  0.7486488611922226  0.1403628427894574
  0.4072650430180218  0.7446659571401639  0.6460827289766087
  0.7494453323625692  0.0808872129503513  0.1369289807088023
  0.7473572491894416  0.0751379277700153  0.6454343156666198
  0.7468968480515770  0.4143587786635834  0.1361572537262390
  0.7419976141946947  0.4087036580362096  0.6595555113608853
  0.7462301133875968  0.7506319185640251  0.1363137200182862
  0.7467122731384208  0.7446413003635115  0.6457416428721174
 
  0.00000000E+00  0.00000000E+00  0.00000000E+00
  0.00000000E+00  0.00000000E+00  0.00000000E+00
  0.00000000E+00  0.00000000E+00  0.00000000E+00
  0.00000000E+00  0.00000000E+00  0.00000000E+00
  0.00000000E+00  0.00000000E+00  0.00000000E+00
  0.00000000E+00  0.00000000E+00  0.00000000E+00
  0.00000000E+00  0.00000000E+00  0.00000000E+00
  0.00000000E+00  0.00000000E+00  0.00000000E+00
  0.00000000E+00  0.00000000E+00  0.00000000E+00
  0.00000000E+00  0.00000000E+00  0.00000000E+00
  0.00000000E+00  0.00000000E+00  0.00000000E+00
  0.00000000E+00  0.00000000E+00  0.00000000E+00
  0.00000000E+00  0.00000000E+00  0.00000000E+00
  0.00000000E+00  0.00000000E+00  0.00000000E+00
  0.00000000E+00  0.00000000E+00  0.00000000E+00
  0.00000000E+00  0.00000000E+00  0.00000000E+00
  0.00000000E+00  0.00000000E+00  0.00000000E+00
  0.00000000E+00  0.00000000E+00  0.00000000E+00
  0.00000000E+00  0.00000000E+00  0.00000000E+00
  0.00000000E+00  0.00000000E+00  0.00000000E+00
  0.00000000E+00  0.00000000E+00  0.00000000E+00
  0.00000000E+00  0.00000000E+00  0.00000000E+00
  0.00000000E+00  0.00000000E+00  0.00000000E+00
  0.00000000E+00  0.00000000E+00  0.00000000E+00
  0.00000000E+00  0.00000000E+00  0.00000000E+00
  0.00000000E+00  0.00000000E+00  0.00000000E+00
  0.00000000E+00  0.00000000E+00  0.00000000E+00
  0.00000000E+00  0.00000000E+00  0.00000000E+00
  0.00000000E+00  0.00000000E+00  0.00000000E+00
  0.00000000E+00  0.00000000E+00  0.00000000E+00
  0.00000000E+00  0.00000000E+00  0.00000000E+00
  0.00000000E+00  0.00000000E+00  0.00000000E+00
  0.00000000E+00  0.00000000E+00  0.00000000E+00
  0.00000000E+00  0.00000000E+00  0.00000000E+00
  0.00000000E+00  0.00000000E+00  0.00000000E+00
  0.00000000E+00  0.00000000E+00  0.00000000E+00
  0.00000000E+00  0.00000000E+00  0.00000000E+00
  0.00000000E+00  0.00000000E+00  0.00000000E+00
  0.00000000E+00  0.00000000E+00  0.00000000E+00
  0.00000000E+00  0.00000000E+00  0.00000000E+00
  0.00000000E+00  0.00000000E+00  0.00000000E+00
  0.00000000E+00  0.00000000E+00  0.00000000E+00
  0.00000000E+00  0.00000000E+00  0.00000000E+00
  0.00000000E+00  0.00000000E+00  0.00000000E+00
  0.00000000E+00  0.00000000E+00  0.00000000E+00
  0.00000000E+00  0.00000000E+00  0.00000000E+00
  0.00000000E+00  0.00000000E+00  0.00000000E+00
  0.00000000E+00  0.00000000E+00  0.00000000E+00
  0.00000000E+00  0.00000000E+00  0.00000000E+00
  0.00000000E+00  0.00000000E+00  0.00000000E+00
  0.00000000E+00  0.00000000E+00  0.00000000E+00
  0.00000000E+00  0.00000000E+00  0.00000000E+00
  0.00000000E+00  0.00000000E+00  0.00000000E+00
  0.00000000E+00  0.00000000E+00  0.00000000E+00
  0.00000000E+00  0.00000000E+00  0.00000000E+00
  0.00000000E+00  0.00000000E+00  0.00000000E+00
  0.00000000E+00  0.00000000E+00  0.00000000E+00
  0.00000000E+00  0.00000000E+00  0.00000000E+00
  0.00000000E+00  0.00000000E+00  0.00000000E+00
  0.00000000E+00  0.00000000E+00  0.00000000E+00
  0.00000000E+00  0.00000000E+00  0.00000000E+00
  0.00000000E+00  0.00000000E+00  0.00000000E+00
  0.00000000E+00  0.00000000E+00  0.00000000E+00
  0.00000000E+00  0.00000000E+00  0.00000000E+00
  0.00000000E+00  0.00000000E+00  0.00000000E+00
  0.00000000E+00  0.00000000E+00  0.00000000E+00
  0.00000000E+00  0.00000000E+00  0.00000000E+00
  0.00000000E+00  0.00000000E+00  0.00000000E+00
  0.00000000E+00  0.00000000E+00  0.00000000E+00
  0.00000000E+00  0.00000000E+00  0.00000000E+00
