Li7 Mn16 O32                            
   1.00000000000000     
     8.6028939999999992    0.0002330000000000    0.0004180000000000
    -0.0001850000000000    8.0916879999999995   -0.0928090000000000
    -0.0003000000000000    0.0023290000000000    8.0682480000000005
   Li   Mn   O 
     7    16    32
Direct
  0.2360113132034108  0.5110474618585003  0.7387826407895680
  0.8665157100126681  0.8762906231650556  0.8759567189530492
  0.1372534722722759  0.1287914231695960  0.1208958783278615
  0.8669486616477147  0.3743480703627101  0.3732439371323772
  0.3630819505527934  0.8718001342405743  0.3781016279353136
  0.6321645850052117  0.1264541832239799  0.6274550565587070
  0.6321285167405049  0.6230525888004259  0.1232231650212716
  0.4997996284165820  0.2494192947460029  0.2490191791083134
  0.2501285131758591  0.5002299891827181  0.2504833972290961
  0.2497001124377244  0.2501972995597287  0.5001541678656926
  0.5068449338372558  0.4983910492736457  0.4989951913325800
  0.5067916704241925  0.7513833478318269  0.7512481600241470
  0.7523754361719709  0.5008711298104536  0.7502266601333639
  0.7525426257139651  0.7503021218459207  0.4995999688844706
  0.2498402294094083  0.9997387300250976  0.7497625652888551
  0.2502873450558002  0.7500042835529556  0.9995293294749407
  0.4999429401664728  0.0009656171156258  0.0004863107986695
  0.7478021710076864  0.0001989400304537  0.2495197960049801
  0.7454455840950506  0.2521034904144682  0.9995325156401044
  0.9964167863976641  0.2495987910294579  0.7500505553856290
  0.9986131315589898  0.5001545390443615  0.9999178224441179
  0.9978744568818949  0.7487798604111319  0.2498475112082046
  0.9969244629041857  0.9999245318921673  0.5008182711181013
  0.7232496327249713  0.0100083731819075  0.0128599091096157
  0.9960660948945798  0.7369631257127955  0.0171081860644506
  0.9973144111528649  0.0144238278269355  0.7357371372243042
  0.7324968409856082  0.7418756607809460  0.7341689749222328
  0.2751268743022627  0.9869032478638594  0.9866301516439806
  0.9979025976845091  0.2650536237427070  0.9858938377146499
  0.0007215882686928  0.9837539923628394  0.2653776440243866
  0.2751372114106722  0.2636734663973534  0.2626925080983367
  0.7329303551462516  0.5150739186912491  0.5101996413459867
  0.9945123903081101  0.2321853116697867  0.5126337679194394
  0.9981770945102109  0.5145351046958733  0.2357131717852948
  0.7234783521062103  0.2387476039508596  0.2382540048676950
  0.2862866959361767  0.4891405008951996  0.4936398190531586
  0.9772452941719053  0.7627896216815602  0.4877301242630444
  0.9991896223711505  0.4833688280762478  0.7654960790092827
  0.2862304783552869  0.7568212643911825  0.7600357152963638
  0.2206330932153164  0.0081479624548652  0.5131537269615205
  0.5233229643936111  0.7399242839664644  0.5089169902062944
  0.4961148696516905  0.0136488553305140  0.2370947043826041
  0.2212157545740451  0.7362502557520412  0.2422835116640124
  0.7711688949565241  0.9859332802240590  0.4888539381738308
  0.5048066598289168  0.2660798395880475  0.4862307850933492
  0.5018641326459569  0.9857631745061178  0.7643687612575105
  0.7720643578348971  0.2613600464191064  0.7624261344125695
  0.2181880363434303  0.5162586172196898  0.0056357605666167
  0.4986880410195644  0.2310358382007869  0.0181830719507506
  0.5059167418216380  0.5192778486379586  0.7315604317509458
  0.2167852276941253  0.2435890567206020  0.7340762877897608
  0.7736218087531463  0.4915034665039001  0.9871141958185958
  0.5046655812540747  0.7642112647908580  0.9840568189918111
  0.5020856751544595  0.4849381376657724  0.2638803243877879
  0.7718671511198437  0.7598573260958277  0.2639963898785999
 
             NaN             NaN             NaN
             NaN             NaN             NaN
             NaN             NaN             NaN
             NaN             NaN             NaN
             NaN             NaN             NaN
             NaN             NaN             NaN
             NaN             NaN             NaN
             NaN             NaN             NaN
             NaN             NaN             NaN
             NaN             NaN             NaN
             NaN             NaN             NaN
             NaN             NaN             NaN
             NaN             NaN             NaN
             NaN             NaN             NaN
             NaN             NaN             NaN
             NaN             NaN             NaN
             NaN             NaN             NaN
             NaN             NaN             NaN
             NaN             NaN             NaN
             NaN             NaN             NaN
             NaN             NaN             NaN
             NaN             NaN             NaN
             NaN             NaN             NaN
             NaN             NaN             NaN
             NaN             NaN             NaN
             NaN             NaN             NaN
             NaN             NaN             NaN
             NaN             NaN             NaN
             NaN             NaN             NaN
             NaN             NaN             NaN
             NaN             NaN             NaN
             NaN             NaN             NaN
             NaN             NaN             NaN
             NaN             NaN             NaN
             NaN             NaN             NaN
             NaN             NaN             NaN
             NaN             NaN             NaN
             NaN             NaN             NaN
             NaN             NaN             NaN
             NaN             NaN             NaN
             NaN             NaN             NaN
             NaN             NaN             NaN
             NaN             NaN             NaN
             NaN             NaN             NaN
             NaN             NaN             NaN
             NaN             NaN             NaN
             NaN             NaN             NaN
             NaN             NaN             NaN
             NaN             NaN             NaN
             NaN             NaN             NaN
             NaN             NaN             NaN
             NaN             NaN             NaN
             NaN             NaN             NaN
             NaN             NaN             NaN
             NaN             NaN             NaN
