Li7 Mn16 O32                            
   1.00000000000000     
     8.6028939999999992    0.0002330000000000    0.0004180000000000
    -0.0001850000000000    8.0916879999999995   -0.0928090000000000
    -0.0003000000000000    0.0023290000000000    8.0682480000000005
   Li   Mn   O 
     7    16    32
Direct
  0.2360002901578809  0.5108897999505182  0.7388819953623008
  0.8666299699268508  0.8763827082928533  0.8758216325659416
  0.1373914325862429  0.1288712127545453  0.1208838222292745
  0.8671211644396460  0.3744268930991919  0.3732609310535066
  0.3629526991825634  0.8717151169272020  0.3781055325432340
  0.6323539369973393  0.1266604350282302  0.6274730171459625
  0.6322092409992659  0.6230790413803489  0.1231986855490678
  0.4998655278084261  0.2494375214720176  0.2490131223523918
  0.2500834320128764  0.5001965165054916  0.2504339522250055
  0.2498891913222049  0.2501147712800834  0.5001436031369781
  0.5068554355981213  0.4983321855471971  0.4989467396429955
  0.5068203937707825  0.7513701959149583  0.7513316658444983
  0.7524774105270764  0.5006319479481635  0.7501755326667644
  0.7515122171224571  0.7502630220474716  0.4995721300389219
  0.2499067746015549  0.9996631583640758  0.7497712170556572
  0.2502134401663518  0.7499994981909081  0.9995745503206066
  0.5000033549795579  0.0009890441699890  0.0004817299027470
  0.7477118482470416  1.0002425592407891  0.2495660368080918
  0.7457211659658439  0.2519740213176988  0.9996088076844323
  0.9967256896179905  0.2496092205960752  0.7500882737688849
  0.9984377885909658  0.5002130245306704 -0.0000036847213698
  0.9972192603176022  0.7488973439775281  0.2499626926874618
  0.9968356921757638 -0.0000929958104131  0.5008666587082037
  0.7233293644846842  0.0100883881799563  0.0128407923800979
  0.9958510623841074  0.7370168674413184  0.0171048363236745
  0.9975327605084502  0.0143697093642410  0.7358280402588830
  0.7326173127382021  0.7415162289504161  0.7341690864185827
  0.2752284546592397  0.9868486719113130  0.9866139614715224
  0.9980812811932538  0.2651148002660619  0.9859595422053306
  1.0005257927718554  0.9838500124154318  0.2654304452320941
  0.2752766371739355  0.2636672342933811  0.2626172633912640
  0.7329050034849741  0.5150869640596155  0.5099585161632865
  0.9946929302929491  0.2321459732935509  0.5127205066349386
  0.9980405604177378  0.5146240491956143  0.2357375299925953
  0.7235325984960594  0.2387574302709316  0.2383525365446562
  0.2864056737011475  0.4890864358852825  0.4936297767209476
  0.9767849127850518  0.7627910292592913  0.4876940944003053
  0.9993281614143267  0.4833262353318925  0.7655614080750553
  0.2864029135003370  0.7566813403267679  0.7600177693496187
  0.2206702845149683  0.0080679937993279  0.5130886192122784
  0.5232816827222170  0.7399672033037620  0.5089112508143226
  0.4961406154365837  0.0136722790600492  0.2370947383969246
  0.2209814020758229  0.7363109403266311  0.2422163291616330
  0.7709877275470903  0.9859611174741637  0.4889517909542211
  0.5050229170790153  0.2661140491114243  0.4862419731499888
  0.5019567512526357  0.9857547819600907  0.7643178014846082
  0.7722548464839555  0.2614476042592941  0.7623858594324668
  0.2181108353183141  0.5163110861252338  0.0056966119039787
  0.4988294384215931  0.2310673130120358  0.0181835615928065
  0.5061105712654732  0.5192395093070208  0.7315544673070707
  0.2170273788123501  0.2435395064880142  0.7340099236391390
  0.7736215226599942  0.4913169911355289  0.9872829059239892
  0.5048571120668188  0.7642272087305362  0.9840098862337960
  0.5020652678050328  0.4850163222990156  0.2638908475734427
  0.7714484020302366  0.7599270274526163  0.2639873511187450
 
             NaN             NaN             NaN
             NaN             NaN             NaN
             NaN             NaN             NaN
             NaN             NaN             NaN
             NaN             NaN             NaN
             NaN             NaN             NaN
             NaN             NaN             NaN
             NaN             NaN             NaN
             NaN             NaN             NaN
             NaN             NaN             NaN
             NaN             NaN             NaN
             NaN             NaN             NaN
             NaN             NaN             NaN
             NaN             NaN             NaN
             NaN             NaN             NaN
             NaN             NaN             NaN
             NaN             NaN             NaN
             NaN             NaN             NaN
             NaN             NaN             NaN
             NaN             NaN             NaN
             NaN             NaN             NaN
             NaN             NaN             NaN
             NaN             NaN             NaN
             NaN             NaN             NaN
             NaN             NaN             NaN
             NaN             NaN             NaN
             NaN             NaN             NaN
             NaN             NaN             NaN
             NaN             NaN             NaN
             NaN             NaN             NaN
             NaN             NaN             NaN
             NaN             NaN             NaN
             NaN             NaN             NaN
             NaN             NaN             NaN
             NaN             NaN             NaN
             NaN             NaN             NaN
             NaN             NaN             NaN
             NaN             NaN             NaN
             NaN             NaN             NaN
             NaN             NaN             NaN
             NaN             NaN             NaN
             NaN             NaN             NaN
             NaN             NaN             NaN
             NaN             NaN             NaN
             NaN             NaN             NaN
             NaN             NaN             NaN
             NaN             NaN             NaN
             NaN             NaN             NaN
             NaN             NaN             NaN
             NaN             NaN             NaN
             NaN             NaN             NaN
             NaN             NaN             NaN
             NaN             NaN             NaN
             NaN             NaN             NaN
             NaN             NaN             NaN
