Li47 P16 O64                            
   1.00000000000000     
    10.4389830000000003   -0.0009100000000000   -0.0092320000000000
    -0.0010500000000000   12.2385680000000008    0.0014200000000000
    -0.0087600000000000    0.0011410000000000    9.8313089999999992
   Li   P    O 
    47    16    64
Direct
  0.2154940123044523  0.3012418450414366  0.1667172346825972
  0.6574402663673270  0.2519164570230932  0.0978749253049837
  0.6663783073605009  0.2490861792196777  0.5970677068112318
  0.6612657611011193  0.7479982974811578  0.0975889184545763
  0.6639444056618788  0.7502286312514268  0.5981005637283591
  0.1592405667720090  0.5092913415864944  0.1481343833468245
  0.1655732355890071  0.4997302779450484  0.6513021133855327
  0.1660642980506697  0.0010748479688446  0.1497398978550369
  0.1646210642875270  0.9999651387880711  0.6525411993695525
  0.3370950483321158  0.0005539665786244  0.3992938732062707
  0.3370046670353119  0.0003155342596881  0.9054373505187183
  0.3391527949289048  0.4991455995701838  0.3987370361985932
  0.3383189805862619  0.4966286478260308  0.9094816962049704
  0.8353921514923408  0.2485664912206445  0.3464611816175974
  0.8338377953587527  0.2494719761430951  0.8503179041046349
  0.8361705413524733  0.7489870614618211  0.3478397146455441
  0.8360503096501752  0.7492240607564375  0.8474618843753543
  0.3427954455403942  0.2480344009242491  0.4067219230629280
  0.3398629843165047  0.2520651991490336  0.9049947955870418
  0.3368307178346248  0.7490394646150119  0.4009800959527013
  0.3357900194908803  0.7483874359061392  0.9040635818390389
  0.8377168239119483  0.0022086665768495  0.3468794617252287
  0.8367003590078322  0.0012268698696132  0.8469093519678219
  0.8350901835476784  0.4993356490940332  0.3462255399829703
  0.8339486525882234  0.5004555491341109  0.8503103823650200
  0.6563902595639184  0.4949165862955002  0.0963876817378320
  0.6660310232933713  0.5004172530795786  0.5971922077956060
  0.6641273327965485  0.9963625120589497  0.0963515259853354
  0.6648251199961540  0.9988529805272466  0.5979567427907512
  0.1652270358233369  0.2519533137362865  0.6530875829297124
  0.1647506318918017  0.7539096325563838  0.1531656723206526
  0.1649582127369958  0.7520953717756158  0.6518645051377833
  0.9270009193136584  0.3711460592211185  0.1464677725018484
  0.9234755908473503  0.3749844693739222  0.6500092221797734
  0.9234736446862176  0.8755074524789724  0.1492233679695200
  0.9242910550723525  0.8756163609800792  0.6484125469206330
  0.4275753460447306  0.3754290004485149  0.6079369378759923
  0.4272472280278645  0.8731474537237681  0.1014851895119720
  0.4239101785227889  0.8748898422240003  0.6001612807038971
  0.0799642470929555  0.1312545113850960  0.3395133293448583
  0.0782907825846404  0.1279031607329386  0.8574426420452259
  0.0761629323992046  0.6271067829268936  0.3525351264111630
  0.0767103491492095  0.6253778414807940  0.8499900087294876
  0.5778201411132565  0.1254323861564238  0.3970654576018319
  0.5757557418689553  0.1248121935582853  0.9017875184025274
  0.5759792888825132  0.6231823674720844  0.3993135265011801
  0.5734421038236491  0.6231126238659362  0.8992962295355570
  0.9110632499145631  0.1228090531705339  0.0950271031746946
  0.9148758940068689  0.1250692079249027  0.5952651371976162
  0.9095149397210718  0.6267711727180655  0.0953041587353802
  0.9129616519841121  0.6257902850225824  0.5952094096620502
  0.4125025161286485  0.1214014845386137  0.1524806272597931
  0.4123046892141581  0.1231338668783799  0.6549783741917344
  0.4078735647343063  0.6264348815784110  0.1541760650617636
  0.4109705456067838  0.6254705816433268  0.6549075911132476
  0.0902375698510140  0.3772605509622403  0.4042479986577268
  0.0901772415040440  0.3772465197787282  0.9048593526414536
  0.0887863477723111  0.8762767565117211  0.4046987152207258
  0.0884087507788485  0.8753568433610439  0.9049379921754265
  0.5909862977031326  0.3742456851589375  0.3470398344098666
  0.5861395901233444  0.3748070961918308  0.8388787606462479
  0.5895792423963686  0.8739872415902238  0.3455965411417442
  0.5882672588538607  0.8739407573968028  0.8447103096493408
  0.8393786367053661  0.0198983447791025  0.1453485704617647
  0.8434709905989419  0.0218494014124155  0.6451772145813616
  0.8414445628489631  0.5225128460312446  0.1459124312876402
  0.8437077694814763  0.5230700325878208  0.6489422240514782
  0.3426782157817304  0.2173425237109704  0.0941203268128920
  0.3428610485990851  0.2264694786763520  0.6040684853760324
  0.3427616250785933  0.7334779066157852  0.1064855937451339
  0.3420442899412799  0.7288071255110717  0.6025040218327917
  0.1660726316208040  0.2776346761911789  0.3522711784330809
  0.1586339670023849  0.2745857998759418  0.8523094745059632
  0.1584676769722353  0.7728231241032157  0.3541511748228088
  0.1582032716852052  0.7724455044389191  0.8531197611028736
  0.6596812759118748  0.4782427596613958  0.4019734307040109
  0.6548523799263090  0.4776315251709953  0.8957584896022374
  0.6600933066436091  0.9769699600256900  0.3972125316450313
  0.6589678064501064  0.9767020960723413  0.8957423523352553
  0.1570678050562468  0.4814616252573649  0.3517339143558007
  0.1570249330541960  0.4802125220195041  0.8497758988212696
  0.1585262746715248  0.9785827011666139  0.3524615431002826
  0.1586600684993164  0.9782252971476707  0.8538629537470640
  0.6604499466987417  0.2710199985286321  0.4024748648991934
  0.6539610070600316  0.2719807526386464  0.8964803630806076
  0.6592383514355520  0.7709267548173184  0.3989459474935463
  0.6582984899317580  0.7706269958424307  0.8962762407522975
  0.8403832233231125  0.2258301786496544  0.1466633029370210
  0.8440126223258611  0.2275686813484673  0.6478546285894731
  0.8372507269812994  0.7289679958550093  0.1460076470100490
  0.8424359818747684  0.7289440124860235  0.6462125012991280
  0.3463077882239889  0.0132663143486774  0.1073066142070323
  0.3423150991923976  0.0208432532360701  0.6016540247299773
  0.3311069063174341  0.5301154533619353  0.1017309033986401
  0.3422052427197596  0.5231295483747489  0.6005438786638122
  0.5542696617800551  0.1193879263720535  0.1039445454847844
  0.5515485849086544  0.1231984407721095  0.6023319197740119
  0.5470947908065010  0.6243614471791565  0.1005658746225795
  0.5511148532999411  0.6258538735088705  0.6044076934448794
  0.0488670384287287  0.1210992598849170  0.1456641372361757
  0.0525277134385476  0.1251805041375036  0.6494740458651280
  0.0473136975413394  0.6307739740723698  0.1489019639379469
  0.0518551352953029  0.6267652361796294  0.6457508272129837
  0.4522871856393552  0.3740450849742412  0.3999878475113162
  0.4444373618769644  0.3755850880355037  0.8687810156020356
  0.4509317905574685  0.8745493211725128  0.3970422007932018
  0.4499118065954366  0.8739036251643393  0.8960327496499284
  0.9514600842103791  0.3736068367858578  0.3505319958570499
  0.9487442096286909  0.3757758214160439  0.8572418404676623
  0.9493498723185361  0.8750803684047908  0.3526313371584098
  0.9493206787854737  0.8750839492011585  0.8517181282806076
  0.6001389290128761  0.3739223570863890  0.1932696822055320
  0.6021154373114669  0.3746860463668765  0.6821915511341636
  0.5918829904393997  0.8725980801976246  0.1890362316936857
  0.5899047561418804  0.8740903165775588  0.6874718668036968
  0.0946411770744166  0.3806092514213327  0.0615887231143593
  0.0895390067960582  0.3762343220039802  0.5606988934399311
  0.0883531355664820  0.8753213787177894  0.0614782644106219
  0.0893356444014622  0.8761889134612045  0.5617110888246504
  0.4119076302220583  0.1242406262786068  0.3114478815244272
  0.4116361655182066  0.1220784232963244  0.8116105339378409
  0.4111613859996682  0.6256319093148831  0.3119010654965990
  0.4085671590062951  0.6252642321451524  0.8114394468258583
  0.9149983054152114  0.1259206051954859  0.4382323549918407
  0.9087102101652299  0.1241376673889733  0.9374466631331202
  0.9102857462639306  0.6246234669150048  0.4382653336565583
  0.9102014860662513  0.6262564419141254  0.9380833595326629
 
             NaN             NaN             NaN
             NaN             NaN             NaN
             NaN             NaN             NaN
             NaN             NaN             NaN
             NaN             NaN             NaN
             NaN             NaN             NaN
             NaN             NaN             NaN
             NaN             NaN             NaN
             NaN             NaN             NaN
             NaN             NaN             NaN
             NaN             NaN             NaN
             NaN             NaN             NaN
             NaN             NaN             NaN
             NaN             NaN             NaN
             NaN             NaN             NaN
             NaN             NaN             NaN
             NaN             NaN             NaN
             NaN             NaN             NaN
             NaN             NaN             NaN
             NaN             NaN             NaN
             NaN             NaN             NaN
             NaN             NaN             NaN
             NaN             NaN             NaN
             NaN             NaN             NaN
             NaN             NaN             NaN
             NaN             NaN             NaN
             NaN             NaN             NaN
             NaN             NaN             NaN
             NaN             NaN             NaN
             NaN             NaN             NaN
             NaN             NaN             NaN
             NaN             NaN             NaN
             NaN             NaN             NaN
             NaN             NaN             NaN
             NaN             NaN             NaN
             NaN             NaN             NaN
             NaN             NaN             NaN
             NaN             NaN             NaN
             NaN             NaN             NaN
             NaN             NaN             NaN
             NaN             NaN             NaN
             NaN             NaN             NaN
             NaN             NaN             NaN
             NaN             NaN             NaN
             NaN             NaN             NaN
             NaN             NaN             NaN
             NaN             NaN             NaN
             NaN             NaN             NaN
             NaN             NaN             NaN
             NaN             NaN             NaN
             NaN             NaN             NaN
             NaN             NaN             NaN
             NaN             NaN             NaN
             NaN             NaN             NaN
             NaN             NaN             NaN
             NaN             NaN             NaN
             NaN             NaN             NaN
             NaN             NaN             NaN
             NaN             NaN             NaN
             NaN             NaN             NaN
             NaN             NaN             NaN
             NaN             NaN             NaN
             NaN             NaN             NaN
             NaN             NaN             NaN
             NaN             NaN             NaN
             NaN             NaN             NaN
             NaN             NaN             NaN
             NaN             NaN             NaN
             NaN             NaN             NaN
             NaN             NaN             NaN
             NaN             NaN             NaN
             NaN             NaN             NaN
             NaN             NaN             NaN
             NaN             NaN             NaN
             NaN             NaN             NaN
             NaN             NaN             NaN
             NaN             NaN             NaN
             NaN             NaN             NaN
             NaN             NaN             NaN
             NaN             NaN             NaN
             NaN             NaN             NaN
             NaN             NaN             NaN
             NaN             NaN             NaN
             NaN             NaN             NaN
             NaN             NaN             NaN
             NaN             NaN             NaN
             NaN             NaN             NaN
             NaN             NaN             NaN
             NaN             NaN             NaN
             NaN             NaN             NaN
             NaN             NaN             NaN
             NaN             NaN             NaN
             NaN             NaN             NaN
             NaN             NaN             NaN
             NaN             NaN             NaN
             NaN             NaN             NaN
             NaN             NaN             NaN
             NaN             NaN             NaN
             NaN             NaN             NaN
             NaN             NaN             NaN
             NaN             NaN             NaN
             NaN             NaN             NaN
             NaN             NaN             NaN
             NaN             NaN             NaN
             NaN             NaN             NaN
             NaN             NaN             NaN
             NaN             NaN             NaN
             NaN             NaN             NaN
             NaN             NaN             NaN
             NaN             NaN             NaN
             NaN             NaN             NaN
             NaN             NaN             NaN
             NaN             NaN             NaN
             NaN             NaN             NaN
             NaN             NaN             NaN
             NaN             NaN             NaN
             NaN             NaN             NaN
             NaN             NaN             NaN
             NaN             NaN             NaN
             NaN             NaN             NaN
             NaN             NaN             NaN
             NaN             NaN             NaN
             NaN             NaN             NaN
             NaN             NaN             NaN
             NaN             NaN             NaN
             NaN             NaN             NaN
             NaN             NaN             NaN
