Mg7 Mn16 O32                            
   1.00000000000000     
     8.1742509999999999    0.0000450000000000   -0.0002590000000000
     0.0000580000000000    9.3580120000000004    0.0000490000000000
    -0.0002470000000000   -0.0000040000000000    8.1743959999999998
   Mg   Mn   O 
     7    16    32
Direct
  0.4762393057027788  0.7851878753419624  0.2737079025232474
  0.3784821989800827  0.3784433247947178  0.8805302494735617
  0.8694826118857735  0.3784136773895985  0.3715468515788963
  0.8708244611643520  0.8777387763571441  0.8791512234019361
  0.6214041663967469  0.1217497305035466  0.6209442934305431
  0.1264648063968773  0.6224200728875038  0.6234686858799602
  0.1290740254520877  0.1217335201640622  0.1285771296233177
  0.0014640395080664  0.2493873683827669  0.7485825751077444
  0.9953385731472219  0.7501068113595423  0.2503327535671907
  0.5000190166717748  0.2529908068481692  0.2499619020365130
  0.4996082747901456  0.7500714142379434  0.7546315113097013
  0.2495411344432735  1.0013625352360984  0.7472125307471983
  0.2481504580457046  0.4995276721074451  0.2512210974917637
  0.7533017387696146  0.0039319099890203  0.2509576260018139
  0.7489870304309929  0.4961544412558523  0.7528793894815446
  0.2485284116582938  0.2482894198250856  0.5015001824045652
  0.2438808311119494  0.7508116126496730 -0.0025695572067779
  0.7543502280700727  0.2476432816590086  0.9956575069694670
  0.7524853204323501  0.7508388781021701  0.5060607935442663
  0.0028122737663786  1.0014136252177988  0.5004627587758453
  0.9971939992117266  0.4960937634254588  1.0010613625707909
  0.4990539676169871  0.0038848830634416  0.9966552764963742
  0.4988180539297021  0.4994964968603344  0.5019262558429991
  0.2350726509951153  0.0344605658228355  0.5149310014335863
  0.2342120414146669  0.5031074963591233  0.0115765094771228
  0.7428303063900409  0.0275870612045154  0.0071638861401348
  0.7384725538693572  0.5031220994180843  0.5158273839458082
  0.0127164663481704  0.2538049015144428  0.5120685401799634
  0.0052169810374203  0.7467479978809719  0.0140103537940718
  0.5146457198117659  0.2406136400603522  0.0114660596861586
  0.5165423999901908  0.7379486947514278  0.5126113264458944
  0.0130180404546604  0.9988768880204038  0.7369822060211709
  0.0095078523673982  0.5026794769522069  0.2367635295487342
  0.5188394125804102 -0.0017230769482679  0.2311356736262564
  0.5132937066478522  0.5026630013990712  0.7405138967413180
  0.2379808234425658  0.2538123027583907  0.7373210627431166
  0.2373629518165633  0.7379361378012103  0.2334135978160302
  0.7385881983340722  0.2404336651352602  0.2354389460025572
  0.7359965218618799  0.7467393829156036  0.7447216579478790
  0.7666768931019095  0.0009369864374738  0.4904458392796542
  0.7647367607187191  0.4533482065213577  0.9853211563947200
  0.2595401542667378  0.0008824223327358  0.9833148188966293
  0.2574227463244505  0.4785878878292220  0.4926148812316488
  0.9896817399906235  0.7513844089098394  0.4868629412139605
  0.9896063580897240  0.2446969341659864  0.9856084281192541
  0.4782858829870469  0.7786555368551719  0.9955342524940516
  0.4856965446994717  0.2533840905241122  0.4874271961514701
  0.9878553433399916 -0.0001571836876235  0.2634195112119619
  0.9855865196107538  0.4990700713652565  0.7644387717983817
  0.4865662841255100 -0.0001776068431025  0.7621160185879429
  0.4795471644906883  0.4991203336844458  0.2705129033924714
  0.7543828509781608  0.7788911924484980  0.2716462871758161
  0.7643955445882630  0.2447003411992831  0.7604186858427568
  0.2630523180563885  0.7513951285111220  0.7602395151156444
  0.2625349871050288  0.2534049804191612  0.2642940292337948
 
             NaN             NaN             NaN
             NaN             NaN             NaN
             NaN             NaN             NaN
             NaN             NaN             NaN
             NaN             NaN             NaN
             NaN             NaN             NaN
             NaN             NaN             NaN
             NaN             NaN             NaN
             NaN             NaN             NaN
             NaN             NaN             NaN
             NaN             NaN             NaN
             NaN             NaN             NaN
             NaN             NaN             NaN
             NaN             NaN             NaN
             NaN             NaN             NaN
             NaN             NaN             NaN
             NaN             NaN             NaN
             NaN             NaN             NaN
             NaN             NaN             NaN
             NaN             NaN             NaN
             NaN             NaN             NaN
             NaN             NaN             NaN
             NaN             NaN             NaN
             NaN             NaN             NaN
             NaN             NaN             NaN
             NaN             NaN             NaN
             NaN             NaN             NaN
             NaN             NaN             NaN
             NaN             NaN             NaN
             NaN             NaN             NaN
             NaN             NaN             NaN
             NaN             NaN             NaN
             NaN             NaN             NaN
             NaN             NaN             NaN
             NaN             NaN             NaN
             NaN             NaN             NaN
             NaN             NaN             NaN
             NaN             NaN             NaN
             NaN             NaN             NaN
             NaN             NaN             NaN
             NaN             NaN             NaN
             NaN             NaN             NaN
             NaN             NaN             NaN
             NaN             NaN             NaN
             NaN             NaN             NaN
             NaN             NaN             NaN
             NaN             NaN             NaN
             NaN             NaN             NaN
             NaN             NaN             NaN
             NaN             NaN             NaN
             NaN             NaN             NaN
             NaN             NaN             NaN
             NaN             NaN             NaN
             NaN             NaN             NaN
             NaN             NaN             NaN
