Mg7 Mn16 O32
1.0
8.174251 0.000045 -0.000259
0.000058 9.358012 0.000049
-0.000247 -0.000004 8.174396
Mg Mn O
7 16 32
direct
0.469863 0.780702 0.280136 Mg
0.377908 0.376283 0.877904 Mg
0.872099 0.376276 0.372085 Mg
0.872192 0.873601 0.877807 Mg
0.623261 0.124242 0.623267 Mg
0.126691 0.625833 0.623305 Mg
0.126736 0.124235 0.126735 Mg
0.000317 0.250257 0.749687 Mn
0.999488 0.750175 0.249860 Mn
0.499382 0.250048 0.250614 Mn
0.500129 0.750159 0.750514 Mn
0.249408 0.999724 0.748507 Mn
0.250386 0.499706 0.248869 Mn
0.750715 1.000032 0.251633 Mn
0.750199 0.499856 0.751690 Mn
0.248325 0.250495 0.501672 Mn
0.251435 0.750166 0.001057 Mn
0.751964 0.249817 0.998037 Mn
0.748939 0.750163 0.498562 Mn
0.001494 0.999727 0.500591 Mn
0.998312 0.499861 -0.000192 Mn
0.498369 1.000019 0.999281 Mn
0.501142 0.499684 0.499623 Mn
0.236547 1.013023 0.513454 O
0.237311 0.501459 0.012481 O
0.737232 0.010014 0.012766 O
0.737514 0.501456 0.512684 O
0.011915 0.251560 0.512733 O
0.012493 0.747184 0.012906 O
0.513140 0.240920 0.012347 O
0.513942 0.733799 0.513536 O
0.012361 0.999727 0.737636 O
0.011981 0.501453 0.236795 O
0.513829 0.023342 0.236172 O
0.513218 0.501444 0.738016 O
0.237277 0.251564 0.738073 O
0.236455 0.733890 0.236046 O
0.737662 0.240903 0.236871 O
0.737089 0.747192 0.737493 O
0.763185 0.000126 0.487723 O
0.764435 0.477642 0.985563 O
0.262283 0.000127 0.986805 O
0.262872 0.493467 0.487136 O
0.987225 0.752172 0.486961 O
0.988116 0.248110 0.986728 O
0.485300 0.774582 0.985559 O
0.486483 0.254437 0.487865 O
0.988025 0.000135 0.263513 O
0.987372 0.499648 0.762626 O
0.486503 0.000139 0.761971 O
0.485353 0.471404 0.264655 O
0.764425 0.774611 0.264708 O
0.763267 0.248107 0.761885 O
0.263034 0.752164 0.762763 O
0.262147 0.254390 0.263534 O
