Li47 P16 O64                            
   1.00000000000000     
    10.4464810000000003   -0.0011880000000000   -0.0138670000000000
    -0.0013670000000000   12.2280350000000002   -0.0022080000000000
    -0.0131030000000000   -0.0017750000000000    9.8340999999999994
   Li   P    O 
    47    16    64
Direct
  0.5608690277073900  0.2757930720924838  0.0727485028964375
  0.6653301041503784  0.2508689885521248  0.5980315833385221
  0.6635272201737805  0.7509027122107381  0.0976844627584968
  0.6644586627632566  0.7513324178082691  0.5985693174424963
  0.1649649168040429  0.4974968124446101  0.1521940452579683
  0.1651069790994752  0.4985848730265112  0.6522663130400000
  0.1630039392394958  0.9956032484809121  0.1531452819957956
  0.1641425198145085  0.9988783409069488  0.6525809109044000
  0.3357594850828974  0.0000786756114827  0.4026606188901796
  0.3360012138485651  0.0005681373185964  0.9036228589789858
  0.3387328479207564  0.4996492736212390  0.3968998969374593
  0.3376629058948221  0.4971582734438202  0.9114874329661594
  0.8330412468547849  0.2493552359853088  0.3429293956680807
  0.8326310690850194  0.2495343128311560  0.8559896025170185
  0.8362919785347424  0.7487174297522599  0.3477826613473413
  0.8364773549918566  0.7486837426250429  0.8476400930390563
  0.3378843710583188  0.2511847233284227  0.3981117084807478
  0.3346348505743891  0.2524872251456162  0.9053292475280841
  0.3368607093149684  0.7497704448095361  0.4009947624464449
  0.3365513942564367  0.7492736904716093  0.9053550466556668
  0.8368314085812059  0.0025087197562209  0.3477106861497323
  0.8376644314023933  0.0013302202041854  0.8481073389173726
  0.8345097422748315  0.5009672459711914  0.3478126284228564
  0.8347879277001493  0.5012379363267648  0.8489792811959476
  0.6580743896013581  0.4982394116712632  0.0971659182659087
  0.6654720072480141  0.5020498600683078  0.5988820867461861
  0.6665789787422682  0.0029621903312588  0.0994926561378113
  0.6643247634716659  0.0001647206278810  0.5978312468138407
  0.1657294850221505  0.2519659975631031  0.1501674548458659
  0.1639464284834100  0.2510147096868592  0.6522914264366625
  0.1648755276262165  0.7507486050097935  0.1523089094840449
  0.1647871911682038  0.7511009395014842  0.6528685029480868
  0.9190407131608910  0.3741674478005201  0.1475306146610373
  0.9226316285880392  0.3743593550903384  0.6497720366435593
  0.9228365904816334  0.8755760759452890  0.1494949318395992
  0.9236990237730034  0.8752219088031584  0.6487449991537126
  0.4244572689489572  0.3757802759902767  0.6025803929469051
  0.4283839044009434  0.8754367837853498  0.1011871279520581
  0.4249041605425384  0.8752612719225424  0.6011962333200750
  0.0761018644005753  0.1259453292941161  0.3483950352975493
  0.0766588512326105  0.1253159764921742  0.8529959054452765
  0.0769207863092646  0.6239847142016881  0.3507653276249015
  0.0777025719738011  0.6239229836169855  0.8522509350377588
  0.5763481054042422  0.1278599690916714  0.3972966980465485
  0.5783097312415093  0.1233221804804127  0.8979154468924846
  0.5759809497875523  0.6247468346228698  0.4003012035305618
  0.5735368698188372  0.6245529120714672  0.8993605629277981
  0.9148645488851788  0.1253548351938597  0.0959574512226870
  0.9124722422637077  0.1251620254101967  0.5959344683169501
  0.9110704294926991  0.6254906310297342  0.0955973954618710
  0.9130984776714772  0.6254456567240672  0.5954830286757704
  0.4067529301941710  0.1183080475569037  0.1542202680103806
  0.4113881687844497  0.1247862813123948  0.6549844009121225
  0.4096167731616988  0.6297017597639766  0.1542826134908758
  0.4109327033004445  0.6260635654569400  0.6550976660000554
  0.0873783582467175  0.3752845260638876  0.4047735066659771
  0.0863749494656721  0.3752688698973621  0.9047710667997012
  0.0875729075721238  0.8746321225486211  0.4053964330712049
  0.0878105939983001  0.8742344963497771  0.9049285694573530
  0.5901016252446225  0.3770957667366153  0.3502685274380769
  0.5864878135315514  0.3764062420273798  0.8379946896609540
  0.5899006065611653  0.8759245702581211  0.3458483828830277
  0.5895925502198814  0.8751065648739342  0.8450193143053838
  0.8444048781569459  0.0219111228970011  0.1479145021887790
  0.8425650859127352  0.0214596955885654  0.6463715358503684
  0.8394397541753820  0.5233976911601598  0.1463065725586648
  0.8434290928183148  0.5230016962436704  0.6482647257386428
  0.3372492203169451  0.2183247907417435  0.0982302319516180
  0.3410618756270078  0.2271331734207420  0.6021845849074124
  0.3445401817659313  0.7375333740861481  0.1083264911553867
  0.3417831170249763  0.7297365514464246  0.6030625240357007
  0.1571894463381154  0.2723066791843430  0.3527500821124315
  0.1558815154093256  0.2721668511993312  0.8528081297255046
  0.1575281327067538  0.7717474270141516  0.3538380274478278
  0.1585367422121426  0.7713833069940331  0.8537891478496279
  0.6599014126881675  0.4802932781668147  0.4049967184520896
  0.6559228129957945  0.4787412192640781  0.8936383688275588
  0.6593098315326145  0.9792052877713840  0.3979483943047930
  0.6604664901569440  0.9775685886738319  0.8971232373710489
  0.1581081279896741  0.4781774378954093  0.3541140829561047
  0.1570107534514782  0.4777201292925678  0.8526098442758635
  0.1574098027249864  0.9776671936587263  0.3544533983152046
  0.1582728004007516  0.9771245793023936  0.8537834599285472
  0.6593829282718577  0.2734319149409059  0.4026046030713318
  0.6521754579393424  0.2724247484107671  0.8932780562986478
  0.6596098967216507  0.7728144634608080  0.3981706226088942
  0.6589163803840967  0.7715502673816472  0.8960380287682596
  0.8505320056612681  0.2282674455014550  0.1489350003979480
  0.8425818711128783  0.2270434026633352  0.6499542379557579
  0.8414498851979828  0.7291092901392626  0.1464706982384185
  0.8427925528449838  0.7285630207614278  0.6465855019035556
  0.3394261737019451  0.0125777017894560  0.1072153834834754
  0.3418074190963561  0.0210645918586661  0.6034472453854223
  0.3319099448489073  0.5344333993425638  0.0998244273466192
  0.3415519618810153  0.5238015843703226  0.6009595660345786
  0.5449996172125280  0.1203807246531002  0.1000648300180098
  0.5503091850297026  0.1246918232884066  0.6036328132338072
  0.5483030661345620  0.6277325953696653  0.1007384899036878
  0.5504649566688338  0.6271372010084519  0.6051417389401486
  0.0555193077866553  0.1214203345297007  0.1444848786313145
  0.0515983051655374  0.1242118080409678  0.6479320958798446
  0.0495290122060302  0.6251618686485777  0.1486323725057923
  0.0520689436724163  0.6257970267976568  0.6474409187438041
  0.4517296259197915  0.3756055672673437  0.4039897625556880
  0.4465794078134840  0.3747215667614274  0.8822350595876176
  0.4510695046696392  0.8755567621114235  0.3974270188742074
  0.4508778675899516  0.8755220058255323  0.8962191876271580
  0.9484355893343215  0.3762994514558506  0.3533099522153831
  0.9472781220856944  0.3755761392989280  0.8527076535407266
  0.9485956610720305  0.8748158121062575  0.3536922056876916
  0.9494454896360485  0.8743789308306472  0.8512198914589330
  0.5943225303230708  0.3809876960431938  0.1961572804089591
  0.5944188811179996  0.3770430196771936  0.6817000501589682
  0.5926990655024863  0.8761516969503880  0.1890581963239026
  0.5907292763104808  0.8756949399994134  0.6880317970336277
  0.0866374765238375  0.3753908837727059  0.0614160083632679
  0.0886361031484282  0.3747459948547537  0.5619270122280591
  0.0870365664593180  0.8734311017047036  0.0615256132335288
  0.0888860727954366  0.8745350353353041  0.5624284811726747
  0.4088845170341454  0.1222614683236018  0.3113604010340469
  0.4099995566916578  0.1247060004366030  0.8119377653035795
  0.4122002635599084  0.6270443059788143  0.3118249477571598
  0.4083163374082790  0.6253935360318857  0.8118933271048109
  0.9113239257853224  0.1261499230403173  0.4390854512677909
  0.9117736043050342  0.1239030380217884  0.9384599131225178
  0.9117263378501359  0.6252117152956600  0.4385998859869055
  0.9112560189851712  0.6256018003194143  0.9384341873280236
 
             NaN             NaN             NaN
             NaN             NaN             NaN
             NaN             NaN             NaN
             NaN             NaN             NaN
             NaN             NaN             NaN
             NaN             NaN             NaN
             NaN             NaN             NaN
             NaN             NaN             NaN
             NaN             NaN             NaN
             NaN             NaN             NaN
             NaN             NaN             NaN
             NaN             NaN             NaN
             NaN             NaN             NaN
             NaN             NaN             NaN
             NaN             NaN             NaN
             NaN             NaN             NaN
             NaN             NaN             NaN
             NaN             NaN             NaN
             NaN             NaN             NaN
             NaN             NaN             NaN
             NaN             NaN             NaN
             NaN             NaN             NaN
             NaN             NaN             NaN
             NaN             NaN             NaN
             NaN             NaN             NaN
             NaN             NaN             NaN
             NaN             NaN             NaN
             NaN             NaN             NaN
             NaN             NaN             NaN
             NaN             NaN             NaN
             NaN             NaN             NaN
             NaN             NaN             NaN
             NaN             NaN             NaN
             NaN             NaN             NaN
             NaN             NaN             NaN
             NaN             NaN             NaN
             NaN             NaN             NaN
             NaN             NaN             NaN
             NaN             NaN             NaN
             NaN             NaN             NaN
             NaN             NaN             NaN
             NaN             NaN             NaN
             NaN             NaN             NaN
             NaN             NaN             NaN
             NaN             NaN             NaN
             NaN             NaN             NaN
             NaN             NaN             NaN
             NaN             NaN             NaN
             NaN             NaN             NaN
             NaN             NaN             NaN
             NaN             NaN             NaN
             NaN             NaN             NaN
             NaN             NaN             NaN
             NaN             NaN             NaN
             NaN             NaN             NaN
             NaN             NaN             NaN
             NaN             NaN             NaN
             NaN             NaN             NaN
             NaN             NaN             NaN
             NaN             NaN             NaN
             NaN             NaN             NaN
             NaN             NaN             NaN
             NaN             NaN             NaN
             NaN             NaN             NaN
             NaN             NaN             NaN
             NaN             NaN             NaN
             NaN             NaN             NaN
             NaN             NaN             NaN
             NaN             NaN             NaN
             NaN             NaN             NaN
             NaN             NaN             NaN
             NaN             NaN             NaN
             NaN             NaN             NaN
             NaN             NaN             NaN
             NaN             NaN             NaN
             NaN             NaN             NaN
             NaN             NaN             NaN
             NaN             NaN             NaN
             NaN             NaN             NaN
             NaN             NaN             NaN
             NaN             NaN             NaN
             NaN             NaN             NaN
             NaN             NaN             NaN
             NaN             NaN             NaN
             NaN             NaN             NaN
             NaN             NaN             NaN
             NaN             NaN             NaN
             NaN             NaN             NaN
             NaN             NaN             NaN
             NaN             NaN             NaN
             NaN             NaN             NaN
             NaN             NaN             NaN
             NaN             NaN             NaN
             NaN             NaN             NaN
             NaN             NaN             NaN
             NaN             NaN             NaN
             NaN             NaN             NaN
             NaN             NaN             NaN
             NaN             NaN             NaN
             NaN             NaN             NaN
             NaN             NaN             NaN
             NaN             NaN             NaN
             NaN             NaN             NaN
             NaN             NaN             NaN
             NaN             NaN             NaN
             NaN             NaN             NaN
             NaN             NaN             NaN
             NaN             NaN             NaN
             NaN             NaN             NaN
             NaN             NaN             NaN
             NaN             NaN             NaN
             NaN             NaN             NaN
             NaN             NaN             NaN
             NaN             NaN             NaN
             NaN             NaN             NaN
             NaN             NaN             NaN
             NaN             NaN             NaN
             NaN             NaN             NaN
             NaN             NaN             NaN
             NaN             NaN             NaN
             NaN             NaN             NaN
             NaN             NaN             NaN
             NaN             NaN             NaN
             NaN             NaN             NaN
             NaN             NaN             NaN
             NaN             NaN             NaN
             NaN             NaN             NaN
