Na6 P2 S8                               
   1.00000000000000     
    13.7369130694999200   -0.0000318622426401    0.0000256328191682
    -0.0000643808479772   13.7368580574507355   -0.0007910617540156
    -0.0001573681082466   -0.0004076806236061   14.2168804878693500
   Na   P    S 
    47    16    64
Direct
  0.5274662843238123  0.7460013275844634  0.7172698879229119
  0.9997323095776419  0.2508994625547130  0.2045623353325114
  0.9988162336701430  0.2504781675383103  0.7043778657248784
  0.9988091199429985  0.7508815530510892  0.2093877370892370
  0.9725105758016481  0.7539970736695275  0.7172981337530806
  0.5002690118955559  0.2490928583972976  0.2045597725355546
  0.5011767786734481  0.2495318588835827  0.7043793711778291
  0.5011653970554691  0.7491285273612399  0.2093750254949732
  0.2490966908147345  0.9997316962815105  0.2954338869722259
  0.2495323536548812  0.9988203840151676  0.7956142916936323
  0.2509026874763801  0.5002736638238386  0.2954428399516593
  0.2504858668708565  0.5011785654723232  0.7956257649953722
  0.7491258632847735  0.9988174490985080  0.2906184153308114
  0.7460072156195350  0.9725409750480262  0.7827106372102580
  0.7508784214997556  0.5011809851814754  0.2906201418209013
  0.7540022629366782  0.5274775305974180  0.7827213168139471
  0.2527319532564979  0.9997688418679013  0.0455681000601006
  0.2448596090317350  0.9976004019790455  0.5470702643713330
  0.2472586489787066  0.5002613798880342  0.0455755890069110
  0.2551627555581675  0.5023777845542657  0.5470780868160307
  0.7531148723618255  0.9996647769911892  0.0383157764235277
  0.7442149212859250  0.9993714331512447  0.5386935591262633
  0.7468766107425732  0.5003489044480037  0.0383315817394721
  0.7557867992284988  0.5006012905438396  0.5386788911131101
  0.5002410358376982  0.2527229331279748  0.4544222448819196
  0.5024125756482771  0.2448494734858477  0.9529275594747851
  0.5003492313909000  0.7531092152132055  0.4616721523418564
  0.5006153849631342  0.7442134286579193  0.9613220952361738
  0.9997385751423076  0.2472612219340713  0.4544280250587306
  0.9976310990161144  0.2551532059855067  0.9529293734331759
  0.9996639406858726  0.7468689319267630  0.4616835288713881
  0.9993753756521906  0.7557872532885399  0.9613119438641832
  0.9941479565322193  0.9945163775851567  0.5021733736723983
  0.0058708581607252  0.0103930238681528  0.0012963988963886
  0.0103891981841954  0.4941217639208498  0.4987130736195118
  0.9945064446911119  0.5058626141195810  0.9978360738530085
  0.4895941231308930  0.0058822486731068  0.4986955082021503
  0.5054832240303304  0.9941474788611944  0.9978250959813716
  0.5058482677566100  0.5054890172974980  0.5021662052567786
  0.4941111966695227  0.4895989388614064  0.0012948613063086
  0.2500114769084631  0.2500199284496017  0.2499998574903013
  0.2499814219780525  0.2500044704655672  0.7500057767073006
  0.2499754373216029  0.7500040828777594  0.2509963102259215
  0.2499701853730736  0.7500140203233956  0.7490229399499645
  0.7500036910296090  0.2499932378915791  0.2490008778297786
  0.7499936449233374  0.2500070643518953  0.7509872537140158
  0.7499944118604528  0.7499974816709832  0.2500103154276954
  0.4995818583463128  0.4990051527931427  0.2498996382252253
  0.5003303087023208  0.4971237147233953  0.7531284833224725
  0.4989978943063560  0.0004197707906338  0.2500967284227007
  0.4971344865656201  0.9996735496813567  0.7468754448671023
  0.0010163276847682  0.4995716148643866  0.2501017421664338
  0.0028902621939755  0.5003207656629065  0.7468780817704691
  0.0004319993366665  0.0010119760305674  0.2499011942259726
  0.9996846717073918  0.0028801928088883  0.7531151811128424
  0.2500219976001155  0.2500037738037898  0.9998194243622919
  0.2500060419028330  0.2499931947837793  0.5001829347667374
  0.2499759961933966  0.7500105812561466  0.0012535320447980
  0.2500111480627914  0.7499945743365795  0.5004258525883375
  0.7500137058573561  0.2500003514365988  0.9995784068898139
  0.7499797731795513  0.2499885739921054  0.4987506223219872
  0.7500093556466836  0.7499988120385352  0.0036197633012030
  0.7500203451198119  0.7499839528890847  0.4963720286008061
  0.1534576356208003  0.1746753041006782  0.0820686466785305
  0.1532197834505673  0.1747801837350965  0.5818578706366375
  0.1527116184022332  0.6756532412050092  0.0835067501595878
  0.1540382874692883  0.6747070958790355  0.5823880035286820
  0.6546886171221202  0.1732326273148430  0.0824464461422259
  0.6529234536430840  0.1755922216123901  0.5807469459701103
  0.6547518969726543  0.6732419045289707  0.0866725157613634
  0.6542962692978139  0.6713579227286867  0.5757013664685128
  0.3465851580790612  0.3253461210207465  0.0820658989168260
  0.3467888227760423  0.3252155752736360  0.5818533697070641
  0.3472191617486797  0.8243679160457378  0.0835436043332474
  0.3459770753783398  0.8252893620424084  0.5823859994134908
  0.8453353398922990  0.3267773516493954  0.0824461083821654
  0.8470283742074062  0.3244025225582539  0.5807533432581927
  0.8452676197645408  0.8267695880243051  0.0866641044545172
  0.8457519125451763  0.8286364412500369  0.5756834248815526
  0.1746596393767023  0.3465585181634276  0.4179326842424159
  0.1747852459082982  0.3467991153217925  0.9181583630617071
  0.1732310401351970  0.8453214718073836  0.4175585771398068
  0.1755846800880934  0.8470731823922918  0.9192472448629923
  0.6756190382588786  0.3472371982678185  0.4164711884498364
  0.6747079402896640  0.3459728457685385  0.9176180375539698
  0.6732425725629787  0.8452350147435558  0.4133183573298396
  0.6713565150824715  0.8457254182626471  0.9242934287099398
  0.3253278492558113  0.1534274148868008  0.4179316569269788
  0.3252248767724760  0.1532221568525873  0.9181431720450094
  0.3267696471100605  0.6546707529151655  0.4175576446742540
  0.3243822468779545  0.6529553655748569  0.9192577771563388
  0.8243436512420087  0.1527336518251592  0.4164871280355382
  0.8252915647654351  0.1540428321307604  0.9176032907331383
  0.8267714353591589  0.6547179067867844  0.4133268419840557
  0.8286338376621242  0.6542739340867023  0.9242958553491696
  0.0972206814409162  0.4243040123082987  0.1675528933938014
  0.1025716035004307  0.4220976130735098  0.6705008383882259
  0.0971647967678319  0.9254025470927457  0.1680747750759192
  0.0926477631820826  0.9218530237588641  0.6720774490656334
  0.5953938988716015  0.4233950100073188  0.1672425142316728
  0.5980172140012382  0.4253602438892264  0.6693778694594543
  0.5948695084465406  0.9250319775043051  0.1680093095592559
  0.5881544410605493  0.9267490227726233  0.6579863630947533
  0.4027890036365415  0.0756863439701414  0.1675470281513704
  0.3974373920492468  0.0778824351544544  0.6705136943200243
  0.4028542508771120  0.5746124883096096  0.1680573193553014
  0.4073631820930559  0.5781480147808532  0.6720842098661275
  0.9046009866089290  0.0766038821203226  0.1672333320291988
  0.9019861749392657  0.0746268644749383  0.6693603121123338
  0.9051230557231210  0.5749544743817474  0.1680205314827890
  0.9118470963043006  0.5732270300232319  0.6579906481976153
  0.0756865466304605  0.0972201149616270  0.3324517192504087
  0.0778932164177286  0.1025635957759668  0.8294931979888912
  0.0766107895762115  0.5953908023129466  0.3327618861571042
  0.0746335602575371  0.5980201411113268  0.8306323523912305
  0.5746059501257297  0.0971483366929599  0.3319303683717089
  0.5781587009848701  0.0926435816483903  0.8279132879362401
  0.5749537609551805  0.5948862882141872  0.3319854043109043
  0.5732381991287006  0.5881606744563991  0.8420170570248956
  0.4242991202027290  0.4028012885782667  0.3324480563827650
  0.4220988328872178  0.3974338435064643  0.8294964953380847
  0.4233944381555711  0.9046031738173496  0.3327616319983714
  0.4253663686372413  0.9019822315075005  0.8306317958881395
  0.9253946977601458  0.4028395351405330  0.3319325874420929
  0.9218614657901640  0.4073553761821469  0.8279196604286737
  0.9250353773122640  0.9051235791938009  0.3319797420977963
  0.9267543147231274  0.9118543398108828  0.8420003755006756
