Li48 P16 O64                            
   1.00000000000000     
    10.5972576316798612    0.0014386859725636   -0.0038844608209870
     0.0016810698345498   12.2898084486789418   -0.0037036071115320
    -0.0036230911019825   -0.0029463487812677    9.9910714697997367
   Li   P    O 
    47    16    64
Direct
  0.4311142942760995  0.3700679919521690  0.0980397133097810
  0.6625649980017911  0.2514151652959811  0.6041657884992873
  0.6640025288777736  0.7503900775690866  0.0990722983192711
  0.6636043801748670  0.7521609772650208  0.5997847045414204
  0.1645168118267506  0.4986526583540609  0.1505928848459135
  0.1631474615551483  0.4995945819555345  0.6510624270836942
  0.1634824696238582  0.9947196179519011  0.1537160359611534
  0.1637166261789886  0.9985860931169981  0.6508227131094131
  0.3364141755435242  0.0006797516576640  0.4018818176992625
  0.3368299562917869  0.0009602203143046  0.9010139850707546
  0.3355865981446939  0.5017374356676214  0.4010976582666146
  0.3367732986021537  0.5004659457310083  0.9015877072666427
  0.8331194480373014  0.2493970703620789  0.3460719148672098
  0.8366110564097156  0.2494774293735631  0.8531287684636766
  0.8362630872952153  0.7490644684892089  0.3492136308629128
  0.8363860214652021  0.7491857860111466  0.8493072979053125
  0.3354737022466168  0.2490746127687373  0.4016113878016370
  0.3366010655116085  0.2480186599909970  0.8994288085240356
  0.3366428736021234  0.7491747332827856  0.4007111112528534
  0.3366426231360151  0.7492996331773298  0.9012881235853811
  0.8364648368975409  0.0011727965735489  0.3495356869013548
  0.8365177937383166  0.0015969206752544  0.8491213361032095
  0.8346285879383188  0.5012007365012892  0.3489723467126993
  0.8367075335201477  0.5003767552062328  0.8490862287845218
  0.6649982644264512  0.4940567981473905  0.0963702028262787
  0.6635659680325361  0.5023842085087864  0.5989629700148242
  0.6660925030040232  0.0018246033014080  0.1010743217585812
  0.6630345996892473  0.0006239969602859  0.5990024271244963
  0.1638863909412009  0.2508322731658765  0.1498819708208998
  0.1628095505414393  0.2505741902484644  0.6511220182003257
  0.1640087138407580  0.7497785270835138  0.1505855025570426
  0.1632914986097163  0.7508004410164801  0.6515033000402042
  0.9243104287095036  0.3759120208048401  0.1466783996423260
  0.9254796870591377  0.3748919102228285  0.6489574019440170
  0.9256706398486045  0.8744507991281125  0.1490009694820031
  0.9252239726991931  0.8752898534728644  0.6490860217979630
  0.4213116968882034  0.3762756106870100  0.6009819127741736
  0.4268858676888883  0.8743526756792122  0.1017827485404013
  0.4260969384146094  0.8756097387657107  0.6014581377340775
  0.0745612813126542  0.1243372883955018  0.3517182086542050
  0.0753108190383500  0.1246390487388496  0.8508042457352332
  0.0735599868844901  0.6246518802600818  0.3507758488272827
  0.0742349845303352  0.6246831827944348  0.8514985355867069
  0.5743454919818873  0.1269650532024400  0.3949070552660743
  0.5770299827549081  0.1298402966522971  0.9073422773372215
  0.5740736176562606  0.6260682610173021  0.3994940525862845
  0.5746753122782593  0.6245524025122293  0.8990852787994541
  0.9151701073276257  0.1244088478433909  0.0973887900352182
  0.9112513772992301  0.1253242177538638  0.5962434423423773
  0.9111043258613236  0.6249831779544479  0.0966885780657378
  0.9110178955354300  0.6251808410722077  0.5969237749086318
  0.4085596999583743  0.1227192875392120  0.1531410397643924
  0.4111592964014577  0.1248766908954053  0.6533541289949980
  0.4121085045682449  0.6238708811389628  0.1527204783009566
  0.4105018251947854  0.6263367817755636  0.6537471826880576
  0.0880947302393125  0.3752762307128421  0.4031833374956122
  0.0894298185237545  0.3750148446849906  0.9030882002497762
  0.0885787865964147  0.8742312005495165  0.4041354619135475
  0.0888607641486203  0.8745899318872858  0.9031974460737118
  0.5865989119874087  0.3773255946692231  0.3494509147456029
  0.5880597897822781  0.3749913449294411  0.8412844418022587
  0.5893444701654431  0.8753402881680401  0.3467121397807489
  0.5895339805914119  0.8756306637074616  0.8476532462260451
  0.8436931844485116  0.0219232259537634  0.1492982030741743
  0.8408456267287860  0.0219463921321648  0.6478086367842266
  0.8408122164465297  0.5216718259462212  0.1480131320852678
  0.8411250974002797  0.5216725474201667  0.6484930085790168
  0.3401730451597089  0.2265875299626643  0.0999989294995132
  0.3397069433791557  0.2282663801608891  0.6028443263559211
  0.3418860206890528  0.7278102949078615  0.1018574316704957
  0.3406109487994939  0.7302904587259107  0.6031895615861558
  0.1573730546692360  0.2713631282434648  0.3511728357115729
  0.1591318833151476  0.2712489941650134  0.8515479034734739
  0.1587730984255060  0.7708090492070596  0.3522665071138391
  0.1588161272130364  0.7708539091638471  0.8520368999639985
  0.6579978846673029  0.4800343713642690  0.4025480068048566
  0.6593376423224058  0.4766956510541718  0.8962191393567309
  0.6588817783782801  0.9792504562931086  0.3978245251779882
  0.6602553166184109  0.9785751790378683  0.8992714527378567
  0.1585561110948532  0.4785402730258710  0.3517579450385639
  0.1595541716550102  0.4785178649829120  0.8515371064611372
  0.1589395947268670  0.9778420822405209  0.3536383306610915
  0.1592143407397657  0.9779617755074739  0.8519651011789406
  0.6571048816251377  0.2734329722937545  0.3989418873913451
  0.6588272706767953  0.2687870728127635  0.8764973994974241
  0.6594433163945794  0.7719330466028183  0.3987937359250893
  0.6589832463997496  0.7712521333721085  0.8978771341917522
  0.8550726841523471  0.2298093761973519  0.1522556487356823
  0.8419233705093205  0.2291617049904033  0.6475628585886994
  0.8414383461691983  0.7287648333303665  0.1481479324078165
  0.8409379020577319  0.7288374711137564  0.6481704087218745
  0.3364224176281780  0.0190338741216891  0.1039772360422546
  0.3410287194104598  0.0211358595585196  0.6020740456014195
  0.3418405921100458  0.5204437231399268  0.1014290516996113
  0.3396083218983961  0.5234679289588087  0.6016655625074279
  0.5443429395208739  0.1173085500117423  0.0989984287626413
  0.5484945633093332  0.1258801060309622  0.5987968219615780
  0.5503182320973039  0.6240601822720109  0.1003259146419069
  0.5486263315156350  0.6270785014767100  0.6014310322912806
  0.0548901421091017  0.1210738823514248  0.1470293907043612
  0.0496935624639789  0.1245812308241909  0.6483491844370946
  0.0495432884594464  0.6245895862603916  0.1486645527262311
  0.0493045963557179  0.6251428022609247  0.6491026112124345
  0.4487036173259611  0.3756388738011935  0.4037556123592410
  0.4510505691305511  0.3735454594926040  0.8970945084372204
  0.4508733929376660  0.8750231482174442  0.3984766248691827
  0.4512738324625332  0.8755024539955585  0.9001791088782198
  0.9495091403196199  0.3759339739337975  0.3522058293005514
  0.9510968020032280  0.3752223811269815  0.8510672494996570
  0.9504495044655812  0.8746565479095665  0.3514562066734470
  0.9505635486432453  0.8750512327412849  0.8509061984330515
  0.5839777283461700  0.3818270126687366  0.1951934316586019
  0.5840375717497110  0.3813442004679075  0.6850415919555601
  0.5905366289386507  0.8748038075745939  0.1905242961617546
  0.5893878909830690  0.8761892937293752  0.6912929878507796
  0.0901991667603284  0.3751599655100719  0.0592507340934390
  0.0896691366977365  0.3750491174324182  0.5594467148892690
  0.0889478476299459  0.8737722906197618  0.0594700744374848
  0.0886778044050089  0.8741568289195882  0.5603151051511048
  0.4080334655198072  0.1250502403420626  0.3094297262114836
  0.4119161702100556  0.1243933341777463  0.8093949205367608
  0.4113927096024810  0.6245860198604092  0.3091215673011263
  0.4106080404980759  0.6251547138560198  0.8100281755553951
  0.9105539242172753  0.1252785984889329  0.4400129612663974
  0.9126221211564811  0.1244724485534334  0.9412703091764953
  0.9103874183875504  0.6249904019094572  0.4406496395175807
  0.9104584459613392  0.6249454219038952  0.9403858172477157
 
  0.00000000E+00  0.00000000E+00  0.00000000E+00
  0.00000000E+00  0.00000000E+00  0.00000000E+00
  0.00000000E+00  0.00000000E+00  0.00000000E+00
  0.00000000E+00  0.00000000E+00  0.00000000E+00
  0.00000000E+00  0.00000000E+00  0.00000000E+00
  0.00000000E+00  0.00000000E+00  0.00000000E+00
  0.00000000E+00  0.00000000E+00  0.00000000E+00
  0.00000000E+00  0.00000000E+00  0.00000000E+00
  0.00000000E+00  0.00000000E+00  0.00000000E+00
  0.00000000E+00  0.00000000E+00  0.00000000E+00
  0.00000000E+00  0.00000000E+00  0.00000000E+00
  0.00000000E+00  0.00000000E+00  0.00000000E+00
  0.00000000E+00  0.00000000E+00  0.00000000E+00
  0.00000000E+00  0.00000000E+00  0.00000000E+00
  0.00000000E+00  0.00000000E+00  0.00000000E+00
  0.00000000E+00  0.00000000E+00  0.00000000E+00
  0.00000000E+00  0.00000000E+00  0.00000000E+00
  0.00000000E+00  0.00000000E+00  0.00000000E+00
  0.00000000E+00  0.00000000E+00  0.00000000E+00
  0.00000000E+00  0.00000000E+00  0.00000000E+00
  0.00000000E+00  0.00000000E+00  0.00000000E+00
  0.00000000E+00  0.00000000E+00  0.00000000E+00
  0.00000000E+00  0.00000000E+00  0.00000000E+00
  0.00000000E+00  0.00000000E+00  0.00000000E+00
  0.00000000E+00  0.00000000E+00  0.00000000E+00
  0.00000000E+00  0.00000000E+00  0.00000000E+00
  0.00000000E+00  0.00000000E+00  0.00000000E+00
  0.00000000E+00  0.00000000E+00  0.00000000E+00
  0.00000000E+00  0.00000000E+00  0.00000000E+00
  0.00000000E+00  0.00000000E+00  0.00000000E+00
  0.00000000E+00  0.00000000E+00  0.00000000E+00
  0.00000000E+00  0.00000000E+00  0.00000000E+00
  0.00000000E+00  0.00000000E+00  0.00000000E+00
  0.00000000E+00  0.00000000E+00  0.00000000E+00
  0.00000000E+00  0.00000000E+00  0.00000000E+00
  0.00000000E+00  0.00000000E+00  0.00000000E+00
  0.00000000E+00  0.00000000E+00  0.00000000E+00
  0.00000000E+00  0.00000000E+00  0.00000000E+00
  0.00000000E+00  0.00000000E+00  0.00000000E+00
  0.00000000E+00  0.00000000E+00  0.00000000E+00
  0.00000000E+00  0.00000000E+00  0.00000000E+00
  0.00000000E+00  0.00000000E+00  0.00000000E+00
  0.00000000E+00  0.00000000E+00  0.00000000E+00
  0.00000000E+00  0.00000000E+00  0.00000000E+00
  0.00000000E+00  0.00000000E+00  0.00000000E+00
  0.00000000E+00  0.00000000E+00  0.00000000E+00
  0.00000000E+00  0.00000000E+00  0.00000000E+00
  0.00000000E+00  0.00000000E+00  0.00000000E+00
  0.00000000E+00  0.00000000E+00  0.00000000E+00
  0.00000000E+00  0.00000000E+00  0.00000000E+00
  0.00000000E+00  0.00000000E+00  0.00000000E+00
  0.00000000E+00  0.00000000E+00  0.00000000E+00
  0.00000000E+00  0.00000000E+00  0.00000000E+00
  0.00000000E+00  0.00000000E+00  0.00000000E+00
  0.00000000E+00  0.00000000E+00  0.00000000E+00
  0.00000000E+00  0.00000000E+00  0.00000000E+00
  0.00000000E+00  0.00000000E+00  0.00000000E+00
  0.00000000E+00  0.00000000E+00  0.00000000E+00
  0.00000000E+00  0.00000000E+00  0.00000000E+00
  0.00000000E+00  0.00000000E+00  0.00000000E+00
  0.00000000E+00  0.00000000E+00  0.00000000E+00
  0.00000000E+00  0.00000000E+00  0.00000000E+00
  0.00000000E+00  0.00000000E+00  0.00000000E+00
  0.00000000E+00  0.00000000E+00  0.00000000E+00
  0.00000000E+00  0.00000000E+00  0.00000000E+00
  0.00000000E+00  0.00000000E+00  0.00000000E+00
  0.00000000E+00  0.00000000E+00  0.00000000E+00
  0.00000000E+00  0.00000000E+00  0.00000000E+00
  0.00000000E+00  0.00000000E+00  0.00000000E+00
  0.00000000E+00  0.00000000E+00  0.00000000E+00
  0.00000000E+00  0.00000000E+00  0.00000000E+00
  0.00000000E+00  0.00000000E+00  0.00000000E+00
  0.00000000E+00  0.00000000E+00  0.00000000E+00
  0.00000000E+00  0.00000000E+00  0.00000000E+00
  0.00000000E+00  0.00000000E+00  0.00000000E+00
  0.00000000E+00  0.00000000E+00  0.00000000E+00
  0.00000000E+00  0.00000000E+00  0.00000000E+00
  0.00000000E+00  0.00000000E+00  0.00000000E+00
  0.00000000E+00  0.00000000E+00  0.00000000E+00
  0.00000000E+00  0.00000000E+00  0.00000000E+00
  0.00000000E+00  0.00000000E+00  0.00000000E+00
  0.00000000E+00  0.00000000E+00  0.00000000E+00
  0.00000000E+00  0.00000000E+00  0.00000000E+00
  0.00000000E+00  0.00000000E+00  0.00000000E+00
  0.00000000E+00  0.00000000E+00  0.00000000E+00
  0.00000000E+00  0.00000000E+00  0.00000000E+00
  0.00000000E+00  0.00000000E+00  0.00000000E+00
  0.00000000E+00  0.00000000E+00  0.00000000E+00
  0.00000000E+00  0.00000000E+00  0.00000000E+00
  0.00000000E+00  0.00000000E+00  0.00000000E+00
  0.00000000E+00  0.00000000E+00  0.00000000E+00
  0.00000000E+00  0.00000000E+00  0.00000000E+00
  0.00000000E+00  0.00000000E+00  0.00000000E+00
  0.00000000E+00  0.00000000E+00  0.00000000E+00
  0.00000000E+00  0.00000000E+00  0.00000000E+00
  0.00000000E+00  0.00000000E+00  0.00000000E+00
  0.00000000E+00  0.00000000E+00  0.00000000E+00
  0.00000000E+00  0.00000000E+00  0.00000000E+00
  0.00000000E+00  0.00000000E+00  0.00000000E+00
  0.00000000E+00  0.00000000E+00  0.00000000E+00
  0.00000000E+00  0.00000000E+00  0.00000000E+00
  0.00000000E+00  0.00000000E+00  0.00000000E+00
  0.00000000E+00  0.00000000E+00  0.00000000E+00
  0.00000000E+00  0.00000000E+00  0.00000000E+00
  0.00000000E+00  0.00000000E+00  0.00000000E+00
  0.00000000E+00  0.00000000E+00  0.00000000E+00
  0.00000000E+00  0.00000000E+00  0.00000000E+00
  0.00000000E+00  0.00000000E+00  0.00000000E+00
  0.00000000E+00  0.00000000E+00  0.00000000E+00
  0.00000000E+00  0.00000000E+00  0.00000000E+00
  0.00000000E+00  0.00000000E+00  0.00000000E+00
  0.00000000E+00  0.00000000E+00  0.00000000E+00
  0.00000000E+00  0.00000000E+00  0.00000000E+00
  0.00000000E+00  0.00000000E+00  0.00000000E+00
  0.00000000E+00  0.00000000E+00  0.00000000E+00
  0.00000000E+00  0.00000000E+00  0.00000000E+00
  0.00000000E+00  0.00000000E+00  0.00000000E+00
  0.00000000E+00  0.00000000E+00  0.00000000E+00
  0.00000000E+00  0.00000000E+00  0.00000000E+00
  0.00000000E+00  0.00000000E+00  0.00000000E+00
  0.00000000E+00  0.00000000E+00  0.00000000E+00
  0.00000000E+00  0.00000000E+00  0.00000000E+00
  0.00000000E+00  0.00000000E+00  0.00000000E+00
  0.00000000E+00  0.00000000E+00  0.00000000E+00
  0.00000000E+00  0.00000000E+00  0.00000000E+00
  0.00000000E+00  0.00000000E+00  0.00000000E+00
  0.00000000E+00  0.00000000E+00  0.00000000E+00
