Li18 Co18 O36                           
   1.00000000000000     
     8.1674650740080619   -0.0042725296118916    2.4395579789718003
     3.7218428724766262    7.2702924018354924    2.4397248540678191
     0.0237341836773460    0.0147832552010920   10.0012207553430272
   Li   Co   O 
    16    18    36
Direct
  0.3097326471229778  0.6431775889717102  0.5005086131473533
  0.3334087341287741  0.3332275547294756  0.0000245607826699
  0.3335332798902257  0.6668563713060323  0.9996211106721304
  0.3325136563857072  0.9998925537278893  0.0004947273806692
  0.3323512739832282  0.0092784811158353  0.5014047107482682
  0.6667813011737707  0.3341029625914800  0.9995362790187414
  0.6573079278307929  0.3343198095806130  0.4985697656242891
  0.6665244940099839  0.6658549987749041  0.0004907788867641
  0.6759628521071619  0.6656662612559501  0.5013971320550112
  0.6666768274499830  0.9999766344894709  0.9999932311618664
  0.6666818549362787  0.9999814106689513  0.4999712013919648
  0.9997752245299338  0.3331104184772258  0.0004115687167499
  0.0235300230032465  0.3568537273265662  0.4994710610067798
  0.9999032967004595  0.6667391734031227  0.0000028616930976
  0.0008074748420697  0.0001177072865275  0.9995189438102798
  0.0009824028003393  0.9907112216228597  0.4985594018842434
  0.1662622253836972  0.1664620941693826  0.2479644352734951
  0.1674938463725297  0.1666245920684872  0.7518794984533699
  0.1664033178366822  0.4996966637915534  0.2500969920846998
  0.1669451708645227  0.5003000425338229  0.7499343002469914
  0.1658563361557555  0.8334016115692933  0.2481049211433444
  0.1670801293167159  0.8335479524125802  0.7520290901517654
  0.4992100837034386  0.1666069990674615  0.2504997732926668
  0.5000134796782518  0.1675058970749674  0.7494944076057592
  0.5000871040363251  0.4991492912497577  0.2481187970219239
  0.5001813135245214  0.5004578121745027  0.7520228663530588
  0.4992115454866379  0.8325012631448345  0.2507664694740086
  0.4992818656418052  0.8326810273754788  0.7546951899237087
  0.8340490889337246  0.1673341650934859  0.2452912607698181
  0.8341275083706847  0.1674990406328476  0.7492354953553004
  0.8331581108486859  0.4995433586610716  0.2479856545523162
  0.8332451461097605  0.5008671921726275  0.7518805727166580
  0.8333207169142369  0.8324943158363283  0.2505118104606083
  0.8341251865452719  0.8333906685608312  0.7494973092302359
  0.2520538833554724  0.2525631021714219  0.3531067353454347
  0.2548079406486963  0.2535953058703484  0.8593395381750852
  0.2563820273762971  0.5896946351408019  0.3469226326524364
  0.2533013942811948  0.5866600727115241  0.8600974102462757
  0.2518702113847269  0.9201888323435341  0.3560162155718416
  0.2519954615247642  0.9196710777975454  0.8628175996226446
  0.5923332523812661  0.2526515808988421  0.3513565528080989
  0.5880516723650615  0.2529445322570396  0.8580268472222059
  0.5868587031827275  0.5851619547681182  0.3560361738349371
  0.5862524450476414  0.5854230317440781  0.8628139050099435
  0.5865043400135406  0.9197727915568166  0.3587757331681090
  0.5879059255327590  0.9212858561573611  0.8597717439623693
  0.9198748179593181  0.2531182621698349  0.3528457035506136
  0.9196244771939774  0.2529582966920501  0.8591557130638492
  0.9193048056451261  0.5853414654999582  0.3531209345715567
  0.9202354466124234  0.5881464096796094  0.8593312998717053
  0.9194181039897558  0.9255841832356921  0.3513517612268586
  0.9196162142046447  0.9213918865741917  0.8580388220761890
  0.0813151777955738  0.0803961096768049  0.1371585804670516
  0.0814607937306135  0.0798520091908514  0.6439822619138624
  0.0800229088912374  0.4133362724096372  0.1399289274711251
  0.0769801399644052  0.4103128035976127  0.6530713555131129
  0.0785357717712287  0.7464064236740953  0.1406744592073323
  0.0812811011497416  0.7474467627869998  0.6469041835114453
  0.4137616072145036  0.0785844953854564  0.1419356176979463
  0.4139381824105541  0.0744088605752609  0.6486157024847827
  0.4130951726928700  0.4118237372640507  0.1406846286280867
  0.4140817450425658  0.4146747379049671  0.6468935669597258
  0.4137414881509187  0.7470523261106550  0.1408481494097344
  0.4134654241262723  0.7468562390652096  0.6471544016242845
  0.7454123919732467  0.0787073155328386  0.1402188065404104
  0.7468274493212945  0.0802097791920886  0.6412405488078790
  0.7470695386514237  0.4146101504308675  0.1371715736815702
  0.7464619936532628  0.4148518886672647  0.6440089544155825
  0.7452925809824933  0.7470292620107628  0.1419777866379448
  0.7410069631602170  0.7473566863378593  0.6486203809573823
 
  0.00000000E+00  0.00000000E+00  0.00000000E+00
  0.00000000E+00  0.00000000E+00  0.00000000E+00
  0.00000000E+00  0.00000000E+00  0.00000000E+00
  0.00000000E+00  0.00000000E+00  0.00000000E+00
  0.00000000E+00  0.00000000E+00  0.00000000E+00
  0.00000000E+00  0.00000000E+00  0.00000000E+00
  0.00000000E+00  0.00000000E+00  0.00000000E+00
  0.00000000E+00  0.00000000E+00  0.00000000E+00
  0.00000000E+00  0.00000000E+00  0.00000000E+00
  0.00000000E+00  0.00000000E+00  0.00000000E+00
  0.00000000E+00  0.00000000E+00  0.00000000E+00
  0.00000000E+00  0.00000000E+00  0.00000000E+00
  0.00000000E+00  0.00000000E+00  0.00000000E+00
  0.00000000E+00  0.00000000E+00  0.00000000E+00
  0.00000000E+00  0.00000000E+00  0.00000000E+00
  0.00000000E+00  0.00000000E+00  0.00000000E+00
  0.00000000E+00  0.00000000E+00  0.00000000E+00
  0.00000000E+00  0.00000000E+00  0.00000000E+00
  0.00000000E+00  0.00000000E+00  0.00000000E+00
  0.00000000E+00  0.00000000E+00  0.00000000E+00
  0.00000000E+00  0.00000000E+00  0.00000000E+00
  0.00000000E+00  0.00000000E+00  0.00000000E+00
  0.00000000E+00  0.00000000E+00  0.00000000E+00
  0.00000000E+00  0.00000000E+00  0.00000000E+00
  0.00000000E+00  0.00000000E+00  0.00000000E+00
  0.00000000E+00  0.00000000E+00  0.00000000E+00
  0.00000000E+00  0.00000000E+00  0.00000000E+00
  0.00000000E+00  0.00000000E+00  0.00000000E+00
  0.00000000E+00  0.00000000E+00  0.00000000E+00
  0.00000000E+00  0.00000000E+00  0.00000000E+00
  0.00000000E+00  0.00000000E+00  0.00000000E+00
  0.00000000E+00  0.00000000E+00  0.00000000E+00
  0.00000000E+00  0.00000000E+00  0.00000000E+00
  0.00000000E+00  0.00000000E+00  0.00000000E+00
  0.00000000E+00  0.00000000E+00  0.00000000E+00
  0.00000000E+00  0.00000000E+00  0.00000000E+00
  0.00000000E+00  0.00000000E+00  0.00000000E+00
  0.00000000E+00  0.00000000E+00  0.00000000E+00
  0.00000000E+00  0.00000000E+00  0.00000000E+00
  0.00000000E+00  0.00000000E+00  0.00000000E+00
  0.00000000E+00  0.00000000E+00  0.00000000E+00
  0.00000000E+00  0.00000000E+00  0.00000000E+00
  0.00000000E+00  0.00000000E+00  0.00000000E+00
  0.00000000E+00  0.00000000E+00  0.00000000E+00
  0.00000000E+00  0.00000000E+00  0.00000000E+00
  0.00000000E+00  0.00000000E+00  0.00000000E+00
  0.00000000E+00  0.00000000E+00  0.00000000E+00
  0.00000000E+00  0.00000000E+00  0.00000000E+00
  0.00000000E+00  0.00000000E+00  0.00000000E+00
  0.00000000E+00  0.00000000E+00  0.00000000E+00
  0.00000000E+00  0.00000000E+00  0.00000000E+00
  0.00000000E+00  0.00000000E+00  0.00000000E+00
  0.00000000E+00  0.00000000E+00  0.00000000E+00
  0.00000000E+00  0.00000000E+00  0.00000000E+00
  0.00000000E+00  0.00000000E+00  0.00000000E+00
  0.00000000E+00  0.00000000E+00  0.00000000E+00
  0.00000000E+00  0.00000000E+00  0.00000000E+00
  0.00000000E+00  0.00000000E+00  0.00000000E+00
  0.00000000E+00  0.00000000E+00  0.00000000E+00
  0.00000000E+00  0.00000000E+00  0.00000000E+00
  0.00000000E+00  0.00000000E+00  0.00000000E+00
  0.00000000E+00  0.00000000E+00  0.00000000E+00
  0.00000000E+00  0.00000000E+00  0.00000000E+00
  0.00000000E+00  0.00000000E+00  0.00000000E+00
  0.00000000E+00  0.00000000E+00  0.00000000E+00
  0.00000000E+00  0.00000000E+00  0.00000000E+00
  0.00000000E+00  0.00000000E+00  0.00000000E+00
  0.00000000E+00  0.00000000E+00  0.00000000E+00
  0.00000000E+00  0.00000000E+00  0.00000000E+00
  0.00000000E+00  0.00000000E+00  0.00000000E+00
