Na47 P16 S64                            
   1.00000000000000     
    13.6883189999999999   -0.0144710000000000    0.0000410000000000
    -0.0145310000000000   13.7130550000000007   -0.0001140000000000
     0.0000360000000000    0.0001960000000000   14.0411880000000000
   Na   P    S 
    47    16    64
Direct
  0.6762865176554769  0.7517078139781432  0.7500002357617461
  0.9999900838636506  0.2501335734590313  0.2069082799896975
  0.9998494906730926  0.2498979591294415  0.7058733736305811
  0.9996370886418404  0.7501953890053272  0.2120447422533260
  0.9950433904801983  0.7503430905657069  0.7154479574727404
  0.4999886080206437  0.2498868794737632  0.2090578814367774
  0.5001534124218381  0.2500928667106095  0.7082388837429434
  0.5001298661547580  0.7498803005435519  0.2096894304205250
  0.2496952709601601  0.9996840144259238  0.2891170173762205
  0.2475706757685785  0.9989419104464048  0.7872865857855089
  0.2513049433675150  0.5009676897559743  0.2948554877943934
  0.2507527255873967  0.5029097391917787  0.7925961495499720
  0.7486833513962381  0.9989354897102274  0.2941177972998403
  0.7490462329683467  0.9946510629353114  0.7909903606828479
  0.7502432072467471  0.5005590923974879  0.2883306449845122
  0.7528272138368592  0.5038418947553254  0.7855860861389274
  0.2525971134103955  0.9985782106243164  0.0372020221432621
  0.2446946015781748  0.0013266903230686  0.5381313159134464
  0.2473449541718509  0.4993059618991609  0.0452013243439637
  0.2542204508269634  0.5037148371021658  0.5452396103194772
  0.7523279213040368  0.0008599097173700  0.0441704110997136
  0.7458597006210823  0.9968170822394669  0.5433997497768601
  0.7472164520427143  0.5013248136144384  0.0360852855025300
  0.7558818106556586  0.4980650587417230  0.5363394786426881
  0.5000104036278401  0.2506053779197970  0.4593818185703498
  0.5002904364356482  0.2493163577114004  0.9570798975753974
  0.4998797311773444  0.7507483897466898  0.4753000419197377
  0.4986131272266476  0.7493719013682778  0.9485468042938479
  0.9999979254330640  0.2495198350021752  0.4560320861027307
  0.9997127142560771  0.2506866234292602  0.9562021425678608
  0.9999520656251235  0.7496048353709241  0.4650617016405079
  0.9997809829747695  0.7507128953352691  0.9600924130377351
  0.9936614196607110  0.0012084898967544  0.5005899291370710
  0.0008154515414986  0.0057722332175061  0.9997662296439316
  0.0079611641112862  0.4968564101742459  0.5000189240484332
  0.9995325440534373  0.4968009840733103  0.9992633017558816
  0.4945980511540782  0.9989016796036267  0.5003436142181314
  0.5062342872780334  0.9990838032869789  0.0001162675283126
  0.5036739250564324  0.5036408020302972  0.5011952722201372
  0.4925335050985780  0.4982987942922108  0.0011547154507170
  0.2488529474822556  0.2522283609039491  0.2498850321428279
  0.2485996945108795  0.2529595217881067  0.7500039329330832
  0.2519595597504320  0.7490186527093243  0.2499501702763780
  0.2970637519880768  0.7484579562176421  0.7499648815402793
  0.7512339291400565  0.2478207414807585  0.2496211188387178
  0.7514475150742896  0.2469782834156220  0.7499420058393653
  0.7478137907909357  0.7510421670383636  0.2493035663565948
  0.4998621353984873  0.4999560619307246  0.2505553532815767
  0.5005194760126841  0.4998440830938904  0.7504567475927075
  0.5000251573550401  0.9999708933613221  0.2504349879595154
  0.4978345539946218  0.0000655636470484  0.7495665632190054
  0.0007050943873210  0.4996570885478206  0.2497607918585487
  0.0022069144176342  0.4976969275426057  0.7494448146529180
  0.9993375093745769  0.0005047286117232  0.2497867201536152
  0.9985588638696186  0.0022690838139710  0.7503490370632591
  0.2500033145794518  0.2505723533227027  0.0000201702511475
  0.2494279040983045  0.2513604728257874  0.4994284238720468
  0.2505274011807828  0.7473078038738450  0.0005332181858364
  0.2492784344398444  0.7530539625943291  0.4991998887264799
  0.7499524386603582  0.2494155066268533  0.9996638058033653
  0.7505570780099333  0.2485094369651719  0.4992370869620117
  0.7486705492061816  0.7523160938319648  0.0003018855310515
  0.7507297122552643  0.7470348688378579  0.4982509738941232
  0.1543217682369331  0.1733174288805586  0.0831136200635285
  0.1526987169952960  0.1749164861950234  0.5817775954279938
  0.1524211150804291  0.6746558240760550  0.0847048486487125
  0.1563072712142102  0.6775036335598088  0.5859100209244943
  0.6533305553965789  0.1740284296213233  0.0833906208290003
  0.6537925442046131  0.1738666865223095  0.5827800085314792
  0.6529233653467870  0.6746271354278690  0.0827172073781028
  0.6550675130362720  0.6660059284713356  0.5764730117846142
  0.3467660831737689  0.3259495401714076  0.0836426266828099
  0.3460721077947824  0.3262648809428157  0.5828869788165463
  0.3468146383648616  0.8247713355797046  0.0825490010797978
  0.3450292158773465  0.8327732727872572  0.5782178802922004
  0.8455943284322132  0.3268095092766004  0.0827661424202333
  0.8473607300783215  0.3247182080877522  0.5817298969112414
  0.8464977803858886  0.8257238148286916  0.0843697334689892
  0.8432743715992643  0.8233433630951978  0.5845265294639788
  0.1736495878117950  0.3485130595153194  0.4172000539509710
  0.1737103497965720  0.3478103965993284  0.9186652410807810
  0.1705361769327070  0.8447172143063639  0.4132372206450796
  0.1773221902559854  0.8402542635701096  0.9126747340023158
  0.6753263165263661  0.3443043182587928  0.4151145884712051
  0.6748699488862684  0.3445195028146912  0.9153350755148253
  0.6729319161293503  0.8437992112626134  0.4166720007657858
  0.6710339144028623  0.8528029164809396  0.9230823093104945
  0.3249320423907562  0.1556863109256099  0.4153342232149058
  0.3252116066236397  0.1553397438275255  0.9158590768421391
  0.3267036717100567  0.6560656739778779  0.4174882336995154
  0.3270068139230062  0.6467598321151158  0.9225692392314073
  0.8262134707795852  0.1512463473538475  0.4170281024696294
  0.8262273922929424  0.1520788844449754  0.9182921613293402
  0.8294884352554988  0.6554249387434865  0.4123514789948217
  0.8224452811462797  0.6598705414002310  0.9126591786199540
  0.0974170854193090  0.4230446380258712  0.1677452005202511
  0.1015559163062321  0.4220088934992035  0.6691965136598057
  0.0944026998570990  0.9249663112987960  0.1651063839395164
  0.0919337008238585  0.9257563879700257  0.6654330715355670
  0.5948476149584607  0.4243676835891819  0.1656914966003029
  0.5964838042149196  0.4242176460209137  0.6661873796439366
  0.5976521390470637  0.9243606891332661  0.1688053124445545
  0.5913777762795362  0.9227319659026207  0.6656494760488201
  0.4050121743954662  0.0754277533413941  0.1655109434914479
  0.4019691635770997  0.0768880112167309  0.6663515127515822
  0.4020920307198992  0.5755712293448454  0.1689498706337460
  0.4071540260528366  0.5791349453191401  0.6685322147790345
  0.9025402542694323  0.0771578219888411  0.1678169280393007
  0.8996868088139394  0.0768905628720731  0.6686812762423457
  0.9056078611631193  0.5751539657276936  0.1651266759696099
  0.9091427847466989  0.5725306244627930  0.6629320842782960
  0.0762374335060727  0.0962264976057412  0.3328648344656244
  0.0770474141530570  0.0998554045292224  0.8305330366527102
  0.0763755227937466  0.5958256130097084  0.3332719688385808
  0.0745971501841183  0.5937275842011402  0.8351353447066074
  0.5749165106982872  0.0966606236557936  0.3343152858834699
  0.5768141754703464  0.0970372650853477  0.8304541425633971
  0.5762414381435192  0.5961124905804311  0.3329105111900645
  0.5781292274633643  0.5882492565999655  0.8399398625050196
  0.4249471498651900  0.4033574094425418  0.3345556050618583
  0.4225640158052428  0.4016770769622369  0.8307596025803932
  0.4235430182023165  0.9038236753236077  0.3329253873190581
  0.4207932599879172  0.9099047098567468  0.8373389916995819
  0.9237901857249966  0.4038048513839811  0.3328018443373253
  0.9232311991551612  0.4013710041839147  0.8305183798135687
  0.9237138647577652  0.9042779652591335  0.3332023181674728
  0.9256540868751060  0.9076192247977559  0.8369970740073427
 
             NaN             NaN             NaN
             NaN             NaN             NaN
             NaN             NaN             NaN
             NaN             NaN             NaN
             NaN             NaN             NaN
             NaN             NaN             NaN
             NaN             NaN             NaN
             NaN             NaN             NaN
             NaN             NaN             NaN
             NaN             NaN             NaN
             NaN             NaN             NaN
             NaN             NaN             NaN
             NaN             NaN             NaN
             NaN             NaN             NaN
             NaN             NaN             NaN
             NaN             NaN             NaN
             NaN             NaN             NaN
             NaN             NaN             NaN
             NaN             NaN             NaN
             NaN             NaN             NaN
             NaN             NaN             NaN
             NaN             NaN             NaN
             NaN             NaN             NaN
             NaN             NaN             NaN
             NaN             NaN             NaN
             NaN             NaN             NaN
             NaN             NaN             NaN
             NaN             NaN             NaN
             NaN             NaN             NaN
             NaN             NaN             NaN
             NaN             NaN             NaN
             NaN             NaN             NaN
             NaN             NaN             NaN
             NaN             NaN             NaN
             NaN             NaN             NaN
             NaN             NaN             NaN
             NaN             NaN             NaN
             NaN             NaN             NaN
             NaN             NaN             NaN
             NaN             NaN             NaN
             NaN             NaN             NaN
             NaN             NaN             NaN
             NaN             NaN             NaN
             NaN             NaN             NaN
             NaN             NaN             NaN
             NaN             NaN             NaN
             NaN             NaN             NaN
             NaN             NaN             NaN
             NaN             NaN             NaN
             NaN             NaN             NaN
             NaN             NaN             NaN
             NaN             NaN             NaN
             NaN             NaN             NaN
             NaN             NaN             NaN
             NaN             NaN             NaN
             NaN             NaN             NaN
             NaN             NaN             NaN
             NaN             NaN             NaN
             NaN             NaN             NaN
             NaN             NaN             NaN
             NaN             NaN             NaN
             NaN             NaN             NaN
             NaN             NaN             NaN
             NaN             NaN             NaN
             NaN             NaN             NaN
             NaN             NaN             NaN
             NaN             NaN             NaN
             NaN             NaN             NaN
             NaN             NaN             NaN
             NaN             NaN             NaN
             NaN             NaN             NaN
             NaN             NaN             NaN
             NaN             NaN             NaN
             NaN             NaN             NaN
             NaN             NaN             NaN
             NaN             NaN             NaN
             NaN             NaN             NaN
             NaN             NaN             NaN
             NaN             NaN             NaN
             NaN             NaN             NaN
             NaN             NaN             NaN
             NaN             NaN             NaN
             NaN             NaN             NaN
             NaN             NaN             NaN
             NaN             NaN             NaN
             NaN             NaN             NaN
             NaN             NaN             NaN
             NaN             NaN             NaN
             NaN             NaN             NaN
             NaN             NaN             NaN
             NaN             NaN             NaN
             NaN             NaN             NaN
             NaN             NaN             NaN
             NaN             NaN             NaN
             NaN             NaN             NaN
             NaN             NaN             NaN
             NaN             NaN             NaN
             NaN             NaN             NaN
             NaN             NaN             NaN
             NaN             NaN             NaN
             NaN             NaN             NaN
             NaN             NaN             NaN
             NaN             NaN             NaN
             NaN             NaN             NaN
             NaN             NaN             NaN
             NaN             NaN             NaN
             NaN             NaN             NaN
             NaN             NaN             NaN
             NaN             NaN             NaN
             NaN             NaN             NaN
             NaN             NaN             NaN
             NaN             NaN             NaN
             NaN             NaN             NaN
             NaN             NaN             NaN
             NaN             NaN             NaN
             NaN             NaN             NaN
             NaN             NaN             NaN
             NaN             NaN             NaN
             NaN             NaN             NaN
             NaN             NaN             NaN
             NaN             NaN             NaN
             NaN             NaN             NaN
             NaN             NaN             NaN
             NaN             NaN             NaN
             NaN             NaN             NaN
             NaN             NaN             NaN
             NaN             NaN             NaN
