Na47 P16 S64                            
   1.00000000000000     
    13.9399829999999998   -0.0107870000000000    0.0000110000000000
    -0.0108320000000000   13.9544200000000007    0.0001070000000000
     0.0000360000000000    0.0000720000000000   14.2760029999999993
   Na   P    S 
    47    16    64
Direct
  0.6096058147153087  0.7533058622128763  0.7449754289180746
  0.9998557280910561  0.2506423586905626  0.2066596367750506
  0.9993079408877463  0.2502824623697748  0.7059586605178225
  0.9992270060259330  0.7507039827432607  0.2123966589146420
  0.9838083986909751  0.7520815298166283  0.7176055385777644
  0.5000927958979204  0.2493661826456375  0.2078463863811493
  0.5008248827428545  0.2500132403954183  0.7072954525324420
  0.5005535227969773  0.7493803345992447  0.2119622556125478
  0.2491190477506677  0.9994329276380469  0.2902557020342798
  0.2483402851212517  0.9987490899405529  0.7896755624873393
  0.2515857110631146  0.5005201814109626  0.2948265820752027
  0.2504527010388955  0.5023790088584477  0.7937190805428713
  0.7484952452030171  0.9990634026364731  0.2920216424678017
  0.7485703234924159  0.9840113153518928  0.7863074423070344
  0.7508047749236653  0.5010326680617467  0.2873345867653185
  0.7544917176943287  0.5156590891106063  0.7825474095802463
  0.2530155148391771  0.9989195628502472  0.0395398061631553
  0.2434467157779423  0.9997466142040921  0.5401868896109292
  0.2469695553939104  0.4996505316526978  0.0450982149954342
  0.2556821080979361  0.5036710516340719  0.5459742031032206
  0.7525047948645920  0.0007257948228911  0.0403624117322749
  0.7450757986344456  0.9985569783960813  0.5401012468413953
  0.7466700497441110  0.5008386525664221  0.0350128985945943
  0.7578618650464293  0.4980492262469483  0.5347879815670069
  0.9998491923698509  0.2484972636735279  0.4560325970924879
  0.9985995350393679  0.2529678578560421  0.9553338741486428
  0.0003080896502681  0.7483739025635856  0.4651648451576307
  0.0000828532742929  0.7534167881046372  0.9624353221271420
  0.5001871175741499  0.2515661424171256  0.4575721052163857
  0.5012530561070321  0.2470324650213698  0.9562137143523231
  0.4998850148325644  0.7515965988765601  0.4735754459453929
  0.4976795190540599  0.7462654753064442  0.9596994911055958
  0.9924273737013323  0.9985224043038983  0.5013608428630647
  0.0031506469777938  0.0089294494993268  0.0006113207720873
  0.0107175273047773  0.4958309928648674  0.4992642026596599
  0.9973155282241279  0.5007770709023447  0.9984530882200957
  0.4905500160688234  0.0024116192278214  0.4986495811391620
  0.5058338039084305  0.9967994431638587  0.9992055646940727
  0.5052064343256859  0.5034428478335329  0.5016152291507012
  0.4920135998626947  0.4932245239171991  0.0025243505311678
  0.2489601438142444  0.2512301420766292  0.2498696035924368
  0.2492644310604675  0.2522274516835949  0.7499756710498744
  0.2511413002643366  0.7486894843762073  0.2504326244323209
  0.2815880351658819  0.7486546218638495  0.7491276690362483
  0.7510879134014345  0.2487906826306272  0.2492860415674656
  0.7508745881889638  0.2476563464810155  0.7503825083501781
  0.7486239262462817  0.7513238055312783  0.2493063540374436
  0.9992531157870843  0.0009569618691856  0.2497442874928097
  0.9990610904847514  0.0030107977722196  0.7517412932759484
  0.0010854905972550  0.4998252982317908  0.2497992047282125
  0.0026191940081688  0.4987629316580495  0.7481263169262107
  0.4993999853612863  0.9998376778983626  0.2499537329095887
  0.4972146401271402  0.0011455665944737  0.7484533408166669
  0.5001277226175063  0.4993843432523022  0.2503894813817382
  0.5001031117901320  0.4978668459773772  0.7520515035689215
  0.2498268061168147  0.2501839663042276  0.0001482706661378
  0.2497139637306915  0.2509350451928043  0.4994637036572840
  0.2502398636084067  0.7482870980100671  0.0010999455448797
  0.2494451663229498  0.7521716504100340  0.4992871823161025
  0.7501532745394428  0.2496128685892245  0.9996775639460580
  0.7503136960697034  0.2490684765623286  0.4988896492564407
  0.7494558057935592  0.7497683282986500  0.0008522823722430
  0.7515602966889858  0.7484742685425303  0.4961617916133605
  0.1548605678760921  0.1735581952287788  0.0827227840063856
  0.1541780930009864  0.1751815408357018  0.5817812597918106
  0.1533579314946465  0.6753235418732686  0.0844575150475251
  0.1569562788906467  0.6770243710988950  0.5849266102152981
  0.6551444884316311  0.1737414857299200  0.0831834049790743
  0.6541791021687686  0.1749209061028409  0.5815203812641911
  0.6544579529831012  0.6739672427588133  0.0840087535125633
  0.6575550142872331  0.6668907914188082  0.5744444500616837
  0.3454017467166821  0.3254396467759832  0.0831958692427932
  0.3455394545763895  0.3258933252932223  0.5818830485005435
  0.3457840364273963  0.8243463307861347  0.0834400643430087
  0.3441408454533956  0.8305703764244114  0.5788453553576076
  0.8445821955136168  0.3270446082732263  0.0823872886326456
  0.8462092777654604  0.3240844645765435  0.5813284396356551
  0.8435402483655707  0.8270181065163982  0.0839839356945689
  0.8441153079512631  0.8259562986961271  0.5789922991652645
  0.1740161880015378  0.3466922082209081  0.4173160385204326
  0.1739735149330883  0.3462893709886430  0.9188147678493834
  0.1711320040359965  0.8434165112140590  0.4142029342880775
  0.1772435113417785  0.8417841553319434  0.9152544567178893
  0.6760188994578371  0.3445147216679416  0.4152822200382147
  0.6752235432982872  0.3438509990445411  0.9162205327488664
  0.6726197333476094  0.8431109090867324  0.4152530430982466
  0.6707846393863903  0.8457294886627906  0.9206865325320450
  0.3247610219787234  0.1557445670334872  0.4161626669524878
  0.3248538947874025  0.1555748927972260  0.9168613865190451
  0.3269409166994990  0.6566012536536832  0.4176641421009890
  0.3258961356660066  0.6498244301290725  0.9220468172926672
  0.8253032657353074  0.1527329721771267  0.4167979642353714
  0.8257943848696527  0.1536763182398317  0.9182079096212306
  0.8293038348419657  0.6569505281433266  0.4110057321258367
  0.8269360185069417  0.6561893269188630  0.9197414472326244
  0.0961360842871741  0.4235215079797001  0.1674322089349403
  0.1014084895426137  0.4218687436207063  0.6701765463621072
  0.0938268890323357  0.9256577951655842  0.1659513782968745
  0.0904741451642010  0.9244902660294372  0.6680242694066933
  0.5943295548110044  0.4238048218989192  0.1664150931185446
  0.5963362232271550  0.4250655875002209  0.6680323689914260
  0.5956122055783766  0.9243017991183251  0.1684074581861381
  0.5887473193542405  0.9284304975538618  0.6599021730839709
  0.4053655481562828  0.0750849471446244  0.1657684202586509
  0.3999807187990001  0.0782878323767804  0.6692194990300564
  0.4038621807945262  0.5749498187713016  0.1686798546124493
  0.4098707579300367  0.5797871244850867  0.6709100402368264
  0.9039853785696650  0.0773696920173350  0.1678493025283032
  0.9008987145580605  0.0760050072040954  0.6697424469079323
  0.9067439798220036  0.5750756023734880  0.1662218644814430
  0.9120658179989221  0.5726471463513576  0.6599036184728106
  0.0757009296276436  0.0952815000266440  0.3329793835578343
  0.0777219994389782  0.1006943184733444  0.8295246455587844
  0.0770686310223425  0.5949217397055406  0.3325088816859818
  0.0741815776427117  0.5946660872464733  0.8329973323539690
  0.5743016493591853  0.0953949305982036  0.3332165628541119
  0.5776445204869987  0.0941100759064426  0.8298341136398761
  0.5760334731050349  0.5944778646891180  0.3324615216447313
  0.5758692548772615  0.5836929381019047  0.8442974861373003
  0.4251505091324788  0.4042228683668796  0.3337943890331303
  0.4213769585963831  0.3998681294519955  0.8295602416271848
  0.4232707791147376  0.9048619175315480  0.3323675194967421
  0.4245137560755055  0.9065408617311093  0.8336789986448707
  0.9247874203087179  0.4050652058269932  0.3326461438458068
  0.9222193328228343  0.4052445463401853  0.8289207613087441
  0.9238829440274898  0.9056007917502171  0.3322301908537852
  0.9270698912887454  0.9110635036184149  0.8401172754083035
 
             NaN             NaN             NaN
             NaN             NaN             NaN
             NaN             NaN             NaN
             NaN             NaN             NaN
             NaN             NaN             NaN
             NaN             NaN             NaN
             NaN             NaN             NaN
             NaN             NaN             NaN
             NaN             NaN             NaN
             NaN             NaN             NaN
             NaN             NaN             NaN
             NaN             NaN             NaN
             NaN             NaN             NaN
             NaN             NaN             NaN
             NaN             NaN             NaN
             NaN             NaN             NaN
             NaN             NaN             NaN
             NaN             NaN             NaN
             NaN             NaN             NaN
             NaN             NaN             NaN
             NaN             NaN             NaN
             NaN             NaN             NaN
             NaN             NaN             NaN
             NaN             NaN             NaN
             NaN             NaN             NaN
             NaN             NaN             NaN
             NaN             NaN             NaN
             NaN             NaN             NaN
             NaN             NaN             NaN
             NaN             NaN             NaN
             NaN             NaN             NaN
             NaN             NaN             NaN
             NaN             NaN             NaN
             NaN             NaN             NaN
             NaN             NaN             NaN
             NaN             NaN             NaN
             NaN             NaN             NaN
             NaN             NaN             NaN
             NaN             NaN             NaN
             NaN             NaN             NaN
             NaN             NaN             NaN
             NaN             NaN             NaN
             NaN             NaN             NaN
             NaN             NaN             NaN
             NaN             NaN             NaN
             NaN             NaN             NaN
             NaN             NaN             NaN
             NaN             NaN             NaN
             NaN             NaN             NaN
             NaN             NaN             NaN
             NaN             NaN             NaN
             NaN             NaN             NaN
             NaN             NaN             NaN
             NaN             NaN             NaN
             NaN             NaN             NaN
             NaN             NaN             NaN
             NaN             NaN             NaN
             NaN             NaN             NaN
             NaN             NaN             NaN
             NaN             NaN             NaN
             NaN             NaN             NaN
             NaN             NaN             NaN
             NaN             NaN             NaN
             NaN             NaN             NaN
             NaN             NaN             NaN
             NaN             NaN             NaN
             NaN             NaN             NaN
             NaN             NaN             NaN
             NaN             NaN             NaN
             NaN             NaN             NaN
             NaN             NaN             NaN
             NaN             NaN             NaN
             NaN             NaN             NaN
             NaN             NaN             NaN
             NaN             NaN             NaN
             NaN             NaN             NaN
             NaN             NaN             NaN
             NaN             NaN             NaN
             NaN             NaN             NaN
             NaN             NaN             NaN
             NaN             NaN             NaN
             NaN             NaN             NaN
             NaN             NaN             NaN
             NaN             NaN             NaN
             NaN             NaN             NaN
             NaN             NaN             NaN
             NaN             NaN             NaN
             NaN             NaN             NaN
             NaN             NaN             NaN
             NaN             NaN             NaN
             NaN             NaN             NaN
             NaN             NaN             NaN
             NaN             NaN             NaN
             NaN             NaN             NaN
             NaN             NaN             NaN
             NaN             NaN             NaN
             NaN             NaN             NaN
             NaN             NaN             NaN
             NaN             NaN             NaN
             NaN             NaN             NaN
             NaN             NaN             NaN
             NaN             NaN             NaN
             NaN             NaN             NaN
             NaN             NaN             NaN
             NaN             NaN             NaN
             NaN             NaN             NaN
             NaN             NaN             NaN
             NaN             NaN             NaN
             NaN             NaN             NaN
             NaN             NaN             NaN
             NaN             NaN             NaN
             NaN             NaN             NaN
             NaN             NaN             NaN
             NaN             NaN             NaN
             NaN             NaN             NaN
             NaN             NaN             NaN
             NaN             NaN             NaN
             NaN             NaN             NaN
             NaN             NaN             NaN
             NaN             NaN             NaN
             NaN             NaN             NaN
             NaN             NaN             NaN
             NaN             NaN             NaN
             NaN             NaN             NaN
             NaN             NaN             NaN
             NaN             NaN             NaN
             NaN             NaN             NaN
