Mg7 Sc16 Se32                           
   1.00000000000000     
    11.2082130000000006    0.0000000000000000    0.0000010000000000
     0.0000000000000000   11.2082130000000006    0.0000000000000000
     0.0000010000000000    0.0000000000000000   11.2082130000000006
   Mg   Sc   Se
     7    16    32
Direct
  0.4946088925832542  0.4946086320857656  0.4946085908671249
  0.6240316531197637  0.1271937153095130  0.1271938755207238
  0.1271936311533027  0.6240317638625603  0.1271937827737602
  0.1271939733469442  0.1271937792674411  0.6240316665522674
  0.3757108711772259  0.8725206162180577  0.8725207578875149
  0.8725206493482718  0.3757110296292809  0.8725208375174457
  0.8725207498915277  0.8725206742771772  0.3757109034260724
  0.9935906909662598  0.7501753424026765  0.7501750645583313
  0.7501752372905600  0.9935908408972172  0.7501752309704374
  0.7501752727425811  0.7501752856211497  0.9935911061327780
 -0.0000066513919736 -0.0000064716981341 -0.0000068734489359
  0.0062192685802962  0.2497881441788620  0.2497879956546788
  0.2497883965471546  0.0062192376993335  0.2497880785296209
  0.2497882084251011  0.2497881635821355  0.0062193582793372
  0.7467127190506839  0.4997828974714780  0.2527573540722465
  0.7467127318344041  0.2527581050408880  0.4997836614101708
  0.9977032891282299  0.4999591701405005  0.4999593182871466
  0.2527570630408425  0.4997833217467820  0.7467132890799156
  0.2527584308258559  0.7467122136319049  0.4997833908749228
  0.4997829465195220  0.7467125080194844  0.2527574638796369
  0.4999592321681910  0.9977045176753495  0.4999592764144184
  0.4997831728526307  0.2527571968728746  0.7467133994247739
  0.4999593210233209  0.4999593281651258  0.9977022471892104
  0.7572161677300112  0.9933957302550915  0.9933958170704205
  0.9933957015645882  0.7572163636812630  0.9933957191906552
  0.9933957688108012  0.9933959033032067  0.7572160634006955
  0.7564194063900762  0.7564195428677366  0.7564197150728689
  0.2428173913429436  0.0065519906654787  0.0065517270066700
  0.0065520325705940  0.2428175227762187  0.0065516951130868
  0.0065520231167681  0.0065518578453607  0.2428171489667978
  0.2434743138655580  0.2434742612308495  0.2434742757458828
  0.7498099127390060  0.4942834938337111  0.4942829185220053
  0.9909344397022833  0.2581699824821283  0.4930942279796903
  0.9909346881761465  0.4930942417544621  0.2581703033279224
  0.7607406944851105  0.2568973639586506  0.2568979158562905
  0.2467762091214659  0.5048197730399944  0.5048209949575874
  0.0083580200786759  0.7416427216828809  0.5068977414722065
  0.0083572437406702  0.5068980079437606  0.7416429844032959
  0.2390431471804408  0.7426895682090249  0.7426894674774649
  0.2581701182814445  0.9909342168419286  0.4930942576262195
  0.4942835295427410  0.7498102918357776  0.4942826635623063
  0.4930944061569592  0.9909346031859985  0.2581702040718997
  0.2568974298056574  0.7607407635163078  0.2568977242858824
  0.7416429389809018  0.0083580854010936  0.5068978521385047
  0.5048200776013790  0.2467764143529664  0.5048208697496175
  0.5068979502433243  0.0083574173425848  0.7416429481728742
  0.7426894457812664  0.2390433870053168  0.7426896789263870
  0.2581703094176399  0.4930943403383738  0.9909349769806549
  0.4930943504817631  0.2581702269392543  0.9909349013115489
  0.4942825746731060  0.4942826153753223  0.7498097955644035
  0.2568975489978252  0.2568976345196273  0.7607408199316139
  0.7416428290619040  0.5068978437951216  0.0083574688420611
  0.5068978570879779  0.7416427095936404  0.0083573754152502
  0.5048206312882269  0.5048203784139282  0.2467758244098438
  0.7426892754891569  0.7426892401748173  0.2390434675401285
 
             NaN             NaN             NaN
             NaN             NaN             NaN
             NaN             NaN             NaN
             NaN             NaN             NaN
             NaN             NaN             NaN
             NaN             NaN             NaN
             NaN             NaN             NaN
             NaN             NaN             NaN
             NaN             NaN             NaN
             NaN             NaN             NaN
             NaN             NaN             NaN
             NaN             NaN             NaN
             NaN             NaN             NaN
             NaN             NaN             NaN
             NaN             NaN             NaN
             NaN             NaN             NaN
             NaN             NaN             NaN
             NaN             NaN             NaN
             NaN             NaN             NaN
             NaN             NaN             NaN
             NaN             NaN             NaN
             NaN             NaN             NaN
             NaN             NaN             NaN
             NaN             NaN             NaN
             NaN             NaN             NaN
             NaN             NaN             NaN
             NaN             NaN             NaN
             NaN             NaN             NaN
             NaN             NaN             NaN
             NaN             NaN             NaN
             NaN             NaN             NaN
             NaN             NaN             NaN
             NaN             NaN             NaN
             NaN             NaN             NaN
             NaN             NaN             NaN
             NaN             NaN             NaN
             NaN             NaN             NaN
             NaN             NaN             NaN
             NaN             NaN             NaN
             NaN             NaN             NaN
             NaN             NaN             NaN
             NaN             NaN             NaN
             NaN             NaN             NaN
             NaN             NaN             NaN
             NaN             NaN             NaN
             NaN             NaN             NaN
             NaN             NaN             NaN
             NaN             NaN             NaN
             NaN             NaN             NaN
             NaN             NaN             NaN
             NaN             NaN             NaN
             NaN             NaN             NaN
             NaN             NaN             NaN
             NaN             NaN             NaN
             NaN             NaN             NaN
