Mg7 Sc16 Se32                           
   1.00000000000000     
    11.2082130000000006    0.0000000000000000    0.0000010000000000
     0.0000000000000000   11.2082130000000006    0.0000000000000000
     0.0000010000000000    0.0000000000000000   11.2082130000000006
   Mg   Sc   Se
     7    16    32
Direct
  0.4999380730173762  0.4999380414093095  0.4999380934029469
  0.6240829474661137  0.1273576658351646  0.1273577067581090
  0.1273576608605285  0.6240829760196182  0.1273576661565093
  0.1273576416561954  0.1273576784212677  0.6240829147114542
  0.3759161267365936  0.8726359688023083  0.8726360319750484
  0.8726360409180566  0.3759160602785809  0.8726360066817244
  0.8726360427539696  0.8726360158544378  0.3759162301536549
  0.9937535628213312  0.7501669776251301  0.7501670561207444
  0.7501669673065048  0.9937534060046493  0.7501670439904060
  0.7501670325202958  0.7501669959206184  0.9937535362084000
  0.0000027689840038  0.0000027936532332  0.0000028056794450
  0.0062326374900953  0.2498359410853325  0.2498358843913721
  0.2498358526738632  0.0062325978238545  0.2498358792630864
  0.2498358287715981  0.2498358186018461  0.0062326386337991
  0.7468136976055920  0.5000016927539326  0.2531789008411021
  0.7468135617493220  0.2531790636590496  0.5000017006474110
 -0.0000380180313774  0.5000039669989080  0.5000039830541453
  0.2531790508461605  0.5000018001997957  0.7468137639799504
  0.2531792376472018  0.7468135652999328  0.5000017155058447
  0.5000016706951076  0.7468136596605668  0.2531790578997833
  0.5000038840997577 -0.0000378447590097  0.5000039009684580
  0.5000017141072698  0.2531790555526415  0.7468136554814717
  0.5000038774923375  0.5000038727632549 -0.0000377327260954
  0.7571814765014729  0.9934364889557382  0.9934365169370037
  0.9934365372764572  0.7571814745637568  0.9934364731302534
  0.9934364605972063  0.9934364693443163  0.7571814773743168
  0.7565296103846824  0.7565296569142739  0.7565296972183435
  0.2428228557741386  0.0065621561112822  0.0065621191849375
  0.0065621993793304  0.2428228778054642  0.0065621766258772
  0.0065621545085614  0.0065622184124135  0.2428228643641586
  0.2434590799018413  0.2434590164729054  0.2434589617495029
  0.7515181782907937  0.4948284095814028  0.4948280665573603
  0.9911624391208972  0.2582571012395597  0.4930956155359367
  0.9911625726704529  0.4930955677088878  0.2582571125871133
  0.7607180513532804  0.2571359828179860  0.2571359971720167
  0.2484515989041202  0.5051616852629811  0.5051622373385491
  0.0088341532382966  0.7417504442197762  0.5069081852243913
  0.0088339171286802  0.5069081565043889  0.7417504136466854
  0.2392662070040086  0.7428664561992792  0.7428663750461479
  0.2582570092194638  0.9911623142720668  0.4930955227191633
  0.4948283754940515  0.7515182498013827  0.4948278766117144
  0.4930955429632324  0.9911625410545383  0.2582570631093576
  0.2571359858877452  0.7607180370534480  0.2571359678585571
  0.7417503647241365  0.0088341481815157  0.5069081747726366
  0.5051617594342532  0.2484516466937342  0.5051621201165727
  0.5069081582246467  0.0088340346575668  0.7417503609774193
  0.7428663940753754  0.2392662828690474  0.7428664356726968
  0.2582571622404586  0.4930955005479721  0.9911626869636452
  0.4930956023690274  0.2582571408348556  0.9911626082842061
  0.4948279950151979  0.4948280068089451  0.7515183782522942
  0.2571359845380880  0.2571360277527839  0.7607179948999735
  0.7417503724398040  0.5069081214518487  0.0088339512755871
  0.5069082149609584  0.7417503460432289  0.0088339531186344
  0.5051621008720982  0.5051620188953051  0.2484515773909151
  0.7428663733239167  0.7428663956539935  0.2392663421859485
 
             NaN             NaN             NaN
             NaN             NaN             NaN
             NaN             NaN             NaN
             NaN             NaN             NaN
             NaN             NaN             NaN
             NaN             NaN             NaN
             NaN             NaN             NaN
             NaN             NaN             NaN
             NaN             NaN             NaN
             NaN             NaN             NaN
             NaN             NaN             NaN
             NaN             NaN             NaN
             NaN             NaN             NaN
             NaN             NaN             NaN
             NaN             NaN             NaN
             NaN             NaN             NaN
             NaN             NaN             NaN
             NaN             NaN             NaN
             NaN             NaN             NaN
             NaN             NaN             NaN
             NaN             NaN             NaN
             NaN             NaN             NaN
             NaN             NaN             NaN
             NaN             NaN             NaN
             NaN             NaN             NaN
             NaN             NaN             NaN
             NaN             NaN             NaN
             NaN             NaN             NaN
             NaN             NaN             NaN
             NaN             NaN             NaN
             NaN             NaN             NaN
             NaN             NaN             NaN
             NaN             NaN             NaN
             NaN             NaN             NaN
             NaN             NaN             NaN
             NaN             NaN             NaN
             NaN             NaN             NaN
             NaN             NaN             NaN
             NaN             NaN             NaN
             NaN             NaN             NaN
             NaN             NaN             NaN
             NaN             NaN             NaN
             NaN             NaN             NaN
             NaN             NaN             NaN
             NaN             NaN             NaN
             NaN             NaN             NaN
             NaN             NaN             NaN
             NaN             NaN             NaN
             NaN             NaN             NaN
             NaN             NaN             NaN
             NaN             NaN             NaN
             NaN             NaN             NaN
             NaN             NaN             NaN
             NaN             NaN             NaN
             NaN             NaN             NaN
