Li46 P16 O64
1.0
10.493845 -0.007424 -0.029174
-0.008621 12.289474 -0.014859
-0.027346 -0.011962 9.882819
Li P O
46 16 64
direct
0.164477 0.250107 0.149237 Li
0.664621 0.252063 0.600910 Li
0.662696 0.749102 0.096763 Li
0.664062 0.751592 0.599157 Li
0.164307 0.497164 0.151612 Li
0.165268 0.498743 0.652493 Li
0.163744 -0.005869 0.154063 Li
0.165361 -0.001435 0.652846 Li
0.337177 0.000566 0.401261 Li
0.338263 0.002165 0.907784 Li
0.340180 0.498384 0.396309 Li
0.339591 0.495444 0.909502 Li
0.830675 0.249591 0.342800 Li
0.832355 0.248734 0.854698 Li
0.835986 0.748013 0.347639 Li
0.836297 0.748657 0.847598 Li
0.339562 0.251995 0.396425 Li
0.341621 0.253764 0.911401 Li
0.337588 0.749773 0.400429 Li
0.337583 0.750455 0.905372 Li
0.837100 0.002597 0.346996 Li
0.837422 0.002536 0.848255 Li
0.831560 0.500101 0.346809 Li
0.832713 0.499478 0.849676 Li
0.652388 0.489017 0.092913 Li
0.665337 0.503461 0.596796 Li
0.665540 1.002701 0.099843 Li
0.663667 1.002197 0.598598 Li
0.165472 0.251220 0.652928 Li
0.165024 0.750572 0.151859 Li
0.164732 0.751253 0.653130 Li
0.917401 0.373328 0.146923 Li
0.922389 0.374207 0.649084 Li
0.922476 0.875227 0.149136 Li
0.923746 0.875669 0.648889 Li
0.426163 0.375926 0.604691 Li
0.430461 0.876210 0.102081 Li
0.426197 0.876350 0.601151 Li
0.077146 0.125961 0.347686 Li
0.078697 0.125841 0.854477 Li
0.075984 0.623290 0.350224 Li
0.076960 0.623403 0.852419 Li
0.575100 0.131191 0.392994 Li
0.575373 0.136315 0.914683 Li
0.575155 0.622757 0.399536 Li
0.573162 0.622343 0.898741 Li
0.916549 0.124162 0.096792 P
0.914175 0.124871 0.595388 P
0.910100 0.624790 0.095320 P
0.913282 0.625564 0.595510 P
0.405669 0.115983 0.154155 P
0.411461 0.124452 0.655079 P
0.408744 0.630034 0.152629 P
0.410166 0.627372 0.654815 P
0.087083 0.375609 0.404561 P
0.086603 0.375248 0.904370 P
0.087459 0.874026 0.405628 P
0.087939 0.874008 0.904870 P
0.589903 0.377036 0.348901 P
0.586729 0.374994 0.832998 P
0.591239 0.874968 0.346870 P
0.590825 0.875784 0.845291 P
0.845072 0.021361 0.147349 O
0.843869 0.021929 0.645812 O
0.839159 0.523099 0.144988 O
0.844247 0.523908 0.648566 O
0.328815 0.209905 0.095973 O
0.340415 0.225571 0.601663 O
0.345040 0.738414 0.108236 O
0.341444 0.730977 0.603316 O
0.156096 0.273164 0.352347 O
0.156647 0.273152 0.852886 O
0.157056 0.771489 0.354079 O
0.158082 0.771415 0.854004 O
0.659282 0.480784 0.406189 O
0.654392 0.477345 0.892727 O
0.660437 0.978022 0.398398 O
0.662331 0.976814 0.897763 O
0.157709 0.478096 0.354020 O
0.156198 0.477839 0.852811 O
0.157101 0.976490 0.355863 O
0.158808 0.976163 0.854837 O
0.659669 0.274666 0.405503 O
0.655600 0.271448 0.876227 O
0.660242 0.772316 0.399941 O
0.658905 0.771507 0.895126 O
0.856023 0.226942 0.151392 O
0.845568 0.226727 0.648125 O
0.841038 0.728112 0.146273 O
0.843422 0.728462 0.646261 O
0.337415 0.007873 0.112574 O
0.342074 0.020438 0.603639 O
0.329133 0.536720 0.097074 O
0.340229 0.526149 0.600012 O
0.541383 0.111538 0.102079 O
0.548855 0.124489 0.601519 O
0.546359 0.626928 0.098800 O
0.548853 0.628847 0.604812 O
0.056647 0.118171 0.145092 O
0.052672 0.123449 0.648079 O
0.048266 0.625101 0.148690 O
0.051888 0.626253 0.647366 O
0.452329 0.375970 0.406199 O
0.445269 0.375261 0.867948 O
0.452891 0.874855 0.397983 O
0.452614 0.875829 0.896317 O
0.948492 0.377146 0.353747 O
0.948096 0.375313 0.851599 O
0.949052 0.873980 0.353118 O
0.950220 0.874434 0.850187 O
0.593411 0.379872 0.197876 O
0.596215 0.381676 0.676638 O
0.594627 0.873500 0.190935 O
0.591632 0.876209 0.688718 O
0.086007 0.375487 0.060402 O
0.089088 0.375174 0.561212 O
0.085918 0.872396 0.060808 O
0.088209 0.873749 0.561987 O
0.406672 0.123086 0.311433 O
0.410479 0.124411 0.811027 O
0.411333 0.626902 0.309546 O
0.407623 0.626664 0.810874 O
0.913155 0.125123 0.439109 O
0.913606 0.123651 0.939813 O
0.911648 0.625027 0.439217 O
0.910671 0.625497 0.938755 O
