Li7 Mn16 O32                            
   1.00000000000000     
     8.1529260000000008    0.0000390000000000   -0.0000840000000000
     0.0000390000000000    8.1528989999999997   -0.0001070000000000
    -0.0000840000000000   -0.0001070000000000    8.1528980000000004
   Li   Mn   O 
     7    16    32
Direct
  0.3111817485842079  0.4388230995246292  0.8111780100130880
  0.8774016715958367  0.8726026014014833  0.8727479671307368
  0.1257683793123092  0.1263805603511480  0.1236181546876465
  0.8774013631354348  0.3772531393322546  0.3773981302540216
  0.3727509380772238  0.8726029050555832  0.3773981910185111
  0.6236149503359237  0.1263805918974538  0.6257715670177184
  0.6236149921974589  0.6242271451028018  0.1236182305100459
  0.5002746789594811  0.2497253591218944  0.2481908425138207
  0.2497963190571684  0.5002036508874317  0.2517940984816917
  0.2495891486594516  0.2497960670737940  0.4982623986040712
  0.5002040599117833  0.5004106007730839  0.4982623586183589
  0.5002035046655345  0.7517383445823905  0.7495898941416628
  0.7517940402291018  0.5002034034712164  0.7497962957513260
  0.7521096079373319  0.7500461407100860  0.4999541011865898
  0.2497974928505154  0.9982050284667821  0.7497972173039664
  0.2495897430741831  0.7517377195448773  1.0002032955390279
  0.5002742954346922  0.0018083505322025  0.0002740245518290
  0.7499853542258054  0.0000150253183842  0.2499850589790923
  0.7481909858513922  0.2497254848805137  0.0002743473902019
 -0.0017378370142047  0.2497960134336771  0.7495894934190712
 -0.0017371837654645  0.5004105198257041  1.0002039853172402
 -0.0000459049930830  0.7500462128228523  0.2521091001888464
 -0.0000464455246446  0.9978907551106224  0.4999534009400344
  0.7373722490669817  0.0126275927364324  0.0128340074757193
  0.0125199913876625  0.7374798220016858  0.0137049516207149
  0.0128526094254612  0.0119451318821053  0.7365212743565951
  0.7380550459194883  0.7371485743427382  0.7365221509948465
  0.2631361811510702  0.9882264644457702  0.9872749458678401
  0.9860676560433974  0.2628047588070764  0.9871946886245691
  0.9870012687093274  0.9875220886627259  0.2624788429398606
  0.2631358473568891  0.2627241438831084  0.2617739728592933
  0.7380544489395238  0.5134773571513541  0.5128520532423814
  0.0125205507348813  0.2362954867827392  0.5125207371605285
  0.0128527529787836  0.5134777874975095  0.2380536901549660
  0.7373721939740029  0.2371668221100696  0.2373718159544466
  0.2658800773153165  0.4841202468003634  0.4864430385904479
  0.9849576697034154  0.7650420887569205  0.4849578479608561
  0.9864410266203024  0.4841186935946168  0.7658812190712845
  0.2658794424222803  0.7635562922182610  0.7658791388235973
  0.2365219860627321  0.0119446662057595  0.5128520168021935
  0.5137045388208525  0.7374799542397241  0.5125201225275963
  0.5128345518658342  0.0126285961473146  0.2373710399232514
  0.2365224835826575  0.7371485768887380  0.2380549729880236
  0.7624774331446407  0.9875232116757281  0.4870017015821680
  0.4871949630508889  0.2628048175127218  0.4860674989299011
  0.4872742771455676  0.9882256842523601  0.7631371489111457
  0.7617734469057659  0.2627238227399347  0.7631363551051275
  0.2344168325214621  0.5155821844119973  0.0139080230854971
  0.5139524465748619  0.2360482527076561  0.0139524148986617
  0.5139084382406814  0.5155833327327800  0.7344156348166414
  0.2344172230748656  0.2360928645752746  0.7344173912464965
  0.7617739760172219  0.4868638910162093  0.9872749962772357
  0.4871946372005960  0.7639314941539560  0.9871943200711626
  0.4872743501981224  0.4868636574330434  0.2617751372864486
  0.7624771366207533  0.7629970000717303  0.2624772112655591
 
             NaN             NaN             NaN
             NaN             NaN             NaN
             NaN             NaN             NaN
             NaN             NaN             NaN
             NaN             NaN             NaN
             NaN             NaN             NaN
             NaN             NaN             NaN
             NaN             NaN             NaN
             NaN             NaN             NaN
             NaN             NaN             NaN
             NaN             NaN             NaN
             NaN             NaN             NaN
             NaN             NaN             NaN
             NaN             NaN             NaN
             NaN             NaN             NaN
             NaN             NaN             NaN
             NaN             NaN             NaN
             NaN             NaN             NaN
             NaN             NaN             NaN
             NaN             NaN             NaN
             NaN             NaN             NaN
             NaN             NaN             NaN
             NaN             NaN             NaN
             NaN             NaN             NaN
             NaN             NaN             NaN
             NaN             NaN             NaN
             NaN             NaN             NaN
             NaN             NaN             NaN
             NaN             NaN             NaN
             NaN             NaN             NaN
             NaN             NaN             NaN
             NaN             NaN             NaN
             NaN             NaN             NaN
             NaN             NaN             NaN
             NaN             NaN             NaN
             NaN             NaN             NaN
             NaN             NaN             NaN
             NaN             NaN             NaN
             NaN             NaN             NaN
             NaN             NaN             NaN
             NaN             NaN             NaN
             NaN             NaN             NaN
             NaN             NaN             NaN
             NaN             NaN             NaN
             NaN             NaN             NaN
             NaN             NaN             NaN
             NaN             NaN             NaN
             NaN             NaN             NaN
             NaN             NaN             NaN
             NaN             NaN             NaN
             NaN             NaN             NaN
             NaN             NaN             NaN
             NaN             NaN             NaN
             NaN             NaN             NaN
             NaN             NaN             NaN
