Li7 Mn16 O32
1.0
8.152926 0.000039 -0.000084
0.000039 8.152899 -0.000107
-0.000084 -0.000107 8.152898
Li Mn O
7 16 32
direct
0.311168 0.438830 0.811170 Li
0.877004 0.872993 0.872997 Li
0.125678 0.125676 0.124324 Li
0.877004 0.377002 0.377006 Li
0.372994 0.872995 0.377006 Li
0.624327 0.125675 0.625674 Li
0.624327 0.624325 0.124323 Li
0.500068 0.249931 0.249483 Mn
0.249951 0.500049 0.250853 Mn
0.249951 0.251304 0.500498 Mn
0.498700 0.500049 0.500498 Mn
0.498701 0.749504 0.749953 Mn
0.750854 0.500049 0.749951 Mn
0.751308 0.749958 0.500042 Mn
0.249952 -0.000854 0.749952 Mn
0.249952 0.749502 0.998698 Mn
0.500066 0.000516 1.000068 Mn
0.749937 1.000063 0.249939 Mn
0.749481 0.249931 1.000069 Mn
0.000497 0.251303 0.749951 Mn
0.000498 0.500048 0.998697 Mn
1.000043 0.749957 0.251308 Mn
1.000041 0.998692 0.500041 Mn
0.737291 0.012708 0.012852 O
0.013151 0.736851 0.012978 O
0.013149 0.012832 0.736709 O
0.737166 0.736850 0.736706 O
0.263193 0.987338 0.987231 O
0.986916 0.262766 0.987230 O
0.986957 0.987380 0.262618 O
0.263191 0.262766 0.262663 O
0.737166 0.513293 0.513150 O
0.013149 0.237024 0.513150 O
0.013149 0.513291 0.237167 O
0.737289 0.237150 0.237290 O
0.264765 0.485236 0.485343 O
0.985382 0.764616 0.485383 O
0.985343 0.485236 0.764764 O
0.264766 0.764658 0.764765 O
0.236708 0.012833 0.513151 O
0.512977 0.736851 0.513150 O
0.512852 0.012709 0.237290 O
0.236707 0.736850 0.237165 O
0.762619 0.987380 0.486955 O
0.487231 0.262766 0.486915 O
0.487233 0.987341 0.763192 O
0.762662 0.262766 0.763190 O
0.236183 0.513817 0.013501 O
0.513377 0.236623 0.013378 O
0.513501 0.513817 0.736184 O
0.236182 0.236499 0.736183 O
0.762661 0.486811 0.987232 O
0.487232 0.763086 0.987231 O
0.487232 0.486810 0.262660 O
0.762620 0.763044 0.262621 O
