Na47 P16 S64
1.0
13.688319 -0.014471 0.000041
-0.014531 13.713055 -0.000114
0.000036 0.000196 14.041188
Na P S
47 16 64
direct
0.676257 0.750740 0.746335 Na
0.999974 0.250091 0.206928 Na
0.999839 0.250068 0.705742 Na
0.999901 0.750096 0.211863 Na
0.996603 0.750435 0.715449 Na
0.500031 0.249911 0.209200 Na
0.500154 0.249931 0.708445 Na
0.500117 0.749907 0.209119 Na
0.249871 0.999708 0.289034 Na
0.247824 0.998861 0.787084 Na
0.251288 0.500877 0.294835 Na
0.250720 0.503100 0.792452 Na
0.748707 0.999043 0.294236 Na
0.748910 0.993667 0.790809 Na
0.750134 0.500372 0.288432 Na
0.752545 0.504383 0.785436 Na
0.252546 0.998584 0.037166 Na
0.245278 1.001557 0.538065 Na
0.247890 0.499325 0.044998 Na
0.253736 0.503526 0.544981 Na
0.752141 1.000674 0.044064 Na
0.746188 0.996716 0.544003 Na
0.747430 0.501418 0.036238 Na
0.754772 0.498203 0.537095 Na
0.500029 0.250315 0.459994 Na
0.500258 0.249420 0.957318 Na
0.500033 0.750340 0.475183 Na
0.500017 0.749346 0.946025 Na
0.999967 0.249696 0.455857 Na
0.999745 0.250584 0.956077 Na
0.999966 0.749666 0.464499 Na
0.999984 0.750648 0.960399 Na
0.993954 1.001369 0.500607 Na
0.000562 0.005106 -0.000147 Na
0.006716 0.497389 0.500142 Na
0.999720 0.496751 0.999398 Na
0.496050 -0.002079 0.500715 Na
0.506376 0.998747 1.000238 Na
0.503268 0.503342 0.501176 Na
0.493355 0.499401 0.000697 Na
0.248968 0.252057 0.249859 Na
0.248644 0.252834 0.750046 Na
0.252106 0.749061 0.249891 Na
0.295895 0.748822 0.750135 Na
0.751041 0.247945 0.249738 Na
0.751354 0.247171 0.750090 Na
0.747917 0.750939 0.249772 Na
0.499886 0.499978 0.250605 P
0.500879 0.499878 0.750478 P
0.500015 -0.000054 0.250569 P
0.498790 0.999743 0.749683 P
0.000706 0.499693 0.249824 P
0.001799 0.498148 0.749625 P
-0.000602 0.000376 0.249858 P
0.998512 0.002224 0.750417 P
0.250089 0.250535 -0.000063 P
0.249354 0.251419 0.499457 P
0.250832 0.747570 0.000335 P
0.249397 0.752958 0.499230 P
0.749919 0.249464 0.999857 P
0.750646 0.248583 0.499282 P
0.749170 0.752432 0.000498 P
0.750606 0.747039 0.498819 P
0.154346 0.173342 0.083013 S
0.152650 0.174963 0.581847 S
0.152872 0.674537 0.084398 S
0.156183 0.677207 0.585491 S
0.653322 0.173975 0.083533 S
0.654058 0.173770 0.582906 S
0.653181 0.674843 0.082643 S
0.655078 0.667032 0.577908 S
0.346810 0.325877 0.083546 S
0.345901 0.326345 0.583036 S
0.347075 0.824848 0.082387 S
0.345000 0.832548 0.578626 S
0.845534 0.326801 0.083008 S
0.847390 0.324920 0.581719 S
0.846876 0.825769 0.084652 S
0.843742 0.823216 0.584771 S
0.173594 0.348507 0.417179 S
0.173768 0.347755 0.918540 S
0.170919 0.844884 0.413387 S
0.177300 0.840778 0.912935 S
0.675212 0.344316 0.415247 S
0.674780 0.344651 0.915636 S
0.673019 0.843877 0.417112 S
0.672073 0.852394 0.922490 S
0.324920 0.155766 0.415434 S
0.325218 0.155240 0.915756 S
0.326950 0.656068 0.417555 S
0.327392 0.647386 0.922023 S
0.826281 0.151407 0.417002 S
0.826238 0.152338 0.918416 S
0.829108 0.655147 0.412949 S
0.823245 0.659438 0.913410 S
0.097400 0.423109 0.167768 S
0.100807 0.422499 0.669009 S
0.094654 0.924877 0.165325 S
0.091964 0.926016 0.665279 S
0.594877 0.424521 0.165651 S
0.596471 0.423911 0.666113 S
0.597661 0.924348 0.168906 S
0.592323 0.921752 0.666604 S
0.405000 0.075378 0.165633 S
0.402993 0.076536 0.666241 S
0.402150 0.575585 0.168974 S
0.407131 0.578902 0.668386 S
0.902728 0.076989 0.167789 S
0.899709 0.077060 0.668895 S
0.905546 0.575195 0.165263 S
0.908566 0.573335 0.663511 S
0.076272 0.096104 0.332964 S
0.076975 0.099482 0.830871 S
0.076399 0.595864 0.333311 S
0.074604 0.593930 0.835315 S
0.574843 0.096726 0.334388 S
0.577158 0.096868 0.830763 S
0.576316 0.596088 0.333073 S
0.578763 0.589007 0.838730 S
0.425071 0.403271 0.334497 S
0.422838 0.401885 0.830925 S
0.423576 0.903833 0.333092 S
0.421051 0.909728 0.837226 S
0.923809 0.403896 0.332853 S
0.922998 0.401762 0.830715 S
0.923708 0.904213 0.333291 S
0.925576 0.907335 0.836824 S
