Na47 P16 S64
1.0
13.680531 -0.006203 0.000014
-0.006245 13.691135 -0.000249
-0.000080 0.000158 14.075245
Na P S
47 16 64
direct
0.591093 0.748314 0.730834 Na
0.999862 0.250455 0.206551 Na
0.999207 0.250349 0.705898 Na
0.999465 0.750477 0.211405 Na
0.983003 0.752190 0.717592 Na
0.500143 0.249547 0.207523 Na
0.500787 0.249653 0.707060 Na
0.500549 0.749530 0.210229 Na
0.249527 0.999753 0.291718 Na
0.248747 0.998787 0.791028 Na
0.250963 0.500505 0.294205 Na
0.250623 0.502050 0.793329 Na
0.749015 0.999091 0.291211 Na
0.747530 0.981740 0.785086 Na
0.750478 0.500660 0.288719 Na
0.753097 0.517432 0.782783 Na
0.252474 0.999247 0.041048 Na
0.245314 0.999490 0.542127 Na
0.247712 0.499853 0.044404 Na
0.254265 0.502688 0.545090 Na
0.752430 1.000136 0.039759 Na
0.745401 0.998525 0.540214 Na
0.747383 0.500753 0.036404 Na
0.755011 0.499294 0.537254 Na
0.500161 0.251526 0.457736 Na
0.501284 0.247089 0.955896 Na
0.500167 0.751659 0.468489 Na
0.500071 0.746751 0.955512 Na
0.999834 0.248491 0.455962 Na
0.998713 0.252915 0.955367 Na
0.999841 0.748347 0.463908 Na
0.999926 0.753245 0.961676 Na
0.994719 0.998392 0.501476 Na
0.003712 0.007980 0.000816 Na
0.008666 0.495416 0.499183 Na
0.997677 0.501301 0.998523 Na
0.492520 0.002580 0.499433 Na
0.504939 0.996767 0.998887 Na
0.504091 0.503644 0.501720 Na
0.493681 0.493962 0.001175 Na
0.249564 0.250896 0.249939 Na
0.249412 0.251211 0.750019 Na
0.250913 0.749600 0.250507 Na
0.269685 0.749488 0.749849 Na
0.750448 0.249109 0.249331 Na
0.750583 0.248790 0.750245 Na
0.749103 0.750395 0.249906 Na
0.499892 0.499595 0.250341 P
0.500527 0.498380 0.752024 P
0.499617 0.000025 0.250158 P
0.497918 0.999736 0.748042 P
0.000692 0.499812 0.249845 P
0.002333 0.499357 0.748020 P
-0.000209 0.000547 0.250022 P
0.999208 0.002515 0.752002 P
0.250036 0.250231 0.000005 P
0.249716 0.250610 0.499734 P
0.250357 0.748961 0.000954 P
0.249740 0.751270 0.500001 P
0.749961 0.249773 0.999606 P
0.750271 0.249396 0.498881 P
0.749639 0.751039 0.001774 P
0.750263 0.748727 0.497935 P
0.153695 0.173801 0.082937 S
0.152843 0.174568 0.582062 S
0.152690 0.674905 0.084350 S
0.154819 0.675541 0.584180 S
0.653855 0.173409 0.083130 S
0.653269 0.174578 0.581939 S
0.653996 0.673631 0.084789 S
0.654729 0.669236 0.577655 S
0.346802 0.325869 0.083164 S
0.346526 0.325988 0.582580 S
0.347288 0.824837 0.083491 S
0.345693 0.828641 0.581242 S
0.845655 0.326923 0.082912 S
0.847349 0.324862 0.581433 S
0.846019 0.826626 0.085654 S
0.844780 0.826585 0.580595 S
0.173906 0.347530 0.417145 S
0.174056 0.347323 0.918100 S
0.172102 0.845373 0.415539 S
0.176091 0.844512 0.916274 S
0.675186 0.346099 0.415492 S
0.674497 0.345537 0.916302 S
0.672857 0.844735 0.415111 S
0.671396 0.848475 0.922514 S
0.325455 0.154304 0.416398 S
0.325511 0.153959 0.916906 S
0.326991 0.655032 0.417333 S
0.325924 0.650406 0.920175 S
0.825447 0.152059 0.416245 S
0.825939 0.153169 0.917490 S
0.828062 0.654840 0.413322 S
0.826598 0.656583 0.918628 S
0.097199 0.423686 0.167178 S
0.101784 0.421864 0.669542 S
0.095960 0.924782 0.166608 S
0.092295 0.923249 0.668673 S
0.595555 0.423838 0.166362 S
0.597574 0.424500 0.667782 S
0.596388 0.924241 0.167833 S
0.590028 0.924379 0.661104 S
0.403832 0.075668 0.166265 S
0.399844 0.077728 0.668358 S
0.402666 0.575412 0.168170 S
0.407315 0.578857 0.670006 S
0.903411 0.076803 0.167283 S
0.900785 0.075918 0.668979 S
0.904984 0.575558 0.166281 S
0.910354 0.573515 0.659780 S
0.076053 0.096644 0.333132 S
0.077915 0.101219 0.830408 S
0.076555 0.595985 0.333192 S
0.074864 0.596488 0.832833 S
0.575096 0.096853 0.333267 S
0.578115 0.094398 0.829632 S
0.576040 0.595715 0.333010 S
0.575839 0.588608 0.841183 S
0.424522 0.403095 0.333792 S
0.422008 0.399373 0.830433 S
0.423442 0.903885 0.333094 S
0.423273 0.905080 0.833639 S
0.924329 0.403416 0.332613 S
0.921956 0.405016 0.829609 S
0.923971 0.904416 0.333107 S
0.926020 0.909828 0.840364 S
