Mg7 Sc16 Se32
1.0
11.208213 0.000000 0.000001
0.000000 11.208213 -0.000000
0.000001 -0.000000 11.208213
Mg Sc Se
7 16 32
direct
0.499943 0.499943 0.499943 Mg
0.623789 0.126211 0.126211 Mg
0.126211 0.623789 0.126211 Mg
0.126211 0.126211 0.623789 Mg
0.376154 0.873846 0.873846 Mg
0.873846 0.376154 0.873846 Mg
0.873846 0.873846 0.376154 Mg
0.996880 0.749942 0.749942 Sc
0.749942 0.996880 0.749942 Sc
0.749942 0.749942 0.996880 Sc
1.000025 1.000025 1.000025 Sc
0.003277 0.250088 0.250088 Sc
0.250088 0.003277 0.250088 Sc
0.250088 0.250088 0.003277 Sc
0.746691 0.499945 0.253233 Sc
0.746691 0.253233 0.499945 Sc
0.000131 0.499945 0.499945 Sc
0.253233 0.499945 0.746691 Sc
0.253233 0.746691 0.499945 Sc
0.499945 0.746691 0.253233 Sc
0.499945 0.000131 0.499945 Sc
0.499945 0.253233 0.746691 Sc
0.499945 0.499945 0.000131 Sc
0.757561 0.992982 0.992982 Se
0.992982 0.757561 0.992982 Se
0.992982 0.992982 0.757561 Se
0.756764 0.756764 0.756764 Se
0.242456 0.007087 0.007087 Se
0.007087 0.242456 0.007087 Se
0.007087 0.007087 0.242456 Se
0.243453 0.243453 0.243453 Se
0.758284 0.493149 0.493150 Se
0.991462 0.257104 0.492353 Se
0.991462 0.492353 0.257104 Se
0.759081 0.257104 0.257104 Se
0.241998 0.506618 0.506618 Se
0.008542 0.742842 0.507615 Se
0.008542 0.507615 0.742842 Se
0.241002 0.742842 0.742842 Se
0.257104 0.991462 0.492353 Se
0.493149 0.758284 0.493149 Se
0.492353 0.991462 0.257104 Se
0.257104 0.759081 0.257104 Se
0.742842 0.008542 0.507615 Se
0.506618 0.241998 0.506618 Se
0.507615 0.008542 0.742842 Se
0.742842 0.241002 0.742842 Se
0.257104 0.492353 0.991462 Se
0.492353 0.257104 0.991462 Se
0.493149 0.493149 0.758284 Se
0.257104 0.257104 0.759081 Se
0.742842 0.507615 0.008542 Se
0.507615 0.742842 0.008542 Se
0.506618 0.506618 0.241998 Se
0.742842 0.742842 0.241002 Se
