Mg15 Mn32 O64                           
   1.00000000000000     
    11.4988899999999994   -0.0000130000000000   -0.0004310000000000
    -0.0000190000000000   11.5151020000000006    0.0000000000000000
    -0.0000360000000000    0.0000020000000000    9.1713939999999994
   Mg   Mn   O 
    15    32    64
Direct
  0.5022348269204536  0.6169403557191195  0.6151188588521708
  0.5001403507887370  0.2422017928064445  0.7415264615470752
 -0.0009210071305500  0.2409287877714703  0.7384907903027189
  0.9993353017237475  0.7414477312110305  0.7418971867157665
  0.5007551044843903  0.9884026708537264  0.4873288911011057
  1.0000741882884534  0.9899404207372936  0.4927030136428994
  0.0002447759137777  0.4901602523007672  0.4902947924814877
  0.2487031736024660  0.9916066410864355  0.2434527273628563
  0.2511843520546315  0.4908856572291834  0.2386118440102216
  0.7525925994947161  0.9924684186868337  0.2434699654930167
  0.7458334492796419  0.4903470213053919  0.2418293524705921
  0.2496177318216045  0.2391770388089899  0.9900956591307001
  0.2510900401414167  0.7413647433836824  0.9885799374634857
  0.7535930050215482  0.2381738572150460  0.9887228980336368
  0.7484329743546799  0.7412392677303939  0.9887189037883649
  0.1257028532416854  0.2411969228504987  0.3677349132627201
  0.1245564341137599  0.7405959223185316  0.3661569941787209
  0.6244832188467216  0.2416115812556774  0.3607421394541105
  0.6266493250976958  0.7420547387588283  0.3614105944990890
  0.3762279797944650  0.2418256737324806  0.3629274776441231
  0.3732732867560205  0.7421645154860904  0.3619768800380607
  0.8750180057277608  0.2410396458406967  0.3679032046891331
  0.8752421508553624  0.7409534475372723  0.3659145803766811
  0.1255813805399655  0.9913330754690742  0.8657428939336240
  0.1227233136849828  0.4893414303547776  0.8676765553193628
  0.6255604092678584  0.9886905068788143  0.8681414755353137
  0.6247951566664350  0.4889345525611707  0.8668890712206617
  0.3767924838752634  0.9893011618614871  0.8682747641853706
  0.3724030043507870  0.4919706494491571  0.8687051689409788
  0.8756646532622983  0.9909864097186607  0.8649335161480313
  0.8743353471753563  0.4905929529512377  0.8673305035409477
  0.0003784828837286  0.1164659504863950  0.1175172517053865
  0.9995693135478934  0.6164454201953353  0.1170884194981161
  0.5034655592047318  0.1154835782789858  0.1172936700665678
  0.4973655316759409  0.6192482781215503  0.1092150663376647
 -0.0001640668322570  0.3664582849931464  0.1179549193666086
  1.0000671584616225  0.8664708872640451  0.1165080919625136
  0.4993701303574009  0.3641426821652680  0.1150434318775340
  0.5001937500682434  0.8694298465469708  0.1172949631606197
  0.2526853903685407  0.3655171808602304  0.6176073080163512
  0.2530045675127698  0.8629505731668080  0.6176260900710699
  0.7463813682236583  0.3681725890064758  0.6128656565934354
  0.7471975517318830  0.8635246377112142  0.6167018069483898
  0.2522396276699804  0.1141094966834076  0.6158979454181166
  0.2475447835895467  0.6153954656256921  0.6161314311233463
  0.7480905969276568  0.1156052141013865  0.6153725328787676
  0.7532549033660934  0.6155224917481016  0.6157304846267626
  0.1386948207033858  0.2400227606541020  0.6123129150744832
  0.1364546834891747  0.7415886991586471  0.6125423031574181
  0.6356158176290758  0.2417566011250032  0.6111661436029903
  0.6366258382000735  0.7352740504595345  0.5986267787753057
  0.3634610822291438  0.2413323189336150  0.6124840206072989
  0.3631012149049663  0.7327517439682458  0.5999246190584416
  0.8608282482184536  0.2417628575298633  0.6114789521421762
  0.8638762445352465  0.7422354058069005  0.6114644748521989
  0.1385337944087369  0.4882284743088590  0.6200300343702653
  0.1395028656635170  0.9892680879951549  0.6199268508535433
  0.6363701391407031  0.4973330341551023  0.6305029813048358
  0.6348329567039984  0.9884414104117506  0.6214113152313325
  0.3661726969073457  0.4944954399691123  0.6566185976996242
  0.3656160330301147  0.9875240811667551  0.6207251519148617
  0.8637520742687698  0.4885123164267624  0.6203636792578721
  0.8610522871503860  0.9899637043949427  0.6195814417258527
  0.5013061889824519  0.1017845912101363  0.8687795514522696
  0.4973356443415446  0.5964655938919733  0.8584157298375614
  0.0007900871635461  0.1044006618902454  0.8689142996960537
  0.0002154574313133  0.6032126265685093  0.8692368124986496
  0.4932931961286468  0.3759046517400096  0.8813934673401093
  0.5003441394802693  0.8794165202140199  0.9108230128661123
  0.9990572890329257  0.3766876639776974  0.8703517076470555
  0.0007038752641087  0.8784892726897364  0.8700688275082840
  0.4995314492372003  0.3498663320357280  0.3332027852827237
  0.4998390185893632  0.8611459655855914  0.3347133537268654
  0.0009181939272777  0.3533988434512209  0.3622914458318089
  1.0001791164970442  0.8542187576799143  0.3612236053652053
  0.4999124722997888  0.1269948308931849  0.3613648534722130
  0.4988759149331167  0.6365069788680766  0.3704086008612370
  0.0004698833475088  0.1275428479728768  0.3634799918635791
  1.0003631577657275  0.6278518307589913  0.3621760187532137
  0.3771840646093298  0.5011140716082233  0.0835617859741284
  0.3888839674404542  0.9911364339638077  0.1178871462596924
  0.8860018555035893  0.4909969837529690  0.1130592935042392
  0.8872504492995907  0.9918176298147495  0.1113755273719314
  0.1136225074035199  0.9914851249622945  0.1116486402304145
  0.1122836922255647  0.4909048472945344  0.1118306637941787
  0.6137773255454686  0.9872776917167733  0.1173723594586542
  0.6070544324984076  0.4922059131459019  0.1112234197679928
  0.3890661464264675  0.2404387625972103  0.1142883146621982
  0.3879789734144437  0.7459654703455286  0.1191005847286390
  0.8881661889934730  0.2408739280302215  0.1209589165231032
  0.8868359277794852  0.7417784767109745  0.1184669638175811
  0.1140056157042505  0.2411689028555778  0.1211490961736825
  0.1134422663895699  0.7410266313460482  0.1187677901421490
  0.6198626212777608  0.2310003741580079  0.1170652159074332
  0.6101678547530994  0.7434519265630014  0.1187902496486383
  0.2511196327879504  0.3556350756197960  0.3715584920165593
  0.2491635120656893  0.8534048423416218  0.3686969472036157
  0.7505700252446156  0.3538954090109258  0.3695281495664314
  0.7502704555375718  0.8538852585208939  0.3677600377270733
  0.2505131799180044  0.1285493064879225  0.3713375426931584
  0.2475098484990478  0.6255113784205768  0.3695690380880602
  0.7502896823808173  0.1280214426309217  0.3729710487293834
  0.7530473874447703  0.6275801688836929  0.3665180621091060
  0.2518243104171268  0.1032123061719560  0.8603897377075813
  0.2490304304951276  0.6021444702881641  0.8635517929440610
  0.7505410778560115  0.1024390210578282  0.8591023078035984
  0.7517902743939791  0.6035823835534498  0.8645554273168636
  0.2501060195574267  0.3787651229497568  0.8651605598366451
  0.2507794531521633  0.8780787072242583  0.8615472803784303
  0.7483827783580129  0.3773953337673774  0.8641754531993484
  0.7504179842202061  0.8777009412028433  0.8613950618290005
 
             NaN             NaN             NaN
             NaN             NaN             NaN
             NaN             NaN             NaN
             NaN             NaN             NaN
             NaN             NaN             NaN
             NaN             NaN             NaN
             NaN             NaN             NaN
             NaN             NaN             NaN
             NaN             NaN             NaN
             NaN             NaN             NaN
             NaN             NaN             NaN
             NaN             NaN             NaN
             NaN             NaN             NaN
             NaN             NaN             NaN
             NaN             NaN             NaN
             NaN             NaN             NaN
             NaN             NaN             NaN
             NaN             NaN             NaN
             NaN             NaN             NaN
             NaN             NaN             NaN
             NaN             NaN             NaN
             NaN             NaN             NaN
             NaN             NaN             NaN
             NaN             NaN             NaN
             NaN             NaN             NaN
             NaN             NaN             NaN
             NaN             NaN             NaN
             NaN             NaN             NaN
             NaN             NaN             NaN
             NaN             NaN             NaN
             NaN             NaN             NaN
             NaN             NaN             NaN
             NaN             NaN             NaN
             NaN             NaN             NaN
             NaN             NaN             NaN
             NaN             NaN             NaN
             NaN             NaN             NaN
             NaN             NaN             NaN
             NaN             NaN             NaN
             NaN             NaN             NaN
             NaN             NaN             NaN
             NaN             NaN             NaN
             NaN             NaN             NaN
             NaN             NaN             NaN
             NaN             NaN             NaN
             NaN             NaN             NaN
             NaN             NaN             NaN
             NaN             NaN             NaN
             NaN             NaN             NaN
             NaN             NaN             NaN
             NaN             NaN             NaN
             NaN             NaN             NaN
             NaN             NaN             NaN
             NaN             NaN             NaN
             NaN             NaN             NaN
             NaN             NaN             NaN
             NaN             NaN             NaN
             NaN             NaN             NaN
             NaN             NaN             NaN
             NaN             NaN             NaN
             NaN             NaN             NaN
             NaN             NaN             NaN
             NaN             NaN             NaN
             NaN             NaN             NaN
             NaN             NaN             NaN
             NaN             NaN             NaN
             NaN             NaN             NaN
             NaN             NaN             NaN
             NaN             NaN             NaN
             NaN             NaN             NaN
             NaN             NaN             NaN
             NaN             NaN             NaN
             NaN             NaN             NaN
             NaN             NaN             NaN
             NaN             NaN             NaN
             NaN             NaN             NaN
             NaN             NaN             NaN
             NaN             NaN             NaN
             NaN             NaN             NaN
             NaN             NaN             NaN
             NaN             NaN             NaN
             NaN             NaN             NaN
             NaN             NaN             NaN
             NaN             NaN             NaN
             NaN             NaN             NaN
             NaN             NaN             NaN
             NaN             NaN             NaN
             NaN             NaN             NaN
             NaN             NaN             NaN
             NaN             NaN             NaN
             NaN             NaN             NaN
             NaN             NaN             NaN
             NaN             NaN             NaN
             NaN             NaN             NaN
             NaN             NaN             NaN
             NaN             NaN             NaN
             NaN             NaN             NaN
             NaN             NaN             NaN
             NaN             NaN             NaN
             NaN             NaN             NaN
             NaN             NaN             NaN
             NaN             NaN             NaN
             NaN             NaN             NaN
             NaN             NaN             NaN
             NaN             NaN             NaN
             NaN             NaN             NaN
             NaN             NaN             NaN
             NaN             NaN             NaN
             NaN             NaN             NaN
             NaN             NaN             NaN
             NaN             NaN             NaN
