Mg15 Mn32 O64
1.0
11.498890 -0.000013 -0.000431
-0.000019 11.515102 -0.000000
-0.000036 0.000002 9.171394
Mg Mn O
15 32 64
direct
0.499905 0.655837 0.655044 Mg
0.500081 0.251179 0.747219 Mg
1.000054 0.249866 0.750739 Mg
0.999762 0.750131 0.749240 Mg
0.500060 -0.000764 0.501608 Mg
0.000128 0.000096 0.498677 Mg
0.999786 0.499904 0.501577 Mg
0.250275 1.000924 0.251415 Mg
0.252635 0.499076 0.249100 Mg
0.750658 0.000964 0.250851 Mg
0.746593 0.499036 0.249470 Mg
0.249539 0.248396 -0.000548 Mg
0.250815 0.751606 0.000782 Mg
0.751033 0.248309 0.000176 Mg
0.748733 0.751690 0.000660 Mg
0.125938 0.251216 0.375432 Mn
0.124638 0.748784 0.374331 Mn
0.624027 0.250333 0.375166 Mn
0.623406 0.749667 0.374908 Mn
0.376409 0.251015 0.374915 Mn
0.375099 0.748987 0.374064 Mn
0.875245 0.251101 0.375224 Mn
0.873938 0.748899 0.373819 Mn
0.126277 -0.000717 0.874883 Mn
0.124204 0.500717 0.876709 Mn
0.625242 -0.000168 0.874347 Mn
0.624272 0.500168 0.874713 Mn
0.376596 -0.000625 0.873847 Mn
0.374322 0.500628 0.875189 Mn
0.875870 -0.000214 0.874900 Mn
0.873661 0.500212 0.877291 Mn
0.001191 0.124970 0.125651 Mn
0.999522 0.624819 0.125894 Mn
0.500195 0.124625 0.124730 Mn
0.499837 0.625870 0.122978 Mn
1.000223 0.375388 0.126746 Mn
0.000487 0.874818 0.124790 Mn
0.499997 0.372686 0.122264 Mn
0.500034 0.876820 0.125443 Mn
0.250784 0.375350 0.626572 Mn
0.249866 0.874719 0.623678 Mn
0.749226 0.375296 0.626161 Mn
0.750217 0.874798 0.623928 Mn
0.248795 0.125060 0.624890 Mn
0.251855 0.624872 0.625360 Mn
0.751633 0.125029 0.624737 Mn
0.747811 0.624877 0.625351 Mn
0.136665 0.250921 0.621381 O
0.137420 0.749079 0.620341 O
0.638179 0.249786 0.621405 O
0.637978 0.750215 0.605911 O
0.361990 0.249991 0.621566 O
0.361702 0.750010 0.605776 O
0.863602 0.250972 0.621146 O
0.862174 0.749028 0.620291 O
0.137884 0.500490 0.630518 O
0.136433 0.999510 0.628830 O
0.638016 0.499881 0.654343 O
0.638365 0.000120 0.628361 O
0.361600 0.500025 0.654466 O
0.361959 -0.000025 0.628291 O
0.861650 0.500502 0.630489 O
0.864005 -0.000501 0.628932 O
0.500644 0.113862 0.877576 O
0.499464 0.609221 0.884267 O
0.001096 0.112798 0.879712 O
0.998905 0.613025 0.879255 O
0.499311 0.388359 0.877873 O
0.500793 0.888562 0.883970 O
0.999244 0.387605 0.879660 O
0.000756 0.886569 0.879304 O
0.500262 0.360137 0.359810 O
0.499259 0.862962 0.370712 O
1.000356 0.363782 0.371314 O
0.999529 0.862009 0.370739 O
0.500051 0.135666 0.371022 O
0.499468 0.641237 0.359499 O
1.000670 0.137769 0.370720 O
0.999214 0.636439 0.371333 O
0.385809 0.499524 0.106996 O
0.386893 1.000475 0.121829 O
0.886241 0.499982 0.122128 O
0.887798 1.000017 0.121260 O
0.113840 -0.000337 0.121203 O
0.113035 0.500335 0.121914 O
0.613643 1.000460 0.121942 O
0.613660 0.499541 0.106990 O
0.386934 0.249106 0.126143 O
0.386248 0.750893 0.134778 O
0.887751 0.250090 0.129454 O
0.886749 0.749907 0.128872 O
0.113529 0.250523 0.129541 O
0.112920 0.749477 0.129015 O
0.613332 0.249099 0.126262 O
0.613365 0.750903 0.134855 O
0.250488 0.364561 0.380967 O
0.249898 0.861479 0.376601 O
0.749865 0.364116 0.380813 O
0.749123 0.861784 0.376590 O
0.249850 0.137918 0.379868 O
0.250535 0.636042 0.377702 O
0.751149 0.137720 0.379727 O
0.747838 0.636381 0.377675 O
0.250310 0.112385 0.870014 O
0.250758 0.612938 0.874696 O
0.751411 0.112727 0.870134 O
0.747530 0.612634 0.874857 O
0.250441 0.388545 0.875384 O
0.250625 0.886133 0.869326 O
0.748032 0.388052 0.875412 O
0.750905 0.886585 0.869577 O
