Na6 P2 S8                               
   1.00000000000000     
    14.0214975612474575   -0.0192415977615975   -0.0000440542213914
    -0.0193889246397911   14.0497132185385780    0.0000162852974867
    -0.0000199932965391   -0.0000219085921360   14.3656046062653342
   Na   P    S 
    47    16    64
Direct
  0.6812534494030561  0.7503068601132441  0.7508193928855774
  0.0000105517901701  0.2499958968890669  0.2041829448642096
  0.0000031340178049  0.2500013251770337  0.7032102381645449
 -0.0000053223060720  0.7500084590242303  0.2089575369072901
  0.9999979390506014  0.7499979541547022  0.7116023770144241
  0.5000005309542250  0.2499975743390655  0.2069341904208510
  0.5000010869564446  0.2500027713221174  0.7064444206129549
  0.5000014806602823  0.7500005792244073  0.2114153557341773
  0.2489937568349490  0.9987087527201746  0.2891095185758228
  0.2471621786018583  0.9979098781843525  0.7867296008258922
  0.2524579509743980  0.5007694703548861  0.2982267989588674
  0.2506521336788010  0.5055252126561373  0.7953636783307484
  0.7475367787587567  0.9992370390760404  0.2982351778147506
  0.7493510531576820  0.9944748744872361  0.7953562758003327
  0.7510125415377286  0.5012919630887199  0.2891109130488499
  0.7528372055995054  0.5020902509574896  0.7867424051479349
  0.2537495991099394  0.9987103218647443  0.0373446835692616
  0.2420859008555633  0.0015806444146547  0.5371357506950419
  0.2472988065609176  0.4996379987838194  0.0477587889297908
  0.2559976170009718  0.5043087006481448  0.5482340903229218
  0.7527070304226512  0.0003604892396917  0.0477556646603992
  0.7439930330395960  0.9956998854724456  0.5482345075425872
  0.7462544964339386  0.5012912757155839  0.0373508741123730
  0.7579132862737247  0.4984214956749890  0.5371350979773342
  0.0000005014542628  0.2499991627681502  0.4536770773529599
  0.0000026178579314  0.2499972075493020  0.9528092190350308
  0.9999958522374021  0.7499961698011443  0.4607495968563151
  0.0000004599921537  0.7499948494502806  0.9579398145530407
  0.5000043370939549  0.2499969473490878  0.4568418922530527
  0.5000011600787775  0.2500004481916782  0.9547558888742582
  0.4999974898247641  0.7500002583017727  0.4805773445154228
  0.4999965825016245  0.7500017137858873  0.9502602706446833
  0.9882984401839898  0.0005702721889488  0.5000950769688494
  0.0004836983821618  0.0053450615019608  0.9990514706812478
  0.0116933753798312  0.4994261159595870  0.5001045086377249
 -0.0004829710344836  0.4946481415579283  0.9990570665968477
  0.4942742898782047  0.9978107318703218  0.5010889028909856
  0.5082827445646948  0.0005833694419059  0.0012026356888602
  0.5057137379947713  0.5021923617241505  0.5010870694697652
  0.4917158144904030  0.4994137378802752  0.0012041450053266
  0.2483493513315445  0.2526427007728313  0.2496423287924976
  0.2481774989827561  0.2555840043285978  0.7501668916897493
  0.2518298211747150  0.7465400303834643  0.2498081397317062
  0.3187406685326890  0.7496953985888710  0.7508247427530105
  0.7516565715406690  0.2473637511254722  0.2496403957887187
  0.7518268675465796  0.2444172553845915  0.7501657354192615
  0.7481744934003540  0.7534656458614812  0.2498046798993241
  0.9984336087770711  0.0008799295592720  0.2492395471099586
  0.9977943031178446  0.0029671329098631  0.7497284091357880
  0.0015656795355340  0.4991185609461090  0.2492438723982361
  0.0022052248364745  0.4970286504171978  0.7497369891819532
  0.4996540250132689  0.0004664024670104  0.2506980555123004
  0.4990188105967743  0.0004001626262688  0.7509089872165960
  0.5003478813188829  0.4995321733424403  0.2507009773576316
  0.5009826327395167  0.4996003862202313  0.7509041522022173
  0.2495805846898328  0.2510141748200403  0.0000667893369401
  0.2494761950678445  0.2518892660050584  0.4992299904444936
  0.2506025067758104  0.7482048543281344  0.0012791862347445
  0.2482224577690259  0.7524411108480774  0.4973029404125570
  0.7504297541464536  0.2489861014689153  0.0000617290208046
  0.7505302459664797  0.2481202487080308  0.4992310044614165
  0.7493913540039805  0.7517949103161350  0.0012700868766583
  0.7517679065386735  0.7475570791293680  0.4973006343544808
  0.1556713184531161  0.1736773091055571  0.0819125970558143
  0.1545702508883262  0.1765020316577060  0.5811856539240301
  0.1538453049916955  0.6751135960322739  0.0834815187472807
  0.1556702877772258  0.6767367245215415  0.5809878318722098
  0.6550627448863617  0.1746781926818355  0.0830350555503586
  0.6545233661187415  0.1744144107436928  0.5813356302372836
  0.6551557175701375  0.6758147998586602  0.0835829835534022
  0.6589891238928808  0.6668736244985622  0.5761268846248032
  0.3449456564350324  0.3253250408529444  0.0830352059814538
  0.3454868101947902  0.3256013569246683  0.5813301206373772
  0.3448407486971897  0.8241881194656402  0.0835886290819465
  0.3410039097120627  0.8331176489796033  0.5761306194360312
  0.8443392066067256  0.3263205673076372  0.0819052735430413
  0.8454323933847699  0.3235112306848765  0.5811861886964372
  0.8461521939808491  0.8248847073293893  0.0834745086834619
  0.8443261049616244  0.8232631354058861  0.5809903174594836
  0.1742452516179211  0.3476959947114802  0.4182224051919844
  0.1739155309627211  0.3472558007100248  0.9202718141560114
  0.1712298604267107  0.8424598236113865  0.4112977009786477
  0.1784270190417782  0.8398550671973062  0.9148412838240249
  0.6768070386807893  0.3426289901717954  0.4156647194610948
  0.6763118618326904  0.3421520343769254  0.9160766131787168
  0.6724091695201243  0.8423104031642455  0.4181599767458494
  0.6723943707405311  0.8506464037997045  0.9245791546223234
  0.3231973626215086  0.1573745147720470  0.4156696717072743
  0.3236881577951371  0.1578468836422830  0.9160776719604868
  0.3275803257917980  0.6576894086064204  0.4181679568740470
  0.3275980666990359  0.6493537627886715  0.9245831587790714
  0.8257582857949859  0.1523110829888686  0.4182280721248551
  0.8260900517005101  0.1527375051876800  0.9202651993942039
  0.8287666468388398  0.6575340290920308  0.4112944151172397
  0.8215677280021639  0.6601458509798038  0.9148356259337881
  0.0966279422839752  0.4225643165451126  0.1685969003360795
  0.1008589299626966  0.4227757826296962  0.6706977888556405
  0.0921190483489149  0.9268020314165999  0.1651970868629204
  0.0889690961635661  0.9284958250075221  0.6641366443499357
  0.5934928224975097  0.4250379889005746  0.1660887597561183
  0.5953124558499211  0.4248963525187309  0.6675139185345278
  0.5960560414408748  0.9252333122346234  0.1704082585826836
  0.5908546583673394  0.9222590081203151  0.6690957934358397
  0.4065063470713843  0.0749548030329452  0.1660866820053497
  0.4046860077917670  0.0751022726119550  0.6675174984384092
  0.4039437481346350  0.5747634956974536  0.1704076578324248
  0.4091442693114510  0.5777441891221213  0.6690952130046237
  0.9033752766416684  0.0774427324936088  0.1685992573164824
  0.8991406209461078  0.0772260948977558  0.6706885497709725
  0.9078830719915076  0.5732035275608517  0.1652015662444050
  0.9110262697495795  0.5715009035045837  0.6641479176547019
  0.0747714550151863  0.0942890543916726  0.3322794070478610
  0.0764052865704991  0.0985500980189309  0.8288182645786190
  0.0766319981643119  0.5945040318041084  0.3308833035506129
  0.0729320950146243  0.5912083129109488  0.8354852913892483
  0.5736825489263006  0.0959818661879970  0.3334826090127577
  0.5770789503282568  0.0965286710976566  0.8301660890641588
  0.5760086025148383  0.5937336933949732  0.3324717882571576
  0.5779752356322052  0.5866226706498350  0.8394809293271874
  0.4263165135853549  0.4040162554507200  0.3334870233714478
  0.4229242232802942  0.4034647547459118  0.8301611464977896
  0.4239894647595088  0.9062688472348956  0.3324724587771307
  0.4220218717703563  0.9133799076140036  0.8394778609702314
  0.9252301543925138  0.4056977476426707  0.3322760473761645
  0.9235941620371032  0.4014405816617999  0.8288217998662616
  0.9233686228204393  0.9054866810376340  0.3308718191917572
  0.9270668603658444  0.9087867625478205  0.8354775533341107
