Na47 P16 S64
1.0
14.021498 -0.019242 -0.000044
-0.019389 14.049713 0.000016
-0.000020 -0.000022 14.365605
Na P S
47 16 64
direct
0.681253 0.750307 0.750819 Na
1.000011 0.249996 0.204183 Na
1.000003 0.250001 0.703210 Na
0.999995 0.750008 0.208958 Na
0.999998 0.749998 0.711602 Na
0.500001 0.249998 0.206934 Na
0.500001 0.250003 0.706444 Na
0.500001 0.750001 0.211415 Na
0.248994 0.998709 0.289110 Na
0.247162 0.997910 0.786730 Na
0.252458 0.500769 0.298227 Na
0.250652 0.505525 0.795364 Na
0.747537 0.999237 0.298235 Na
0.749351 0.994475 0.795356 Na
0.751013 0.501292 0.289111 Na
0.752837 0.502090 0.786742 Na
0.253750 0.998710 0.037345 Na
0.242086 1.001581 0.537136 Na
0.247299 0.499638 0.047759 Na
0.255998 0.504309 0.548234 Na
0.752707 1.000360 0.047756 Na
0.743993 0.995700 0.548235 Na
0.746254 0.501291 0.037351 Na
0.757913 0.498421 0.537135 Na
1.000001 0.249999 0.453677 Na
1.000003 0.249997 0.952809 Na
0.999996 0.749996 0.460750 Na
1.000000 0.749995 0.957940 Na
0.500004 0.249997 0.456842 Na
0.500001 0.250000 0.954756 Na
0.499997 0.750000 0.480577 Na
0.499997 0.750002 0.950260 Na
0.988298 1.000570 0.500095 Na
0.000484 0.005345 -0.000949 Na
0.011693 0.499426 0.500105 Na
0.999517 0.494648 0.999057 Na
0.494274 -0.002189 0.501089 Na
0.508283 1.000583 1.001203 Na
0.505714 0.502192 0.501087 Na
0.491716 0.499414 0.001204 Na
0.248349 0.252643 0.249642 Na
0.248177 0.255584 0.750167 Na
0.251830 0.746540 0.249808 Na
0.318741 0.749695 0.750825 Na
0.751657 0.247364 0.249640 Na
0.751827 0.244417 0.750166 Na
0.748174 0.753466 0.249805 Na
-0.001566 0.000880 0.249240 P
0.997794 0.002967 0.749728 P
0.001566 0.499119 0.249244 P
0.002205 0.497029 0.749737 P
0.499654 0.000466 0.250698 P
0.499019 1.000400 0.750909 P
0.500348 0.499532 0.250701 P
0.500983 0.499600 0.750904 P
0.249581 0.251014 0.000067 P
0.249476 0.251889 0.499230 P
0.250603 0.748205 0.001279 P
0.248222 0.752441 0.497303 P
0.750430 0.248986 0.000062 P
0.750530 0.248120 0.499231 P
0.749391 0.751795 0.001270 P
0.751768 0.747557 0.497301 P
0.155671 0.173677 0.081913 S
0.154570 0.176502 0.581186 S
0.153845 0.675114 0.083482 S
0.155670 0.676737 0.580988 S
0.655063 0.174678 0.083035 S
0.654523 0.174414 0.581336 S
0.655156 0.675815 0.083583 S
0.658989 0.666874 0.576127 S
0.344946 0.325325 0.083035 S
0.345487 0.325601 0.581330 S
0.344841 0.824188 0.083589 S
0.341004 0.833118 0.576131 S
0.844339 0.326321 0.081905 S
0.845432 0.323511 0.581186 S
0.846152 0.824885 0.083475 S
0.844326 0.823263 0.580990 S
0.174245 0.347696 0.418222 S
0.173916 0.347256 0.920272 S
0.171230 0.842460 0.411298 S
0.178427 0.839855 0.914841 S
0.676807 0.342629 0.415665 S
0.676312 0.342152 0.916077 S
0.672409 0.842310 0.418160 S
0.672394 0.850646 0.924579 S
0.323197 0.157375 0.415670 S
0.323688 0.157847 0.916078 S
0.327580 0.657689 0.418168 S
0.327598 0.649354 0.924583 S
0.825758 0.152311 0.418228 S
0.826090 0.152738 0.920265 S
0.828767 0.657534 0.411294 S
0.821568 0.660146 0.914836 S
0.096628 0.422564 0.168597 S
0.100859 0.422776 0.670698 S
0.092119 0.926802 0.165197 S
0.088969 0.928496 0.664137 S
0.593493 0.425038 0.166089 S
0.595312 0.424896 0.667514 S
0.596056 0.925233 0.170408 S
0.590855 0.922259 0.669096 S
0.406506 0.074955 0.166087 S
0.404686 0.075102 0.667517 S
0.403944 0.574763 0.170408 S
0.409144 0.577744 0.669095 S
0.903375 0.077443 0.168599 S
0.899141 0.077226 0.670689 S
0.907883 0.573204 0.165202 S
0.911026 0.571501 0.664148 S
0.074771 0.094289 0.332279 S
0.076405 0.098550 0.828818 S
0.076632 0.594504 0.330883 S
0.072932 0.591208 0.835485 S
0.573683 0.095982 0.333483 S
0.577079 0.096529 0.830166 S
0.576009 0.593734 0.332472 S
0.577975 0.586623 0.839481 S
0.426317 0.404016 0.333487 S
0.422924 0.403465 0.830161 S
0.423989 0.906269 0.332472 S
0.422022 0.913380 0.839478 S
0.925230 0.405698 0.332276 S
0.923594 0.401441 0.828822 S
0.923369 0.905487 0.330872 S
0.927067 0.908787 0.835478 S
