Li17 Co18 O36                           
   1.00000000000000     
     8.1357079999999993   -0.0000400000000000    2.4095080000000002
     3.7111070000000002    7.2399920000000000    2.4095000000000000
    -0.0105240000000000   -0.0064280000000000    9.9945760000000003
   Li   Co   O 
    17    18    36
Direct
  0.3098515116265995  0.4254994657806135  0.5100252226498760
  0.3359819407838384  0.3348357228310035  0.9968923820050286
  0.3341080111439243  0.6682450924489267 -0.0019071174097050
  0.3356959298583770  0.9987970317664587 -0.0032316674072913
  0.3335544706619660  0.9939382542705727  0.5062132535341461
  0.6674768680037259  0.3342701319856982 -0.0014014758415904
  0.6615427475087979  0.3379597723715165  0.5048061716713643
  0.6658711539012557  0.6683778080783476 -0.0009593514094404
  0.6437749922668971  0.6667807187350860  0.5037722137219943
  0.6688259741595196  0.9994704590323121 -0.0018985739787679
  0.6483674647418761  1.0165133323888138  0.5039973923941654
 -0.0016601241299252  0.3353508742646268  0.9964492789215108
  0.0054766529126951  0.3347610771625886  0.5044009121664069
 -0.0016449761337656  0.6707784905253580  0.9971679815332758
 -0.0217389186469231  0.6817649829388597  0.5022435847840617
 -0.0003871832915774  1.0010223332314776 -0.0038664199538349
  0.0109915070704230  0.9832665507409314  0.5044718003359774
  0.1639586828205804  0.1702312496850525  0.2480301337623374
  0.1682904632339815  0.1670596758106656  0.7507844325080320
  0.1639327152270802  0.5034445028185009  0.2470893373462003
  0.1670665886106180  0.5007246594145078  0.7542885992276106
  0.1636635797734795  0.8369634785409210  0.2483816386701819
  0.1678656204830939  0.8326632512896972  0.7507044643192379
  0.4969563373772077  0.1697005532288683  0.2511365787055648
  0.5007416921636174  0.1652006264302736  0.7544416970519460
  0.4972134222944763  0.5036362548476467  0.2490553108436580
  0.5006609650244368  0.5006792612536536  0.7535153307794793
  0.4974193486786991  0.8346621968624046  0.2509804515705881
  0.5000838481556220  0.8329625485575448  0.7545809819780211
  0.8299841791151154  0.1696000771578474  0.2501977722797493
  0.8344000024886745  0.1666944140999626  0.7508347383639774
  0.8310468891739232  0.5026743970471463  0.2486964101078413
  0.8338815035868837  0.5006948666484776  0.7516781970747214
  0.8301257456082036  0.8357362140630199  0.2507415624713940
  0.8331110145068661  0.8331369584649937  0.7529911337933407
  0.2481589336519793  0.2554840409010855  0.3547376608727296
  0.2532233764436319  0.2524653520762614  0.8634687716341817
  0.2469006243738421  0.5939846456691840  0.3506541115456633
  0.2533081339671013  0.5876678567903006  0.8634897072241431
  0.2479465687917610  0.9312990557109575  0.3537344582865875
  0.2518571893839912  0.9212546502433379  0.8622202073442070
  0.5843588242832056  0.2574211202450736  0.3589325258026595
  0.5891977552445036  0.2520319982894776  0.8632919393648341
  0.5891294323580714  0.5873373146657900  0.3558082781797356
  0.5889086042634595  0.5850622021600993  0.8635509652872569
  0.5831486847458095  0.9226154604886481  0.3605253573384573
  0.5870419953654246  0.9193352800254082  0.8653534334901879
  0.9218423427140430  0.2548523911966445  0.3567861442900853
  0.9213413860579324  0.2533216993650388  0.8604328915317130
  0.9189855886177674  0.5883822009501585  0.3579388928274628
  0.9198068617484452  0.5864542360978282  0.8628451202610107
  0.9178482182613921  0.9230376057789014  0.3589791082135874
  0.9207265281329546  0.9206524010119282  0.8612873920775678
  0.0775779853838244  0.0849267337997647  0.1400059717629884
  0.0814149008117330  0.0800344306531914  0.6402838542506758
  0.0794305758151241  0.4125033864324278  0.1384945494818465
  0.0816372115331039  0.4156747313309161  0.6417347001356786
  0.0761796406846126  0.7501043943837705  0.1393203405064742
  0.0765054084017516  0.7456860848708923  0.6454106234797764
  0.4083759658337694  0.0833690327829636  0.1418439687276617
  0.4145089502056024  0.0772113867186334  0.6456304854981572
  0.4111929155501113  0.4148656395154091  0.1397922337769616
  0.4168300731807405  0.4093071411600936  0.6503876669278310
  0.4108482523176821  0.7501136672112341  0.1397579423471364
  0.4149096512249442  0.7475568447292361  0.6468881041601651
  0.7429136842340633  0.0826285942731947  0.1419871296901438
  0.7465939880547358  0.0797794563403009  0.6425087220196023
  0.7446927145942892  0.4148453997628507  0.1402769764479016
  0.7469961243659876  0.4138480387511957  0.6418377625257817
  0.7434229129519109  0.7491175659907294  0.1412042070218204
  0.7452490188520190  0.7472404328615280  0.6438895019131226
 
             NaN             NaN             NaN
             NaN             NaN             NaN
             NaN             NaN             NaN
             NaN             NaN             NaN
             NaN             NaN             NaN
             NaN             NaN             NaN
             NaN             NaN             NaN
             NaN             NaN             NaN
             NaN             NaN             NaN
             NaN             NaN             NaN
             NaN             NaN             NaN
             NaN             NaN             NaN
             NaN             NaN             NaN
             NaN             NaN             NaN
             NaN             NaN             NaN
             NaN             NaN             NaN
             NaN             NaN             NaN
             NaN             NaN             NaN
             NaN             NaN             NaN
             NaN             NaN             NaN
             NaN             NaN             NaN
             NaN             NaN             NaN
             NaN             NaN             NaN
             NaN             NaN             NaN
             NaN             NaN             NaN
             NaN             NaN             NaN
             NaN             NaN             NaN
             NaN             NaN             NaN
             NaN             NaN             NaN
             NaN             NaN             NaN
             NaN             NaN             NaN
             NaN             NaN             NaN
             NaN             NaN             NaN
             NaN             NaN             NaN
             NaN             NaN             NaN
             NaN             NaN             NaN
             NaN             NaN             NaN
             NaN             NaN             NaN
             NaN             NaN             NaN
             NaN             NaN             NaN
             NaN             NaN             NaN
             NaN             NaN             NaN
             NaN             NaN             NaN
             NaN             NaN             NaN
             NaN             NaN             NaN
             NaN             NaN             NaN
             NaN             NaN             NaN
             NaN             NaN             NaN
             NaN             NaN             NaN
             NaN             NaN             NaN
             NaN             NaN             NaN
             NaN             NaN             NaN
             NaN             NaN             NaN
             NaN             NaN             NaN
             NaN             NaN             NaN
             NaN             NaN             NaN
             NaN             NaN             NaN
             NaN             NaN             NaN
             NaN             NaN             NaN
             NaN             NaN             NaN
             NaN             NaN             NaN
             NaN             NaN             NaN
             NaN             NaN             NaN
             NaN             NaN             NaN
             NaN             NaN             NaN
             NaN             NaN             NaN
             NaN             NaN             NaN
             NaN             NaN             NaN
             NaN             NaN             NaN
             NaN             NaN             NaN
             NaN             NaN             NaN
