Li46 P16 O64                            
   1.00000000000000     
    10.6479090000000003   -0.0045790000000000   -0.0070070000000000
    -0.0053620000000000   12.4465629999999994   -0.0021070000000000
    -0.0066360000000000   -0.0017230000000000   10.0834899999999994
   Li   P    O 
    46    16    64
Direct
  0.5258356441678527  0.2874345367272825  0.0725598662321515
  0.6626953779866298  0.2509581131720937  0.5991171593190934
  0.6626207463815115  0.7498814851584763  0.0990067961795500
  0.6630008708482404  0.7509918441034006  0.5990874451216633
  0.1652101140131869  0.4898896588129111  0.1532174517052551
  0.1624993342242705  0.5006923419477818  0.6519041203963361
  0.1659277253064031  0.9955021251711147  0.1505047372637584
  0.1624514990677561  0.0009980506203108  0.6518090130001372
  0.3370523787747101  0.0013028925099835  0.4016389959687375
  0.3372505219052587  0.0012086232993089  0.9024413886694012
  0.3375723546978054  0.4985494816139819  0.3948087198850830
  0.3349134434386702  0.4959946584155755  0.9101535797029211
  0.8339243842701390  0.2474979320263699  0.3459548698589880
  0.8329899303089160  0.2494865046754496  0.8587503666647656
  0.8374555384148522  0.7489663998080487  0.3486542911835400
  0.8373477385859280  0.7484315232318232  0.8500511958702841
  0.3347784056952490  0.2511049853126373  0.3853591558302304
  0.3280865380189164  0.2522989950331329  0.9090892123596279
  0.3371117204189975  0.7490325989282095  0.4000154964135095
  0.3368293298439451  0.7488680207171408  0.9032393911322383
  0.8387722299901534  0.0022079992951820  0.3471916236649869
  0.8383749528103457  0.0014719997972185  0.8501516333292412
  0.8351758170626923  0.4990446052258585  0.3487780018590758
  0.8354253669369552  0.5005231232675590  0.8512149294882141
  0.6586001179871215  0.4958046156487077  0.0985115337068275
  0.6626385638873910  0.5010252817460020  0.5989322159072777
  0.6659216960629231  0.9991127310822457  0.1005026523425206
  0.6635543339697508  0.0001030124765677  0.5992564509813343
  0.1610706665918535  0.2527218348248517  0.6480989336341123
  0.1635920379741069  0.7491081246756540  0.1523921741612098
  0.1631166969395526  0.7513302696079148  0.6510795250872008
  0.9322036810610521  0.3639640874463466  0.1530248253150707
  0.9222122254639673  0.3746869746579179  0.6510743477368262
  0.9266852249392706  0.8763642878428177  0.1495080384682262
  0.9262209260511888  0.8760083400793501  0.6492501179179281
  0.4244469466328860  0.3736650917306997  0.5987909071468276
  0.4293441048852175  0.8763330988232542  0.1013634583882652
  0.4260284496748704  0.8757843245530483  0.6013923520217517
  0.0770023401445079  0.1338480012776907  0.3344481543629859
  0.0734845924458120  0.1294486533658051  0.8606440581441747
  0.0734362004879182  0.6214459254091849  0.3511203382646236
  0.0742627966232966  0.6229138334110155  0.8523925788202658
  0.5738853809360317  0.1277178641484742  0.3947572315360665
  0.5774839714905716  0.1245892584715512  0.9039993299948376
  0.5729091113868161  0.6234650229105287  0.3993342365980836
  0.5708033264750383  0.6228145181619714  0.8991706851284202
  0.9134215172169625  0.1197976683056082  0.0996338716061249
  0.9112928798683941  0.1244039210763099  0.5978707967083526
  0.9097061474896974  0.6250080955859708  0.0993127134734692
  0.9100985873232862  0.6266663992842813  0.5974760867043722
  0.4121867627830967  0.1175794030786385  0.1505700368127363
  0.4108923835752186  0.1248862944067122  0.6541800724878700
  0.4078250712526142  0.6301371215059552  0.1515701916546473
  0.4097233262735577  0.6258128585742710  0.6530130936797244
  0.0871116998565085  0.3745715396527178  0.4098012448860108
  0.0840964245312533  0.3781380761082745  0.9006733399277219
  0.0898471250126341  0.8739892980819276  0.4043128925675244
  0.0894686811633898  0.8732868520488106  0.9030263066355539
  0.5895998108591576  0.3765676465503929  0.3501538082992421
  0.5864426551282106  0.3758255675765588  0.8396734935993836
  0.5903569512423762  0.8743570630495305  0.3484628308676459
  0.5899282918672244  0.8739965649963918  0.8454401547391767
  0.8380183928155176  0.0175273224245826  0.1471896128240769
  0.8416694112646771  0.0209588241581911  0.6481697806626873
  0.8375434254984847  0.5243327443799164  0.1499484720633798
  0.8395418343416622  0.5256481279603137  0.6500725001325055
  0.3547874337291122  0.2204206438932707  0.0933026752334844
  0.3413809549517455  0.2268502346783747  0.6032770555648924
  0.3443581165491925  0.7382316608139623  0.1071838794289330
  0.3408475830074498  0.7291680354446234  0.6024416955799869
  0.1565961689905623  0.2704356589466244  0.3723381502580769
  0.1539330084787671  0.2752506574367901  0.8502149409219849
  0.1577762402910623  0.7698306939500356  0.3553037362874184
  0.1593321023777033  0.7710873379444956  0.8509854351158634
  0.6586262934338156  0.4792941581926821  0.4049234476933757
  0.6562472261431429  0.4780969878373681  0.8933803838174394
  0.6601001092170359  0.9767387574539377  0.3994630864933899
  0.6606787198262928  0.9755576088170923  0.8962818001989509
  0.1580313080032907  0.4760137492738153  0.3554191146900916
  0.1559356244314861  0.4791802207166305  0.8456345795450516
  0.1615620648573050  0.9745153996712569  0.3531230397450389
  0.1590908342629009  0.9759952802289995  0.8532291224185684
  0.6583639800526260  0.2738457128738272  0.4032544690886871
  0.6525212669970669  0.2724726739326115  0.8910412224292569
  0.6596746673432067  0.7715794443720858  0.3997030722749168
  0.6586349446010765  0.7707923978685524  0.8960533505347495
  0.8546234503059166  0.2227147242829371  0.1570858323502020
  0.8398518098934824  0.2257171400269120  0.6489671348072952
  0.8405309271438884  0.7290759043950845  0.1480085191432228
  0.8408537367030841  0.7299414754063004  0.6473424301117540
  0.3411642381133246  0.0140384438962675  0.1031514220987740
  0.3412069102971769  0.0216179879676655  0.6031023449947560
  0.3291335125030608  0.5365730077591621  0.0969868983487774
  0.3405380729262147  0.5243553428070175  0.5993074990340501
  0.5508221392184491  0.1142994988717216  0.1015714311874069
  0.5484654767753708  0.1239921572320103  0.6007715572795648
  0.5454981175254643  0.6269656333807903  0.0978469547491242
  0.5479169662198499  0.6270442349444691  0.6019317937333525
  0.0505527690117022  0.1075024469988930  0.1454821036339776
  0.0480159734098814  0.1245779341453319  0.6529389373611534
  0.0467358416381766  0.6252028563413717  0.1531140838475358
  0.0477697186660025  0.6277320700886487  0.6495193670091867
  0.4518007838850116  0.3752921285047254  0.4034335404229023
  0.4491198957180919  0.3745882477366234  0.8899097336979437
  0.4527340994434473  0.8743691297454188  0.4010417765157410
  0.4521793475188517  0.8743132881186015  0.8969550572663711
  0.9499080719639915  0.3752709645217741  0.3551137141273029
  0.9466440086220349  0.3762666188134327  0.8445453740843005
  0.9520204738201186  0.8743047422666753  0.3518538947823058
  0.9518161474300094  0.8735771409213883  0.8498717256362756
  0.5930337283403390  0.3802731586933173  0.1980748994788904
  0.5899357520346203  0.3777728826586808  0.6846648194959805
  0.5912009137408701  0.8733353579987859  0.1935970768314082
  0.5900341705929506  0.8743762143163709  0.6902288070127462
  0.0796724719820492  0.3847655032783528  0.0524360595505744
  0.0833499104118231  0.3815437578452978  0.5651415738493256
  0.0889650768554344  0.8705970059703008  0.0577019150094200
  0.0893124579378251  0.8749632839054279  0.5597251838709266
  0.4100744873655762  0.1205717216791581  0.3065792855809619
  0.4112041984521213  0.1238471192926741  0.8092239588358502
  0.4109950363192730  0.6265888289839525  0.3073006544204685
  0.4084151472000633  0.6249891412814959  0.8080036101731407
  0.9120341991591365  0.1240434536513539  0.4429502957174957
  0.9075779195009610  0.1232600649468927  0.9433396932906777
  0.9095742393785712  0.6254071142407106  0.4423847357142216
  0.9105652206748309  0.6252381798563779  0.9436907348406858
 
             NaN             NaN             NaN
             NaN             NaN             NaN
             NaN             NaN             NaN
             NaN             NaN             NaN
             NaN             NaN             NaN
             NaN             NaN             NaN
             NaN             NaN             NaN
             NaN             NaN             NaN
             NaN             NaN             NaN
             NaN             NaN             NaN
             NaN             NaN             NaN
             NaN             NaN             NaN
             NaN             NaN             NaN
             NaN             NaN             NaN
             NaN             NaN             NaN
             NaN             NaN             NaN
             NaN             NaN             NaN
             NaN             NaN             NaN
             NaN             NaN             NaN
             NaN             NaN             NaN
             NaN             NaN             NaN
             NaN             NaN             NaN
             NaN             NaN             NaN
             NaN             NaN             NaN
             NaN             NaN             NaN
             NaN             NaN             NaN
             NaN             NaN             NaN
             NaN             NaN             NaN
             NaN             NaN             NaN
             NaN             NaN             NaN
             NaN             NaN             NaN
             NaN             NaN             NaN
             NaN             NaN             NaN
             NaN             NaN             NaN
             NaN             NaN             NaN
             NaN             NaN             NaN
             NaN             NaN             NaN
             NaN             NaN             NaN
             NaN             NaN             NaN
             NaN             NaN             NaN
             NaN             NaN             NaN
             NaN             NaN             NaN
             NaN             NaN             NaN
             NaN             NaN             NaN
             NaN             NaN             NaN
             NaN             NaN             NaN
             NaN             NaN             NaN
             NaN             NaN             NaN
             NaN             NaN             NaN
             NaN             NaN             NaN
             NaN             NaN             NaN
             NaN             NaN             NaN
             NaN             NaN             NaN
             NaN             NaN             NaN
             NaN             NaN             NaN
             NaN             NaN             NaN
             NaN             NaN             NaN
             NaN             NaN             NaN
             NaN             NaN             NaN
             NaN             NaN             NaN
             NaN             NaN             NaN
             NaN             NaN             NaN
             NaN             NaN             NaN
             NaN             NaN             NaN
             NaN             NaN             NaN
             NaN             NaN             NaN
             NaN             NaN             NaN
             NaN             NaN             NaN
             NaN             NaN             NaN
             NaN             NaN             NaN
             NaN             NaN             NaN
             NaN             NaN             NaN
             NaN             NaN             NaN
             NaN             NaN             NaN
             NaN             NaN             NaN
             NaN             NaN             NaN
             NaN             NaN             NaN
             NaN             NaN             NaN
             NaN             NaN             NaN
             NaN             NaN             NaN
             NaN             NaN             NaN
             NaN             NaN             NaN
             NaN             NaN             NaN
             NaN             NaN             NaN
             NaN             NaN             NaN
             NaN             NaN             NaN
             NaN             NaN             NaN
             NaN             NaN             NaN
             NaN             NaN             NaN
             NaN             NaN             NaN
             NaN             NaN             NaN
             NaN             NaN             NaN
             NaN             NaN             NaN
             NaN             NaN             NaN
             NaN             NaN             NaN
             NaN             NaN             NaN
             NaN             NaN             NaN
             NaN             NaN             NaN
             NaN             NaN             NaN
             NaN             NaN             NaN
             NaN             NaN             NaN
             NaN             NaN             NaN
             NaN             NaN             NaN
             NaN             NaN             NaN
             NaN             NaN             NaN
             NaN             NaN             NaN
             NaN             NaN             NaN
             NaN             NaN             NaN
             NaN             NaN             NaN
             NaN             NaN             NaN
             NaN             NaN             NaN
             NaN             NaN             NaN
             NaN             NaN             NaN
             NaN             NaN             NaN
             NaN             NaN             NaN
             NaN             NaN             NaN
             NaN             NaN             NaN
             NaN             NaN             NaN
             NaN             NaN             NaN
             NaN             NaN             NaN
             NaN             NaN             NaN
             NaN             NaN             NaN
             NaN             NaN             NaN
             NaN             NaN             NaN
             NaN             NaN             NaN
             NaN             NaN             NaN
