Na47 P16 S64                            
   1.00000000000000     
    13.7461210000000005   -0.0085380000000000   -0.0000130000000000
    -0.0086120000000000   13.7610910000000004   -0.0004770000000000
    -0.0000790000000000   -0.0001950000000000   14.1766299999999994
   Na   P    S 
    47    16    64
Direct
  0.6087520608363022  0.7535770587287089  0.7441348022928196
  0.9998397582794780  0.2504882049218580  0.2050118050598684
  0.9994476302696143  0.2502776464125915  0.7043963593878786
  0.9991793728200022  0.7505219107209200  0.2098114047291375
  0.9855790971114331  0.7519822989789944  0.7144597034393669
  0.5000985990665470  0.2495664125477148  0.2061357309751202
  0.5006722528590046  0.2500676696450199  0.7055365538238831
  0.5005069802529221  0.7495241359634264  0.2091555669489864
  0.2492475697211631  0.9993186027364445  0.2930675453986211
  0.2483983783607897  0.9987179469879877  0.7920448146682304
  0.2512402635167135  0.5007257505758815  0.2960471053329172
  0.2507499394836188  0.5018973354217877  0.7946085921650976
  0.7488069512761442  0.9988845151240753  0.2935923022851270
  0.7485785298939405  0.9856674136341610  0.7881703583065374
  0.7505769426630025  0.5010542088708689  0.2904767472123666
  0.7544138213411031  0.5142272008279321  0.7857184220381654
  0.2523796648709578  0.9992801979250956  0.0419791414752098
  0.2443248680073893  0.9994470537541318  0.5428250902016174
  0.2473429092471804  0.4997793719016315  0.0459669399979532
  0.2549880449723645  0.5036459378856009  0.5470477126895474
  0.7520725243831592  0.0004275614185119  0.0421439603087919
  0.7459169692527752  0.9984358866912117  0.5419115524168490
  0.7471820630365897  0.5007016552854324  0.0382968147119698
  0.7567652190714398  0.4984721403683423  0.5382695100433494
  0.5000708573698418  0.2515773949436735  0.4562722074037282
  0.5011978083487634  0.2474848092623247  0.9543934141727846
  0.4998814881303133  0.7517010860017450  0.4690873676039757
  0.4979078965329222  0.7466683963668004  0.9573842706435443
  0.9999220297335611  0.2485430876043182  0.4546324997751796
  0.9986382848126212  0.2525736534599829  0.9537206647967409
  0.0002780529185600  0.7483747749861109  0.4621084816955801
  0.9998891012770486  0.7528466919068677  0.9591885472103172
  0.9933601107565693  0.9976213019074152  0.5013233535008936
  0.0027455704450787  0.0078656150427889  0.0003160791389618
  0.0094364843486474  0.4963507678262857  0.4995242883043503
  0.9972092064701243  0.5009983906563633  0.9984844516494036
  0.4911753322293251  0.0017372163441962  0.4988641779427283
  0.5054270699516721  0.9971851466281407  0.9991864927515195
  0.5049073997988458  0.5045426057833282  0.5017280920460081
  0.4928228280287570  0.4935683408092615  0.0023880760787307
  0.2493884154068198  0.2509785098671813  0.2500460174138865
  0.2492365811387032  0.2516478438254239  0.7500626171942812
  0.2509334104888623  0.7490605377424728  0.2504935558814410
  0.2805098536780690  0.7484638417497180  0.7484374949962955
  0.7506549998982663  0.2490049474048632  0.2494746016118796
  0.7508083194224895  0.2483768888206157  0.7505874171856775
  0.7487734911818222  0.7509406282582489  0.2493134414933849
  0.4997876134030363  0.4995041300834231  0.2502343927661741
  0.4999981834947889  0.4976967038822409  0.7520668545479552
  0.4995821783130481  0.0001234641779817  0.2500815903707547
  0.4970620349020720  0.0013819482109625  0.7483021344906504
  0.0008743043120703  0.4996085983325429  0.2500066939350987
  0.0028366500090726  0.4984977824268597  0.7481836563703723
  0.9995689803569690  0.0007470238568459  0.2497026095869543
  0.9995330896508037  0.0030187230267131  0.7516705256445491
  0.2498584001675681  0.2503794440569393  0.0001128558942938
  0.2496579682738727  0.2507397158694218  0.4998172059591255
  0.2503323814452045  0.7485994719687952  0.0009158056377672
  0.2495154817582801  0.7522716139153260  0.4992109433167897
  0.7500352947829825  0.2494313170265627  0.9997021751326614
  0.7502213423225967  0.2492285757614425  0.4992084262136203
  0.7494228120406277  0.7496525455310135  0.0006816275506125
  0.7515352005124640  0.7486228460210640  0.4962482246754405
  0.1539677642108899  0.1741488474452453  0.0825156640484721
  0.1530535518674156  0.1750696569209325  0.5814239064218611
  0.1527509833232514  0.6754059400079839  0.0838926887054185
  0.1557289196751768  0.6771812214560171  0.5840941163183473
  0.6540438502617576  0.1738447051373200  0.0829352307042370
  0.6534889237154360  0.1750672314906936  0.5815661560128902
  0.6533017670371279  0.6742101995346275  0.0835639004166850
  0.6559562242263581  0.6678840691111034  0.5740995087826306
  0.3463254746827928  0.3255571226012322  0.0828297048201705
  0.3461276081744273  0.3257318429087945  0.5820746808635775
  0.3467507446711267  0.8246432491618592  0.0829643035813845
  0.3455096787155938  0.8298950450320532  0.5785039940882086
  0.8455476900235368  0.3262404615843053  0.0823754342658773
  0.8471814131679096  0.3241592102843498  0.5810743353985686
  0.8444930687698573  0.8265068942686540  0.0835003584629135
  0.8454485399400724  0.8257579638170682  0.5784665986728115
  0.1743470920635843  0.3473205448654682  0.4176847737122671
  0.1743037059077395  0.3472369558447568  0.9189477822043628
  0.1714066653475399  0.8447343990383729  0.4145879871825215
  0.1772555504484714  0.8431578646186964  0.9157680816993263
  0.6757276959380718  0.3455205027620138  0.4160499785433487
  0.6753018213903275  0.3449959023905222  0.9170402251097372
  0.6732967267837537  0.8443119869087425  0.4150758654147637
  0.6710716944776820  0.8465313310920877  0.9205391255044049
  0.3250137149080103  0.1547162913751166  0.4169873309964913
  0.3249155072373711  0.1545822312971907  0.9174737018669532
  0.3263320240146541  0.6556264570139447  0.4174271037947719
  0.3258131670647018  0.6495586460810614  0.9218270294355619
  0.8251246457405443  0.1521124336757538  0.4172256317371961
  0.8253167055307742  0.1525704420460343  0.9184183302729281
  0.8289414751246653  0.6555965300067967  0.4114572821705025
  0.8265442419241111  0.6547340510614390  0.9200862244331560
  0.0970387281577771  0.4238943023310853  0.1677559182667991
  0.1021800311745835  0.4218989366821546  0.6699670746270954
  0.0951862492206672  0.9254249343121757  0.1665241961466393
  0.0923439732915980  0.9249812866305760  0.6684560824710033
  0.5951745294580846  0.4239709690679945  0.1668321998057323
  0.5973640963575590  0.4249880296362321  0.6683472493361009
  0.5962665730555727  0.9248432428556796  0.1682886312381129
  0.5897868375686102  0.9291980054683506  0.6601548429364001
  0.4041447397147593  0.0754282879980437  0.1667147355634171
  0.3986769777125616  0.0783215832574555  0.6694550247332032
  0.4027399692002902  0.5747753943930434  0.1685698654463863
  0.4087516593729248  0.5793712050520554  0.6711552569052870
  0.9033775302429206  0.0766618960774679  0.1676943805707793
  0.9007755969320712  0.0759582958673377  0.6696404676932275
  0.9054857002371506  0.5748305280361095  0.1668645054508815
  0.9108134011417803  0.5721240863768600  0.6609244000389936
  0.0755742812084534  0.0965202497871260  0.3322999120849488
  0.0775002298027943  0.1017560223656275  0.8296342921659488
  0.0765213863478138  0.5953672455014001  0.3326185333542782
  0.0746769303935224  0.5950201333276866  0.8326850639996550
  0.5747005539577827  0.0966144861656133  0.3327515119996036
  0.5768649788612450  0.0954823983687447  0.8295763135580927
  0.5753762592037717  0.5953863903665777  0.3321094998196514
  0.5753859772092582  0.5844218917570814  0.8439910566327242
  0.4247884678435412  0.4032602135670516  0.3330944558694640
  0.4215432514989672  0.3985263113029873  0.8292835124211990
  0.4238987771605522  0.9042977188854024  0.3323207405226896
  0.4247342624097215  0.9055083551089780  0.8330258840470393
  0.9248145090451132  0.4035366064355514  0.3322112985914316
  0.9231270993920333  0.4037845640660791  0.8290745322629931
  0.9243370762640808  0.9048341900718668  0.3320612406252152
  0.9274223793011913  0.9100896076894074  0.8392476035367906
 
             NaN             NaN             NaN
             NaN             NaN             NaN
             NaN             NaN             NaN
             NaN             NaN             NaN
             NaN             NaN             NaN
             NaN             NaN             NaN
             NaN             NaN             NaN
             NaN             NaN             NaN
             NaN             NaN             NaN
             NaN             NaN             NaN
             NaN             NaN             NaN
             NaN             NaN             NaN
             NaN             NaN             NaN
             NaN             NaN             NaN
             NaN             NaN             NaN
             NaN             NaN             NaN
             NaN             NaN             NaN
             NaN             NaN             NaN
             NaN             NaN             NaN
             NaN             NaN             NaN
             NaN             NaN             NaN
             NaN             NaN             NaN
             NaN             NaN             NaN
             NaN             NaN             NaN
             NaN             NaN             NaN
             NaN             NaN             NaN
             NaN             NaN             NaN
             NaN             NaN             NaN
             NaN             NaN             NaN
             NaN             NaN             NaN
             NaN             NaN             NaN
             NaN             NaN             NaN
             NaN             NaN             NaN
             NaN             NaN             NaN
             NaN             NaN             NaN
             NaN             NaN             NaN
             NaN             NaN             NaN
             NaN             NaN             NaN
             NaN             NaN             NaN
             NaN             NaN             NaN
             NaN             NaN             NaN
             NaN             NaN             NaN
             NaN             NaN             NaN
             NaN             NaN             NaN
             NaN             NaN             NaN
             NaN             NaN             NaN
             NaN             NaN             NaN
             NaN             NaN             NaN
             NaN             NaN             NaN
             NaN             NaN             NaN
             NaN             NaN             NaN
             NaN             NaN             NaN
             NaN             NaN             NaN
             NaN             NaN             NaN
             NaN             NaN             NaN
             NaN             NaN             NaN
             NaN             NaN             NaN
             NaN             NaN             NaN
             NaN             NaN             NaN
             NaN             NaN             NaN
             NaN             NaN             NaN
             NaN             NaN             NaN
             NaN             NaN             NaN
             NaN             NaN             NaN
             NaN             NaN             NaN
             NaN             NaN             NaN
             NaN             NaN             NaN
             NaN             NaN             NaN
             NaN             NaN             NaN
             NaN             NaN             NaN
             NaN             NaN             NaN
             NaN             NaN             NaN
             NaN             NaN             NaN
             NaN             NaN             NaN
             NaN             NaN             NaN
             NaN             NaN             NaN
             NaN             NaN             NaN
             NaN             NaN             NaN
             NaN             NaN             NaN
             NaN             NaN             NaN
             NaN             NaN             NaN
             NaN             NaN             NaN
             NaN             NaN             NaN
             NaN             NaN             NaN
             NaN             NaN             NaN
             NaN             NaN             NaN
             NaN             NaN             NaN
             NaN             NaN             NaN
             NaN             NaN             NaN
             NaN             NaN             NaN
             NaN             NaN             NaN
             NaN             NaN             NaN
             NaN             NaN             NaN
             NaN             NaN             NaN
             NaN             NaN             NaN
             NaN             NaN             NaN
             NaN             NaN             NaN
             NaN             NaN             NaN
             NaN             NaN             NaN
             NaN             NaN             NaN
             NaN             NaN             NaN
             NaN             NaN             NaN
             NaN             NaN             NaN
             NaN             NaN             NaN
             NaN             NaN             NaN
             NaN             NaN             NaN
             NaN             NaN             NaN
             NaN             NaN             NaN
             NaN             NaN             NaN
             NaN             NaN             NaN
             NaN             NaN             NaN
             NaN             NaN             NaN
             NaN             NaN             NaN
             NaN             NaN             NaN
             NaN             NaN             NaN
             NaN             NaN             NaN
             NaN             NaN             NaN
             NaN             NaN             NaN
             NaN             NaN             NaN
             NaN             NaN             NaN
             NaN             NaN             NaN
             NaN             NaN             NaN
             NaN             NaN             NaN
             NaN             NaN             NaN
             NaN             NaN             NaN
             NaN             NaN             NaN
             NaN             NaN             NaN
