Li7 Mn16 O32
1.0
8.387407 0.066962 -0.001825
0.035399 8.183741 0.015507
-0.017562 -0.017586 8.250817
Li Mn O
7 16 32
direct
0.185424 0.559897 0.683000 Li
0.879857 0.875429 0.879692 Li
0.119097 0.128908 0.123413 Li
0.883128 0.370909 0.379581 Li
0.378304 0.874743 0.380367 Li
0.615874 0.129137 0.626547 Li
0.619639 0.624723 0.118698 Li
0.502350 0.252652 0.248729 Mn
0.253451 0.494466 0.241086 Mn
0.253429 0.250490 0.504159 Mn
0.503570 0.499936 0.498857 Mn
0.500726 0.749622 0.751673 Mn
0.758879 0.501838 0.743396 Mn
0.750092 0.751855 0.496982 Mn
0.242092 0.998614 0.756115 Mn
0.246407 0.747753 0.998147 Mn
0.493717 0.002968 0.004126 Mn
0.745645 0.004061 0.255068 Mn
0.751846 0.249882 0.000739 Mn
0.001271 0.248391 0.750180 Mn
0.004399 0.496411 0.996557 Mn
0.998438 0.749198 0.248985 Mn
0.995762 0.004946 0.500236 Mn
0.752250 0.012709 0.026565 O
0.015500 0.730604 0.014218 O
0.011551 0.013746 0.737635 O
0.752291 0.736816 0.729817 O
0.237164 0.976898 0.987881 O
0.984117 0.263472 0.982082 O
0.971903 0.006716 0.269424 O
0.275904 0.263970 0.240261 O
0.755313 0.518751 0.512206 O
0.018625 0.241325 0.520980 O
0.025143 0.491515 0.227474 O
0.728383 0.235328 0.261584 O
0.255662 0.485509 0.471583 O
0.978039 0.764887 0.480630 O
0.989264 0.483736 0.762522 O
0.249731 0.763685 0.768015 O
0.252290 0.014312 0.526799 O
0.521254 0.733860 0.509993 O
0.514016 0.016715 0.239708 O
0.240664 0.730910 0.232998 O
0.739520 0.981257 0.486308 O
0.486676 0.266263 0.482273 O
0.471937 0.993229 0.770774 O
0.772999 0.269436 0.741824 O
0.239285 0.514366 0.010080 O
0.523689 0.239513 0.020949 O
0.533658 0.510053 0.733374 O
0.223646 0.227738 0.761722 O
0.766702 0.493124 0.977503 O
0.473518 0.761810 0.990901 O
0.485013 0.486408 0.257313 O
0.755615 0.767070 0.263464 O
