Li7 Mn16 O32                            
   1.00000000000000     
     8.3874069999999996    0.0669620000000000   -0.0018250000000000
     0.0353990000000000    8.1837409999999995    0.0155070000000000
    -0.0175620000000000   -0.0175860000000000    8.2508169999999996
   Li   Mn   O 
     7    16    32
Direct
  0.1900224248719928  0.5576826293294410  0.6845173351747597
  0.8800795850858707  0.8740549543842554  0.8790953112945289
  0.1192321248585898  0.1290410249674551  0.1236048660380990
  0.8835650113830532  0.3709537774867542  0.3806044441528251
  0.3784092687912123  0.8738249869514289  0.3809026584990989
  0.6159684306977679  0.1291780530401029  0.6262431397096915
  0.6198553227389195  0.6250169801473641  0.1187074914180257
  0.5023377142051856  0.2534806208446762  0.2470993777387874
  0.2515059460776984  0.4945825855227366  0.2429545932974064
  0.2537805422767591  0.2464194862218301  0.5012760018207041
  0.5048466111751777  0.4996720873895203  0.4979995007994806
  0.5032901725413104  0.7509367143342525  0.7515569015645076
  0.7610989192739775  0.5039843038172567  0.7414845332600664
  0.7514707177528257  0.7530349567858172  0.4968145667932472
  0.2410018240061303  0.9974337034564436  0.7563897757758350
  0.2455643402540865  0.7474138922605387  1.0001303137278270
  0.4941919260656428  0.0033951061544619  0.0038821337168341
  0.7453779261879814  0.0040838282718023  0.2548118494443061
  0.7523599698477731  0.2500424892848300  0.0010486273471115
  0.0001931098600232  0.2464440145898947  0.7501688371084785
  0.0028921102836344  0.4958740260723962  0.9988377293484545
  0.9979763367566786  0.7497562436312162  0.2513141991927619
  0.9968738715836694  0.0027291682756098  0.4999992392731668
  0.7522200961401959  0.0124474724779369  0.0261563960059957
  0.0141336044197722  0.7298959601881707  0.0169901666366442
  0.0118503107889223  0.0130929224550239  0.7394838194673004
  0.7590758857565290  0.7372802386810704  0.7287229454428060
  0.2377292217560359  0.9767612993226945  0.9880964949820250
  0.9840991154037554  0.2630234668578230  0.9831896623676980
  0.9715187616096013  0.0066271395893853  0.2678873063775535
  0.2750345453463213  0.2643839911074292  0.2398958159523250
  0.7602083961530413  0.5198560914294144  0.5125500172768014
  0.0182466953687398  0.2378219926790426  0.5207271340524596
  0.0230992303189171  0.4912369048149348  0.2277765387550739
  0.7283334435583732  0.2358263892304415  0.2617051070202502
  0.2518753764968487  0.4813898593141264  0.4737231113274268
  0.9778199088127957  0.7675079030716969  0.4798952762462242
  0.9933805659933568  0.4817194404165614  0.7660781696019996
  0.2461416375045998  0.7620575759700369  0.7714555123827627
  0.2529941356700872  0.0123813759804303  0.5269094703339121
  0.5223089603963594  0.7343932329239294  0.5112465958212684
  0.5134676886967976  0.0172065214908741  0.2391604363691369
  0.2416865748559609  0.7298568329255276  0.2344754538345766
  0.7391017107417299  0.9819985305185905  0.4861130462443689
  0.4871590166414989  0.2657139468670456  0.4814072071673955
  0.4724086832670953  0.9887064449858812  0.7693130473426157
  0.7722498655579554  0.2708036917008850  0.7415123047066254
  0.2309505348511816  0.5132575995500033  0.0082572732403447
  0.5255536174592693  0.2398006799880992  0.0204083053577062
  0.5358961306844980  0.5176953509200489  0.7375339683842325
  0.2224104029836760  0.2283380706248109  0.7600390428981296
  0.7742814129939776  0.4951742971834696  0.9793460353004078
  0.4732322280889712  0.7613526490715656  0.9908549091018689
  0.4825036555178016  0.4865058904563685  0.2538367079797238
  0.7544779614749720  0.7672843735673844  0.2636053341930761
 
             NaN             NaN             NaN
             NaN             NaN             NaN
             NaN             NaN             NaN
             NaN             NaN             NaN
             NaN             NaN             NaN
             NaN             NaN             NaN
             NaN             NaN             NaN
             NaN             NaN             NaN
             NaN             NaN             NaN
             NaN             NaN             NaN
             NaN             NaN             NaN
             NaN             NaN             NaN
             NaN             NaN             NaN
             NaN             NaN             NaN
             NaN             NaN             NaN
             NaN             NaN             NaN
             NaN             NaN             NaN
             NaN             NaN             NaN
             NaN             NaN             NaN
             NaN             NaN             NaN
             NaN             NaN             NaN
             NaN             NaN             NaN
             NaN             NaN             NaN
             NaN             NaN             NaN
             NaN             NaN             NaN
             NaN             NaN             NaN
             NaN             NaN             NaN
             NaN             NaN             NaN
             NaN             NaN             NaN
             NaN             NaN             NaN
             NaN             NaN             NaN
             NaN             NaN             NaN
             NaN             NaN             NaN
             NaN             NaN             NaN
             NaN             NaN             NaN
             NaN             NaN             NaN
             NaN             NaN             NaN
             NaN             NaN             NaN
             NaN             NaN             NaN
             NaN             NaN             NaN
             NaN             NaN             NaN
             NaN             NaN             NaN
             NaN             NaN             NaN
             NaN             NaN             NaN
             NaN             NaN             NaN
             NaN             NaN             NaN
             NaN             NaN             NaN
             NaN             NaN             NaN
             NaN             NaN             NaN
             NaN             NaN             NaN
             NaN             NaN             NaN
             NaN             NaN             NaN
             NaN             NaN             NaN
             NaN             NaN             NaN
             NaN             NaN             NaN
