Mg15 Mn32 O64                           
   1.00000000000000     
    11.6353139999999993    0.0000030000000000    0.0000000000000000
     0.0000030000000000   11.6301030000000001    0.0000000000000000
     0.0000000000000000    0.0000000000000000    9.3710599999999999
   Mg   Mn   O 
    15    32    64
Direct
  0.4999998756869922  0.5932266718928020  0.5632649366804625
  0.5000000399558544  0.2528180634093995  0.7516322426807398
 -0.0000000004662499  0.2504652092692031  0.7483169262107479
  0.0000000373792471  0.7498538440026165  0.7479182304594488
 -0.0000000304475390  0.4990213075732307  0.5013299059181350
  0.0000000569037480  0.9991451497668208  0.5028780775744074
  0.5000000551857270  0.9964861758062764  0.4964685908431212
  0.2466674197168540  0.0033108010288317  0.2511036769924316
  0.2482132531196934  0.4981168482939169  0.2542336006597344
  0.7533326616708884  0.0033108467173791  0.2511036307309194
  0.7517868084316072  0.4981169354173119  0.2542335607507069
  0.2492913096020198  0.2491527123303969  0.9992551806080086
  0.2510473767275329  0.7502528129969114  0.9955594137197397
  0.7507087404907847  0.2491528007427576  0.9992551426456082
  0.7489526713755542  0.7502528568669603  0.9955593801814506
  0.1250899492931712  0.2497184109142057  0.3780235452038454
  0.1237108180583297  0.7506037715989955  0.3735372135116684
  0.6233987154913232  0.2504821152290912  0.3780237686535808
  0.6292000590335468  0.7533478928669060  0.3618602019127850
  0.3766012411845731  0.2504820409885286  0.3780235644235284
  0.3707999171254847  0.7533478615262790  0.3618599172960501
  0.8749100326185053  0.2497184677747722  0.3780231783787278
  0.8762891427180317  0.7506038319437683  0.3735368747809810
  0.1247282985344424  0.4992484125999791  0.8746942342292000
  0.1251126091833828 -0.0006398781944819  0.8715757353273764
  0.6258284177825628  0.5002661246862965  0.8831318402161578
  0.6246856194498558  0.9995027159049185  0.8787300646367591
  0.3741715873242367  0.5002660707459362  0.8831320719990017
  0.3753145243736986  0.9995026428982466  0.8787300353482678
  0.8752717581489916  0.4992484323689783  0.8746941063943816
  0.8748874812859726 -0.0006398204213656  0.8715757464772689
  0.5000000417727135  0.1263798473907942  0.1281196845210129
  0.5000000539527537  0.6240379248196719  0.1262245871470347
  0.0000000583900691  0.1251059657105903  0.1241735798687793
  0.0000000453465664  0.6248451184902806  0.1233853189293873
  0.5000000541387571  0.3750510359788231  0.1334155908305846
  0.5000000541262407  0.8784301852377324  0.1239243673549025
  0.0000000476972849  0.3745336148378762  0.1260013968258862
  0.0000000625967974  0.8749859915173657  0.1218099524738522
  0.2533138892614386  0.3757428809005224  0.6256552015362833
  0.2558893295264316  0.8708271250549922  0.6236270054898609
  0.7466861388969019  0.3757430121257233  0.6256551984444254
  0.7441108691334951  0.8708273197429656  0.6236268865595317
  0.2518346014368817  0.1233318271826403  0.6248821362746999
  0.2493656142520243  0.6247472611906207  0.6238070655335664
  0.7481655063266694  0.1233319526679458  0.6248819427719566
  0.7506343622093085  0.6247474709661147  0.6238073580736796
  0.1388995194561823  0.2495966558901810  0.6226700596785465
  0.1381895756404272  0.7509582502174721  0.6205183995067240
  0.6363194482615157  0.2491983116889870  0.6233390804797563
  0.6335978476212794  0.7404158872428643  0.5964028435573960
  0.3636806079634053  0.2491981030902572  0.6233392089340357
  0.3664022028863901  0.7404154868652701  0.5964027439427080
  0.8611005269512996  0.2495967342413540  0.6226699824253094
  0.8618105109203447  0.7509582593691302  0.6205184089559553
  0.1375231638388630  0.4982075482022580  0.6294244850520306
  0.1400491531502273 -0.0026564281802981  0.6283727740624587
  0.6347517383703065  0.5050059722729503  0.6389054531619001
  0.6338581614663008  0.9968421852053814  0.6293109808350598
  0.3652482384266179  0.5050056770349256  0.6389054263577286
  0.3661419954585907  0.9968419391717591  0.6293110518512358
  0.8624767952326968  0.4982076408322658  0.6294245300578719
  0.8599510000386638 -0.0026563850932781  0.6283727450775353
  0.4999999911430311  0.1128560212061961  0.8802746653089791
  0.4999999546869079  0.6108515032588790  0.9228310024128172
  0.0000000238297560  0.1124040017035666  0.8757094097392937
 -0.0000000031424710  0.6126566228840806  0.8771483903320806
  0.5000000736361828  0.3882578039220612  0.8843428467339084
  0.5000001246322255  0.8899651167133543  0.9206947214180420
  0.0000000688862362  0.3861854035650923  0.8788250365928141
  0.0000000913520945  0.8865642757166805  0.8765062458795893
 -0.0000000378119760  0.3626847964621048  0.3722695677590367
 -0.0000000330981302  0.8638133563920345  0.3706504809786265
  0.4999999264700073  0.3581031774432964  0.3643882887616280
  0.4999999843393173  0.8688813637460636  0.3424405639161788
  0.0000000342139755  0.1361235087400120  0.3731774637414569
  0.0000000145641849  0.6368200984819973  0.3720159386641207
  0.5000000661389900  0.1346224646475521  0.3708779831274713
  0.5000000411459704  0.6418111774989839  0.3475945012469012
  0.3878343544219569  0.9989924834280320  0.1276440713791251
  0.3885518490859236  0.5032695207690048  0.1307263945111659
  0.8869526159065072  0.0003374562996747  0.1189254477438597
  0.8870220882041381  0.4993869092805223  0.1218195715257917
  0.1130474971564049  0.0003373612475804  0.1189254728107744
  0.1129779977435117  0.4993868043172520  0.1218196074446638
  0.6121657261630440  0.9989924032621474  0.1276441047760927
  0.6114482397395969  0.5032694541134454  0.1307263417897630
  0.3864624122529585  0.2497378497717622  0.1275095774525342
  0.3902555678099848  0.7513656017303397  0.1242310712017155
  0.8867878676205578  0.2494342670365676  0.1289581971369754
  0.8867476278378331  0.7503141838056063  0.1257088880815846
  0.1132122043026458  0.2494341651213227  0.1289582440611087
  0.1132524489399035  0.7503140788985563  0.1257089623463706
  0.6135376548093919  0.2497377847069134  0.1275096053516636
  0.6097445036783750  0.7513655014229688  0.1242310797869217
  0.2491395017759673  0.3631072128397564  0.3823321427250972
  0.2486745716452560  0.8645198401306664  0.3736425495701001
  0.7508604112871589  0.3631073003185109  0.3823320806718746
  0.7513253614430621  0.8645199176076102  0.3736425225999208
  0.2498976264644795  0.1370611026585967  0.3813285160223135
  0.2475397549478943  0.6386806626215161  0.3712689156567655
  0.7501024752180258  0.1370611769926972  0.3813284326975351
  0.7524602895186655  0.6386807468441358  0.3712688864808059
  0.2508290175530891  0.1120638638612936  0.8708609925633923
  0.2489958157498750  0.6119612043528615  0.8742228038180715
  0.7491710030720449  0.1120639422279773  0.8708609853430552
  0.7510041404656432  0.6119612477960708  0.8742227429643127
  0.2506306702311458  0.3867116447694421  0.8731103808209340
  0.2509290738949748  0.8868411172765457  0.8696187283779083
  0.7493694449030944  0.3867116980516559  0.8731102514924290
  0.7490711236597554  0.8868412033181076  0.8696187362517527
 
             NaN             NaN             NaN
             NaN             NaN             NaN
             NaN             NaN             NaN
             NaN             NaN             NaN
             NaN             NaN             NaN
             NaN             NaN             NaN
             NaN             NaN             NaN
             NaN             NaN             NaN
             NaN             NaN             NaN
             NaN             NaN             NaN
             NaN             NaN             NaN
             NaN             NaN             NaN
             NaN             NaN             NaN
             NaN             NaN             NaN
             NaN             NaN             NaN
             NaN             NaN             NaN
             NaN             NaN             NaN
             NaN             NaN             NaN
             NaN             NaN             NaN
             NaN             NaN             NaN
             NaN             NaN             NaN
             NaN             NaN             NaN
             NaN             NaN             NaN
             NaN             NaN             NaN
             NaN             NaN             NaN
             NaN             NaN             NaN
             NaN             NaN             NaN
             NaN             NaN             NaN
             NaN             NaN             NaN
             NaN             NaN             NaN
             NaN             NaN             NaN
             NaN             NaN             NaN
             NaN             NaN             NaN
             NaN             NaN             NaN
             NaN             NaN             NaN
             NaN             NaN             NaN
             NaN             NaN             NaN
             NaN             NaN             NaN
             NaN             NaN             NaN
             NaN             NaN             NaN
             NaN             NaN             NaN
             NaN             NaN             NaN
             NaN             NaN             NaN
             NaN             NaN             NaN
             NaN             NaN             NaN
             NaN             NaN             NaN
             NaN             NaN             NaN
             NaN             NaN             NaN
             NaN             NaN             NaN
             NaN             NaN             NaN
             NaN             NaN             NaN
             NaN             NaN             NaN
             NaN             NaN             NaN
             NaN             NaN             NaN
             NaN             NaN             NaN
             NaN             NaN             NaN
             NaN             NaN             NaN
             NaN             NaN             NaN
             NaN             NaN             NaN
             NaN             NaN             NaN
             NaN             NaN             NaN
             NaN             NaN             NaN
             NaN             NaN             NaN
             NaN             NaN             NaN
             NaN             NaN             NaN
             NaN             NaN             NaN
             NaN             NaN             NaN
             NaN             NaN             NaN
             NaN             NaN             NaN
             NaN             NaN             NaN
             NaN             NaN             NaN
             NaN             NaN             NaN
             NaN             NaN             NaN
             NaN             NaN             NaN
             NaN             NaN             NaN
             NaN             NaN             NaN
             NaN             NaN             NaN
             NaN             NaN             NaN
             NaN             NaN             NaN
             NaN             NaN             NaN
             NaN             NaN             NaN
             NaN             NaN             NaN
             NaN             NaN             NaN
             NaN             NaN             NaN
             NaN             NaN             NaN
             NaN             NaN             NaN
             NaN             NaN             NaN
             NaN             NaN             NaN
             NaN             NaN             NaN
             NaN             NaN             NaN
             NaN             NaN             NaN
             NaN             NaN             NaN
             NaN             NaN             NaN
             NaN             NaN             NaN
             NaN             NaN             NaN
             NaN             NaN             NaN
             NaN             NaN             NaN
             NaN             NaN             NaN
             NaN             NaN             NaN
             NaN             NaN             NaN
             NaN             NaN             NaN
             NaN             NaN             NaN
             NaN             NaN             NaN
             NaN             NaN             NaN
             NaN             NaN             NaN
             NaN             NaN             NaN
             NaN             NaN             NaN
             NaN             NaN             NaN
             NaN             NaN             NaN
             NaN             NaN             NaN
             NaN             NaN             NaN
