Mg15 Mn32 O64
1.0
11.635314 0.000003 0.000000
0.000003 11.630103 -0.000000
0.000000 -0.000000 9.371060
Mg Mn O
15 32 64
direct
0.500001 0.565275 0.561422 Mg
0.500000 0.250622 0.750128 Mg
1.000000 0.249943 0.748647 Mg
1.000000 0.750056 0.748550 Mg
1.000000 0.500330 0.501734 Mg
0.000000 -0.000331 0.500881 Mg
0.500000 0.996604 0.499560 Mg
0.247834 0.001217 0.251065 Mg
0.248845 0.498783 0.250608 Mg
0.752165 1.001217 0.251066 Mg
0.751155 0.498783 0.250607 Mg
0.249390 0.249226 -0.000095 Mg
0.251357 0.750774 -0.003182 Mg
0.750610 0.249226 -0.000095 Mg
0.748642 0.750774 -0.003181 Mg
0.125005 0.250277 0.376653 Mn
0.124451 0.749724 0.374025 Mn
0.624368 0.250399 0.377316 Mn
0.626522 0.749601 0.371497 Mn
0.375632 0.250399 0.377317 Mn
0.373478 0.749601 0.371497 Mn
0.874995 0.250277 0.376652 Mn
0.875549 0.749723 0.374025 Mn
0.124908 0.499825 0.874495 Mn
0.124987 1.000175 0.873215 Mn
0.625154 0.500733 0.877479 Mn
0.624659 0.999267 0.876480 Mn
0.374846 0.500733 0.877479 Mn
0.375340 0.999267 0.876480 Mn
0.875092 0.499824 0.874495 Mn
0.875013 1.000175 0.873215 Mn
0.500000 0.125187 0.127599 Mn
0.500000 0.624374 0.124332 Mn
-0.000000 0.125133 0.124760 Mn
0.000000 0.625117 0.123541 Mn
0.500000 0.373911 0.127053 Mn
0.500000 0.876532 0.124879 Mn
0.000000 0.374864 0.125254 Mn
1.000000 0.874885 0.123047 Mn
0.251080 0.375623 0.626599 Mn
0.251132 0.873605 0.622959 Mn
0.748921 0.375624 0.626598 Mn
0.748869 0.873605 0.622959 Mn
0.250776 0.124505 0.625295 Mn
0.251435 0.626266 0.624263 Mn
0.749225 0.124505 0.625294 Mn
0.748565 0.626267 0.624263 Mn
0.137645 0.250236 0.621467 O
0.136142 0.749764 0.619744 O
0.636700 0.250128 0.622274 O
0.640334 0.749872 0.605556 O
0.363301 0.250128 0.622275 O
0.359666 0.749872 0.605556 O
0.862356 0.250236 0.621465 O
0.863858 0.749764 0.619743 O
0.137859 0.499837 0.629588 O
0.137590 0.000163 0.628589 O
0.636127 0.500461 0.640766 O
0.635557 -0.000461 0.629851 O
0.363873 0.500461 0.640764 O
0.364443 -0.000461 0.629851 O
0.862141 0.499837 0.629588 O
0.862411 0.000163 0.628589 O
0.500000 0.112606 0.879755 O
0.500000 0.610389 0.909628 O
-0.000000 0.113366 0.877957 O
1.000000 0.612805 0.877634 O
0.500000 0.388231 0.880504 O
0.500000 0.888774 0.908879 O
1.000000 0.386704 0.878202 O
-0.000000 0.887122 0.877388 O
0.000000 0.363390 0.372107 O
1.000000 0.863209 0.370086 O
0.500000 0.362361 0.367948 O
0.500000 0.864521 0.353172 O
0.000000 0.136981 0.371807 O
0.000000 0.636420 0.370387 O
0.500000 0.136314 0.372743 O
0.500000 0.636804 0.348378 O
0.387650 -0.000623 0.126577 O
0.387363 0.500624 0.121117 O
0.887053 0.000368 0.120182 O
0.887001 0.499631 0.120678 O
0.112947 0.000368 0.120182 O
0.112999 0.499631 0.120678 O
0.612350 0.999376 0.126577 O
0.612636 0.500624 0.121118 O
0.386925 0.249675 0.128050 O
0.389137 0.750327 0.126207 O
0.886787 0.250026 0.129194 O
0.886699 0.749973 0.125946 O
0.113213 0.250026 0.129194 O
0.113301 0.749973 0.125946 O
0.613076 0.249674 0.128050 O
0.610863 0.750327 0.126207 O
0.250246 0.363405 0.380190 O
0.248987 0.862840 0.374380 O
0.749754 0.363405 0.380190 O
0.751013 0.862840 0.374380 O
0.250037 0.137340 0.379735 O
0.249196 0.636415 0.374834 O
0.749963 0.137340 0.379735 O
0.750804 0.636415 0.374834 O
0.250548 0.112959 0.870979 O
0.250527 0.612144 0.873357 O
0.749451 0.112959 0.870978 O
0.749473 0.612144 0.873357 O
0.250867 0.387260 0.873357 O
0.250209 0.887637 0.870979 O
0.749134 0.387259 0.873356 O
0.749790 0.887637 0.870979 O
