Na15 V32 O64                            
   1.00000000000000     
     9.1037280000000003    0.0014440000000000   -0.0019610000000000
     0.0027540000000000   11.4408709999999996   -0.0000960000000000
     0.0001410000000000    0.0005740000000000   10.6073459999999997
   Na   V    O 
    15    32    64
Direct
  0.7385352686891125  0.4079013317405540  0.1693881214776027
  0.7422548250447392  0.0741694418148597  0.1521859047089720
  0.7423725109405623  0.7988840519194227  0.1527889963588862
  0.2425494616060035  0.0622586577408981  0.3469792836136776
  0.2419663471964313  0.3136202578145699  0.3461322920735270
  0.2432687765541317  0.5617022342379201  0.3470082647788004
  0.2420716567086743  0.8127315433691891  0.3467422124153998
  0.2578902751060994  0.1875157128015843  0.8495463905338596
  0.2595804188683246  0.4378710887371398  0.8486111922346069
  0.2577905166796697  0.6884698241780072  0.8500512036668155
  0.2579052375286111  0.9377341838757047  0.8486609733800705
  0.7584948669205218  0.1871910294594414  0.6498912440440634
  0.7565766704757735  0.4375564818665723  0.6505525827704091
  0.7583822473209878  0.6875071570027202  0.6500339389684626
  0.7568858101955271  0.9376758749631477  0.6489832316166968
  0.5848583611996858  0.0614461868223231  0.8960963113895275
  0.5882025865753633  0.3114655944563864  0.8964585957793005
  0.5889651585331492  0.5652227538095076  0.8972906701999506
  0.5850149764703687  0.8139823159184800  0.8965363123564956
  0.0861472028446002  0.0616246595676273  0.6019422477362184
  0.0885450832587438  0.3108059957886624  0.6032410483215571
  0.0886637297461164  0.5641634095622194  0.6038373015228373
  0.0845045884835045  0.8123347753011601  0.6015587270392544
  0.4161940566426239  0.1891948291839896  0.1041338823591929
  0.4096570944987050  0.4390188390891581  0.1038386306156767
  0.4152708751859890  0.6859439959927229  0.1050611885210060
  0.4176837180148496  0.9383488235542785  0.1046389665528551
  0.9145489344830366  0.1868759150375112  0.3947703072219824
  0.9165263036121374  0.4381363250752486  0.4007273015626680
  0.9147148490726167  0.6866803633867065  0.3944474647532701
  0.9109771400568363  0.9377616998708831  0.3938891307228332
  0.5606829145450050  0.0658292543314403  0.3875194473829495
  0.5612482087251607  0.3107603591662098  0.3874118953415930
  0.5631248741485138  0.5653094465497546  0.3865391669438907
  0.5607990522615509  0.8104416502166245  0.3870980487587232
  0.0619349594740157  0.0593445921832014  0.1123588970597069
  0.0580162668600295  0.3084917892677268  0.1128452763069063
  0.0570971078441076  0.5658856131906091  0.1136604025373771
  0.0616943502405860  0.8168757634974781  0.1128032404042330
  0.4378955490200198  0.1886440364309863  0.6169114925468406
  0.4389410588680178  0.4375608079957303  0.6162424023680728
  0.4376929104773808  0.6889455002457865  0.6166136141796059
  0.4365348095891832  0.9368538333297849  0.6138163715019331
  0.9383951427855166  0.1869250695429656  0.8824226173634315
  0.9418867410348639  0.4378960607344240  0.8816474392084928
  0.9383770456758711  0.6888514506146777  0.8832959487091614
  0.9365720198215826  0.9381811943967975  0.8828751020540722
  0.7909103233492019  0.0629063888289281  0.8485363195552509
  0.7945791165379106  0.3137887342308900  0.8486878727541693
  0.7947005694763121  0.5622513844143242  0.8487148566651044
  0.7910228338985661  0.8125268649458590  0.8492227425354315
  0.2923116675921662  0.0626553305448141  0.6488815337995320
  0.2930595624717753  0.3114907024990927  0.6509658774518599
  0.2940318540356230  0.5635814241751476  0.6500713061294690
  0.2906838132254634  0.8122607621852538  0.6495484531120255
  0.2064389802670661  0.1907954831538419  0.1486641513975115
  0.2052354567481558  0.4381259227153720  0.1479317731293079
  0.2063726741565759  0.6852033366436672  0.1484855895859383
  0.2087398741766719  0.9374623731455642  0.1502052934897407
  0.7076285856733264  0.1867420104823694  0.3563187905838205
  0.7055512593763993  0.4379108240168890  0.3680992055361116
  0.7082461456463989  0.6898813925923690  0.3569193160503445
  0.7051059321810271  0.9380197950380165  0.3543767032317788
  0.8871683269986974  0.0625756835369700  0.5194525058974122
  0.8897519470671185  0.3123506072440492  0.5213215799083599
  0.8895570254970622  0.5625527940360584  0.5220427150573030
  0.8871639888992320  0.8121369562673522  0.5188578400006705
  0.3866915495366214  0.0626527658472895  0.9809778791132473
  0.3858295212086773  0.3126350668096762  0.9804638010449480
  0.3853498061706517  0.5636482763314135  0.9797746706458454
  0.3869156292665750  0.8134515557790039  0.9815755587853658
  0.1142844331474961  0.1868302065926954  0.4778976961147805
  0.1160875516911020  0.4374851591872471  0.4806736169998160
  0.1143041211277094  0.6876439736403981  0.4778534037067885
  0.1125115112704265  0.9373014588241659  0.4773727534276375
  0.6120531563643468  0.1880882063833127  0.0177706446996879
  0.6062080985060021  0.4389417858610614  0.0126364667001155
  0.6110977326569937  0.6880669292375998  0.0180133453121698
  0.6147117572304950  0.9379264401974723  0.0211809566183803
  0.9782928049150783  0.0626810431205698  0.2803100752847527
  0.9750095163048229  0.3146601519970460  0.2836493504169155
  0.9773606328003339  0.5605189991554127  0.2844735390184567
  0.9784431151678916  0.8123816499984926  0.2810047346996711
  0.4794510457526115  0.0643258097600921  0.2184646289389391
  0.4811632492870217  0.3149179745408617  0.2176060228808367
  0.4781442240466092  0.5614739737251853  0.2194486219374028
  0.4800880939408856  0.8117967076547146  0.2178157433147732
  0.0217306177215590  0.1866653832347609  0.7158002450811196
  0.0241603374899100  0.4374713841242936  0.7148652286968940
  0.0212355928330155  0.6881617140050977  0.7162004892190694
  0.0193084795679468  0.9375905897350592  0.7148263909903605
  0.5193766022077426  0.1881480851498480  0.7841990680803335
  0.5222299038642504  0.4375900959782157  0.7817907663994674
  0.5197268923872400  0.6876122014605741  0.7841369828528357
  0.5176016930136669  0.9373267671865833  0.7826454146990756
  0.5771374969506411  0.0635498658005318  0.5732675144311301
  0.5793963024312774  0.3104376681358758  0.5727433093324805
  0.5779849381835120  0.5651913829388207  0.5725571045015414
  0.5789373053613573  0.8122800380669943  0.5728962613051181
  0.0791741803404165  0.0617582721241732  0.9267898199886773
  0.0793192120247568  0.3116800820895733  0.9252393807073886
  0.0791222687417132  0.5637469078366948  0.9253343463328605
  0.0790394580868465  0.8142502160047300  0.9267265886503253
  0.4180588068164965  0.1883261816528190  0.4302816775341967
  0.4229839871164671  0.4374649094217560  0.4307273086112176
  0.4187609622409099  0.6886896023185116  0.4304239358696194
  0.4221279509449900  0.9375907689150296  0.4288535489156473
  0.9235978781836707  0.1879674046305198  0.0680689121130627
  0.9325586622323527  0.4379609147941395  0.0666758205227964
  0.9257473382965173  0.6883846857275415  0.0685599255439229
  0.9177850356883468  0.9375899135284556  0.0687528590270858
 
  0.00000000E+00  0.00000000E+00  0.00000000E+00
  0.00000000E+00  0.00000000E+00  0.00000000E+00
  0.00000000E+00  0.00000000E+00  0.00000000E+00
  0.00000000E+00  0.00000000E+00  0.00000000E+00
  0.00000000E+00  0.00000000E+00  0.00000000E+00
  0.00000000E+00  0.00000000E+00  0.00000000E+00
  0.00000000E+00  0.00000000E+00  0.00000000E+00
  0.00000000E+00  0.00000000E+00  0.00000000E+00
  0.00000000E+00  0.00000000E+00  0.00000000E+00
  0.00000000E+00  0.00000000E+00  0.00000000E+00
  0.00000000E+00  0.00000000E+00  0.00000000E+00
  0.00000000E+00  0.00000000E+00  0.00000000E+00
  0.00000000E+00  0.00000000E+00  0.00000000E+00
  0.00000000E+00  0.00000000E+00  0.00000000E+00
  0.00000000E+00  0.00000000E+00  0.00000000E+00
  0.00000000E+00  0.00000000E+00  0.00000000E+00
  0.00000000E+00  0.00000000E+00  0.00000000E+00
  0.00000000E+00  0.00000000E+00  0.00000000E+00
  0.00000000E+00  0.00000000E+00  0.00000000E+00
  0.00000000E+00  0.00000000E+00  0.00000000E+00
  0.00000000E+00  0.00000000E+00  0.00000000E+00
  0.00000000E+00  0.00000000E+00  0.00000000E+00
  0.00000000E+00  0.00000000E+00  0.00000000E+00
  0.00000000E+00  0.00000000E+00  0.00000000E+00
  0.00000000E+00  0.00000000E+00  0.00000000E+00
  0.00000000E+00  0.00000000E+00  0.00000000E+00
  0.00000000E+00  0.00000000E+00  0.00000000E+00
  0.00000000E+00  0.00000000E+00  0.00000000E+00
  0.00000000E+00  0.00000000E+00  0.00000000E+00
  0.00000000E+00  0.00000000E+00  0.00000000E+00
  0.00000000E+00  0.00000000E+00  0.00000000E+00
  0.00000000E+00  0.00000000E+00  0.00000000E+00
  0.00000000E+00  0.00000000E+00  0.00000000E+00
  0.00000000E+00  0.00000000E+00  0.00000000E+00
  0.00000000E+00  0.00000000E+00  0.00000000E+00
  0.00000000E+00  0.00000000E+00  0.00000000E+00
  0.00000000E+00  0.00000000E+00  0.00000000E+00
  0.00000000E+00  0.00000000E+00  0.00000000E+00
  0.00000000E+00  0.00000000E+00  0.00000000E+00
  0.00000000E+00  0.00000000E+00  0.00000000E+00
  0.00000000E+00  0.00000000E+00  0.00000000E+00
  0.00000000E+00  0.00000000E+00  0.00000000E+00
  0.00000000E+00  0.00000000E+00  0.00000000E+00
  0.00000000E+00  0.00000000E+00  0.00000000E+00
  0.00000000E+00  0.00000000E+00  0.00000000E+00
  0.00000000E+00  0.00000000E+00  0.00000000E+00
  0.00000000E+00  0.00000000E+00  0.00000000E+00
  0.00000000E+00  0.00000000E+00  0.00000000E+00
  0.00000000E+00  0.00000000E+00  0.00000000E+00
  0.00000000E+00  0.00000000E+00  0.00000000E+00
  0.00000000E+00  0.00000000E+00  0.00000000E+00
  0.00000000E+00  0.00000000E+00  0.00000000E+00
  0.00000000E+00  0.00000000E+00  0.00000000E+00
  0.00000000E+00  0.00000000E+00  0.00000000E+00
  0.00000000E+00  0.00000000E+00  0.00000000E+00
  0.00000000E+00  0.00000000E+00  0.00000000E+00
  0.00000000E+00  0.00000000E+00  0.00000000E+00
  0.00000000E+00  0.00000000E+00  0.00000000E+00
  0.00000000E+00  0.00000000E+00  0.00000000E+00
  0.00000000E+00  0.00000000E+00  0.00000000E+00
  0.00000000E+00  0.00000000E+00  0.00000000E+00
  0.00000000E+00  0.00000000E+00  0.00000000E+00
  0.00000000E+00  0.00000000E+00  0.00000000E+00
  0.00000000E+00  0.00000000E+00  0.00000000E+00
  0.00000000E+00  0.00000000E+00  0.00000000E+00
  0.00000000E+00  0.00000000E+00  0.00000000E+00
  0.00000000E+00  0.00000000E+00  0.00000000E+00
  0.00000000E+00  0.00000000E+00  0.00000000E+00
  0.00000000E+00  0.00000000E+00  0.00000000E+00
  0.00000000E+00  0.00000000E+00  0.00000000E+00
  0.00000000E+00  0.00000000E+00  0.00000000E+00
  0.00000000E+00  0.00000000E+00  0.00000000E+00
  0.00000000E+00  0.00000000E+00  0.00000000E+00
  0.00000000E+00  0.00000000E+00  0.00000000E+00
  0.00000000E+00  0.00000000E+00  0.00000000E+00
  0.00000000E+00  0.00000000E+00  0.00000000E+00
  0.00000000E+00  0.00000000E+00  0.00000000E+00
  0.00000000E+00  0.00000000E+00  0.00000000E+00
  0.00000000E+00  0.00000000E+00  0.00000000E+00
  0.00000000E+00  0.00000000E+00  0.00000000E+00
  0.00000000E+00  0.00000000E+00  0.00000000E+00
  0.00000000E+00  0.00000000E+00  0.00000000E+00
  0.00000000E+00  0.00000000E+00  0.00000000E+00
  0.00000000E+00  0.00000000E+00  0.00000000E+00
  0.00000000E+00  0.00000000E+00  0.00000000E+00
  0.00000000E+00  0.00000000E+00  0.00000000E+00
  0.00000000E+00  0.00000000E+00  0.00000000E+00
  0.00000000E+00  0.00000000E+00  0.00000000E+00
  0.00000000E+00  0.00000000E+00  0.00000000E+00
  0.00000000E+00  0.00000000E+00  0.00000000E+00
  0.00000000E+00  0.00000000E+00  0.00000000E+00
  0.00000000E+00  0.00000000E+00  0.00000000E+00
  0.00000000E+00  0.00000000E+00  0.00000000E+00
  0.00000000E+00  0.00000000E+00  0.00000000E+00
  0.00000000E+00  0.00000000E+00  0.00000000E+00
  0.00000000E+00  0.00000000E+00  0.00000000E+00
  0.00000000E+00  0.00000000E+00  0.00000000E+00
  0.00000000E+00  0.00000000E+00  0.00000000E+00
  0.00000000E+00  0.00000000E+00  0.00000000E+00
  0.00000000E+00  0.00000000E+00  0.00000000E+00
  0.00000000E+00  0.00000000E+00  0.00000000E+00
  0.00000000E+00  0.00000000E+00  0.00000000E+00
  0.00000000E+00  0.00000000E+00  0.00000000E+00
  0.00000000E+00  0.00000000E+00  0.00000000E+00
  0.00000000E+00  0.00000000E+00  0.00000000E+00
  0.00000000E+00  0.00000000E+00  0.00000000E+00
  0.00000000E+00  0.00000000E+00  0.00000000E+00
  0.00000000E+00  0.00000000E+00  0.00000000E+00
  0.00000000E+00  0.00000000E+00  0.00000000E+00
  0.00000000E+00  0.00000000E+00  0.00000000E+00
  0.00000000E+00  0.00000000E+00  0.00000000E+00
