Li17 Co18 O36                           
   1.00000000000000     
     8.1836880000000001   -0.0000540000000000    2.4234360000000001
     3.7329740000000000    7.2826959999999996    2.4234300000000002
     0.0233090000000000    0.0142540000000000    9.9385080000000006
   Li   Co   O 
    17    18    36
Direct
  0.3245291803161238  0.3803131371789064  0.5026919970184845
  0.3320026764143131  0.3344690719972019  0.0011698736326749
  0.3322886792673069  0.6678975130835051  0.0006804195196607
  0.3332812891330960  1.0008262683117499  1.0006504939984766
  0.3315702899662544  0.9954420338302608  0.5008837448804885
  0.6659976733744302  0.3342216678524467  0.0008421199837028
  0.6621267361562965  0.3411822606814084  0.5009325746611663
  0.6656455768671572  0.6684131242368748  1.0008258307330675
  0.6474085564092571  0.6681664974027949  0.5010333915726607
  0.6654327935063751  1.0005038756017606  0.0013509955870720
  0.6550712627248310  1.0113403646127241  0.5019510878428028
 -0.0001324668416052  0.3344899902556546  1.0005754506112388
  0.0045439113617216  0.3343818314920655  0.4995522009041931
 -0.0007951708697618  0.6672514455736408  0.0009788739443185
 -0.0079105471387560  0.6755738313205919  0.5006258256386663
 -0.0006051142430334  1.0011637790684933  0.0003443451800303
  0.0135098347104573  0.9859209157720835  0.5005803184671627
  0.1645833328544263  0.1700951965742674  0.2482488194947621
  0.1671631523285191  0.1677644364449100  0.7505369173645228
  0.1644215758762163  0.5030376595826499  0.2481210299094099
  0.1667688666753636  0.5018295635822370  0.7513504045403792
  0.1645682608711425  0.8362249333457815  0.2503420584592102
  0.1671342765702293  0.8336617125383143  0.7502839791938735
  0.4970133605215615  0.1695884523431195  0.2512267495263499
  0.4997780405977620  0.1665943084382726  0.7535344556035878
  0.4972072012937081  0.5035877096621190  0.2505124353400796
  0.4995782006323534  0.5014234435375811  0.7513640013986738
  0.4970783730521963  0.8352980441618890  0.2513037055869344
  0.4995943093031938  0.8339156760422070  0.7535490890713685
  0.8307678989417190  0.1693673472461036  0.2509009688742098
  0.8335566978884629  0.1676111766022274  0.7505190320082925
  0.8318669992678586  0.5025281432650807  0.2487806609560003
  0.8333145297135892  0.5011555637465209  0.7508779325284950
  0.8306237608732778  0.8358752576434550  0.2509592929569657
  0.8324054070760571  0.8341089416083235  0.7529233514623977
  0.2504009199036527  0.2572701228131191  0.3565421355955886
  0.2526585775087166  0.2544220155407039  0.8606809904513002
  0.2492016279048219  0.5910089462902643  0.3532078705498764
  0.2533721434885653  0.5883413609438609  0.8603603233962123
  0.2502943398451692  0.9280296898487448  0.3542321451156881
  0.2523540407705493  0.9218808117844481  0.8604725712194050
  0.5836483492043446  0.2577865022173874  0.3596761663135105
  0.5880321833025420  0.2541039572991561  0.8608638051519478
  0.5894389760282077  0.5880993955671526  0.3547517609471196
  0.5878279638051367  0.5863169632549038  0.8611436363299335
  0.5837848867211419  0.9226324492859239  0.3600137516905861
  0.5860908919589927  0.9203189393704962  0.8639984880321172
  0.9189931628050232  0.2567309852949675  0.3574977997709329
  0.9207359497962355  0.2546048856466059  0.8587780597048509
  0.9188750319141223  0.5889611080561045  0.3576527632891982
  0.9197754752864221  0.5872879492968676  0.8604797251282751
  0.9182051616181897  0.9228267412686884  0.3594065713273464
  0.9204022273905087  0.9217738467062599  0.8600811803264753
  0.0765031877907475  0.0824519021941129  0.1406570694657987
  0.0803829127659657  0.0802127959543558  0.6415453707543720
  0.0782132993239975  0.4164972298931099  0.1377578994706268
  0.0803107548915055  0.4152277538088459  0.6419336348340517
  0.0762980376329300  0.7502957526801518  0.1406669045545027
  0.0746519675067364  0.7477916969194154  0.6469454266566546
  0.4118614845259332  0.0821536612634775  0.1414278937553640
  0.4136823023636851  0.0788167384409492  0.6454315435004994
  0.4117270259808779  0.4151481609857481  0.1408681386107938
  0.4146140095907476  0.4095171590008046  0.6482762055998497
  0.4109515314061936  0.7491569209189122  0.1413053629389280
  0.4139049860147855  0.7482442682502771  0.6475305595666001
  0.7435700401586365  0.0821673853724917  0.1427935804909855
  0.7452954963893127  0.0800293700510488  0.6439861973759241
  0.7444123214420744  0.4148520693392508  0.1411716995723586
  0.7457966079052791  0.4144501345652176  0.6421918173597109
  0.7440718752168417  0.7495575831421035  0.1416247576885734
  0.7449132146721775  0.7479836136305107  0.6443707712425212
 
             NaN             NaN             NaN
             NaN             NaN             NaN
             NaN             NaN             NaN
             NaN             NaN             NaN
             NaN             NaN             NaN
             NaN             NaN             NaN
             NaN             NaN             NaN
             NaN             NaN             NaN
             NaN             NaN             NaN
             NaN             NaN             NaN
             NaN             NaN             NaN
             NaN             NaN             NaN
             NaN             NaN             NaN
             NaN             NaN             NaN
             NaN             NaN             NaN
             NaN             NaN             NaN
             NaN             NaN             NaN
             NaN             NaN             NaN
             NaN             NaN             NaN
             NaN             NaN             NaN
             NaN             NaN             NaN
             NaN             NaN             NaN
             NaN             NaN             NaN
             NaN             NaN             NaN
             NaN             NaN             NaN
             NaN             NaN             NaN
             NaN             NaN             NaN
             NaN             NaN             NaN
             NaN             NaN             NaN
             NaN             NaN             NaN
             NaN             NaN             NaN
             NaN             NaN             NaN
             NaN             NaN             NaN
             NaN             NaN             NaN
             NaN             NaN             NaN
             NaN             NaN             NaN
             NaN             NaN             NaN
             NaN             NaN             NaN
             NaN             NaN             NaN
             NaN             NaN             NaN
             NaN             NaN             NaN
             NaN             NaN             NaN
             NaN             NaN             NaN
             NaN             NaN             NaN
             NaN             NaN             NaN
             NaN             NaN             NaN
             NaN             NaN             NaN
             NaN             NaN             NaN
             NaN             NaN             NaN
             NaN             NaN             NaN
             NaN             NaN             NaN
             NaN             NaN             NaN
             NaN             NaN             NaN
             NaN             NaN             NaN
             NaN             NaN             NaN
             NaN             NaN             NaN
             NaN             NaN             NaN
             NaN             NaN             NaN
             NaN             NaN             NaN
             NaN             NaN             NaN
             NaN             NaN             NaN
             NaN             NaN             NaN
             NaN             NaN             NaN
             NaN             NaN             NaN
             NaN             NaN             NaN
             NaN             NaN             NaN
             NaN             NaN             NaN
             NaN             NaN             NaN
             NaN             NaN             NaN
             NaN             NaN             NaN
             NaN             NaN             NaN
