Mg15 Mn32 O64                           
   1.00000000000000     
    11.6366650000000007    0.0000040000000000    0.0000000000000000
     0.0000040000000000   11.6287540000000007    0.0000000000000000
     0.0000000000000000    0.0000000000000000    9.3708310000000008
   Mg   Mn   O 
    15    32    64
Direct
  0.4999998928910916  0.5482572068050626  0.5298783796749342
  0.5000000559901492  0.2520216429985567  0.7521806654269541
 -0.0000000090734255  0.2502702474300111  0.7485963596676487
  0.0000000401578414  0.7498670597363121  0.7483506817799231
 -0.0000000018239566  0.4996108637591226  0.5019065745981577
  0.0000000537162014  0.9992905662586703  0.5029571023787389
  0.5000000673805627  0.9971306026352150  0.4973922354889760
  0.2466951272042427  0.0034400417817342  0.2510452440434366
  0.2474376582370135  0.4985352434230212  0.2532174936874108
  0.7533049542211506  0.0034400762118983  0.2510452031093784
  0.7525623998050025  0.4985353401868193  0.2532174581219371
  0.2495372425566812  0.2494483351920063  0.9997320214715247
  0.2513625271814802  0.7504807539520867  0.9957028382588667
  0.7504628076513540  0.2494484164051477  0.9997319788081035
  0.7486375243648703  0.7504807749409337  0.9957028029651048
  0.1250056474326050  0.2499240162968513  0.3778676862333282
  0.1237794064896917  0.7505691645048878  0.3737495005966577
  0.6236700193442404  0.2521475517722452  0.3793902668741644
  0.6288898153599076  0.7533520600875795  0.3652759566437588
  0.3763299427561726  0.2521475035443404  0.3793900965335147
  0.3711101706010610  0.7533520162986095  0.3652756719060828
  0.8749943459442967  0.2499240729721357  0.3778673542791935
  0.8762205488543504  0.7505692619101176  0.3737491938389653
  0.1247393509249580  0.4994779102568569  0.8745509591992747
  0.1250761302328568 -0.0003000101848982  0.8720178503876926
  0.6255553992448020  0.5008461372957057  0.8824122271710444
  0.6247231462266744  0.9994888938601599  0.8785650764824667
  0.3744446155916076  0.5008460979037516  0.8824124537079895
  0.3752769907734291  0.9994888096281962  0.8785650085150247
  0.8752606891063275  0.4994779101504449  0.8745508313797864
  0.8749239649089070 -0.0002999536002927  0.8720178801956148
  0.5000000387192791  0.1266307295426415  0.1286378500650600
  0.5000000517826914  0.6244347866361145  0.1258242942200862
  0.0000000607071661  0.1251921880347970  0.1241743159216991
  0.0000000410555182  0.6250591910670500  0.1231897974281626
  0.5000000541355440  0.3756822216847410  0.1329763738834719
  0.5000000618067224  0.8784256532883912  0.1245449594697666
  0.0000000404904367  0.3745866494059233  0.1256479546823574
  0.0000000662334181  0.8750119429355885  0.1219449970940559
  0.2517849144267039  0.3755013681453989  0.6267867472072706
  0.2542093111900026  0.8717955999242092  0.6234185805976964
  0.7482151116115299  0.3755014946951044  0.6267864746249348
  0.7457908521503063  0.8717957557341077  0.6234187352651586
  0.2517712412071211  0.1235817270807000  0.6252823327579983
  0.2497988462762416  0.6263634778544651  0.6242877018099243
  0.7482288827631003  0.1235818335010269  0.6252821214693904
  0.7502011609177244  0.6263636469778210  0.6242878014099772
  0.1384517783097986  0.2496065351740791  0.6225612114982063
  0.1367537702770725  0.7507589826716696  0.6200600908094475
  0.6364063623387229  0.2497820097531939  0.6235768546253644
  0.6383911971514854  0.7453913030797625  0.5976443720456933
  0.3635936831466264  0.2497818009641314  0.6235770291422856
  0.3616089088654978  0.7453909281693332  0.5976442288783697
  0.8615482697606821  0.2496065587402465  0.6225610966403979
  0.8632463096488735  0.7507589308996524  0.6200601414927552
  0.1374136532819740  0.4988862635818851  0.6298872286189484
  0.1393651054824582 -0.0014560216366652  0.6286532880088000
  0.6360511560993415  0.5030246424760193  0.6376548590046260
  0.6340384126967294  0.9981445530787789  0.6296240609636173
  0.3639488385185112  0.5030243733655934  0.6376549571838493
  0.3659617288634721  0.9981443061807855  0.6296240819924304
  0.8625863464075771  0.4988862590070186  0.6298872002740806
  0.8606350580420828 -0.0014560073760229  0.6286533067066389
  0.4999999717915722  0.1129617217971120  0.8811843482831718
  0.4999999573116256  0.6110667559704509  0.9234746337794866
  1.0000000179037740  0.1127227025969251  0.8764137823382436
  0.9999999650981932  0.6127205440987098  0.8775902975467745
  0.5000000955051844  0.3884083878346120  0.8840707448919960
  0.5000001342238175  0.8900495810103689  0.9214464327794705
  0.0000000678224720  0.3862643814752715  0.8788362014669012
  0.0000001081707633  0.8867975898442961  0.8768581542660405
 -0.0000000463765872  0.3628885744495083  0.3725250505417202
 -0.0000000363366606  0.8638290717985500  0.3704502116767802
  0.4999999181384177  0.3642038920976275  0.3715173340711743
  0.4999999786906496  0.8686225715868533  0.3437236251403721
  0.0000000528556511  0.1363259290233596  0.3730107652620491
  0.0000000178770125  0.6367606366403157  0.3714608017489032
  0.5000000681598522  0.1371150298242557  0.3720130099709151
  0.5000000473321683  0.6405565083050114  0.3468094610706235
  0.3880476363198268  0.9994021627443656  0.1284031920965001
  0.3884729282748910  0.5032638270212799  0.1309277787046892
  0.8870204874059517  0.0005276134606509  0.1192124233739702
  0.8871375406329071  0.4994249385651672  0.1214489919219488
  0.1129796341618972  0.0005274931581607  0.1192124489179205
  0.1128625299663580  0.4994248053320469  0.1214490297801731
  0.6119524336050597  0.9994020574530537  0.1284032218305939
  0.6115271600471621  0.5032637275980022  0.1309277337640511
  0.3867498552605117  0.2506848421077159  0.1290626406195600
  0.3903597503919995  0.7514069116170674  0.1249634487978895
  0.8867025951119959  0.2496371324472757  0.1291850817425085
  0.8867099777917972  0.7502650081979892  0.1256125536255730
  0.1132974744071310  0.2496370061675497  0.1291851369495963
  0.1132900979649790  0.7502648819596172  0.1256126230591189
  0.6132502143079609  0.2506847379659033  0.1290626632425887
  0.6096403204519618  0.7514067765143171  0.1249634479782511
  0.2492499196320300  0.3636548688395791  0.3821146100373359
  0.2483336369909724  0.8645357023970011  0.3726871672913137
  0.7507499668478822  0.3636549482827210  0.3821145294333410
  0.7516662753503138  0.8645357817427016  0.3726871501251636
  0.2505617151081262  0.1379099435514680  0.3808499466745189
  0.2483012854266830  0.6383878812836140  0.3718138416565469
  0.7494384168335555  0.1379100136443409  0.3808498579890999
  0.7516987791939844  0.6383879769432108  0.3718138418151783
  0.2509435036012141  0.1124720288130236  0.8713393298138472
  0.2492335480285178  0.6121470811409477  0.8739862666035370
  0.7490564916426753  0.1124721012089118  0.8713393297989319
  0.7507663763310967  0.6121471110103489  0.8739861962919603
  0.2507900138260742  0.3869805421904425  0.8733075672866536
  0.2506708525503661  0.8873738064668155  0.8705731894813984
  0.7492101241321680  0.3869805765684505  0.8733074234446839
  0.7493293716311528  0.8873738806990545  0.8705732196642322
 
             NaN             NaN             NaN
             NaN             NaN             NaN
             NaN             NaN             NaN
             NaN             NaN             NaN
             NaN             NaN             NaN
             NaN             NaN             NaN
             NaN             NaN             NaN
             NaN             NaN             NaN
             NaN             NaN             NaN
             NaN             NaN             NaN
             NaN             NaN             NaN
             NaN             NaN             NaN
             NaN             NaN             NaN
             NaN             NaN             NaN
             NaN             NaN             NaN
             NaN             NaN             NaN
             NaN             NaN             NaN
             NaN             NaN             NaN
             NaN             NaN             NaN
             NaN             NaN             NaN
             NaN             NaN             NaN
             NaN             NaN             NaN
             NaN             NaN             NaN
             NaN             NaN             NaN
             NaN             NaN             NaN
             NaN             NaN             NaN
             NaN             NaN             NaN
             NaN             NaN             NaN
             NaN             NaN             NaN
             NaN             NaN             NaN
             NaN             NaN             NaN
             NaN             NaN             NaN
             NaN             NaN             NaN
             NaN             NaN             NaN
             NaN             NaN             NaN
             NaN             NaN             NaN
             NaN             NaN             NaN
             NaN             NaN             NaN
             NaN             NaN             NaN
             NaN             NaN             NaN
             NaN             NaN             NaN
             NaN             NaN             NaN
             NaN             NaN             NaN
             NaN             NaN             NaN
             NaN             NaN             NaN
             NaN             NaN             NaN
             NaN             NaN             NaN
             NaN             NaN             NaN
             NaN             NaN             NaN
             NaN             NaN             NaN
             NaN             NaN             NaN
             NaN             NaN             NaN
             NaN             NaN             NaN
             NaN             NaN             NaN
             NaN             NaN             NaN
             NaN             NaN             NaN
             NaN             NaN             NaN
             NaN             NaN             NaN
             NaN             NaN             NaN
             NaN             NaN             NaN
             NaN             NaN             NaN
             NaN             NaN             NaN
             NaN             NaN             NaN
             NaN             NaN             NaN
             NaN             NaN             NaN
             NaN             NaN             NaN
             NaN             NaN             NaN
             NaN             NaN             NaN
             NaN             NaN             NaN
             NaN             NaN             NaN
             NaN             NaN             NaN
             NaN             NaN             NaN
             NaN             NaN             NaN
             NaN             NaN             NaN
             NaN             NaN             NaN
             NaN             NaN             NaN
             NaN             NaN             NaN
             NaN             NaN             NaN
             NaN             NaN             NaN
             NaN             NaN             NaN
             NaN             NaN             NaN
             NaN             NaN             NaN
             NaN             NaN             NaN
             NaN             NaN             NaN
             NaN             NaN             NaN
             NaN             NaN             NaN
             NaN             NaN             NaN
             NaN             NaN             NaN
             NaN             NaN             NaN
             NaN             NaN             NaN
             NaN             NaN             NaN
             NaN             NaN             NaN
             NaN             NaN             NaN
             NaN             NaN             NaN
             NaN             NaN             NaN
             NaN             NaN             NaN
             NaN             NaN             NaN
             NaN             NaN             NaN
             NaN             NaN             NaN
             NaN             NaN             NaN
             NaN             NaN             NaN
             NaN             NaN             NaN
             NaN             NaN             NaN
             NaN             NaN             NaN
             NaN             NaN             NaN
             NaN             NaN             NaN
             NaN             NaN             NaN
             NaN             NaN             NaN
             NaN             NaN             NaN
             NaN             NaN             NaN
             NaN             NaN             NaN
