Mg15 Mn32 O64
1.0
11.636665 0.000004 -0.000000
0.000004 11.628754 -0.000000
-0.000000 -0.000000 9.370831
Mg Mn O
15 32 64
direct
0.500001 0.534902 0.530732 Mg
0.500001 0.250311 0.750889 Mg
1.000000 0.249971 0.748476 Mg
1.000000 0.750028 0.748362 Mg
1.000000 0.500385 0.501737 Mg
0.000000 -0.000386 0.501311 Mg
0.500000 0.996038 0.499800 Mg
0.247392 0.001420 0.250951 Mg
0.247898 0.498580 0.250722 Mg
0.752607 1.001420 0.250951 Mg
0.752102 0.498580 0.250722 Mg
0.249569 0.249613 -0.000250 Mg
0.251865 0.750387 -0.003851 Mg
0.750430 0.249613 -0.000250 Mg
0.748135 0.750387 -0.003850 Mg
0.124892 0.250138 0.376744 Mn
0.124246 0.749862 0.373677 Mn
0.624564 0.250200 0.378047 Mn
0.627077 0.749800 0.371258 Mn
0.375436 0.250200 0.378047 Mn
0.372923 0.749800 0.371258 Mn
0.875108 0.250138 0.376743 Mn
0.875754 0.749862 0.373677 Mn
0.124989 0.499795 0.873718 Mn
0.125028 1.000204 0.873078 Mn
0.624886 0.500855 0.877784 Mn
0.624638 0.999145 0.877284 Mn
0.375114 0.500855 0.877785 Mn
0.375362 0.999145 0.877285 Mn
0.875011 0.499795 0.873718 Mn
0.874971 1.000204 0.873078 Mn
0.500000 0.125377 0.128334 Mn
0.500000 0.623825 0.124887 Mn
-0.000000 0.125193 0.124408 Mn
0.000000 0.625174 0.122657 Mn
0.500000 0.374173 0.128061 Mn
0.500000 0.876628 0.125161 Mn
0.000000 0.374804 0.124655 Mn
1.000000 0.874827 0.122410 Mn
0.251099 0.375659 0.626344 Mn
0.251361 0.873389 0.622967 Mn
0.748902 0.375659 0.626344 Mn
0.748639 0.873390 0.622966 Mn
0.250947 0.124405 0.625692 Mn
0.251513 0.626546 0.623619 Mn
0.749054 0.124405 0.625691 Mn
0.748487 0.626546 0.623619 Mn
0.137755 0.250118 0.621469 O
0.136001 0.749882 0.619458 O
0.636519 0.250064 0.622401 O
0.640759 0.749936 0.602896 O
0.363483 0.250064 0.622402 O
0.359241 0.749936 0.602897 O
0.862246 0.250118 0.621466 O
0.863998 0.749882 0.619458 O
0.137891 0.499810 0.629245 O
0.137757 0.000190 0.628745 O
0.635551 0.500538 0.635829 O
0.635266 -0.000538 0.630370 O
0.364449 0.500538 0.635827 O
0.364734 -0.000538 0.630371 O
0.862109 0.499810 0.629245 O
0.862244 0.000190 0.628745 O
0.500000 0.112460 0.880620 O
0.500000 0.610432 0.914973 O
-0.000001 0.113368 0.877788 O
0.999999 0.612762 0.877248 O
0.500000 0.387959 0.880995 O
0.499999 0.889150 0.914598 O
1.000000 0.386666 0.877911 O
-0.000000 0.887201 0.877125 O
0.000000 0.363347 0.372019 O
1.000000 0.863383 0.369862 O
0.500000 0.362958 0.370939 O
0.500000 0.864595 0.350504 O
0.000000 0.136838 0.371869 O
0.000000 0.636431 0.370012 O
0.500000 0.136379 0.373335 O
0.500000 0.636067 0.348107 O
0.387847 -0.000727 0.127735 O
0.387704 0.500729 0.125005 O
0.887118 0.000430 0.119892 O
0.887092 0.499570 0.120141 O
0.112881 0.000430 0.119892 O
0.112908 0.499570 0.120141 O
0.612152 0.999272 0.127735 O
0.612295 0.500728 0.125005 O
0.386927 0.249839 0.128932 O
0.389509 0.750164 0.126781 O
0.886726 0.250013 0.129044 O
0.886623 0.749986 0.125254 O
0.113274 0.250013 0.129044 O
0.113377 0.749986 0.125254 O
0.613073 0.249837 0.128932 O
0.610491 0.750164 0.126781 O
0.250185 0.363132 0.380101 O
0.248855 0.862970 0.373625 O
0.749815 0.363132 0.380100 O
0.751145 0.862970 0.373625 O
0.250080 0.137241 0.379872 O
0.248959 0.636658 0.373852 O
0.749920 0.137241 0.379872 O
0.751040 0.636658 0.373852 O
0.250720 0.112977 0.871231 O
0.250483 0.612172 0.872420 O
0.749279 0.112977 0.871230 O
0.749517 0.612172 0.872421 O
0.250880 0.387133 0.872420 O
0.250324 0.887719 0.871231 O
0.749121 0.387132 0.872420 O
0.749675 0.887718 0.871231 O
