Li47 P16 O64
1.0
10.440543 -0.000792 -0.014428
-0.000912 12.236986 -0.001472
-0.013641 -0.001184 9.832672
Li P O
47 16 64
direct
0.599010 0.282088 0.097417 Li
0.665544 0.250144 0.599028 Li
0.663452 0.750142 0.097449 Li
0.664181 0.751016 0.598454 Li
0.164903 0.497486 0.151323 Li
0.164943 0.498618 0.652327 Li
0.164251 0.997931 0.152283 Li
0.164993 0.998704 0.652434 Li
0.336802 0.000853 0.400852 Li
0.336641 0.001087 0.904952 Li
0.338993 0.498850 0.398153 Li
0.338069 0.496947 0.907826 Li
0.834273 0.249087 0.345977 Li
0.833597 0.249046 0.850487 Li
0.836351 0.748485 0.347819 Li
0.836311 0.748810 0.847592 Li
0.338846 0.251233 0.398357 Li
0.337997 0.252377 0.907632 Li
0.336918 0.749222 0.400697 Li
0.336546 0.749168 0.904521 Li
0.836546 0.001787 0.347621 Li
0.836437 0.001516 0.847756 Li
0.834698 0.500800 0.347455 Li
0.833707 0.500521 0.849188 Li
0.656877 0.495560 0.096864 Li
0.665632 0.501108 0.597806 Li
0.663997 1.000770 0.098309 Li
0.664094 0.999982 0.598294 Li
0.164640 0.251850 0.150902 Li
0.164893 0.251335 0.652353 Li
0.164534 0.750987 0.151892 Li
0.164841 0.751241 0.652599 Li
0.919435 0.374634 0.147842 Li
0.922146 0.374828 0.649176 Li
0.922601 0.875194 0.149111 Li
0.923802 0.875202 0.648660 Li
0.425970 0.375241 0.605978 Li
0.427529 0.875225 0.101552 Li
0.424630 0.875306 0.600576 Li
0.077255 0.125772 0.349882 Li
0.077516 0.125668 0.852427 Li
0.077124 0.624053 0.350535 Li
0.077304 0.624034 0.852139 Li
0.576186 0.127332 0.397894 Li
0.574898 0.127603 0.902471 Li
0.576145 0.623727 0.399542 Li
0.574176 0.623712 0.899206 Li
0.912034 0.124935 0.095478 P
0.913395 0.124638 0.595352 P
0.910921 0.625052 0.095316 P
0.913194 0.625515 0.595443 P
0.409151 0.120913 0.154128 P
0.411369 0.124538 0.654814 P
0.409938 0.628067 0.153954 P
0.411082 0.625833 0.654798 P
0.087688 0.375122 0.404627 P
0.086384 0.375018 0.904593 P
0.087872 0.874804 0.405001 P
0.087816 0.874773 0.904977 P
0.590902 0.375635 0.348778 P
0.587103 0.374816 0.838906 P
0.589830 0.875080 0.345706 P
0.589077 0.875222 0.844965 P
0.842191 0.021464 0.146773 O
0.843052 0.021431 0.646229 O
0.839659 0.522841 0.146164 O
0.843391 0.523254 0.648298 O
0.333675 0.217824 0.098856 O
0.341448 0.226904 0.601633 O
0.343733 0.734969 0.106983 O
0.341838 0.729427 0.602673 O
0.157776 0.272263 0.353262 O
0.156545 0.272293 0.852945 O
0.157671 0.771833 0.353446 O
0.158155 0.771833 0.853894 O
0.660334 0.479200 0.403125 O
0.655134 0.477570 0.895998 O
0.659384 0.978244 0.397855 O
0.659279 0.977990 0.896807 O
0.158095 0.477996 0.353553 O
0.156606 0.477796 0.852983 O
0.157689 0.977723 0.353740 O
0.158326 0.977560 0.853917 O
0.660348 0.272224 0.402733 O
0.655174 0.271553 0.891269 O
0.659464 0.772019 0.398191 O
0.658834 0.771851 0.896228 O
0.843009 0.227377 0.147022 O
0.843806 0.226953 0.648168 O
0.841451 0.728558 0.146550 O
0.842969 0.728725 0.646333 O
0.342199 0.014062 0.107705 O
0.341971 0.020978 0.602500 O
0.334196 0.531247 0.099212 O
0.341384 0.523589 0.601065 O
0.547513 0.121179 0.101709 O
0.550521 0.124338 0.603654 O
0.548812 0.626740 0.101124 O
0.550535 0.626539 0.604425 O
0.051331 0.123716 0.147161 O
0.052450 0.123995 0.647376 O
0.049739 0.624925 0.147994 O
0.052234 0.625885 0.647377 O
0.452476 0.375235 0.402767 O
0.445549 0.374691 0.875221 O
0.450826 0.874975 0.396963 O
0.450204 0.875063 0.896176 O
0.948752 0.375453 0.352289 O
0.947263 0.375108 0.852130 O
0.948744 0.874814 0.353072 O
0.949166 0.874872 0.851640 O
0.596282 0.376821 0.194681 O
0.597941 0.376815 0.682483 O
0.592532 0.874803 0.188948 O
0.590388 0.875351 0.687945 O
0.085943 0.375072 0.061375 O
0.088244 0.375052 0.561742 O
0.087392 0.874463 0.061767 O
0.089021 0.874743 0.561997 O
0.410239 0.124111 0.311620 O
0.409241 0.124320 0.811568 O
0.411437 0.625827 0.311344 O
0.408666 0.625554 0.811589 O
0.912123 0.125126 0.438397 O
0.911333 0.124422 0.938265 O
0.911867 0.624992 0.438486 O
0.910711 0.625293 0.938215 O
