Li17 Co18 O36
1.0
8.055728 -0.003503 2.373601
3.680097 7.167220 2.370502
-0.012921 -0.004104 9.888618
Li Co O
17 18 36
direct
0.333174 0.657070 0.500011 Li
0.333139 0.333136 0.000199 Li
0.332860 0.666243 0.000251 Li
0.332813 0.008745 0.500315 Li
0.333580 0.999621 0.999704 Li
0.657111 0.333134 0.499985 Li
0.666304 0.332839 0.000221 Li
0.666108 0.666121 0.501574 Li
0.666327 0.666292 0.000846 Li
0.657310 0.008957 0.499831 Li
0.666162 0.000003 0.999771 Li
0.008731 0.332787 0.500304 Li
0.999643 0.333570 0.999707 Li
0.008934 0.657275 0.499863 Li
0.000013 0.666107 0.999798 Li
0.999926 0.999902 0.498791 Li
0.999786 0.999764 0.999212 Li
0.166409 0.166446 0.247849 Co
0.167569 0.167570 0.749508 Co
0.168049 0.499553 0.252312 Co
0.167229 0.499199 0.748344 Co
0.166809 0.834804 0.248473 Co
0.166827 0.833693 0.749330 Co
0.499501 0.168128 0.252298 Co
0.499206 0.167230 0.748338 Co
0.499689 0.499766 0.250737 Co
0.499832 0.499800 0.750683 Co
0.500044 0.833745 0.251041 Co
0.500149 0.832454 0.751812 Co
0.834781 0.166870 0.248436 Co
0.833727 0.166952 0.749192 Co
0.833538 0.500200 0.251079 Co
0.832444 0.500202 0.751772 Co
0.832881 0.832963 0.250181 Co
0.833253 0.833298 0.748464 Co
0.252592 0.252574 0.355901 O
0.253797 0.253744 0.859595 O
0.253335 0.591714 0.355957 O
0.252527 0.586945 0.859632 O
0.253051 0.921038 0.358885 O
0.252542 0.920436 0.860381 O
0.591720 0.253354 0.355929 O
0.587057 0.252486 0.859570 O
0.586508 0.586594 0.360595 O
0.585869 0.585783 0.862914 O
0.586594 0.920750 0.360911 O
0.587381 0.920616 0.860047 O
0.920970 0.253106 0.358888 O
0.920461 0.252555 0.860358 O
0.920714 0.586624 0.360924 O
0.920622 0.587367 0.860032 O
0.920534 0.920542 0.358459 O
0.920078 0.920156 0.858587 O
0.080628 0.080530 0.136312 O
0.080661 0.080523 0.639757 O
0.079833 0.414553 0.140351 O
0.075428 0.413610 0.644423 O
0.079683 0.745817 0.140040 O
0.080404 0.745914 0.639063 O
0.414532 0.079899 0.140307 O
0.413679 0.075336 0.644434 O
0.413167 0.413219 0.140907 O
0.413614 0.413583 0.643775 O
0.414305 0.746728 0.139979 O
0.413533 0.746225 0.641109 O
0.745875 0.079699 0.139992 O
0.745974 0.080365 0.639034 O
0.746706 0.414336 0.139980 O
0.746300 0.413473 0.641056 O
0.746240 0.746251 0.140802 O
0.745901 0.745798 0.640868 O
