Li16 Co18 O36                           
   1.00000000000000     
     8.0633520000000001    0.0216390000000000    2.3671690000000001
     3.6626080000000001    7.1811160000000003    2.3717779999999999
     0.0313660000000000    0.0121200000000000    9.8894839999999995
   Li   Co   O 
    16    18    36
Direct
  0.7323893581000860  0.3993548392187876  0.4847479908973042
  0.3340152145540074  0.3335003161819685  0.9990270158324535
  0.3317965177434772  0.3343334357622751  0.4988000090716582
  0.3336902440603282  0.6673148256225829  0.0005509171388809
  0.3456412104359075  0.6622835899515209  0.5005059340230815
  0.3339263597119313  0.0001529547996384  0.9992545569785705
  0.3335264562601594  0.0006842565014864  0.4990616627618607
  0.6672129950817123  0.3340529031116830  0.9998702980167451
  0.6654389521373574  0.6681543464440409  0.9993874565869092
  0.6667067455473088  0.0005381171385750  0.9996208108996143
  0.6682494526465774  0.9980106714114498  0.4988647502611556
  0.0018716465530062  0.3320677901654960  0.9991251358144169
  0.0010598104131816  0.6670565362544352  0.9997659569446071
  0.9839328883815952  0.6502668053462912  0.5001029626447675
  0.0006348505428733  0.0001243710814265  0.0007289556865686
  0.9955051798819952  0.0127352579808218  0.5003951072047457
  0.1684568211880944  0.1689340283328917  0.2484107383984906
  0.1655070823559726  0.1655616385161238  0.7483752461914790
  0.1673147603019203  0.5004675904778395  0.2476725762438718
  0.1666114239249339  0.4990427761944147  0.7520832682319920
  0.1661274237481223  0.8342988701626055  0.2501315338382142
  0.1650774622046498  0.8311542907011216  0.7533990569492772
  0.5016354602232553  0.1696751712963476  0.2445946420599938
  0.5006715760310954  0.1656090291757479  0.7486057985536902
  0.5008283629312587  0.5011263774126107  0.2483457447234230
  0.4985078109780616  0.4992917241527337  0.7520231660336449
  0.5009448199678133  0.8358684229019531  0.2491579873834411
  0.5003863406222138  0.8315626743322468  0.7478928817736872
  0.8335938625360200  0.1686004432031041  0.2478267080099457
  0.8331319818277052  0.1641130913962243  0.7526616197252949
  0.8349400896039114  0.5024768611140402  0.2438745700472751
  0.8343816878670296  0.4992124452831348  0.7515428371233241
  0.8324576332133233  0.8351519461025063  0.2476618093579077
  0.8334579820697599  0.8322681305616157  0.7536258276124883
  0.2600391026626596  0.2543323469767529  0.3520083815298563
  0.2540616809898779  0.2508710563798857  0.8584446117263340
  0.2536924475474649  0.5869232993774389  0.3574976749951091
  0.2529705757272751  0.5845167135680072  0.8630719274327348
  0.2540411839532055  0.9221415022792456  0.3583536469332245
  0.2540270078492881  0.9193810422645754  0.8594269388616453
  0.5869407714589698  0.2542521846178616  0.3529935138239608
  0.5851896506308520  0.2513885202665875  0.8608249869011289
  0.5881482322821796  0.5893561625471975  0.3518542107624256
  0.5858408012068352  0.5873456908859040  0.8605537607633664
  0.5865236967774905  0.9278705506113738  0.3521998300109743
  0.5849903988889054  0.9196222569245336  0.8590923329287889
  0.9220831992152299  0.2556043260119054  0.3514275522905663
  0.9213793458792807  0.2514027336074705  0.8610037725714506
  0.9221488437894152  0.5897804681844221  0.3483387100994833
  0.9200978302121712  0.5850018398659671  0.8626195628544551
  0.9190898538429764  0.9216686313777913  0.3572721578111882
  0.9188306207177206  0.9187223756669738  0.8640642298092018
  0.0814030194961362  0.0804761406851213  0.1398058308437342
  0.0787537736419139  0.0738320239795698  0.6460865305041068
  0.0825820656191638  0.4139700203179473  0.1367085034693289
  0.0799744259967952  0.4136226777284122  0.6456326467460372
  0.0805367092757123  0.7483196869749236  0.1394468509650579
  0.0788798820919112  0.7453558150231387  0.6451089805758912
  0.4138473671152241  0.0810978488022585  0.1374738992801738
  0.4131507182157179  0.0789711877562880  0.6393223782006530
  0.4140099749422035  0.4169805403835696  0.1366219650340668
  0.4112044238102683  0.4136465628085659  0.6439460709190925
  0.4126957703329239  0.7488930384938683  0.1403079992233316
  0.4079126542824909  0.7451524009741490  0.6457087148953065
  0.7490454084185814  0.0817429930617948  0.1365516550970582
  0.7482978226229520  0.0763401534404338  0.6445495796200902
  0.7468303105359055  0.4146646133317731  0.1368106713502968
  0.7441159149242438  0.4096154990192389  0.6567894829627861
  0.7460246234722945  0.7500355542872725  0.1370489957228926
  0.7486619491166024  0.7457063239504862  0.6462848362429554
 
  0.00000000E+00  0.00000000E+00  0.00000000E+00
  0.00000000E+00  0.00000000E+00  0.00000000E+00
  0.00000000E+00  0.00000000E+00  0.00000000E+00
  0.00000000E+00  0.00000000E+00  0.00000000E+00
  0.00000000E+00  0.00000000E+00  0.00000000E+00
  0.00000000E+00  0.00000000E+00  0.00000000E+00
  0.00000000E+00  0.00000000E+00  0.00000000E+00
  0.00000000E+00  0.00000000E+00  0.00000000E+00
  0.00000000E+00  0.00000000E+00  0.00000000E+00
  0.00000000E+00  0.00000000E+00  0.00000000E+00
  0.00000000E+00  0.00000000E+00  0.00000000E+00
  0.00000000E+00  0.00000000E+00  0.00000000E+00
  0.00000000E+00  0.00000000E+00  0.00000000E+00
  0.00000000E+00  0.00000000E+00  0.00000000E+00
  0.00000000E+00  0.00000000E+00  0.00000000E+00
  0.00000000E+00  0.00000000E+00  0.00000000E+00
  0.00000000E+00  0.00000000E+00  0.00000000E+00
  0.00000000E+00  0.00000000E+00  0.00000000E+00
  0.00000000E+00  0.00000000E+00  0.00000000E+00
  0.00000000E+00  0.00000000E+00  0.00000000E+00
  0.00000000E+00  0.00000000E+00  0.00000000E+00
  0.00000000E+00  0.00000000E+00  0.00000000E+00
  0.00000000E+00  0.00000000E+00  0.00000000E+00
  0.00000000E+00  0.00000000E+00  0.00000000E+00
  0.00000000E+00  0.00000000E+00  0.00000000E+00
  0.00000000E+00  0.00000000E+00  0.00000000E+00
  0.00000000E+00  0.00000000E+00  0.00000000E+00
  0.00000000E+00  0.00000000E+00  0.00000000E+00
  0.00000000E+00  0.00000000E+00  0.00000000E+00
  0.00000000E+00  0.00000000E+00  0.00000000E+00
  0.00000000E+00  0.00000000E+00  0.00000000E+00
  0.00000000E+00  0.00000000E+00  0.00000000E+00
  0.00000000E+00  0.00000000E+00  0.00000000E+00
  0.00000000E+00  0.00000000E+00  0.00000000E+00
  0.00000000E+00  0.00000000E+00  0.00000000E+00
  0.00000000E+00  0.00000000E+00  0.00000000E+00
  0.00000000E+00  0.00000000E+00  0.00000000E+00
  0.00000000E+00  0.00000000E+00  0.00000000E+00
  0.00000000E+00  0.00000000E+00  0.00000000E+00
  0.00000000E+00  0.00000000E+00  0.00000000E+00
  0.00000000E+00  0.00000000E+00  0.00000000E+00
  0.00000000E+00  0.00000000E+00  0.00000000E+00
  0.00000000E+00  0.00000000E+00  0.00000000E+00
  0.00000000E+00  0.00000000E+00  0.00000000E+00
  0.00000000E+00  0.00000000E+00  0.00000000E+00
  0.00000000E+00  0.00000000E+00  0.00000000E+00
  0.00000000E+00  0.00000000E+00  0.00000000E+00
  0.00000000E+00  0.00000000E+00  0.00000000E+00
  0.00000000E+00  0.00000000E+00  0.00000000E+00
  0.00000000E+00  0.00000000E+00  0.00000000E+00
  0.00000000E+00  0.00000000E+00  0.00000000E+00
  0.00000000E+00  0.00000000E+00  0.00000000E+00
  0.00000000E+00  0.00000000E+00  0.00000000E+00
  0.00000000E+00  0.00000000E+00  0.00000000E+00
  0.00000000E+00  0.00000000E+00  0.00000000E+00
  0.00000000E+00  0.00000000E+00  0.00000000E+00
  0.00000000E+00  0.00000000E+00  0.00000000E+00
  0.00000000E+00  0.00000000E+00  0.00000000E+00
  0.00000000E+00  0.00000000E+00  0.00000000E+00
  0.00000000E+00  0.00000000E+00  0.00000000E+00
  0.00000000E+00  0.00000000E+00  0.00000000E+00
  0.00000000E+00  0.00000000E+00  0.00000000E+00
  0.00000000E+00  0.00000000E+00  0.00000000E+00
  0.00000000E+00  0.00000000E+00  0.00000000E+00
  0.00000000E+00  0.00000000E+00  0.00000000E+00
  0.00000000E+00  0.00000000E+00  0.00000000E+00
  0.00000000E+00  0.00000000E+00  0.00000000E+00
  0.00000000E+00  0.00000000E+00  0.00000000E+00
  0.00000000E+00  0.00000000E+00  0.00000000E+00
  0.00000000E+00  0.00000000E+00  0.00000000E+00
