Na47 P16 S64
1.0
14.014199 -0.012058 -0.000055
-0.012158 14.031837 -0.000000
-0.000032 -0.000039 14.392311
Na P S
47 16 64
direct
0.624716 0.748516 0.738296 Na
0.999937 0.250488 0.204056 Na
0.999640 0.250065 0.703280 Na
0.999455 0.750446 0.209268 Na
0.988568 0.751674 0.713785 Na
0.500071 0.249506 0.205772 Na
0.500366 0.249938 0.705302 Na
0.500544 0.749560 0.210804 Na
0.248879 0.999125 0.291753 Na
0.248162 0.998329 0.790433 Na
0.252027 0.500552 0.297452 Na
0.250471 0.503815 0.795830 Na
0.748019 0.998981 0.295227 Na
0.747918 0.985113 0.790563 Na
0.751073 0.501351 0.289525 Na
0.753450 0.512739 0.785181 Na
0.253453 0.999033 0.040729 Na
0.242882 0.999902 0.541191 Na
0.247203 0.499933 0.047238 Na
0.255920 0.503780 0.548128 Na
0.752924 1.000171 0.044124 Na
0.743750 0.997131 0.544422 Na
0.746429 0.500862 0.037622 Na
0.757440 0.499197 0.537484 Na
0.999839 0.248892 0.453662 Na
0.998915 0.252169 0.952526 Na
0.999942 0.748767 0.461191 Na
0.999818 0.752490 0.959439 Na
0.500163 0.251107 0.455638 Na
0.501086 0.247828 0.953741 Na
0.500052 0.751232 0.473584 Na
0.500181 0.747507 0.954639 Na
0.990210 0.998291 0.500966 Na
0.002352 0.007677 0.000031 Na
0.011644 0.497590 0.499442 Na
0.997635 0.499127 0.998505 Na
0.492082 0.000683 0.500056 Na
0.507242 0.997891 0.999845 Na
0.506043 0.503435 0.501587 Na
0.492771 0.495299 0.001377 Na
0.248970 0.251655 0.249777 Na
0.248864 0.253487 0.750105 Na
0.251145 0.747838 0.250252 Na
0.292965 0.749807 0.750033 Na
0.751035 0.248353 0.249403 Na
0.751144 0.246509 0.750586 Na
0.748859 0.752168 0.249878 Na
-0.000938 0.001109 0.249592 P
0.998550 0.002968 0.750977 P
0.001536 0.499406 0.249460 P
0.002494 0.498211 0.748688 P
0.499224 0.000334 0.250369 P
0.498273 1.000180 0.749421 P
0.500173 0.499150 0.250505 P
0.500682 0.498635 0.751712 P
0.249737 0.250633 0.000083 P
0.249673 0.251181 0.499477 P
0.250376 0.748877 0.001316 P
0.248888 0.751526 0.498303 P
0.750268 0.249366 0.000050 P
0.750331 0.248825 0.499002 P
0.749620 0.751121 0.002522 P
0.751104 0.748474 0.496584 P
0.155376 0.174046 0.081939 S
0.154610 0.175889 0.581231 S
0.153817 0.675558 0.083437 S
0.155512 0.676110 0.581243 S
0.655356 0.174153 0.082781 S
0.654332 0.175048 0.580935 S
0.655456 0.674786 0.084829 S
0.657695 0.668540 0.575388 S
0.345011 0.325330 0.082640 S
0.345430 0.325427 0.581320 S
0.345363 0.824006 0.083504 S
0.342410 0.830050 0.578206 S
0.844269 0.326471 0.082074 S
0.845642 0.323656 0.580838 S
0.845364 0.825651 0.084760 S
0.844375 0.825299 0.578428 S
0.174400 0.346731 0.418147 S
0.174273 0.346534 0.919681 S
0.171998 0.843094 0.413676 S
0.177557 0.842153 0.916675 S
0.676615 0.343979 0.416029 S
0.675844 0.343126 0.916922 S
0.672656 0.842963 0.416259 S
0.671988 0.848327 0.925052 S
0.324001 0.156443 0.416550 S
0.324230 0.156654 0.917061 S
0.327259 0.656997 0.417972 S
0.326212 0.651099 0.922767 S
0.824987 0.152856 0.417631 S
0.825658 0.153678 0.919541 S
0.828077 0.656943 0.411969 S
0.824239 0.658419 0.918961 S
0.096513 0.423319 0.168273 S
0.101153 0.422506 0.670953 S
0.093259 0.926575 0.166324 S
0.089717 0.925950 0.667233 S
0.593976 0.424305 0.166873 S
0.595997 0.425329 0.668414 S
0.595029 0.925248 0.169498 S
0.589205 0.924139 0.664800 S
0.405446 0.075130 0.166703 S
0.402310 0.076171 0.668964 S
0.404281 0.574405 0.169579 S
0.409103 0.577950 0.670334 S
0.904067 0.077246 0.168445 S
0.900535 0.076000 0.670400 S
0.907434 0.573775 0.166243 S
0.911969 0.571962 0.661708 S
0.075014 0.095050 0.332277 S
0.076984 0.099710 0.828747 S
0.076739 0.594606 0.331234 S
0.073316 0.593431 0.833461 S
0.573729 0.095674 0.332852 S
0.577534 0.094442 0.829204 S
0.575529 0.593578 0.332303 S
0.576009 0.586562 0.840560 S
0.425665 0.403891 0.333029 S
0.422598 0.401549 0.829586 S
0.423648 0.905877 0.332227 S
0.423532 0.909435 0.835955 S
0.925590 0.405376 0.332097 S
0.922887 0.404288 0.828365 S
0.924081 0.905935 0.331301 S
0.927143 0.910569 0.838056 S
