Na15 V32 O64                            
   1.00000000000000     
     9.2569590000000002    0.0096390000000000   -0.0007750000000000
     0.0121820000000000   11.8414110000000008    0.0046160000000000
    -0.0014050000000000    0.0050570000000000   10.7927429999999998
   Na   V    O 
    15    32    64
Direct
  0.7438446245105123  0.4929438811178623  0.1624656227319408
  0.7463108123559671  0.0709549756192668  0.1510254512780140
  0.7427393437648112  0.7987642442804153  0.1533049491754697
  0.2437486713188186  0.0604109473177865  0.3513098942314375
  0.2429686025295447  0.3101391757474822  0.3432141973367860
  0.2449986432172331  0.5600938093381049  0.3513750351625551
  0.2427249911607809  0.8090716479145471  0.3439887712589861
  0.2555834454274981  0.1799260606166734  0.8461255449217242
  0.2563152262919748  0.4304698713462656  0.8513791515193855
  0.2561822427592318  0.6814655126252918  0.8488643457438581
  0.2548387264001041  0.9308026190847404  0.8521007611564717
  0.7564993671797844  0.1829003697718998  0.6492892964178592
  0.7559390546861005  0.4340214226117856  0.6519642630635547
  0.7591078549866720  0.6825978038090993  0.6509459176929934
  0.7572945997719286  0.9347855244050560  0.6518747667807185
  0.5812952740374524  0.0520193315165809  0.8982363867747786
  0.5828291529442238  0.3043938263799766  0.8909858639125723
  0.5827727627679073  0.5583872058793681  0.8999076364765812
  0.5840148664665379  0.8040732060922696  0.8977459991594663
  0.0818631708891010  0.0589718880424114  0.6042645579699539
  0.0834282973660749  0.3093661462178252  0.6004141991063012
  0.0820286632170652  0.5583921438384134  0.6062934719010971
  0.0788528159077649  0.8126651278760914  0.5994947630900401
  0.4167283188456044  0.1809226619610124  0.1014009294459321
  0.4147172282826573  0.4300538894333954  0.1060183975006539
  0.4191742373396743  0.6797552398076220  0.1035679233078538
  0.4187371563684720  0.9310315323524557  0.1080236172553914
  0.9154775294635284  0.1866220529426969  0.3935833698294123
  0.9211119636170891  0.4337761726221884  0.3989288062257666
  0.9183375495573131  0.6848998851520618  0.3941282298758465
  0.9177152705062668  0.9369434380147040  0.3945089008219539
  0.5650781263965718  0.0579651393154825  0.3885464079692915
  0.5644600920114069  0.3081614532836875  0.3851846107596909
  0.5663768214070032  0.5593220805265227  0.3876434648774649
  0.5631289265325770  0.8057819496636104  0.3871161438775067
  0.0676514425604902  0.0558536240616558  0.1102511932973041
  0.0559539168622668  0.3053125150125782  0.1131539205869954
  0.0672238215535942  0.5565251552068826  0.1118887361011182
  0.0624593713692132  0.8073776508805115  0.1131133436796681
  0.4339439170395867  0.1821829205595257  0.6139144885498826
  0.4387255416602270  0.4360806130005165  0.6126561674843506
  0.4358887998612963  0.6819587116744150  0.6139893665253976
  0.4370383525711284  0.9279004576615124  0.6111161760036022
  0.9372361196079249  0.1835350337979013  0.8858801601707351
  0.9338362767747198  0.4298549257696682  0.8850221247953732
  0.9387082245269689  0.6830231800103530  0.8874774002557956
  0.9318353987341855  0.9302641960105819  0.8875645851725613
  0.7898321782511301  0.0589750426860616  0.8457486027095238
  0.7938880076654466  0.2983714732553746  0.8443101058265446
  0.7930247687004220  0.5595999941185280  0.8458872078642641
  0.7935650467923739  0.7990273551913144  0.8475727550976206
  0.2960569856959790  0.0563948029738189  0.6461393378266596
  0.2966578961060789  0.3075029856155683  0.6491983474324993
  0.2949959624480536  0.5497768200447729  0.6506473144206005
  0.2952139532888050  0.8156283298688211  0.6525842806777722
  0.2069325311617733  0.1875860670854942  0.1510571784788059
  0.2055558063420936  0.4265229533678274  0.1488574108842655
  0.2086283846467649  0.6878915673184870  0.1533490887144027
  0.2070732008117884  0.9263389985141093  0.1505974622882310
  0.7035668540348509  0.1878861435252684  0.3581812551966642
  0.7082328014458773  0.4280992839861021  0.3586728498777579
  0.7068814239417206  0.6897014622480079  0.3552918520518286
  0.7072879660113484  0.9291424431263506  0.3511568239407057
  0.8860213459597969  0.0562558889054992  0.5192542604877822
  0.8871561512193388  0.3148758980291217  0.5216529795282244
  0.8885357742748128  0.5561508132053675  0.5209415223157765
  0.8867246674133187  0.8156859482212632  0.5188939346564303
  0.3827868007414622  0.0576274554907352  0.9802008419596128
  0.3874738936982385  0.2988766423821680  0.9807980633090978
  0.3826837478067149  0.5604887717880119  0.9801153213845014
  0.3885335627829870  0.8000386790070224  0.9835800561930891
  0.1123944176863106  0.1912666004453624  0.4814588784778785
  0.1156262150202427  0.4316768065255457  0.4786843352762213
  0.1149326687124465  0.6917871533704003  0.4839534078974739
  0.1134706173788259  0.9323471395623625  0.4764401988595280
  0.6095667430029207  0.1723347656822201  0.0114337689479316
  0.6078446280908351  0.4366961129907884  0.0101605236074062
  0.6148348885116091  0.6762604108119433  0.0226885900568195
  0.6148313481584902  0.9343052247050395  0.0203990395911497
  0.9758452692457436  0.0529588300475944  0.2823358712477327
  0.9793581865280614  0.3136413629865714  0.2821487701491098
  0.9757747383282389  0.5512439075775473  0.2836315774710624
  0.9764222697037612  0.8124919599129944  0.2799420000417490
  0.4750332001831253  0.0658483528051999  0.2175795939023815
  0.4751092745613889  0.3038846818063967  0.2209557651486567
  0.4764639273987086  0.5626526173191134  0.2168049939171291
  0.4811087366619938  0.8030865433028518  0.2207987404320473
  0.0247745854631589  0.1846721173042174  0.7177673007686901
  0.0270585945235235  0.4224689233570446  0.7159449808414897
  0.0248207327681113  0.6858477090425354  0.7182323382719822
  0.0240441900324073  0.9240548704976589  0.7155885469740120
  0.5155680184389828  0.1775451242984540  0.7745744454042791
  0.5226203064684855  0.4330463869805455  0.7797587244526183
  0.5207414662180088  0.6743152722633077  0.7855032369959443
  0.5191924064923988  0.9363380420864794  0.7848150240110094
  0.5710414072911059  0.0523238187180387  0.5744862486201719
  0.5738668880543782  0.3104716668657261  0.5727441763457599
  0.5775557769375984  0.5546922522611836  0.5724032925217256
  0.5795869046580389  0.8109353197815707  0.5742113934263758
  0.0731214865225325  0.0598419279765624  0.9240761918923156
  0.0787209354911949  0.3008718639850002  0.9278181209337717
  0.0748001766774584  0.5612773690581669  0.9245881926912589
  0.0789659413383237  0.8028322837752965  0.9291138393562498
  0.4211909803703825  0.1866619253609446  0.4360069713257119
  0.4244307203729722  0.4301692375973012  0.4282544574779731
  0.4231971225142325  0.6876002082746322  0.4304247319865965
  0.4231494750786201  0.9274024628252467  0.4285951390430434
  0.9243231869594526  0.1839949891862661  0.0690903098095252
  0.9296519504438319  0.4264824241874573  0.0668030947560822
  0.9254938374637750  0.6856520151922522  0.0708397452154367
  0.9243790529560363  0.9270312849832690  0.0707604590716679
 
             NaN             NaN             NaN
             NaN             NaN             NaN
             NaN             NaN             NaN
             NaN             NaN             NaN
             NaN             NaN             NaN
             NaN             NaN             NaN
             NaN             NaN             NaN
             NaN             NaN             NaN
             NaN             NaN             NaN
             NaN             NaN             NaN
             NaN             NaN             NaN
             NaN             NaN             NaN
             NaN             NaN             NaN
             NaN             NaN             NaN
             NaN             NaN             NaN
             NaN             NaN             NaN
             NaN             NaN             NaN
             NaN             NaN             NaN
             NaN             NaN             NaN
             NaN             NaN             NaN
             NaN             NaN             NaN
             NaN             NaN             NaN
             NaN             NaN             NaN
             NaN             NaN             NaN
             NaN             NaN             NaN
             NaN             NaN             NaN
             NaN             NaN             NaN
             NaN             NaN             NaN
             NaN             NaN             NaN
             NaN             NaN             NaN
             NaN             NaN             NaN
             NaN             NaN             NaN
             NaN             NaN             NaN
             NaN             NaN             NaN
             NaN             NaN             NaN
             NaN             NaN             NaN
             NaN             NaN             NaN
             NaN             NaN             NaN
             NaN             NaN             NaN
             NaN             NaN             NaN
             NaN             NaN             NaN
             NaN             NaN             NaN
             NaN             NaN             NaN
             NaN             NaN             NaN
             NaN             NaN             NaN
             NaN             NaN             NaN
             NaN             NaN             NaN
             NaN             NaN             NaN
             NaN             NaN             NaN
             NaN             NaN             NaN
             NaN             NaN             NaN
             NaN             NaN             NaN
             NaN             NaN             NaN
             NaN             NaN             NaN
             NaN             NaN             NaN
             NaN             NaN             NaN
             NaN             NaN             NaN
             NaN             NaN             NaN
             NaN             NaN             NaN
             NaN             NaN             NaN
             NaN             NaN             NaN
             NaN             NaN             NaN
             NaN             NaN             NaN
             NaN             NaN             NaN
             NaN             NaN             NaN
             NaN             NaN             NaN
             NaN             NaN             NaN
             NaN             NaN             NaN
             NaN             NaN             NaN
             NaN             NaN             NaN
             NaN             NaN             NaN
             NaN             NaN             NaN
             NaN             NaN             NaN
             NaN             NaN             NaN
             NaN             NaN             NaN
             NaN             NaN             NaN
             NaN             NaN             NaN
             NaN             NaN             NaN
             NaN             NaN             NaN
             NaN             NaN             NaN
             NaN             NaN             NaN
             NaN             NaN             NaN
             NaN             NaN             NaN
             NaN             NaN             NaN
             NaN             NaN             NaN
             NaN             NaN             NaN
             NaN             NaN             NaN
             NaN             NaN             NaN
             NaN             NaN             NaN
             NaN             NaN             NaN
             NaN             NaN             NaN
             NaN             NaN             NaN
             NaN             NaN             NaN
             NaN             NaN             NaN
             NaN             NaN             NaN
             NaN             NaN             NaN
             NaN             NaN             NaN
             NaN             NaN             NaN
             NaN             NaN             NaN
             NaN             NaN             NaN
             NaN             NaN             NaN
             NaN             NaN             NaN
             NaN             NaN             NaN
             NaN             NaN             NaN
             NaN             NaN             NaN
             NaN             NaN             NaN
             NaN             NaN             NaN
             NaN             NaN             NaN
             NaN             NaN             NaN
             NaN             NaN             NaN
             NaN             NaN             NaN
