Na15 V32 O64                            
   1.00000000000000     
     9.2569590000000002    0.0096390000000000   -0.0007750000000000
     0.0121820000000000   11.8414110000000008    0.0046160000000000
    -0.0014050000000000    0.0050570000000000   10.7927429999999998
   Na   V    O 
    15    32    64
Direct
  0.7434230382324188  0.4876610612022228  0.1620921636996168
  0.7469472972925953  0.0681877992295167  0.1513489395754736
  0.7431573870095718  0.7962286837658022  0.1534955981181963
  0.2443041298685232  0.0570324236638963  0.3517748003470105
  0.2431888989273748  0.3066954861453710  0.3432916008092938
  0.2452039467642622  0.5567784890162821  0.3516237719144101
  0.2431632029308912  0.8057931150952041  0.3441926361993030
  0.2558411876173845  0.1772188746911232  0.8462895999915752
  0.2559085209630764  0.4274008902487342  0.8511560809832811
  0.2564070243330155  0.6783202905764991  0.8487928217134925
  0.2555553439474982  0.9275837480637140  0.8520115011543096
  0.7567194202432671  0.1798111228882571  0.6492257117065610
  0.7558677710852811  0.4308705658584284  0.6515371844861506
  0.7588648003026822  0.6793227717190542  0.6506958689823060
  0.7576586848399534  0.9313529476876558  0.6520083798486231
  0.5816316467480824  0.0491968907774321  0.8983518160645663
  0.5831211621861487  0.3014177598386030  0.8905682720390637
  0.5827820720430302  0.5557559324294316  0.8994805445052244
  0.5844753620547608  0.8011188834103968  0.8977007395222408
  0.0819965116042648  0.0555594456117361  0.6049683684612863
  0.0829722839651744  0.3064218112169473  0.6010941232650927
  0.0818072398630146  0.5550566853759510  0.6065014661722261
  0.0794129709927617  0.8091257113881133  0.6001284470702247
  0.4173687377150768  0.1781486228707702  0.1010385039231892
  0.4148900491713872  0.4269243324592931  0.1052795351620237
  0.4195225665544946  0.6767537592460904  0.1033953805016355
  0.4192562880003330  0.9279899344022232  0.1079619180792983
  0.9161554362331775  0.1832765708224794  0.3937736940774664
  0.9213231606325681  0.4306707493356703  0.3986660691522724
  0.9186657200496310  0.6816008726404871  0.3941089375769707
  0.9183418959158393  0.9332759253475331  0.3950181382344914
  0.5657880144515084  0.0548645183006283  0.3884970869528370
  0.5649500879814773  0.3049907350518995  0.3848818733473163
  0.5666841456984506  0.5562084657135338  0.3874595467251125
  0.5635833475143657  0.8026160119814183  0.3873266349000095
  0.0684975454037750  0.0526660953762292  0.1104430727761919
  0.0564582554919459  0.3024579033616100  0.1124433042376943
  0.0672923405700529  0.5534781044030551  0.1117289829736408
  0.0629031920972966  0.8039963492181670  0.1130678117076504
  0.4342415076664876  0.1791033437553410  0.6143141749472304
  0.4385012792627419  0.4327657529277973  0.6127736068450877
  0.4354872500796653  0.6788418016513936  0.6140695777027442
  0.4372412390686273  0.9250978447471334  0.6115525256550759
  0.9374595740351777  0.1801079488386362  0.8860218227371960
  0.9333515091303748  0.4268718008548787  0.8850420200063084
  0.9389811664771419  0.6797856217117108  0.8875778509484511
  0.9326215974774269  0.9271523406825879  0.8878344037934205
  0.7905007424059218  0.0561622867460926  0.8464821770226962
  0.7936627241575585  0.2954084551802771  0.8448405107141017
  0.7928460833409521  0.5569284937153530  0.8460124604557920
  0.7940229397071976  0.7962053905371186  0.8479614962980767
  0.2964289264438721  0.0529208282304409  0.6467931899105624
  0.2965822580415001  0.3043343524682201  0.6494789533564803
  0.2949206916831874  0.5464573200382353  0.6505936837077181
  0.2953504829430231  0.8122800970417182  0.6529057502945336
  0.2078154932496822  0.1844793902512703  0.1507107529386104
  0.2058528615551494  0.4231019969550671  0.1480460125747866
  0.2090045097829177  0.6848733014997423  0.1531404085667160
  0.2078608147491181  0.9232236702899788  0.1507673370450045
  0.7043193179710410  0.1848248476339120  0.3577579536337988
  0.7085314116370479  0.4250017405599467  0.3579834377906816
  0.7070340246441513  0.6867016325556530  0.3554274393125665
  0.7078775064985573  0.9259961553158604  0.3512721189516781
  0.8864379640245499  0.0529177551644993  0.5192794470908235
  0.8870685116923950  0.3114854929715714  0.5212935661030486
  0.8884374845040950  0.5526629911178348  0.5204580070906878
  0.8871302146558118  0.8123404692341272  0.5189856586852707
  0.3835388887523573  0.0546582797432211  0.9802151105194014
  0.3879484218951043  0.2957831165562857  0.9804250372810568
  0.3830026728406696  0.5575991828859899  0.9800259135136193
  0.3890956569038319  0.7971243995428146  0.9836595013336348
  0.1128091098893169  0.1878733416776749  0.4818651116385225
  0.1156459918967771  0.4282334160374920  0.4786681908151516
  0.1151337726467050  0.6883505551382569  0.4840286205029779
  0.1140886560788508  0.9289448060675488  0.4768331909815129
  0.6101450563381678  0.1695363458678089  0.0117312479648676
  0.6077857686947815  0.4335216545206516  0.0097241531573479
  0.6150761991299840  0.6732586063768314  0.0228470639626487
  0.6153587241026022  0.9313625168339850  0.0206674088314752
  0.9771149664410895  0.0497977673322252  0.2827835358677124
  0.9801384361925969  0.3105194153478280  0.2821348322815916
  0.9770631244648239  0.5482026892166804  0.2837058315563240
  0.9771771840716713  0.8094045075471571  0.2801449948101990
  0.4758877443759950  0.0627208329200143  0.2176436933489500
  0.4757465101808988  0.3007589278214229  0.2205775302740495
  0.4761522070185045  0.5594255947355233  0.2167772915337279
  0.4814241694530015  0.8000526737108458  0.2209923954417477
  0.0242762180541722  0.1814010247627114  0.7178646811516338
  0.0260467822074571  0.4192510051845712  0.7156483656621230
  0.0248568765804053  0.6825424279425495  0.7182911737954915
  0.0239943497759761  0.9207779264609713  0.7158047793385213
  0.5162871922004603  0.1745853345357831  0.7744936008278960
  0.5228501473753084  0.4300366404356308  0.7794311888976672
  0.5211908803825395  0.6713984666472305  0.7852611973561275
  0.5203873042984911  0.9334247656449541  0.7847053022052529
  0.5717757996007853  0.0495102590429881  0.5742501769550888
  0.5741673429057328  0.3072288758269963  0.5724284202010426
  0.5772840864835174  0.5513955668525391  0.5720945581886636
  0.5795137825143811  0.8079858560317610  0.5742564431252415
  0.0740416165694265  0.0566483436484068  0.9244608785558767
  0.0782444803133876  0.2977807533952431  0.9277616000528893
  0.0747800746375826  0.5581564800273288  0.9246438684187180
  0.0794313575919576  0.7996941817612653  0.9292917718317087
  0.4216053321501653  0.1834610976452323  0.4355813006000360
  0.4246884076192299  0.4266520671262100  0.4278725166489636
  0.4234819407713757  0.6845397185331797  0.4302828319422097
  0.4235934654788880  0.9246064580169413  0.4286365132635602
  0.9250542941812844  0.1806968636161758  0.0695517451325072
  0.9299859174942917  0.4233261587684470  0.0669931182104875
  0.9258292807113342  0.6827026873347709  0.0710195842075030
  0.9251112361244896  0.9240290999495970  0.0711901306941539
 
             NaN             NaN             NaN
             NaN             NaN             NaN
             NaN             NaN             NaN
             NaN             NaN             NaN
             NaN             NaN             NaN
             NaN             NaN             NaN
             NaN             NaN             NaN
             NaN             NaN             NaN
             NaN             NaN             NaN
             NaN             NaN             NaN
             NaN             NaN             NaN
             NaN             NaN             NaN
             NaN             NaN             NaN
             NaN             NaN             NaN
             NaN             NaN             NaN
             NaN             NaN             NaN
             NaN             NaN             NaN
             NaN             NaN             NaN
             NaN             NaN             NaN
             NaN             NaN             NaN
             NaN             NaN             NaN
             NaN             NaN             NaN
             NaN             NaN             NaN
             NaN             NaN             NaN
             NaN             NaN             NaN
             NaN             NaN             NaN
             NaN             NaN             NaN
             NaN             NaN             NaN
             NaN             NaN             NaN
             NaN             NaN             NaN
             NaN             NaN             NaN
             NaN             NaN             NaN
             NaN             NaN             NaN
             NaN             NaN             NaN
             NaN             NaN             NaN
             NaN             NaN             NaN
             NaN             NaN             NaN
             NaN             NaN             NaN
             NaN             NaN             NaN
             NaN             NaN             NaN
             NaN             NaN             NaN
             NaN             NaN             NaN
             NaN             NaN             NaN
             NaN             NaN             NaN
             NaN             NaN             NaN
             NaN             NaN             NaN
             NaN             NaN             NaN
             NaN             NaN             NaN
             NaN             NaN             NaN
             NaN             NaN             NaN
             NaN             NaN             NaN
             NaN             NaN             NaN
             NaN             NaN             NaN
             NaN             NaN             NaN
             NaN             NaN             NaN
             NaN             NaN             NaN
             NaN             NaN             NaN
             NaN             NaN             NaN
             NaN             NaN             NaN
             NaN             NaN             NaN
             NaN             NaN             NaN
             NaN             NaN             NaN
             NaN             NaN             NaN
             NaN             NaN             NaN
             NaN             NaN             NaN
             NaN             NaN             NaN
             NaN             NaN             NaN
             NaN             NaN             NaN
             NaN             NaN             NaN
             NaN             NaN             NaN
             NaN             NaN             NaN
             NaN             NaN             NaN
             NaN             NaN             NaN
             NaN             NaN             NaN
             NaN             NaN             NaN
             NaN             NaN             NaN
             NaN             NaN             NaN
             NaN             NaN             NaN
             NaN             NaN             NaN
             NaN             NaN             NaN
             NaN             NaN             NaN
             NaN             NaN             NaN
             NaN             NaN             NaN
             NaN             NaN             NaN
             NaN             NaN             NaN
             NaN             NaN             NaN
             NaN             NaN             NaN
             NaN             NaN             NaN
             NaN             NaN             NaN
             NaN             NaN             NaN
             NaN             NaN             NaN
             NaN             NaN             NaN
             NaN             NaN             NaN
             NaN             NaN             NaN
             NaN             NaN             NaN
             NaN             NaN             NaN
             NaN             NaN             NaN
             NaN             NaN             NaN
             NaN             NaN             NaN
             NaN             NaN             NaN
             NaN             NaN             NaN
             NaN             NaN             NaN
             NaN             NaN             NaN
             NaN             NaN             NaN
             NaN             NaN             NaN
             NaN             NaN             NaN
             NaN             NaN             NaN
             NaN             NaN             NaN
             NaN             NaN             NaN
             NaN             NaN             NaN
             NaN             NaN             NaN
