Na15 V32 O64
1.0
9.256959 0.009639 -0.000775
0.012182 11.841411 0.004616
-0.001405 0.005057 10.792743
Na V O
15 32 64
direct
0.748197 0.515885 0.152845 Na
0.745047 0.079306 0.152492 Na
0.742842 0.810372 0.153161 Na
0.243615 0.064668 0.351304 Na
0.243615 0.314298 0.344765 Na
0.244351 0.563957 0.350975 Na
0.243275 0.813460 0.345308 Na
0.255852 0.186600 0.845841 Na
0.256274 0.436644 0.852338 Na
0.256491 0.687008 0.847866 Na
0.254480 0.936886 0.851722 Na
0.756331 0.187234 0.651043 Na
0.756232 0.437892 0.651853 Na
0.759224 0.686488 0.651132 Na
0.757015 0.938498 0.651304 Na
0.581133 0.058619 0.897501 V
0.583160 0.310723 0.893016 V
0.582551 0.563237 0.899886 V
0.583833 0.810103 0.897530 V
0.082110 0.063323 0.604513 V
0.082055 0.314048 0.601677 V
0.081884 0.562143 0.605186 V
0.078935 0.816201 0.600348 V
0.415793 0.186559 0.101251 V
0.416836 0.436397 0.107332 V
0.418410 0.686843 0.102819 V
0.417918 0.937253 0.107112 V
0.915707 0.190723 0.395629 V
0.919474 0.437312 0.397068 V
0.919050 0.689122 0.393620 V
0.917845 0.940738 0.394831 V
0.564828 0.063193 0.388809 V
0.565625 0.314051 0.384327 V
0.566499 0.563607 0.386827 V
0.564102 0.810494 0.386955 V
0.066096 0.062012 0.111235 V
0.056600 0.313043 0.112075 V
0.066278 0.563334 0.112918 V
0.062361 0.813022 0.112705 V
0.434715 0.187440 0.614210 V
0.438279 0.440175 0.612645 V
0.436878 0.686647 0.613924 V
0.436725 0.933107 0.611302 V
0.937570 0.188975 0.886601 V
0.933458 0.436387 0.886460 V
0.938893 0.688212 0.887157 V
0.931903 0.936390 0.887438 V
0.790399 0.064899 0.846334 O
0.793974 0.303956 0.846102 O
0.793036 0.565160 0.846530 O
0.793621 0.804507 0.847674 O
0.296139 0.062312 0.646572 O
0.296527 0.311673 0.649183 O
0.295040 0.555866 0.650348 O
0.295718 0.818824 0.651705 O
0.206156 0.192521 0.150615 O
0.207585 0.433349 0.148791 O
0.208109 0.692878 0.152145 O
0.206422 0.933654 0.150310 O
0.704170 0.191476 0.356913 O
0.707367 0.435365 0.353644 O
0.707464 0.693280 0.352491 O
0.707014 0.935233 0.350896 O
0.886089 0.061084 0.519550 O
0.885887 0.317121 0.522112 O
0.888054 0.559461 0.518637 O
0.886533 0.818229 0.518821 O
0.382861 0.064021 0.979818 O
0.387808 0.305400 0.982056 O
0.383507 0.566201 0.981416 O
0.387806 0.806267 0.982808 O
0.112482 0.194088 0.481726 O
0.114924 0.436294 0.478794 O
0.114627 0.694507 0.483605 O
0.113367 0.937336 0.477163 O
0.609310 0.179810 0.012533 O
0.609435 0.442734 0.013628 O
0.614451 0.683948 0.022552 O
0.614119 0.939665 0.020214 O
0.975659 0.059982 0.282572 O
0.980471 0.318914 0.284525 O
0.977968 0.560847 0.282651 O
0.977075 0.817578 0.280296 O
0.474914 0.071632 0.217486 O
0.473204 0.309260 0.221065 O
0.475034 0.569065 0.217065 O
0.479572 0.808636 0.220094 O
0.024629 0.188587 0.718344 O
0.025910 0.429323 0.716028 O
0.024025 0.689048 0.717642 O
0.024219 0.930484 0.715575 O
0.516847 0.184346 0.775159 O
0.522638 0.437049 0.781364 O
0.521083 0.680549 0.785269 O
0.519893 0.940369 0.784672 O
0.572016 0.058086 0.574198 O
0.574354 0.314888 0.572196 O
0.577933 0.559893 0.571995 O
0.579402 0.814627 0.573393 O
0.073324 0.066166 0.925297 O
0.077886 0.307904 0.928429 O
0.074633 0.567489 0.925706 O
0.077990 0.808359 0.928743 O
0.422090 0.190661 0.435500 O
0.424445 0.435716 0.428077 O
0.424114 0.691022 0.430042 O
0.423851 0.933488 0.428091 O
0.924452 0.189739 0.069829 O
0.927904 0.434128 0.069938 O
0.923612 0.690658 0.071013 O
0.924354 0.934008 0.070948 O
