Li15 Fe16 P16 O64                       
   1.00000000000000     
    10.2417020000000001    0.0007360000000000    0.0236840000000000
     0.0003660000000000   11.9646760000000008   -0.0017960000000000
     0.0107820000000000   -0.0024610000000000    9.3726289999999999
   Li   Fe   P    O 
    15    16    16    64
Direct
  0.5454082504612235  0.4089336454280952  0.7126819571715740
  0.5011526997611918 -0.0001450020213814  0.2508868775231530
  0.4990263045550365  0.0090612782188891  0.7534998611625247
  0.4994984792724996  0.5016467118699636  0.2516155542166531
  1.0000135184519847  0.2491908078640647  0.4959773850856514
  0.9970917858816392  0.2462506936880421  0.0004437058236897
  0.9993187527186560  0.7492526858089656  0.5010028439875828
  0.9989939910894798  0.7513428722788245  0.0022124664363117
  0.4997561228559390  0.2470234613749449  0.2520897775539417
  0.5005335077297804  0.7504478522530427  0.2493207235251968
  0.4990268042222338  0.7417289172735001  0.7538227389397780
  1.0002772721797433  0.5001123047016367  0.4963920383443923
  0.9971680867159525  0.5030459397827254  0.0008665948649518
  0.9989756091793850  0.0009484052377429  0.5006914271572496
  0.9987241854779531  0.9990515595848194  0.0017974494378983
  0.7785387201126663  0.1236188068063089  0.2668338385510947
  0.7783350620724075  0.1252339652135136  0.7618312455200950
  0.7798510641760078  0.6263836271601744  0.2671107439932682
  0.7805727410807622  0.6247557231596982  0.7636707880207207
  0.2814691016815722  0.1244824397436208  0.4853557073783598
  0.2817720734409400  0.1243626183994142  0.9851814166890538
  0.2813516589299139  0.6254074964394291  0.4852825299082481
  0.2816642035566942  0.6252687684749181  0.9854424085271564
  0.2165342739014086  0.3749338885013021  0.2306679260513231
  0.2238590167780703  0.3748435461526763  0.7473431757382645
  0.2190822698972703  0.8749980891300465  0.2361436799785788
  0.2193093702703675  0.8750265666578887  0.7359054954240803
  0.7195529543120921  0.3742282324163853  0.0160816863898596
  0.7228102325104884  0.3726756089716939  0.5046047234894322
  0.7185225730528385  0.8749856782464015  0.0145730250058258
  0.7173267426231024  0.8749707600196409  0.5183211451707775
  0.5956258859998830  0.1229605632106053  0.0425675536796361
  0.5908411955224875  0.1293909339155934  0.5438298462139751
  0.5960627857479747  0.6256628535645747  0.0429167151537531
  0.5909667778112562  0.6201237559176310  0.5439931695654412
  0.0925944735913879  0.1241378496969656  0.2077509035357115
  0.0937193570044333  0.1279163894624534  0.7103533920953343
  0.0928405347606956  0.6256341713121010  0.2078046040782292
  0.0938444437130705  0.6219614250287833  0.7104821920122985
  0.3961380673148217  0.3748986343761632  0.4551317279068566
  0.4045531693660902  0.3743648768520831  0.9614016355078145
  0.4057070626469325  0.8745627447877805  0.4574208849930951
  0.4072907938845213  0.8746188188352438  0.9567418282645701
  0.9083725047693041  0.3749567582902322  0.2878191501907655
  0.9093980723027079  0.3747167713706084  0.7879054077574607
  0.9063519819968758  0.8749946731577941  0.2944064894522736
  0.9075150427647749  0.8751846055823180  0.7934211156628700
  0.5946488148598936  0.1291013392858450  0.3805144804611447
  0.6018392614559879  0.1176116627505022  0.8825097740964679
  0.5955622003150217  0.6195640455897288  0.3812710727052392
  0.6021500214407081  0.6297659148057118  0.8823993643889655
  0.0946135584899491  0.1254770117685350  0.3700264363449109
  0.0938476088098962  0.1262619013938391  0.8720915306243430
  0.0947186642860145  0.6242083909572038  0.3700588925181248
  0.0937293029934399  0.6235878699849828  0.8722083664868989
  0.4019167654860262  0.3745668816709537  0.1232081846241533
  0.3831458098296569  0.3762571215269230  0.6175041339619650
  0.4049979355383619  0.8746078093451664  0.1188172114305075
  0.4015273678542772  0.8743443461181677  0.6190891495632127
  0.9077601509668021  0.3753260332824922  0.1257840051763513
  0.9081105044529352  0.3747814569413799  0.6263014943061435
  0.9048527813382157  0.8747018120250989  0.1322597735736933
  0.9057387412732454  0.8747391702507026  0.6312502466238538
  0.9540342750126842  0.1238061744589964  0.1457422088354848
  0.9570296257548296  0.1276152448004796  0.6442674306086988
  0.9542155667482316  0.6258494071289915  0.1459141026168834
  0.9570406848090959  0.6220606737980842  0.6444536178532392
  0.4558478237318189  0.1261452288278213  0.1035772149823341
  0.4521872197485438  0.1240098066420253  0.6012479367955288
  0.4561707692266656  0.6230130080793296  0.1035914871799506
  0.4523980452389069  0.6254763169384195  0.6022085587372473
  0.0457033320224425  0.3752829754189276  0.3522847122651452
  0.0508701824846321  0.3752004201810570  0.8487617121206246
  0.0448709503509281  0.8746834049014945  0.3570499145070151
  0.0463603047647731  0.8749329488444602  0.8554254275157949
  0.5375205038116588  0.3746181310248710  0.4023519670329145
  0.5430806626185399  0.3751092219349072  0.9045057994861013
  0.5450555245603501  0.8742631943905761  0.3961642707011024
  0.5453803981207332  0.8743457780414484  0.8936040842620478
  0.6636145968258480  0.0210060678620188  0.1149891413819681
  0.6652576400515889  0.0268516417927177  0.6076263037732842
  0.6678605238627453  0.5232856166679116  0.1087837131774564
  0.6614261990866146  0.5157384402963145  0.6085878822719382
  0.1634160405173554  0.2259408188620061  0.1397068057210834
  0.1648133877553606  0.2336807151396516  0.6483788865996001
  0.1644578415524547  0.7275393848920834  0.1419783038960059
  0.1676677194984833  0.7221944014212587  0.6433114504365454
  0.3281000079526569  0.2724893708578495  0.3880362104452776
  0.3238484655365314  0.2768621716414861  0.8943969758512701
  0.3345616492774726  0.7727868942098516  0.3894386877245283
  0.3349075024523459  0.7724916497175045  0.8911513323467719
  0.8358039116836478  0.4762152842892469  0.3551823776345949
  0.8398991048711165  0.4764792952509390  0.8563633326054829
  0.8353284785125682  0.9770071870552107  0.3613355778932431
  0.8368271430229670  0.9776140080900825  0.8592363111073588
  0.3288043357825324  0.4775289978156722  0.3870436622400045
  0.3252578808289221  0.4728368697521750  0.8934205207170127
  0.3346026138840679  0.9763572582495057  0.3896882126544082
  0.3349340259995693  0.9766845275774947  0.8911881351210832
  0.8369689465957969  0.2728579226432741  0.3539333149065196
  0.8405089219332729  0.2731540430973843  0.8568759211540125
  0.8348541204057628  0.7731961409910038  0.3616660898992376
  0.8364746466684881  0.7730148774959329  0.8597808065688796
  0.6675482042160304  0.2255114881859394  0.1081403110501518
  0.6656424345250439  0.2313484812893802  0.6062582095531480
  0.6641214069628671  0.7278598837123362  0.1143767544480678
  0.6672874919632307  0.7208908833897384  0.6082038548201534
  0.1644297503606766  0.0222488326724192  0.1418996548108264
  0.1678276556889402  0.0277311007535351  0.6432274753734571
  0.1636876356611221  0.5239084886510779  0.1394152743768342
  0.1649905736597873  0.5163527636816618  0.6483356011696485
 
             NaN             NaN             NaN
             NaN             NaN             NaN
             NaN             NaN             NaN
             NaN             NaN             NaN
             NaN             NaN             NaN
             NaN             NaN             NaN
             NaN             NaN             NaN
             NaN             NaN             NaN
             NaN             NaN             NaN
             NaN             NaN             NaN
             NaN             NaN             NaN
             NaN             NaN             NaN
             NaN             NaN             NaN
             NaN             NaN             NaN
             NaN             NaN             NaN
             NaN             NaN             NaN
             NaN             NaN             NaN
             NaN             NaN             NaN
             NaN             NaN             NaN
             NaN             NaN             NaN
             NaN             NaN             NaN
             NaN             NaN             NaN
             NaN             NaN             NaN
             NaN             NaN             NaN
             NaN             NaN             NaN
             NaN             NaN             NaN
             NaN             NaN             NaN
             NaN             NaN             NaN
             NaN             NaN             NaN
             NaN             NaN             NaN
             NaN             NaN             NaN
             NaN             NaN             NaN
             NaN             NaN             NaN
             NaN             NaN             NaN
             NaN             NaN             NaN
             NaN             NaN             NaN
             NaN             NaN             NaN
             NaN             NaN             NaN
             NaN             NaN             NaN
             NaN             NaN             NaN
             NaN             NaN             NaN
             NaN             NaN             NaN
             NaN             NaN             NaN
             NaN             NaN             NaN
             NaN             NaN             NaN
             NaN             NaN             NaN
             NaN             NaN             NaN
             NaN             NaN             NaN
             NaN             NaN             NaN
             NaN             NaN             NaN
             NaN             NaN             NaN
             NaN             NaN             NaN
             NaN             NaN             NaN
             NaN             NaN             NaN
             NaN             NaN             NaN
             NaN             NaN             NaN
             NaN             NaN             NaN
             NaN             NaN             NaN
             NaN             NaN             NaN
             NaN             NaN             NaN
             NaN             NaN             NaN
             NaN             NaN             NaN
             NaN             NaN             NaN
             NaN             NaN             NaN
             NaN             NaN             NaN
             NaN             NaN             NaN
             NaN             NaN             NaN
             NaN             NaN             NaN
             NaN             NaN             NaN
             NaN             NaN             NaN
             NaN             NaN             NaN
             NaN             NaN             NaN
             NaN             NaN             NaN
             NaN             NaN             NaN
             NaN             NaN             NaN
             NaN             NaN             NaN
             NaN             NaN             NaN
             NaN             NaN             NaN
             NaN             NaN             NaN
             NaN             NaN             NaN
             NaN             NaN             NaN
             NaN             NaN             NaN
             NaN             NaN             NaN
             NaN             NaN             NaN
             NaN             NaN             NaN
             NaN             NaN             NaN
             NaN             NaN             NaN
             NaN             NaN             NaN
             NaN             NaN             NaN
             NaN             NaN             NaN
             NaN             NaN             NaN
             NaN             NaN             NaN
             NaN             NaN             NaN
             NaN             NaN             NaN
             NaN             NaN             NaN
             NaN             NaN             NaN
             NaN             NaN             NaN
             NaN             NaN             NaN
             NaN             NaN             NaN
             NaN             NaN             NaN
             NaN             NaN             NaN
             NaN             NaN             NaN
             NaN             NaN             NaN
             NaN             NaN             NaN
             NaN             NaN             NaN
             NaN             NaN             NaN
             NaN             NaN             NaN
             NaN             NaN             NaN
             NaN             NaN             NaN
             NaN             NaN             NaN
             NaN             NaN             NaN
