Li15 Fe16 P16 O64
1.0
10.241702 0.000736 0.023684
0.000366 11.964676 -0.001796
0.010782 -0.002461 9.372629
Li Fe P O
15 16 16 64
direct
0.505798 0.405218 0.748609 Li
0.501344 0.000238 0.250326 Li
0.499692 0.006330 0.751314 Li
0.500265 0.501000 0.251940 Li
0.997620 0.249669 0.496254 Li
0.996787 0.247297 0.001570 Li
0.999464 0.749181 0.500740 Li
0.999324 0.751139 0.001962 Li
0.500825 0.248420 0.252247 Li
0.500652 0.750116 0.249497 Li
0.499784 0.746902 0.749853 Li
0.997886 0.500187 0.496508 Li
0.996672 0.502510 0.001772 Li
0.999415 0.001157 0.500568 Li
0.999318 0.999240 0.001786 Li
0.780043 0.124392 0.265556 Fe
0.778927 0.125068 0.762154 Fe
0.780265 0.625381 0.265082 Fe
0.779794 0.625051 0.762852 Fe
0.281850 0.124957 0.485498 Fe
0.281692 0.124693 0.985349 Fe
0.281546 0.625022 0.485794 Fe
0.281229 0.625399 0.986013 Fe
0.217677 0.375039 0.231851 Fe
0.224776 0.374837 0.744817 Fe
0.219088 0.875009 0.236175 Fe
0.219279 0.875031 0.736096 Fe
0.719830 0.374737 0.011695 Fe
0.718373 0.374529 0.516976 Fe
0.718694 0.874986 0.014219 Fe
0.718117 0.875173 0.514900 Fe
0.595228 0.124130 0.041729 P
0.593050 0.126087 0.541763 P
0.594933 0.625063 0.041704 P
0.593332 0.623997 0.542139 P
0.093411 0.124579 0.208060 P
0.094279 0.127814 0.710535 P
0.093294 0.625425 0.208167 P
0.094085 0.622332 0.710741 P
0.398035 0.375420 0.458038 P
0.407846 0.374880 0.957429 P
0.405654 0.874791 0.456885 P
0.407107 0.874862 0.956962 P
0.906066 0.375101 0.289374 P
0.910608 0.375078 0.788716 P
0.906936 0.874963 0.293670 P
0.907475 0.875156 0.792561 P
0.595023 0.125968 0.378792 O
0.599774 0.120307 0.880904 O
0.595138 0.623700 0.379536 O
0.598659 0.627454 0.880403 O
0.095076 0.125797 0.370292 O
0.094604 0.126481 0.872311 O
0.094934 0.624165 0.370354 O
0.094296 0.623793 0.872496 O
0.403340 0.375039 0.119441 O
0.383003 0.376779 0.619547 O
0.404977 0.874822 0.118981 O
0.402344 0.874538 0.618797 O
0.906013 0.375281 0.126998 O
0.908208 0.375072 0.627167 O
0.905535 0.874890 0.131490 O
0.906792 0.875021 0.630500 O
0.954993 0.124518 0.145591 O
0.957550 0.127055 0.644761 O
0.954899 0.625445 0.145634 O
0.957328 0.623201 0.644928 O
0.455741 0.126206 0.103353 O
0.454371 0.125794 0.601572 O
0.455642 0.623440 0.103649 O
0.454714 0.623644 0.603229 O
0.044377 0.375328 0.352424 O
0.052449 0.375173 0.848718 O
0.045189 0.874783 0.356819 O
0.046001 0.874952 0.855506 O
0.539304 0.375006 0.405056 O
0.544959 0.376001 0.897878 O
0.544256 0.874866 0.394067 O
0.545225 0.874719 0.893608 O
0.664457 0.022070 0.111924 O
0.663255 0.022574 0.607398 O
0.666893 0.523019 0.107461 O
0.669369 0.523998 0.606753 O
0.164800 0.226174 0.140030 O
0.165311 0.233281 0.647890 O
0.164584 0.727573 0.142365 O
0.168551 0.722377 0.643727 O
0.330093 0.273088 0.389065 O
0.326882 0.276801 0.890985 O
0.334340 0.772685 0.390246 O
0.334938 0.772700 0.891302 O
0.834349 0.476716 0.356415 O
0.841905 0.477070 0.857326 O
0.835736 0.977122 0.360084 O
0.836407 0.977500 0.858576 O
0.330765 0.477760 0.387902 O
0.328614 0.474089 0.889746 O
0.333845 0.976605 0.390378 O
0.334892 0.976920 0.891248 O
0.834873 0.273239 0.355953 O
0.841893 0.273298 0.857490 O
0.835290 0.772922 0.359968 O
0.836163 0.772821 0.858534 O
0.666869 0.226565 0.107150 O
0.671281 0.225154 0.604832 O
0.664479 0.727342 0.110554 O
0.663817 0.727079 0.607779 O
0.164795 0.022446 0.142185 O
0.168709 0.027670 0.643616 O
0.164796 0.523905 0.139851 O
0.164965 0.516860 0.648019 O
