Mg1 Ti16 S32                            
   1.00000000000000     
    10.0347609999999996   -0.0222420000000000   -0.0158640000000000
    -0.0222450000000000   10.0348980000000001    0.0158320000000000
    -0.0154600000000000    0.0155940000000000   10.0569579999999998
   Mg   Ti   S 
     1    16    32
Direct
  0.4746569063732575  0.2753488073959278  0.7738748617697625
  0.2484711574175449  0.7496963791626505 -0.0008384249378255
  0.4977378622968132  0.9952810866294667  0.0083366077390581
  0.7547130368019414  0.2522616975625956  0.0083480871746755
  1.0003026934249246  0.5015278567968607 -0.0008352072388705
  0.5002676675281981  0.2497329898551186  0.2609513571345731
  0.2483535899361141  0.5016408126410541  0.2474095915719249
  0.2393768451988522  0.2522531031221183  0.4930335484127077
  0.4977439120444897  0.5106262421594805  0.4930240812389123
  0.5003740876699824  0.7632219311968911  0.7472939579970610
  0.7549542856555158  0.5110109062685674  0.7497795284641133
  0.7513409210673514  0.7522066656481301  0.4959811514022684
  0.2390131663512065  0.9950493386211919  0.7497714049553496
  0.7513622733072026  0.9986262725620777  0.2497111454255369
  0.9867854261264448  0.2496356519377493  0.7472929203787225
  0.9998455297588612  0.7501426503462283  0.2475111172841788
  0.9977955778901296  0.9986581839753980  0.4959869016753417
  0.7436630178583059  0.0063218835396944  0.0048231387966668
  0.0037610619513349  0.7462369561441859  0.0010605599794774
 -0.0035073496781780  0.0037282302598814  0.7439393627397568
  0.7462742775113053  0.7535119080532635  0.7439305158384391
  0.2514884569273786  0.9951608524419677  0.9956702521581259
  0.9951974191508683  0.2530942527890889  0.9926814450963025
  0.9963984607753948  0.9964081724165297  0.2513934480651168
  0.2543980604288162  0.2531252167328545  0.2528938069370524
  0.7436969888066137  0.5070808655457800  0.5042618516730432
 -0.0031626868557441  0.2469344901223013  0.5018587791087592
  0.0036407936105061  0.5032747312023202  0.2434985035009407
  0.7461929255031886  0.2469400177906876  0.2504905142445106
  0.2514267995960554  0.4985545317030934  0.4926468201089225
  0.9962662170253644  0.7537405453645375  0.4932594173886810
  0.9954124581359274  0.4954589199522303  0.7510732102693168
  0.2545241164985270  0.7545865956765913  0.7510797155916726
  0.2429176575027980  0.0063018167834663  0.5042591024230103
  0.5030663851042568  0.7531546105266342  0.5018583874205145
  0.5030462328810158  1.0038043684899947  0.2504800186629579
  0.2467257324533096  0.7463482635883999  0.2434987017083476
  0.7528219036449677  0.9971672908172436  0.4941511807960093
  0.4907032531182174  0.2593011280933368  0.5056390385110128
  0.4905478622578123  1.0082930173542282  0.7573039911761336
  0.7417018310951545  0.2594670702949200  0.7573052897489247
  0.2464316053115877  0.5035686814131984  0.0018022569000759
  0.5036583783300900  0.2463601401520433  1.0140574153191872
  0.5038120077900514  0.5159408221953000  0.7436834313344770
  0.2340632549239906  0.2461835550644027  0.7436877969425182
  0.7548425485154502  0.4985055839564821  0.9956736491186025
  0.4969064762953595  0.7547929705426341  0.9926795536997391
  0.4968738949471374  0.4956018997670637  0.2528915272718472
  0.7535986860368868  0.7535993526482436  0.2513976986863315
 
             NaN             NaN             NaN
             NaN             NaN             NaN
             NaN             NaN             NaN
             NaN             NaN             NaN
             NaN             NaN             NaN
             NaN             NaN             NaN
             NaN             NaN             NaN
             NaN             NaN             NaN
             NaN             NaN             NaN
             NaN             NaN             NaN
             NaN             NaN             NaN
             NaN             NaN             NaN
             NaN             NaN             NaN
             NaN             NaN             NaN
             NaN             NaN             NaN
             NaN             NaN             NaN
             NaN             NaN             NaN
             NaN             NaN             NaN
             NaN             NaN             NaN
             NaN             NaN             NaN
             NaN             NaN             NaN
             NaN             NaN             NaN
             NaN             NaN             NaN
             NaN             NaN             NaN
             NaN             NaN             NaN
             NaN             NaN             NaN
             NaN             NaN             NaN
             NaN             NaN             NaN
             NaN             NaN             NaN
             NaN             NaN             NaN
             NaN             NaN             NaN
             NaN             NaN             NaN
             NaN             NaN             NaN
             NaN             NaN             NaN
             NaN             NaN             NaN
             NaN             NaN             NaN
             NaN             NaN             NaN
             NaN             NaN             NaN
             NaN             NaN             NaN
             NaN             NaN             NaN
             NaN             NaN             NaN
             NaN             NaN             NaN
             NaN             NaN             NaN
             NaN             NaN             NaN
             NaN             NaN             NaN
             NaN             NaN             NaN
             NaN             NaN             NaN
             NaN             NaN             NaN
             NaN             NaN             NaN
