Mg1 Ti16 S32
1.0
10.034761 -0.022242 -0.015864
-0.022245 10.034898 0.015832
-0.015460 0.015594 10.056958
Mg Ti S
1 16 32
direct
0.468927 0.281081 0.749764 Mg
0.248458 0.750120 0.002406 Ti
0.501399 -0.005492 0.006627 Ti
0.755499 0.248581 0.006612 Ti
0.999878 0.501516 0.002399 Ti
0.500296 0.249744 0.249890 Ti
0.248413 0.501579 0.250709 Ti
0.244884 0.250138 0.492422 Ti
0.499858 0.505137 0.492442 Ti
0.500739 0.750575 0.750068 Ti
0.755845 0.505626 0.750001 Ti
0.751405 0.750842 0.498687 Ti
0.244372 -0.005843 0.750000 Ti
0.751646 -0.001638 0.249432 Ti
0.999428 0.249259 0.750050 Ti
0.999736 0.750244 0.250158 Ti
0.999168 0.998589 0.498675 Ti
0.747368 0.002616 0.004207 S
0.003341 0.746638 0.003909 S
0.001955 0.003557 0.746447 S
0.746439 0.748051 0.746460 S
0.254684 0.995164 0.995383 S
0.998611 0.253614 0.994693 S
0.997251 0.995940 0.254119 S
0.249676 0.255037 0.253622 S
0.745867 0.505095 0.504606 S
0.001633 0.246314 0.505393 S
1.002072 0.504469 0.246228 S
0.750880 0.244191 0.246145 S
0.253432 0.496568 0.496526 S
0.996436 0.753555 0.496484 S
0.998216 0.496111 0.753925 S
0.253882 0.751784 0.753926 S
0.244915 0.004125 0.504598 S
0.503679 0.748384 0.505409 S
0.505805 -0.000825 0.246162 S
0.245502 0.747908 0.246225 S
0.753921 0.996089 0.495414 S
0.493292 0.256726 0.500944 S
0.495047 0.995729 0.754494 S
0.754275 0.254943 0.754477 S
0.245561 0.504436 1.004053 S
0.507233 0.242779 -0.001265 S
0.505214 0.504302 0.745249 S
0.245704 0.244783 0.745239 S
0.754840 0.495296 0.995376 S
0.496362 0.751398 0.994712 S
0.494982 0.500350 0.253625 S
0.754034 0.752755 0.254129 S
