Mg1 Ti16 S32                            
   1.00000000000000     
     9.8251460000000002   -0.0006230000000000    0.0000830000000000
    -0.0001010000000000    9.8250469999999996   -0.0000520000000000
     0.0000260000000000   -0.0000590000000000    9.8251179999999998
   Mg   Ti   S 
     1    16    32
Direct
  0.3750003763274147  0.3749936334349306  0.8716101891144354
  0.2466579545365159  0.7602694967541417  0.0009527040672057
  0.5031867880189193  0.9897342301381392  0.0009534021603817
  0.7602676269746903  0.2467119703848956  0.0009564552695565
  0.9897217115109674  0.5032389360474214  0.0009493802326199
  0.5038378288500946  0.2462043149978996  0.2615488060326652
  0.2461662544971474  0.5038680428656180  0.2615259393024911
  0.2447495297206756  0.2447869909867039  0.4871552813534182
  0.5053134520108500  0.5053005179315178  0.4871389252915082
  0.5056668892538577  0.7625569020629395  0.7436958541937059
  0.7625862483713930  0.5056926562253883  0.7436661049117350
  0.7524554450217205  0.7524824812831816  0.4939634050860695
  0.2442755713406780  0.9874181526165704  0.7436262380548271
  0.7513788836164669  0.9985785021466177  0.2479243880951273
  0.9874302318658178  0.2443230758185121  0.7436695163174379
  0.9985240625536086  0.7514053606101987  0.2479633712163375
  0.9974692029349307  0.9975202853747452  0.4939059872442432
  0.7485305997700568  0.0014521034841788  0.0003180756876543
  0.0014402056217076  0.7485313394089980  0.0003168800593330
 -0.0003807217059106 -0.0003669874075027  0.7430890897564802
  0.7503679015064323  0.7503637521484962  0.7431014729929679
  0.2534562503365155  0.9995848378821777  0.9931497446334586
  0.9995870204938814  0.2534795903078060  0.9931597378579529
  0.9973840699494401  0.9973602409697510  0.2489133527883670
  0.2543635314774739  0.2543365584272231  0.2484334686698546
  0.7498224949928918  0.5040455514108507  0.4983225265508051
  0.0002372354072893  0.2459756914051739  0.4983210782013828
  0.0009868861636399  0.5034560006003821  0.2466462010300928
  0.7490751196468390  0.2465008533194772  0.2466228127437476
  0.2546930954344274  0.4953672873003603  0.4995045712666427
  0.9975899456790205  0.7523952188804319  0.4939400030108450
  1.0011158427150635  0.4947352008882119  0.7516436971159497
  0.2552533855416887  0.7488664541227715  0.7516185907557795
  0.2459464178669976  0.0002331063543162  0.4983108125482565
  0.5040385459375134  0.7498019047299892  0.4983218802472788
  0.5034922688126584  0.0009633963394861  0.2466541527890447
  0.2465142776660219  0.7490472348639574  0.2466249736665486
  0.7523877333647638  0.9976086702638157  0.4939461122544849
  0.4953783146401164  0.2546754061055587  0.4995052875496657
  0.4947336417196984  1.0010665941282486  0.7516443758084376
  0.7489385681308308  0.2552571048492691  0.7516217856942391
  0.2391861025928066  0.5108215496574937  0.0106130268506907
  0.5108387976685901  0.2391857675351754  0.0106214623946411
  0.5129190423508535  0.5128584189065467  0.7365656125158929
  0.2371289441962722  0.2370829210677132  0.7365820034821845
  0.7504361843392052  0.4965252235175359  0.9931557584273878
  0.4965095341145397  0.7504193019486445  0.9931598187754974
  0.4957241688683344  0.4956946768661932  0.2484145340707295
  0.7526147908018401  0.7525852273554713  0.2489131523877283
 
             NaN             NaN             NaN
             NaN             NaN             NaN
             NaN             NaN             NaN
             NaN             NaN             NaN
             NaN             NaN             NaN
             NaN             NaN             NaN
             NaN             NaN             NaN
             NaN             NaN             NaN
             NaN             NaN             NaN
             NaN             NaN             NaN
             NaN             NaN             NaN
             NaN             NaN             NaN
             NaN             NaN             NaN
             NaN             NaN             NaN
             NaN             NaN             NaN
             NaN             NaN             NaN
             NaN             NaN             NaN
             NaN             NaN             NaN
             NaN             NaN             NaN
             NaN             NaN             NaN
             NaN             NaN             NaN
             NaN             NaN             NaN
             NaN             NaN             NaN
             NaN             NaN             NaN
             NaN             NaN             NaN
             NaN             NaN             NaN
             NaN             NaN             NaN
             NaN             NaN             NaN
             NaN             NaN             NaN
             NaN             NaN             NaN
             NaN             NaN             NaN
             NaN             NaN             NaN
             NaN             NaN             NaN
             NaN             NaN             NaN
             NaN             NaN             NaN
             NaN             NaN             NaN
             NaN             NaN             NaN
             NaN             NaN             NaN
             NaN             NaN             NaN
             NaN             NaN             NaN
             NaN             NaN             NaN
             NaN             NaN             NaN
             NaN             NaN             NaN
             NaN             NaN             NaN
             NaN             NaN             NaN
             NaN             NaN             NaN
             NaN             NaN             NaN
             NaN             NaN             NaN
             NaN             NaN             NaN
