Mg1 Ti16 S32
1.0
9.825146 -0.000623 0.000083
-0.000101 9.825047 -0.000052
0.000026 -0.000059 9.825118
Mg Ti S
1 16 32
direct
0.375015 0.374989 0.749833 Mg
0.248705 0.754393 0.006033 Ti
0.501250 -0.004366 0.006016 Ti
0.754345 0.248722 0.006038 Ti
0.995584 0.501264 0.006010 Ti
0.501319 0.248675 0.249918 Ti
0.248663 0.501328 0.249888 Ti
0.245331 0.245302 0.490852 Ti
0.504646 0.504618 0.490839 Ti
0.504567 0.754609 0.750061 Ti
0.754567 0.504550 0.750037 Ti
0.751565 0.751597 0.497524 Ti
0.245449 -0.004571 0.750041 Ti
0.751333 -0.001340 0.250160 Ti
0.995386 0.245432 0.750064 Ti
0.998615 0.751371 0.250175 Ti
0.998353 0.998384 0.497516 Ti
0.747416 0.002600 0.003723 S
0.002601 0.747417 0.003716 S
0.001416 1.001383 0.747570 S
0.748623 0.748594 0.747556 S
0.252765 -0.002104 0.997124 S
0.997844 0.252739 0.997129 S
0.997427 0.997442 0.252302 S
0.252759 0.252728 0.249906 S
0.748651 0.503564 0.502990 S
0.001408 0.246442 0.502987 S
0.002603 0.502721 0.249038 S
0.747425 0.247279 0.249033 S
0.254004 0.496004 0.495542 S
0.997365 0.752640 0.497056 S
0.997789 0.496002 0.753846 S
0.254003 0.752218 0.753838 S
0.246445 1.001356 0.502988 S
0.503571 0.748606 0.502989 S
0.502732 0.002584 0.249039 S
0.247277 0.747409 0.249032 S
0.752612 0.997402 0.497060 S
0.496058 0.253947 0.495547 S
0.496051 -0.002195 0.753835 S
0.752206 0.253956 0.753826 S
0.245913 0.504106 0.003868 S
0.504074 0.245949 0.003870 S
0.504733 0.504727 0.745052 S
0.245278 0.245273 0.745037 S
0.752133 0.497255 0.997124 S
0.497277 0.752175 0.997129 S
0.497280 0.497254 0.249918 S
0.752561 0.752571 0.252287 S
