Mg7 Sc16 Se32                           
   1.00000000000000     
    11.3332080000000008    0.0000000000000000    0.0000000000000000
     0.0000000000000000   11.3331990000000005    0.0000000000000000
     0.0000000000000000    0.0000000000000000   11.3331759999999999
   Mg   Sc   Se
     7    16    32
Direct
  0.5920374193755837  0.5920372448494287  0.5920369665348040
  0.6225785293780656  0.1275936553368859  0.1275936133246220
  0.1275935137305848  0.6225785641645106  0.1275936628565080
  0.1275934677645131  0.1275935801605388  0.6225784581001803
  0.3741677961340340  0.8738041490109322  0.8738040167597942
  0.8738041589775728  0.3741679627877900  0.8738039663604988
  0.8738040973571866  0.8738040441902902  0.3741679285533176
  0.9948791525116730  0.7509313071357886  0.7509313723520530
  0.7509315436079705  0.9948791994943280  0.7509315241469566
  0.7509315336601428  0.7509314851747145  0.9948788026934069
  1.0000553396709835  1.0000553300641590  1.0000555065450321
  0.0060285254966296  0.2494982062090494  0.2494983306520319
  0.2494981726722497  0.0060285215005573  0.2494981871130378
  0.2494983114426159  0.2494980572091300  0.0060285077170757
  0.7451238296103142  0.4999925113421030  0.2473434232080985
  0.7451240246226210  0.2473434919727029  0.4999927426002495
  0.0088759464082502  0.5002279467151016  0.5002280334893585
  0.2473432414656318  0.4999928269222719  0.7451235163128123
  0.2473434085208957  0.7451233660756141  0.4999927231310884
  0.4999924878163146  0.7451238004332077  0.2473435823879931
  0.5002278815490132  0.0088754552171246  0.5002277725408388
  0.4999928060548742  0.2473435707743272  0.7451241968650724
  0.5002279753023707  0.5002277499334127  0.0088756508375027
  0.7578005029185175  0.9927510735615790  0.9927514331630266
  0.9927508284347283  0.7578004123276394  0.9927514006379263
  0.9927509912080432  0.9927512213550598  0.7577999992930984
  0.7555017941336138  0.7555016106375836  0.7555012974704730
  0.2413941123710929  0.0066315899684043  0.0066311906667784
  0.0066317557722837  0.2413942706165268  0.0066312287892163
  0.0066317060895586  0.0066315948325248  0.2413946562620262
  0.2400368958902744  0.2400369562560129  0.2400372544360357
  0.7617608718500621  0.4889416581943197  0.4889419912541143
  0.9909120324041385  0.2580756483199557  0.4920497601716795
  0.9909120252823536  0.4920494581559452  0.2580751851468270
  0.7600081907670982  0.2572117163476523  0.2572112981571245
  0.2422918067477428  0.5098827717009039  0.5098824960122182
  0.0058373388935686  0.7426910565611961  0.5086530738248748
  0.0058374685886121  0.5086536408674932  0.7426912492222870
  0.2393203349067577  0.7428324916161512  0.7428328688115001
  0.2580758278650375  0.9909123474409367  0.4920498196336699
  0.4889416257233936  0.7617609865797488  0.4889419334616657
  0.4920492605402720  0.9909120976268099  0.2580753776365003
  0.2572119117004832  0.7600080443802990  0.2572112600313843
  0.7426907137151970  0.0058371431205187  0.5086529974189343
  0.5098825398621006  0.2422920777087943  0.5098820801856534
  0.5086535595191537  0.0058371473166271  0.7426912792501877
  0.7428321484875858  0.2393204194956132  0.7428326912714664
  0.2580757679114502  0.4920494695612917  0.9909127725480830
  0.4920491848108987  0.2580758154504101  0.9909125030357375
  0.4889416074881056  0.4889415876171742  0.7617605502899225
  0.2572118933492392  0.2572116220017433  0.7600076501017106
  0.7426906167092348  0.5086536403819202  0.0058368254006659
  0.5086536447873088  0.7426910444632016  0.0058367415926539
  0.5098827009332437  0.5098825538137104  0.2422924548909629
  0.7428322687461141  0.7428324682637060  0.2393208209055824
 
             NaN             NaN             NaN
             NaN             NaN             NaN
             NaN             NaN             NaN
             NaN             NaN             NaN
             NaN             NaN             NaN
             NaN             NaN             NaN
             NaN             NaN             NaN
             NaN             NaN             NaN
             NaN             NaN             NaN
             NaN             NaN             NaN
             NaN             NaN             NaN
             NaN             NaN             NaN
             NaN             NaN             NaN
             NaN             NaN             NaN
             NaN             NaN             NaN
             NaN             NaN             NaN
             NaN             NaN             NaN
             NaN             NaN             NaN
             NaN             NaN             NaN
             NaN             NaN             NaN
             NaN             NaN             NaN
             NaN             NaN             NaN
             NaN             NaN             NaN
             NaN             NaN             NaN
             NaN             NaN             NaN
             NaN             NaN             NaN
             NaN             NaN             NaN
             NaN             NaN             NaN
             NaN             NaN             NaN
             NaN             NaN             NaN
             NaN             NaN             NaN
             NaN             NaN             NaN
             NaN             NaN             NaN
             NaN             NaN             NaN
             NaN             NaN             NaN
             NaN             NaN             NaN
             NaN             NaN             NaN
             NaN             NaN             NaN
             NaN             NaN             NaN
             NaN             NaN             NaN
             NaN             NaN             NaN
             NaN             NaN             NaN
             NaN             NaN             NaN
             NaN             NaN             NaN
             NaN             NaN             NaN
             NaN             NaN             NaN
             NaN             NaN             NaN
             NaN             NaN             NaN
             NaN             NaN             NaN
             NaN             NaN             NaN
             NaN             NaN             NaN
             NaN             NaN             NaN
             NaN             NaN             NaN
             NaN             NaN             NaN
             NaN             NaN             NaN
