Mg7 Sc16 Se32
1.0
11.333208 0.000000 -0.000000
0.000000 11.333199 0.000000
-0.000000 0.000000 11.333176
Mg Sc Se
7 16 32
direct
0.591821 0.591821 0.591821 Mg
0.622749 0.127251 0.127251 Mg
0.127251 0.622749 0.127251 Mg
0.127251 0.127251 0.622748 Mg
0.375323 0.874677 0.874677 Mg
0.874677 0.375323 0.874677 Mg
0.874677 0.874677 0.375323 Mg
0.999167 0.750059 0.750059 Sc
0.750059 0.999167 0.750059 Sc
0.750059 0.750059 0.999167 Sc
0.999955 0.999955 0.999955 Sc
0.005425 0.249901 0.249901 Sc
0.249901 0.005425 0.249901 Sc
0.249901 0.249901 0.005425 Sc
0.744589 0.500084 0.250689 Sc
0.744590 0.250690 0.500085 Sc
0.004636 0.500085 0.500085 Sc
0.250689 0.500085 0.744589 Sc
0.250689 0.744589 0.500085 Sc
0.500085 0.744589 0.250690 Sc
0.500085 0.004637 0.500084 Sc
0.500085 0.250689 0.744589 Sc
0.500085 0.500085 0.004636 Sc
0.757771 0.992466 0.992466 Se
0.992466 0.757772 0.992466 Se
0.992466 0.992466 0.757772 Se
0.757884 0.757884 0.757885 Se
0.241362 0.006940 0.006940 Se
0.006940 0.241362 0.006940 Se
0.006940 0.006940 0.241362 Se
0.240520 0.240520 0.240520 Se
0.759668 0.491950 0.491950 Se
0.990683 0.257700 0.492063 Se
0.990683 0.492063 0.257700 Se
0.759555 0.257700 0.257700 Se
0.240262 0.509500 0.509501 Se
0.007198 0.743040 0.508659 Se
0.007198 0.508659 0.743040 Se
0.241104 0.743040 0.743040 Se
0.257700 0.990683 0.492063 Se
0.491950 0.759668 0.491950 Se
0.492063 0.990683 0.257700 Se
0.257700 0.759555 0.257700 Se
0.743040 0.007198 0.508659 Se
0.509500 0.240262 0.509501 Se
0.508658 0.007198 0.743040 Se
0.743040 0.241103 0.743040 Se
0.257700 0.492063 0.990682 Se
0.492063 0.257700 0.990682 Se
0.491950 0.491950 0.759668 Se
0.257700 0.257700 0.759555 Se
0.743040 0.508659 0.007198 Se
0.508658 0.743040 0.007198 Se
0.509500 0.509500 0.240261 Se
0.743040 0.743040 0.241103 Se
