Mg15 Mn32 O64                           
   1.00000000000000     
    11.4349220000000003   -0.0009690000000000    0.0002060000000000
    -0.0007170000000000   11.4192579999999992   -0.0000510000000000
     0.0013700000000000    0.0004820000000000    9.2384380000000004
   Mg   Mn   O 
    15    32    64
Direct
  0.5001442392044084  0.4981084930885798  0.4899151361236112
  0.0000743646222543  0.2422979137991372  0.7409758724305565
  0.9999645645397244  0.7420424011633140  0.7416880847958374
  0.4999973798751201  0.2426132637886623  0.7424265369838174
  1.0000601017678956  0.4925065812183274  0.4953067669033849
  0.9999128821514400  0.9915592474041256  0.4950419492090149
  0.4999810272581454  0.9870276438291847  0.4911706611970593
  0.2471970877589055  0.9934844917371216  0.2434168854759893
  0.2478404978597854  0.4910330008711563  0.2429505037808917
  0.7526448993998340  0.9934519784996148  0.2434713113738967
  0.7523879337663589  0.4909673116642269  0.2431496596126173
  0.2496152953711110  0.2423450744735056  0.9915112918721861
  0.2525846656488381  0.7425381837218420  0.9891770141171468
  0.7503367149938591  0.2423757040924379  0.9915848752994924
  0.7476726228878078  0.7424422935565813  0.9890449679006017
  0.1248644149353759  0.2419176931279805  0.3682410165347624
  0.1246902543163395  0.7418694716664164  0.3677356056459551
  0.6248377913052173  0.2419040702112198  0.3684416456441711
  0.6267101589482607  0.7420858615372978  0.3615477839019136
  0.3751467051969595  0.2419042590939789  0.3684015353969168
  0.3732673678501157  0.7420965627087948  0.3614629311901950
  0.8751117520882227  0.2418935728675918  0.3682460165211741
  0.8752771583551686  0.7418590689592449  0.3677447642967061
  0.1248462984024505  0.9919542854596215  0.8662820315583210
  0.1250803517947938  0.4918854686606516  0.8671881024551548
  0.6245486222493301  0.9915033682581784  0.8682735950869925
  0.6243677235768029  0.4934272231717914  0.8683033746154964
  0.3753106459705421  0.9915584122374562  0.8682368149037608
  0.3755529987514752  0.4935255714690515  0.8684869667262682
  0.8749186498366337  0.9919048133720865  0.8671740063327363
  0.8749027007974344  0.4918672281486656  0.8671924183893344
  0.0000017527076800  0.1169015883928736  0.1171178783329533
  1.0000186996227995  0.6170275947359225  0.1168910548000956
  0.4999672792454680  0.1168891750121100  0.1189091802047638
  0.5005631578899346  0.6154714253917010  0.1147416717337503
  0.0000015454677026  0.3667101588995330  0.1173134389380147
  0.0000178954323285  0.8666255187033910  0.1169337453538934
  0.5000090781261222  0.3668884652239117  0.1187674840856740
  0.5000032928499794  0.8694452715084614  0.1175406085602892
  0.2517532842777048  0.3684458375870049  0.6176518011670650
  0.2526265982318672  0.8646436954652964  0.6173626944977949
  0.7485789054871237  0.3681438134731218  0.6178970600771958
  0.7473324052323189  0.8646383190466812  0.6174414924408284
  0.2504188828719301  0.1166838389450105  0.6178212717898276
  0.2527367723594325  0.6195579125950195  0.6175280777484475
  0.7496002829849975  0.1166109581954178  0.6179588518886532
  0.7472848571763586  0.6194719223928437  0.6175497227209723
  0.1382036642712464  0.2428525448759461  0.6139526515833839
  0.1366576630019646  0.7421335839779897  0.6132122298530883
  0.6368709194033322  0.2422325496399559  0.6137785962512662
  0.6402178238941102  0.7422050342242564  0.5931862352065024
  0.3632203818481632  0.2423370059550852  0.6136724760701860
  0.3597398679598358  0.7423499156940354  0.5931792756300599
  0.8620010141776782  0.2426042630502917  0.6139309801133668
  0.8632968277452808  0.7421373818089653  0.6132388167944188
  0.1384166284765826  0.9920270149212977  0.6216305792735397
  0.1388723999126373  0.4924676472708263  0.6216973335237237
  0.6352116699789730  0.9922225709415190  0.6231029363909436
  0.6347305303878629  0.4926641133131831  0.6227560983575955
  0.3646972229858106  0.9923044913859725  0.6230109323966121
  0.3654629548873966  0.4929164561987596  0.6227510557464045
  0.8614837488759860  0.9920069517129719  0.6217571604905573
  0.8612509370582865  0.4923472443704968  0.6217275020137423
  0.9999357003809055  0.1051017763381674  0.8704339906073475
  0.9999839383771896  0.6044573203272327  0.8705461065198377
  0.4999668656437481  0.1050990498990934  0.8733514567831522
  0.5001473209805209  0.6024188222126945  0.9134687248129788
 -0.0000052637445671  0.3789786088107245  0.8707982499820770
 -0.0001129661621174  0.8794539514993303  0.8704965094109856
  0.4999266095959307  0.3802280363336242  0.8731149337656001
  0.4999164996170564  0.8835682056646346  0.9152320664931654
 -0.0000084976796372  0.3550769533257873  0.3646813983243951
  0.9999804277960361  0.8549940135631390  0.3636047269253008
  0.5000082948398473  0.3557059921908637  0.3635008926411444
  0.4999424236198461  0.8575036763141037  0.3387387463995525
 -0.0000201834037184  0.1289149534280161  0.3646368990065764
  0.9999845201000725  0.6289014303631004  0.3636435954623687
  0.4999610917504587  0.1285584401965179  0.3637563834646644
  0.5001644615597404  0.6272053958404721  0.3373923102717543
  0.3889396999111652  0.9907388126099357  0.1220230250850767
  0.3893507613526970  0.4939289363271882  0.1206642703376851
  0.8873845357737453  0.9923470370641267  0.1130332782520537
  0.8873997750509764  0.4916131746696010  0.1130516100703546
  0.1125134069412059  0.9924078888428877  0.1129394978521569
  0.1126321010800075  0.4916276522506012  0.1130927136448272
  0.6109607862545072  0.9908109484064506  0.1220376691657833
  0.6110924026002769  0.4938519611321079  0.1206170234601267
  0.3873082189520314  0.2421348424611562  0.1203748800709893
  0.3911556819712607  0.7424212536699714  0.1192906668537874
  0.8870096298819680  0.2419986358394179  0.1209508845133167
  0.8867981864570766  0.7419885784165473  0.1182382659120919
  0.1129421972063010  0.2420210376958131  0.1209264623420797
  0.1132440402675168  0.7420324537636434  0.1182298637531123
  0.6125764295316465  0.2421553336985084  0.1203704814465704
  0.6092991106280243  0.7427506550947610  0.1192910551147750
  0.2502593089700044  0.3546297665580598  0.3710362299843157
  0.2494448462253595  0.8547189575561615  0.3657064550238453
  0.7497625912899406  0.3545633940260796  0.3711142423698808
  0.7504613797480492  0.8546903781766227  0.3657826461628356
  0.2500593774718834  0.1296673621442745  0.3713927172538153
  0.2498368597326222  0.6296551140210188  0.3655072188385412
  0.7498435718884104  0.1296415709065826  0.3713940108372713
  0.7502192834216321  0.6295955666831039  0.3655609996621778
  0.2509272506457275  0.1047188478539618  0.8640463489132530
  0.2503624378307461  0.6044101990750131  0.8646296312651195
  0.7489758325774707  0.1046743282900054  0.8642902640467245
  0.7496331481085908  0.6043292862578650  0.8645377363989994
  0.2514882758130022  0.3800340181459633  0.8642090433731190
  0.2503835167339358  0.8803280981124993  0.8643909166254813
  0.7485086541832313  0.3799289402723067  0.8641128378099632
  0.7494139313720820  0.8802664403552943  0.8645058413930181
 
             NaN             NaN             NaN
             NaN             NaN             NaN
             NaN             NaN             NaN
             NaN             NaN             NaN
             NaN             NaN             NaN
             NaN             NaN             NaN
             NaN             NaN             NaN
             NaN             NaN             NaN
             NaN             NaN             NaN
             NaN             NaN             NaN
             NaN             NaN             NaN
             NaN             NaN             NaN
             NaN             NaN             NaN
             NaN             NaN             NaN
             NaN             NaN             NaN
             NaN             NaN             NaN
             NaN             NaN             NaN
             NaN             NaN             NaN
             NaN             NaN             NaN
             NaN             NaN             NaN
             NaN             NaN             NaN
             NaN             NaN             NaN
             NaN             NaN             NaN
             NaN             NaN             NaN
             NaN             NaN             NaN
             NaN             NaN             NaN
             NaN             NaN             NaN
             NaN             NaN             NaN
             NaN             NaN             NaN
             NaN             NaN             NaN
             NaN             NaN             NaN
             NaN             NaN             NaN
             NaN             NaN             NaN
             NaN             NaN             NaN
             NaN             NaN             NaN
             NaN             NaN             NaN
             NaN             NaN             NaN
             NaN             NaN             NaN
             NaN             NaN             NaN
             NaN             NaN             NaN
             NaN             NaN             NaN
             NaN             NaN             NaN
             NaN             NaN             NaN
             NaN             NaN             NaN
             NaN             NaN             NaN
             NaN             NaN             NaN
             NaN             NaN             NaN
             NaN             NaN             NaN
             NaN             NaN             NaN
             NaN             NaN             NaN
             NaN             NaN             NaN
             NaN             NaN             NaN
             NaN             NaN             NaN
             NaN             NaN             NaN
             NaN             NaN             NaN
             NaN             NaN             NaN
             NaN             NaN             NaN
             NaN             NaN             NaN
             NaN             NaN             NaN
             NaN             NaN             NaN
             NaN             NaN             NaN
             NaN             NaN             NaN
             NaN             NaN             NaN
             NaN             NaN             NaN
             NaN             NaN             NaN
             NaN             NaN             NaN
             NaN             NaN             NaN
             NaN             NaN             NaN
             NaN             NaN             NaN
             NaN             NaN             NaN
             NaN             NaN             NaN
             NaN             NaN             NaN
             NaN             NaN             NaN
             NaN             NaN             NaN
             NaN             NaN             NaN
             NaN             NaN             NaN
             NaN             NaN             NaN
             NaN             NaN             NaN
             NaN             NaN             NaN
             NaN             NaN             NaN
             NaN             NaN             NaN
             NaN             NaN             NaN
             NaN             NaN             NaN
             NaN             NaN             NaN
             NaN             NaN             NaN
             NaN             NaN             NaN
             NaN             NaN             NaN
             NaN             NaN             NaN
             NaN             NaN             NaN
             NaN             NaN             NaN
             NaN             NaN             NaN
             NaN             NaN             NaN
             NaN             NaN             NaN
             NaN             NaN             NaN
             NaN             NaN             NaN
             NaN             NaN             NaN
             NaN             NaN             NaN
             NaN             NaN             NaN
             NaN             NaN             NaN
             NaN             NaN             NaN
             NaN             NaN             NaN
             NaN             NaN             NaN
             NaN             NaN             NaN
             NaN             NaN             NaN
             NaN             NaN             NaN
             NaN             NaN             NaN
             NaN             NaN             NaN
             NaN             NaN             NaN
             NaN             NaN             NaN
             NaN             NaN             NaN
             NaN             NaN             NaN
