Mg15 Mn32 O64                           
   1.00000000000000     
    11.4349220000000003   -0.0009690000000000    0.0002060000000000
    -0.0007170000000000   11.4192579999999992   -0.0000510000000000
     0.0013700000000000    0.0004820000000000    9.2384380000000004
   Mg   Mn   O 
    15    32    64
Direct
  0.5001044326930152  0.4925007447702352  0.4850549192530796
 -0.0000762729521477  0.2383628881643747  0.7356057178147402
  1.0001263128701703  0.7381371077824065  0.7353492487161205
  0.4997575339340931  0.2374084730776132  0.7400902018722721
  0.0000828024335743  0.4884404373860722  0.4899478073454920
  1.0000698837466400  0.9869561096445447  0.4892799758580600
  0.4999750930609738  0.9807189753424193  0.4871531220375923
  0.2468187097782688  0.9891659568400271  0.2386217962485320
  0.2465296045337474  0.4856356292922661  0.2379199499641356
  0.7529064237105434  0.9888076595854403  0.2384186672130983
  0.7536405257850096  0.4850835645017156  0.2378721221772591
  0.2497327638945663  0.2381172761675457  0.9869134753609222
  0.2530466278918789  0.7379564994168699  0.9838984520373013
  0.7498306195901600  0.2374900925156700  0.9865739150507439
  0.7472390665206585  0.7372651849384487  0.9840765706870116
  0.1243493233919019  0.2378798495609691  0.3649327029865078
  0.1249190653755387  0.7369672553786942  0.3609010280545307
  0.6238208610978367  0.2387169425737302  0.3666394953457309
  0.6285833851183443  0.7373201987454219  0.3576081887356800
  0.3754154812862719  0.2349443021839059  0.3668010773002320
  0.3733203256853211  0.7376828242529975  0.3580712172517972
  0.8748663653711478  0.2367769247803426  0.3659610871990587
  0.8759673946803389  0.7361586591022761  0.3611215483603863
  0.1248797606471522  0.9883232372383349  0.8612726594424619
  0.1254253107072610  0.4879697335232521  0.8602092247740819
  0.6239658206110469  0.9864155242727585  0.8656473844232478
  0.6250235304466204  0.4897249155211847  0.8655694861733908
  0.3755337020226928  0.9858355368905601  0.8655531158926971
  0.3749501948097528  0.4895935769599921  0.8655752222735191
  0.8744525034888806  0.9867529716647740  0.8607214455694657
  0.8751006993140281  0.4868485670858491  0.8602547656574899
 -0.0006511666782634  0.1149156396216064  0.1102905838600582
  0.0002065664881377  0.6152089087123450  0.1088424376619795
  0.4994769077328903  0.1113783896132151  0.1171427358944187
  0.5000542271338172  0.6118149641731674  0.1127541824329672
 -0.0001074033748583  0.3641721732316328  0.1111711802253601
  0.0000606255534418  0.8652200183864508  0.1102566369220490
  0.5002389948971029  0.3613762613263071  0.1172575527895561
  0.5002222490295459  0.8627765443995813  0.1135655813097010
  0.2520030829134695  0.3641653692258339  0.6134119975048890
  0.2521586098993377  0.8607780304854888  0.6111238145174093
  0.7476549348332613  0.3637438883959321  0.6130637530667153
  0.7489675049320422  0.8605373718428831  0.6108610876904728
  0.2516860215070281  0.1123825684153130  0.6136673254265569
  0.2527369136522791  0.6149895329056490  0.6105610526581069
  0.7490703403968131  0.1113906279964119  0.6145770665203025
  0.7474970481868515  0.6141562978474568  0.6107718464394312
  0.1386434450443144  0.2380395531362469  0.6096981562568154
  0.1364145221339044  0.7372296118807096  0.6069412069592388
  0.6360788924441829  0.2372872550100954  0.6100063699194133
  0.6407417478933231  0.7378286929921345  0.5863724927484918
  0.3636816672021470  0.2372923307451184  0.6097939247723040
  0.3591868929811178  0.7380512617477267  0.5874773052289969
  0.8612005586051457  0.2380777476280600  0.6098555457037930
  0.8638457070581369  0.7374056810282028  0.6070155448711362
  0.1378127519050824  0.9878473455571701  0.6164033773356622
  0.1390617171403308  0.4876303840131110  0.6160310106910033
  0.6357440030331264  0.9867035097746140  0.6186657728241186
  0.6346978140251277  0.4882177481825592  0.6172817860184465
  0.3641178773618650  0.9867744368997706  0.6187863726883132
  0.3654750699081182  0.4881541625070533  0.6173775794537589
  0.8619866586465955  0.9878717723629302  0.6164839232546311
  0.8609520661953863  0.4873685814864073  0.6162910278268164
  0.9996836734623852  0.1015216900820010  0.8647258380101075
  0.9997092401650580  0.6008311483379061  0.8639979165033517
  0.5002835088235271  0.0978962056150946  0.8683234785819746
  0.5001946405918952  0.5975625288467158  0.9111861035728259
  0.0000998174178761  0.3753820119930537  0.8645763008862214
  1.0003137223320600  0.8759428236778164  0.8641773667236263
  0.4999714791261881  0.3759541339650686  0.8699654221798202
  0.4997356807369469  0.8758554312792408  0.9107328360269006
  0.9995022812398179  0.3510573277929402  0.3605400379340610
  0.0002360834861990  0.8504606598379726  0.3580018021915032
  0.5002311304437228  0.3503658940556354  0.3591422035475553
  0.4997909777331308  0.8524976722271225  0.3319481390247750
 -0.0004042388525548  0.1247630194478415  0.3606875133916928
  0.0003606134038900  0.6241778510483746  0.3571504435867812
  0.4996557805871305  0.1230162759749918  0.3618496100784953
  0.5008726871640947  0.6227001181625915  0.3354252550944796
  0.3881819818251213  0.9853271686409197  0.1176372156945865
  0.3889340331161398  0.4879861791970324  0.1179591646809480
  0.8871917521181260  0.9891797014506435  0.1076765773760289
  0.8874498566106147  0.4890915354770194  0.1065677851337622
  0.1120570822086807  0.9897992883054387  0.1076730093301099
  0.1125062740216300  0.4889686413734989  0.1068795090221987
  0.6116540830837925  0.9852189994453676  0.1175907559715497
  0.6112525994549153  0.4879134231011615  0.1177658686923772
  0.3872587735748422  0.2366907519282821  0.1163637207767828
  0.3909951796659293  0.7354122699148181  0.1154242328125785
  0.8864397325139293  0.2393024754909055  0.1158653863285139
  0.8868863983602397  0.7392177797818370  0.1120497429429451
  0.1122985314407909  0.2393262631579732  0.1158689122674060
  0.1134929281419023  0.7392684206816006  0.1121709266785911
  0.6125658475001995  0.2367467781741172  0.1163043209036034
  0.6092079143141982  0.7357664000980457  0.1156111041498935
  0.2501185751675306  0.3500359576100615  0.3668606658616111
  0.2496858289657735  0.8494815965743387  0.3602178384272899
  0.7492239732770238  0.3491552966602179  0.3670119521032408
  0.7499286505242083  0.8488403669869908  0.3596518690903833
  0.2495456987675631  0.1250157470989684  0.3678691815634499
  0.2492988420955257  0.6240694940447686  0.3603559976302853
  0.7502878397150270  0.1240090154267743  0.3678915763991265
  0.7525514260028343  0.6232451846721182  0.3602463475320333
  0.2512966327471666  0.1002712044448799  0.8592681535221658
  0.2504792663179346  0.6007555695220400  0.8588534413547401
  0.7486918379055890  0.0991610541459968  0.8591646043096832
  0.7496929391563069  0.6000663829945039  0.8587345417373987
  0.2517108032815161  0.3765338952521728  0.8596401951740529
  0.2500497774023355  0.8760904893076604  0.8596166325064533
  0.7479895751760132  0.3757857641663094  0.8594939187769787
  0.7496884125334012  0.8751373674816336  0.8592831160957679
 
             NaN             NaN             NaN
             NaN             NaN             NaN
             NaN             NaN             NaN
             NaN             NaN             NaN
             NaN             NaN             NaN
             NaN             NaN             NaN
             NaN             NaN             NaN
             NaN             NaN             NaN
             NaN             NaN             NaN
             NaN             NaN             NaN
             NaN             NaN             NaN
             NaN             NaN             NaN
             NaN             NaN             NaN
             NaN             NaN             NaN
             NaN             NaN             NaN
             NaN             NaN             NaN
             NaN             NaN             NaN
             NaN             NaN             NaN
             NaN             NaN             NaN
             NaN             NaN             NaN
             NaN             NaN             NaN
             NaN             NaN             NaN
             NaN             NaN             NaN
             NaN             NaN             NaN
             NaN             NaN             NaN
             NaN             NaN             NaN
             NaN             NaN             NaN
             NaN             NaN             NaN
             NaN             NaN             NaN
             NaN             NaN             NaN
             NaN             NaN             NaN
             NaN             NaN             NaN
             NaN             NaN             NaN
             NaN             NaN             NaN
             NaN             NaN             NaN
             NaN             NaN             NaN
             NaN             NaN             NaN
             NaN             NaN             NaN
             NaN             NaN             NaN
             NaN             NaN             NaN
             NaN             NaN             NaN
             NaN             NaN             NaN
             NaN             NaN             NaN
             NaN             NaN             NaN
             NaN             NaN             NaN
             NaN             NaN             NaN
             NaN             NaN             NaN
             NaN             NaN             NaN
             NaN             NaN             NaN
             NaN             NaN             NaN
             NaN             NaN             NaN
             NaN             NaN             NaN
             NaN             NaN             NaN
             NaN             NaN             NaN
             NaN             NaN             NaN
             NaN             NaN             NaN
             NaN             NaN             NaN
             NaN             NaN             NaN
             NaN             NaN             NaN
             NaN             NaN             NaN
             NaN             NaN             NaN
             NaN             NaN             NaN
             NaN             NaN             NaN
             NaN             NaN             NaN
             NaN             NaN             NaN
             NaN             NaN             NaN
             NaN             NaN             NaN
             NaN             NaN             NaN
             NaN             NaN             NaN
             NaN             NaN             NaN
             NaN             NaN             NaN
             NaN             NaN             NaN
             NaN             NaN             NaN
             NaN             NaN             NaN
             NaN             NaN             NaN
             NaN             NaN             NaN
             NaN             NaN             NaN
             NaN             NaN             NaN
             NaN             NaN             NaN
             NaN             NaN             NaN
             NaN             NaN             NaN
             NaN             NaN             NaN
             NaN             NaN             NaN
             NaN             NaN             NaN
             NaN             NaN             NaN
             NaN             NaN             NaN
             NaN             NaN             NaN
             NaN             NaN             NaN
             NaN             NaN             NaN
             NaN             NaN             NaN
             NaN             NaN             NaN
             NaN             NaN             NaN
             NaN             NaN             NaN
             NaN             NaN             NaN
             NaN             NaN             NaN
             NaN             NaN             NaN
             NaN             NaN             NaN
             NaN             NaN             NaN
             NaN             NaN             NaN
             NaN             NaN             NaN
             NaN             NaN             NaN
             NaN             NaN             NaN
             NaN             NaN             NaN
             NaN             NaN             NaN
             NaN             NaN             NaN
             NaN             NaN             NaN
             NaN             NaN             NaN
             NaN             NaN             NaN
             NaN             NaN             NaN
             NaN             NaN             NaN
             NaN             NaN             NaN
