Mg15 Mn32 O64                           
   1.00000000000000     
    11.4349220000000003   -0.0009690000000000    0.0002060000000000
    -0.0007170000000000   11.4192579999999992   -0.0000510000000000
     0.0013700000000000    0.0004820000000000    9.2384380000000004
   Mg   Mn   O 
    15    32    64
Direct
  0.5001561217926587  0.4979149104994048  0.4887617171463949
  1.0000076818840045  0.2372694467656445  0.7349757597566390
 -0.0001194856488444  0.7370727243465022  0.7348330960886212
  0.4998372037179213  0.2375640250102633  0.7391854442930254
  0.0001317913177135  0.4870548616848306  0.4893438471105351
  0.9997148115002931  0.9860648150528948  0.4896876413222492
  0.4998434849538316  0.9821449361071298  0.4848335767042267
  0.2470212175441896 -0.0105128795321050  0.2376455839844130
  0.2470986513352734  0.4855046885051970  0.2383987814495461
  0.7529533250446228 -0.0108564897304768  0.2377243089215424
  0.7531268934570798  0.4853717334019035  0.2382006440533654
  0.2498645674035495  0.2370519330260620  0.9864379845815469
  0.2521726696408000  0.7374530944158257  0.9831832096144136
  0.7504926411045901  0.2366607942176845  0.9864683624513565
  0.7478301778725265  0.7371835551318948  0.9830907815193534
  0.1252418561574141  0.2361222469017226  0.3652447446432015
  0.1241613191977377  0.7370783358421826  0.3605253958022693
  0.6248134510226255  0.2378960407415336  0.3672264353684639
  0.6275767391298777  0.7379364890831769  0.3575693116097853
  0.3758203356538124  0.2385096283737595  0.3672354250925161
  0.3720145354373023  0.7379633928319487  0.3580701910568974
  0.8756462172946029  0.2373679088733556  0.3652116173626031
  0.8757561581515440  0.7367948855401947  0.3608628409560606
  0.1250689442377782 -0.0130133439000558  0.8598964432665053
  0.1249065683987894  0.4863865742441713  0.8604067570748455
  0.6242570925491812  0.9853085897008709  0.8651080391860606
  0.6246945966164715  0.4889535624176834  0.8665238153530281
  0.3755556877523785  0.9857462993971959  0.8649677914018001
  0.3753308131091452  0.4894377490931964  0.8659029337715773
  0.8748633713459979 -0.0133605280672534  0.8599687558279263
  0.8750270250601522  0.4863554908360891  0.8604675254897340
  1.0000074314080762  0.1132924104991039  0.1103993604995034
  0.0001394795241820  0.6130982181387143  0.1085164962624885
  0.5001757268048084  0.1131943576827980  0.1167260526448130
  0.4997660431476991  0.6109780248621287  0.1118760320935390
  1.0000894649551793  0.3622566607569203  0.1123315045585772
  0.0000284084898925  0.8626790478847994  0.1096512594011794
  0.5001437405731264  0.3615552226317870  0.1170714639413953
  0.5000084702780593  0.8642150797999605  0.1118443538376600
  0.2519647846699886  0.3626671561749599  0.6145378459247538
  0.2528108160780790  0.8592710877989921  0.6106481110589157
  0.7486238358917796  0.3623624137719741  0.6146210775389078
  0.7469272474964260  0.8592164652805574  0.6106135492752419
  0.2509835550275415  0.1107654294693877  0.6121096907175643
  0.2525796009639958  0.6137320585972007  0.6107233688168281
  0.7484316064180747  0.1103743480037354  0.6126479428632883
  0.7474997126214168  0.6135779410470076  0.6106800424358432
  0.1384645867517783  0.2369122896717614  0.6093747041303075
  0.1369143577395455  0.7367561758708692  0.6071084802559887
  0.6363886148323932  0.2366043845203794  0.6100083994175964
  0.6392817202850071  0.7357624160692845  0.5861079244603555
  0.3634575541868566  0.2366208852387723  0.6099763497200460
  0.3605042010934733  0.7361088550476802  0.5863312704201966
  0.8613132216315296  0.2369241783113415  0.6094016438374020
  0.8626441763010795  0.7368042009674621  0.6071577133126859
  0.1387163862599067 -0.0139610095686113  0.6155048940964527
  0.1385562324980721  0.4866334493889137  0.6159433240119516
  0.6345182230506156  0.9859198579073195  0.6171447756026600
  0.6348566341611196  0.4878568532959938  0.6195973239387514
  0.3649169864095262  0.9861383592938053  0.6170995757559573
  0.3653156204957714  0.4879531718547344  0.6194211785107474
  0.8607203303879353 -0.0139422476019941  0.6155649142258319
  0.8614624880811307  0.4865411680550787  0.6160042271199544
 -0.0003374215920802  0.1000776408074077  0.8638428618321330
 -0.0001849680277180  0.5994978151370763  0.8635462326027512
  0.4999620342273104  0.0984591647494126  0.8674459308249423
  0.5000946278883446  0.5986437440617249  0.9102923435124621
  1.0002176697579241  0.3739687905080998  0.8646080043209355
 -0.0000383645126696  0.8744444540108243  0.8633593913570671
  0.4998914193067694  0.3766280711665275  0.8681433822803962
  0.4997662152502857  0.8764002398187591  0.9085499319733853
  0.9999698735474594  0.3499536248598764  0.3599923677820480
  0.0001520515474579  0.8503619634087203  0.3575229592447483
  0.5000320898331444  0.3527940301634092  0.3628634031355971
  0.4997852782442254  0.8527616590755905  0.3313732075416138
  1.0001492834979611  0.1234234064549846  0.3600780349934346
  0.0001063304845906  0.6236244475188505  0.3578206364821856
  0.5002503039059460  0.1250231313725343  0.3609870430867187
  0.5000228386221320  0.6241382719666185  0.3322844758657699
  0.3887341748655097  0.9866062887799841  0.1162561033557276
  0.3884410954492277  0.4888418333714076  0.1171627833514915
  0.8873436888681907  0.9881761642236750  0.1066400164724331
  0.8874847536444578  0.4870536861023999  0.1072761437881768
  0.1125435499902985 -0.0116027667155078  0.1067083683447305
  0.1125802755103812  0.4874575406849034  0.1072346678702823
  0.6116822194994602  0.9859224228911405  0.1162843119566539
  0.6116689862168362  0.4887604156355360  0.1169276410236582
  0.3874689826883887  0.2374858146016788  0.1161063735174628
  0.3901033199499035  0.7377162996791636  0.1132028683405217
  0.8870961188790613  0.2380166396836522  0.1157889577265592
  0.8866792756303896  0.7380193222227189  0.1116213963486190
  0.1133062723853451  0.2377412687172520  0.1157602714543678
  0.1130929999161198  0.7380056074772638  0.1116373922288698
  0.6130229157630062  0.2378899862113027  0.1160751930006711
  0.6098198919300579  0.7377647777660639  0.1131238181112070
  0.2503139323297044  0.3498346267798058  0.3676923864455239
  0.2488506409258661  0.8500603315613923  0.3599725554277842
  0.7504855045184227  0.3498145731531049  0.3677428125905782
  0.7509768364734187  0.8497739090063149  0.3598950930361389
  0.2507195361353981  0.1244968913303834  0.3670947829904427
  0.2491696874758207  0.6246693356392193  0.3598260514551344
  0.7490519339925301  0.1250606963734620  0.3671682734980487
  0.7512102499360702  0.6241815281847437  0.3598581764230857
  0.2509776235576539  0.0996189874702135  0.8586590080201580
  0.2502332393866966  0.5992890062972116  0.8589208301168419
  0.7488106581857550  0.0991761658993400  0.8586189424771922
  0.7498918935020114  0.5989527000868456  0.8591819296728702
  0.2512338105895785  0.3748266902499772  0.8591860626059564
  0.2503960488058428  0.8749845690714799  0.8582506975277696
  0.7487104790198557  0.3744398077863612  0.8593309448675744
  0.7491104092079927  0.8744985510300834  0.8582288096478461
 
             NaN             NaN             NaN
             NaN             NaN             NaN
             NaN             NaN             NaN
             NaN             NaN             NaN
             NaN             NaN             NaN
             NaN             NaN             NaN
             NaN             NaN             NaN
             NaN             NaN             NaN
             NaN             NaN             NaN
             NaN             NaN             NaN
             NaN             NaN             NaN
             NaN             NaN             NaN
             NaN             NaN             NaN
             NaN             NaN             NaN
             NaN             NaN             NaN
             NaN             NaN             NaN
             NaN             NaN             NaN
             NaN             NaN             NaN
             NaN             NaN             NaN
             NaN             NaN             NaN
             NaN             NaN             NaN
             NaN             NaN             NaN
             NaN             NaN             NaN
             NaN             NaN             NaN
             NaN             NaN             NaN
             NaN             NaN             NaN
             NaN             NaN             NaN
             NaN             NaN             NaN
             NaN             NaN             NaN
             NaN             NaN             NaN
             NaN             NaN             NaN
             NaN             NaN             NaN
             NaN             NaN             NaN
             NaN             NaN             NaN
             NaN             NaN             NaN
             NaN             NaN             NaN
             NaN             NaN             NaN
             NaN             NaN             NaN
             NaN             NaN             NaN
             NaN             NaN             NaN
             NaN             NaN             NaN
             NaN             NaN             NaN
             NaN             NaN             NaN
             NaN             NaN             NaN
             NaN             NaN             NaN
             NaN             NaN             NaN
             NaN             NaN             NaN
             NaN             NaN             NaN
             NaN             NaN             NaN
             NaN             NaN             NaN
             NaN             NaN             NaN
             NaN             NaN             NaN
             NaN             NaN             NaN
             NaN             NaN             NaN
             NaN             NaN             NaN
             NaN             NaN             NaN
             NaN             NaN             NaN
             NaN             NaN             NaN
             NaN             NaN             NaN
             NaN             NaN             NaN
             NaN             NaN             NaN
             NaN             NaN             NaN
             NaN             NaN             NaN
             NaN             NaN             NaN
             NaN             NaN             NaN
             NaN             NaN             NaN
             NaN             NaN             NaN
             NaN             NaN             NaN
             NaN             NaN             NaN
             NaN             NaN             NaN
             NaN             NaN             NaN
             NaN             NaN             NaN
             NaN             NaN             NaN
             NaN             NaN             NaN
             NaN             NaN             NaN
             NaN             NaN             NaN
             NaN             NaN             NaN
             NaN             NaN             NaN
             NaN             NaN             NaN
             NaN             NaN             NaN
             NaN             NaN             NaN
             NaN             NaN             NaN
             NaN             NaN             NaN
             NaN             NaN             NaN
             NaN             NaN             NaN
             NaN             NaN             NaN
             NaN             NaN             NaN
             NaN             NaN             NaN
             NaN             NaN             NaN
             NaN             NaN             NaN
             NaN             NaN             NaN
             NaN             NaN             NaN
             NaN             NaN             NaN
             NaN             NaN             NaN
             NaN             NaN             NaN
             NaN             NaN             NaN
             NaN             NaN             NaN
             NaN             NaN             NaN
             NaN             NaN             NaN
             NaN             NaN             NaN
             NaN             NaN             NaN
             NaN             NaN             NaN
             NaN             NaN             NaN
             NaN             NaN             NaN
             NaN             NaN             NaN
             NaN             NaN             NaN
             NaN             NaN             NaN
             NaN             NaN             NaN
             NaN             NaN             NaN
             NaN             NaN             NaN
             NaN             NaN             NaN
