Mg15 Mn32 O64
1.0
11.434922 -0.000969 0.000206
-0.000717 11.419258 -0.000051
0.001370 0.000482 9.238438
Mg Mn O
15 32 64
direct
0.500489 0.535783 0.530032 Mg
0.999619 0.250190 0.747048 Mg
1.000713 0.750180 0.749668 Mg
0.499769 0.250794 0.752017 Mg
1.000143 0.500374 0.502389 Mg
-0.000018 -0.000175 0.502849 Mg
0.500052 -0.005613 0.498315 Mg
0.247460 0.001451 0.250811 Mg
0.248186 0.498500 0.251412 Mg
0.752238 0.001129 0.250469 Mg
0.752393 0.498838 0.251225 Mg
0.248291 0.249827 0.999525 Mg
0.252703 0.750232 0.995724 Mg
0.749519 0.249893 0.999514 Mg
0.749876 0.750285 0.996889 Mg
0.123127 0.249779 0.377355 Mn
0.125004 0.750331 0.375117 Mn
0.622942 0.249996 0.377479 Mn
0.627863 0.749674 0.370639 Mn
0.373834 0.249816 0.377431 Mn
0.372850 0.749653 0.370312 Mn
0.872964 0.249807 0.375917 Mn
0.877087 0.750340 0.374632 Mn
0.125364 0.001810 0.873967 Mn
0.124849 0.498418 0.873982 Mn
0.624828 0.997856 0.876300 Mn
0.625070 0.502087 0.877071 Mn
0.375721 0.997893 0.875098 Mn
0.375107 0.501981 0.877108 Mn
0.875221 1.001639 0.873926 Mn
0.875035 0.498526 0.874259 Mn
-0.001460 0.125277 0.125033 Mn
1.001651 0.625232 0.123375 Mn
0.498501 0.124852 0.126680 Mn
0.500723 0.623513 0.124157 Mn
0.999453 0.374944 0.125281 Mn
0.001958 0.874874 0.123159 Mn
0.499282 0.373842 0.127907 Mn
0.500361 0.875986 0.123571 Mn
0.252218 0.375641 0.625326 Mn
0.252396 0.873447 0.624157 Mn
0.747680 0.375852 0.625456 Mn
0.747966 0.873707 0.624563 Mn
0.252197 0.124633 0.625309 Mn
0.252486 0.625917 0.624529 Mn
0.747590 0.124734 0.625245 Mn
0.749058 0.627209 0.624671 Mn
0.138689 0.249930 0.621691 O
0.137269 0.749911 0.620733 O
0.635395 0.250288 0.621659 O
0.640682 0.750159 0.602458 O
0.364120 0.250038 0.621588 O
0.360160 0.749877 0.602579 O
0.860652 0.250037 0.621408 O
0.864045 0.750918 0.620846 O
0.138968 0.000607 0.628835 O
0.138659 0.499297 0.628999 O
0.634810 0.999427 0.630583 O
0.636145 0.501386 0.633145 O
0.365355 0.999528 0.630671 O
0.364826 0.500339 0.633192 O
0.861148 0.001006 0.629024 O
0.861785 0.499484 0.629161 O
0.000076 0.114361 0.878027 O
1.000204 0.611519 0.877457 O
0.500120 0.110931 0.879474 O
0.500243 0.611602 0.919591 O
0.999889 0.385858 0.878249 O
0.000485 0.888813 0.877311 O
0.500040 0.388880 0.883172 O
0.500220 0.888274 0.915754 O
0.998429 0.362760 0.372763 O
0.001048 0.863578 0.371070 O
0.498643 0.362958 0.367947 O
0.500313 0.863723 0.347833 O
0.998316 0.136996 0.372654 O
1.001009 0.637105 0.371228 O
0.498553 0.136498 0.373096 O
0.500591 0.635934 0.342652 O
0.387987 -0.002119 0.127802 O
0.388945 0.501231 0.128478 O
0.887590 0.999756 0.120422 O
0.887910 0.500196 0.121065 O
0.112713 0.001396 0.120272 O
0.113075 0.499092 0.120855 O
0.611212 -0.001083 0.128035 O
0.611401 0.500488 0.128550 O
0.386325 0.249893 0.127679 O
0.390704 0.749492 0.125229 O
0.885722 0.250295 0.129281 O
0.888818 0.750186 0.125615 O
0.111745 0.249851 0.129218 O
0.114788 0.750153 0.125604 O
0.611171 0.249611 0.127500 O
0.610592 0.749685 0.125081 O
0.249009 0.362174 0.379616 O
0.249770 0.862913 0.373914 O
0.748093 0.362397 0.379212 O
0.751476 0.862593 0.373565 O
0.248977 0.137350 0.379734 O
0.249593 0.637335 0.373829 O
0.747965 0.137290 0.379208 O
0.751943 0.637644 0.373681 O
0.251738 0.112842 0.871379 O
0.249852 0.611809 0.872211 O
0.748578 0.112674 0.871758 O
0.750532 0.612028 0.872733 O
0.251269 0.387315 0.872407 O
0.250147 0.888250 0.871262 O
0.748636 0.387373 0.872432 O
0.750468 0.888162 0.871883 O
