Li7 Mn16 O32
1.0
8.602991 -0.038600 0.034985
-0.034882 8.091097 -0.092700
0.033298 0.002422 8.068560
Li Mn O
7 16 32
direct
0.360795 0.378602 0.871094 Li
0.867203 0.875249 0.875658 Li
0.136457 0.123195 0.126493 Li
0.867064 0.374421 0.375271 Li
0.359520 0.872860 0.376831 Li
0.635468 0.127307 0.627991 Li
0.635138 0.622297 0.122291 Li
0.499575 0.250218 0.249842 Mn
0.249514 0.503649 0.254433 Mn
0.248764 0.252792 0.500413 Mn
0.506349 0.498554 0.499078 Mn
0.506266 0.751409 0.751294 Mn
0.757395 0.502035 0.750042 Mn
0.750282 0.750684 0.499626 Mn
0.249357 -0.004528 0.746334 Mn
0.248768 0.749569 0.996993 Mn
0.499520 0.000114 -0.000181 Mn
0.744615 0.999922 0.249774 Mn
0.750013 0.249910 -0.000148 Mn
1.000123 0.250089 0.750912 Mn
1.000353 0.498967 -0.000367 Mn
-0.007027 0.748672 0.249337 Mn
-0.006932 0.000693 0.500908 Mn
0.722936 0.010604 0.012717 O
0.996354 0.735246 0.016045 O
0.995373 0.013635 0.734792 O
0.732175 0.742358 0.734340 O
0.276240 0.986095 0.987130 O
1.001682 0.263394 0.987145 O
-0.004649 0.983965 0.265024 O
0.276266 0.263153 0.263563 O
0.733342 0.515913 0.511524 O
0.996375 0.233358 0.513905 O
0.995140 0.515271 0.236557 O
0.723009 0.238086 0.238461 O
0.288224 0.491168 0.488049 O
-0.029166 0.763103 0.487493 O
1.002794 0.480657 0.768475 O
0.287797 0.762270 0.758522 O
0.216313 0.008838 0.508215 O
0.524248 0.739738 0.509382 O
0.494346 0.014726 0.235921 O
0.216445 0.741181 0.241092 O
0.767035 0.986086 0.489059 O
0.504671 0.265892 0.486347 O
0.505849 0.986063 0.765166 O
0.776665 0.260637 0.762329 O
0.223732 0.512996 0.014363 O
0.497361 0.234841 0.014502 O
0.505531 0.516602 0.734465 O
0.223833 0.235186 0.737023 O
0.776307 0.488984 0.987448 O
0.504503 0.764180 0.984474 O
0.506412 0.484367 0.263791 O
0.767321 0.759727 0.263762 O
