Mg1 Ti16 S32                            
   1.00000000000000     
     9.9105799999999995    0.0059830000000000    0.0049990000000000
    -0.0029700000000000    9.9112159999999996    0.0002320000000000
    -0.0027320000000000   -0.0017390000000000    9.9142329999999994
   Mg   Ti   S 
     1    16    32
Direct
  0.4732137354335343  0.2768239233271025  0.7741740718884662
  0.2483694687462398  0.7496309864030267 -0.0002700880114843
  0.4977494867301383  0.9951451329039915  0.0088335553752171
  0.7548515976206649  0.2522458373298693  0.0088411089440768
  1.0003722007866520  0.5016193360394303 -0.0002714123512381
  0.5003611727134623  0.2496420274610351  0.2617885521520804
  0.2485150938920015  0.5014822085464332  0.2482987058752010
  0.2382086083086370  0.2514358094862253  0.4924515303817500
  0.4985551112365443  0.5118235418347088  0.4924414504760698
  0.5006784959791483  0.7633810344741170  0.7473977812910346
  0.7559312087669469  0.5116257254380634  0.7494002579727890
  0.7518337568123130  0.7525970479641046  0.4957491866101478
  0.2383915680182338  0.9940862694105138  0.7494358028659277
  0.7513043610480057  0.9987147533937819  0.2493232906227597
  0.9866228380806812  0.2493356241589019  0.7473952748834526
  0.9999269513782391  0.7500753977166602  0.2479924875699425
  0.9974272354399962  0.9982104118360706  0.4957220324238131
  0.7441980517582281  0.0058351265415450  0.0035578459806186
  0.0033305702942166  0.7466681875953737  0.0006928709859515
 -0.0041101735185334  0.0028848240959188  0.7445833801816936
  0.7471424153571614  0.7541299029108194  0.7445911105696917
  0.2507892728388441  0.9958537965507008  0.9964641288371620
  0.9958315881204304  0.2524438410130108  0.9936652500573111
  0.9967804352327717  0.9966972646855554  0.2505459854963027
  0.2539588707274818  0.2525831157449266  0.2517291203536391
  0.7448142286626191  0.5067166806718317  0.5028044957653046
 -0.0041358879993060  0.2473023108604380  0.5009123389359234
  0.0031333770597758  0.5027864889630267  0.2446059570732037
  0.7468487333424456  0.2475732105823127  0.2512505628353592
  0.2511771691029382  0.4988240334954570  0.4938315768117023
  0.9970662944713896  0.7529772101824099  0.4942306159631319
  0.9964372794742704  0.4959046644979815  0.7505718304425297
  0.2540829247074448  0.7535965291484407  0.7505695936910018
  0.2433269296919570  0.0052313212041898  0.5028090731701839
  0.5027256287922836  0.7541653738376982  0.5009100105716165
  0.5024323953217781  0.0031803632610361  0.2512659134181529
  0.2472277791470884  0.7468749035603575  0.2445958279421635
  0.7519931194996035  0.9980420788201975  0.4949625044457535
  0.4910000490006451  0.2590388424937792  0.5058159318487270
  0.4908347647222397  1.0079410223398839  0.7564683276676474
  0.7420720394282930  0.2591975680641714  0.7564616448011939
  0.2471969558877469  0.5028311380007227  0.0011041369313520
  0.5032079205285902  0.2467797859032356  0.0141443562728091
  0.5040100500541341  0.5167213524507041  0.7439754543277878
  0.2332891297280006  0.2459854559824599  0.7439744641984333
  0.7541628994990733  0.4992051351998479  0.9964455623968808
  0.4975731944636270  0.7541778029890849  0.9936754149774846
  0.4974362884466399  0.4960480582275990  0.2517328793166564
  0.7533160424534183  0.7532482695259465  0.2505617918749608
 
             NaN             NaN             NaN
             NaN             NaN             NaN
             NaN             NaN             NaN
             NaN             NaN             NaN
             NaN             NaN             NaN
             NaN             NaN             NaN
             NaN             NaN             NaN
             NaN             NaN             NaN
             NaN             NaN             NaN
             NaN             NaN             NaN
             NaN             NaN             NaN
             NaN             NaN             NaN
             NaN             NaN             NaN
             NaN             NaN             NaN
             NaN             NaN             NaN
             NaN             NaN             NaN
             NaN             NaN             NaN
             NaN             NaN             NaN
             NaN             NaN             NaN
             NaN             NaN             NaN
             NaN             NaN             NaN
             NaN             NaN             NaN
             NaN             NaN             NaN
             NaN             NaN             NaN
             NaN             NaN             NaN
             NaN             NaN             NaN
             NaN             NaN             NaN
             NaN             NaN             NaN
             NaN             NaN             NaN
             NaN             NaN             NaN
             NaN             NaN             NaN
             NaN             NaN             NaN
             NaN             NaN             NaN
             NaN             NaN             NaN
             NaN             NaN             NaN
             NaN             NaN             NaN
             NaN             NaN             NaN
             NaN             NaN             NaN
             NaN             NaN             NaN
             NaN             NaN             NaN
             NaN             NaN             NaN
             NaN             NaN             NaN
             NaN             NaN             NaN
             NaN             NaN             NaN
             NaN             NaN             NaN
             NaN             NaN             NaN
             NaN             NaN             NaN
             NaN             NaN             NaN
             NaN             NaN             NaN
