Mg1 Ti16 S32
1.0
9.910580 0.005983 0.004999
-0.002970 9.911216 0.000232
-0.002732 -0.001739 9.914233
Mg Ti S
1 16 32
direct
0.469047 0.280978 0.749859 Mg
0.248674 0.750069 0.002295 Ti
0.500202 -0.006756 0.006472 Ti
0.756795 0.249791 0.006365 Ti
0.999794 0.501182 0.002146 Ti
0.500229 0.249867 0.249684 Ti
0.248583 0.501244 0.249353 Ti
0.243783 0.249164 0.492457 Ti
0.500899 0.506491 0.492526 Ti
0.501028 0.750621 0.750103 Ti
0.756889 0.506274 0.750051 Ti
0.751168 0.750969 0.498863 Ti
0.243800 -0.006862 0.750130 Ti
0.751100 -0.000990 0.250782 Ti
0.999404 0.248898 0.749891 Ti
0.999527 0.750417 0.250484 Ti
0.999154 0.998825 0.498820 Ti
0.746874 0.003197 0.004667 S
0.003140 0.746793 0.003559 S
0.001288 0.003209 0.747571 S
0.746789 0.748773 0.747595 S
0.253324 0.995629 0.996685 S
0.999051 0.252588 0.996392 S
0.996831 0.997030 0.253440 S
0.253507 0.252657 0.250761 S
0.747051 0.504586 0.503395 S
0.001196 0.247241 0.503663 S
0.003052 0.503103 0.247136 S
0.746472 0.247523 0.248721 S
0.253469 0.496483 0.495436 S
0.996759 0.753254 0.497162 S
0.999180 0.496187 0.752894 S
0.253790 0.750854 0.752997 S
0.245586 0.002958 0.503489 S
0.502738 0.748954 0.503776 S
0.502605 0.003631 0.248810 S
0.246821 0.746754 0.247226 S
0.752902 0.997227 0.497167 S
0.495343 0.254808 0.496127 S
0.495380 0.996507 0.754719 S
0.753509 0.254687 0.754603 S
0.246857 0.503079 0.003178 S
0.504943 0.245090 0.003337 S
0.505008 0.503536 0.744959 S
0.246510 0.244986 0.744942 S
0.754314 0.496696 0.996577 S
0.497385 0.750984 0.996536 S
0.497219 0.496566 0.250781 S
0.752935 0.753342 0.253449 S
