Li17 Co18 O36                           
   1.00000000000000     
     8.2887860000000000    0.6126650000000000    1.2872290000000000
     3.5131459999999999    7.5311830000000004    1.2907370000000000
     1.2661380000000000    0.8766470000000000    9.7432350000000003
   Li   Co   O 
    17    18    36
Direct
  0.3180774415732297  0.5975460849672528  0.5053684066143860
  0.3331900424426445  0.3316424209344071  0.0016738854886973
  0.3324385641039551  0.6663329901220223  1.0006831402743650
  0.3322087256870401  0.9993193104664776  1.0012121580778151
  0.3324169349878233  1.0028818513854483  0.5010686619875536
  0.6665906715270461  0.3321938609002520  1.0009227732874659
  0.6650653267374148  0.3298189287520439  0.5013800462888071
  0.6656871265216763  0.6662153226254803  1.0014921987151593
  0.6537769172913441  0.6655751110305617  0.5013869040683788
  0.6663327055711988  0.9986947775422614  0.0017592233751765
  0.6505275147035572  0.0150963235798468  0.5014917745883141
  0.9990569410315584  0.3320063656004551  1.0009455055550069
  0.0126303509376654  0.3334885668901935  0.5009347302618000
  0.9981317586841891  0.6670253639591970  0.0007709166619483
 -0.0130015779779937  0.6680979340590296  0.4993758875007532
  0.9994183382862046  1.0000516519257876  0.9992974335215347
  0.0074977212912045  0.9923161823906989  0.4996747907953713
  0.1622849958282804  0.1671018253655512  0.2484585215878181
  0.1698308113075541  0.1655913134308653  0.7502025592553265
  0.1609332575435161  0.4996216882938817  0.2478683818744138
  0.1689463245723233  0.4964718250872491  0.7541233773823958
  0.1613547440490524  0.8347761600855494  0.2471453899607264
  0.1696680747888953  0.8301637715103138  0.7502398202497470
  0.4946305448479084  0.1671368211091028  0.2518272852172653
  0.5026604498671018  0.1630860186436042  0.7539089904094194
  0.4942172458786969  0.4991304430305816  0.2493779572732021
  0.5020889841604480  0.4978702109561539  0.7553115864595723
  0.4939747771741529  0.8328386728709408  0.2513124095380819
  0.5012736613633991  0.8298118861308182  0.7541015668405523
  0.8288877905641275  0.1666591515775618  0.2486554704896322
  0.8355812875524765  0.1642230479992584  0.7503935609893231
  0.8276868670264902  0.4994775270090127  0.2506571994105123
  0.8346000581775622  0.4979003331336107  0.7527832784252170
  0.8277823930919583  0.8342389540971381  0.2509688991512266
  0.8348257826264530  0.8301605612011567  0.7504628556232900
  0.2475884317399457  0.2533208779687666  0.3547345370533431
  0.2553475114470827  0.2499188077994402  0.8627816625337219
  0.2448648908392821  0.5905565925415257  0.3509451731371523
  0.2544434550547652  0.5853574297651039  0.8631025680140815
  0.2476315738809532  0.9222563873767069  0.3562725787090006
  0.2535843744018818  0.9184685370994136  0.8608837684730067
  0.5859868839803105  0.2535782798633966  0.3560886438978050
  0.5908028452081597  0.2494485964844057  0.8630413538696197
  0.5805124282791850  0.5851103455161097  0.3596753233491035
  0.5886058092171869  0.5836296523704719  0.8649239239170624
  0.5813384662049081  0.9201551710154612  0.3609617229739640
  0.5899923825401578  0.9164817312417473  0.8627193277063443
  0.9163969814918231  0.2528050523545030  0.3583737695338045
  0.9225323869478552  0.2506318509563676  0.8600931193071968
  0.9154642308745908  0.5864979210554602  0.3592493655089952
  0.9212547736428010  0.5849787439487492  0.8618696870197712
  0.9161959867488576  0.9206909620949608  0.3587187141378267
  0.9224157180741738  0.9175772758218574  0.8590817270312096
  0.0757660108381906  0.0811999421604569  0.1374625561535535
  0.0827813831947790  0.0779976699998950  0.6407752516577765
  0.0736956462390837  0.4141851985391760  0.1388779015410863
  0.0783179017694593  0.4135239244068985  0.6460986919146436
  0.0731050532611004  0.7481036852515232  0.1387464752204515
  0.0829142355782271  0.7411716960318738  0.6416367245571233
  0.4100455918845203  0.0792264373151330  0.1409653724538413
  0.4166700032624162  0.0729057293148561  0.6477249039876147
  0.4088452207151419  0.4121228636167392  0.1396332042275094
  0.4180629628357448  0.4072389992947878  0.6510282866084657
  0.4090762857165422  0.7468796590643636  0.1396144677073546
  0.4160739907943173  0.7435737766457532  0.6457270747387942
  0.7414349299332640  0.0798428197422161  0.1408314590454924
  0.7476342869201601  0.0775523519157310  0.6420109034259561
  0.7418468679946177  0.4136128669125327  0.1403571105052802
  0.7472965807076807  0.4118207464996310  0.6432313190231866
  0.7411594011756429  0.7468131394492814  0.1420797124024020
  0.7463917344458526  0.7441066231881777  0.6431314376586261
 
             NaN             NaN             NaN
             NaN             NaN             NaN
             NaN             NaN             NaN
             NaN             NaN             NaN
             NaN             NaN             NaN
             NaN             NaN             NaN
             NaN             NaN             NaN
             NaN             NaN             NaN
             NaN             NaN             NaN
             NaN             NaN             NaN
             NaN             NaN             NaN
             NaN             NaN             NaN
             NaN             NaN             NaN
             NaN             NaN             NaN
             NaN             NaN             NaN
             NaN             NaN             NaN
             NaN             NaN             NaN
             NaN             NaN             NaN
             NaN             NaN             NaN
             NaN             NaN             NaN
             NaN             NaN             NaN
             NaN             NaN             NaN
             NaN             NaN             NaN
             NaN             NaN             NaN
             NaN             NaN             NaN
             NaN             NaN             NaN
             NaN             NaN             NaN
             NaN             NaN             NaN
             NaN             NaN             NaN
             NaN             NaN             NaN
             NaN             NaN             NaN
             NaN             NaN             NaN
             NaN             NaN             NaN
             NaN             NaN             NaN
             NaN             NaN             NaN
             NaN             NaN             NaN
             NaN             NaN             NaN
             NaN             NaN             NaN
             NaN             NaN             NaN
             NaN             NaN             NaN
             NaN             NaN             NaN
             NaN             NaN             NaN
             NaN             NaN             NaN
             NaN             NaN             NaN
             NaN             NaN             NaN
             NaN             NaN             NaN
             NaN             NaN             NaN
             NaN             NaN             NaN
             NaN             NaN             NaN
             NaN             NaN             NaN
             NaN             NaN             NaN
             NaN             NaN             NaN
             NaN             NaN             NaN
             NaN             NaN             NaN
             NaN             NaN             NaN
             NaN             NaN             NaN
             NaN             NaN             NaN
             NaN             NaN             NaN
             NaN             NaN             NaN
             NaN             NaN             NaN
             NaN             NaN             NaN
             NaN             NaN             NaN
             NaN             NaN             NaN
             NaN             NaN             NaN
             NaN             NaN             NaN
             NaN             NaN             NaN
             NaN             NaN             NaN
             NaN             NaN             NaN
             NaN             NaN             NaN
             NaN             NaN             NaN
             NaN             NaN             NaN
