Li17 Co18 O36
1.0
8.288786 0.612665 1.287229
3.513146 7.531183 1.290737
1.266138 0.876647 9.743235
Li Co O
17 18 36
direct
0.269684 0.597333 0.535063 Li
0.332886 0.333169 0.000043 Li
0.333041 0.666155 -0.000135 Li
0.333113 0.999546 0.999919 Li
0.332850 0.999724 0.499675 Li
0.666240 0.333036 0.999768 Li
0.655470 0.338336 0.499934 Li
0.666110 0.666485 0.999981 Li
0.660620 0.666139 0.500388 Li
0.666419 0.999410 0.000212 Li
0.660441 1.005258 0.500502 Li
-0.000087 0.333087 0.999761 Li
0.005166 0.333126 0.499255 Li
-0.000208 0.666181 0.000073 Li
0.011006 0.660691 0.500341 Li
-0.000190 -0.000212 0.999796 Li
0.005315 0.994651 0.498993 Li
0.167630 0.166948 0.247689 Co
0.166674 0.167970 0.750035 Co
0.167682 0.499360 0.250181 Co
0.166850 0.500658 0.749750 Co
0.167416 0.833188 0.249554 Co
0.166449 0.833932 0.749517 Co
0.500149 0.166686 0.250629 Co
0.499375 0.166949 0.750927 Co
0.499792 0.499763 0.250371 Co
0.499279 0.500475 0.750225 Co
0.499814 0.832441 0.250256 Co
0.499446 0.833347 0.752010 Co
0.834492 0.166532 0.248950 Co
0.833397 0.167385 0.749353 Co
0.834154 0.499536 0.248872 Co
0.832780 0.500737 0.751266 Co
0.834165 0.832593 0.250529 Co
0.832600 0.834160 0.750654 Co
0.253453 0.252563 0.356741 O
0.252874 0.254060 0.860153 O
0.253166 0.588291 0.355387 O
0.252854 0.587547 0.859716 O
0.253251 0.922516 0.356328 O
0.252176 0.920816 0.860141 O
0.589645 0.252865 0.357248 O
0.587248 0.253345 0.859967 O
0.589361 0.585484 0.357080 O
0.586146 0.586139 0.861479 O
0.586886 0.919461 0.359567 O
0.586442 0.920027 0.861691 O
0.921471 0.253190 0.357679 O
0.919888 0.253476 0.859646 O
0.921017 0.585678 0.358979 O
0.919916 0.587309 0.860328 O
0.921149 0.919996 0.358952 O
0.919914 0.921007 0.859466 O
0.080591 0.079921 0.138154 O
0.080175 0.080748 0.640233 O
0.080683 0.414107 0.138531 O
0.077372 0.414631 0.643032 O
0.080089 0.746345 0.140171 O
0.077322 0.747444 0.642590 O
0.414721 0.079382 0.139828 O
0.413373 0.077962 0.643806 O
0.413761 0.412696 0.140375 O
0.413549 0.411694 0.644956 O
0.413655 0.746194 0.140070 O
0.413340 0.747374 0.643421 O
0.746916 0.079221 0.140511 O
0.745587 0.080533 0.640897 O
0.746749 0.413174 0.139541 O
0.745877 0.414326 0.641098 O
0.746856 0.746625 0.140512 O
0.745575 0.747056 0.642149 O
