Li17 Co18 O36                           
   1.00000000000000     
     8.2934429999999999    0.6008530000000000    1.2619819999999999
     3.5307729999999999    7.5275400000000001    1.2637250000000000
     1.2966869999999999    0.8939319999999999    9.7373419999999999
   Li   Co   O 
    17    18    36
Direct
  0.3279140460883522  0.6336739245233202  0.5014241988853329
  0.3320184375986737  0.3315339600663929  1.0011725161579288
  0.3320715106994030  0.6650387879686402  1.0006955531368860
  0.3313736895338269  0.9988082129112825  1.0013811440978306
  0.3319882573604554  0.0054032782272640  0.5014656196651078
  0.6652447263761382  0.3318067335473857  1.0008099963623842
  0.6604857168862994  0.3293343994904527  0.5007485768732968
  0.6648154135153875  0.6651460659219307  0.0017318596123642
  0.6594550524465357  0.6647605107227311  0.5021433030023041
  0.6652422834437478  0.9981854765390199  0.0012967922239231
  0.6519524555156641  0.0119284275967750  0.5009996345257276
  0.9987351018387585  0.3314366164011904  1.0011936572501656
  0.0109184187145220  0.3324367518266087  0.5015192569123273
  0.9982472504453251  0.6655000580595100  1.0009881863903167
 -0.0012583353705690  0.6600313188340834  0.5005581977184269
  0.9988980869208242  0.9989225084541358  1.0000109060153610
  0.0025609577292762  0.9956664925667037  0.4996326129444394
  0.1626325034267972  0.1658913614635450  0.2494097552217023
  0.1682794485357599  0.1651226467984615  0.7509719489948642
  0.1628247070411915  0.4987404943517443  0.2513439793953372
  0.1668604045455735  0.4969068093034564  0.7507206762354600
  0.1617122913978061  0.8335026546968544  0.2480192346160578
  0.1679374723050815  0.8303851518459837  0.7511319752507225
  0.4950800987526121  0.1663613372248125  0.2520314540992508
  0.4999431370257413  0.1635277739873159  0.7507359658079990
  0.4944418566971109  0.4981941629715781  0.2504892341786231
  0.5002984951961859  0.4963512529410363  0.7531796379684390
  0.4948358398594347  0.8315633261222799  0.2517179241263873
  0.5006879791697151  0.8293617943219332  0.7542935156817679
  0.8294084428193086  0.1654005701037536  0.2486288895485020
  0.8346581335390512  0.1637711829377813  0.7509753945413882
  0.8287041881959586  0.4985278033688704  0.2508805056773654
  0.8328718329322394  0.4974362872885615  0.7538728561052292
  0.8286393553766661  0.8326007643419331  0.2515591434566724
  0.8341407019788111  0.8302278730068201  0.7503778252328392
  0.2484162236009500  0.2516762062513925  0.3561371624556979
  0.2540563853772007  0.2510734298282662  0.8610885805545189
  0.2471522701938861  0.5905768941579362  0.3549292766814168
  0.2529149810617477  0.5842888445021656  0.8614018002152581
  0.2482880649509901  0.9197034150044749  0.3581751717936018
  0.2529928118299463  0.9179074708649393  0.8615529066885366
  0.5869251976494383  0.2518871124368363  0.3559672812282984
  0.5881831764442168  0.2490666954844515  0.8613102501260819
  0.5815533715476806  0.5843192864676301  0.3603574729031225
  0.5863486310675790  0.5827355223821046  0.8646789800276161
  0.5819065889470972  0.9193109209751318  0.3610490819464445
  0.5884193637751677  0.9172056628079163  0.8617711986457335
  0.9163562312803268  0.2517432677816595  0.3586873162764905
  0.9211107147527324  0.2500149307877075  0.8612726272560266
  0.9159504739694500  0.5854652680236119  0.3604759695345136
  0.9204359100176297  0.5848923201770987  0.8616493643478432
  0.9163885525240949  0.9196726211217264  0.3590145753899824
  0.9210316229543694  0.9172019945996515  0.8597949942424372
  0.0763655074076503  0.0801214172106866  0.1377907381844622
  0.0815604959757227  0.0777100258487540  0.6416937073730618
  0.0751706835406898  0.4133760872289283  0.1408359166433973
  0.0754161461800433  0.4122335806962242  0.6461436682252306
  0.0744015168470991  0.7459511152133608  0.1402102675216514
  0.0811218503592703  0.7430651049976580  0.6411631808035726
  0.4100632664422805  0.0782331606633243  0.1413734354673892
  0.4147494997819614  0.0720120884585568  0.6466580779977705
  0.4087524033454690  0.4117796385121726  0.1408847897075859
  0.4148779406951125  0.4099344118305738  0.6466334225383519
  0.4094333695116413  0.7456711081733435  0.1403848495343351
  0.4144795143615573  0.7431126882099351  0.6445052561658356
  0.7419095954581295  0.0783971096162730  0.1407614581573511
  0.7468443616017283  0.0774195929191839  0.6413884864648371
  0.7420994465402965  0.4128206282556351  0.1405836895834291
  0.7467074120743749  0.4109121015024230  0.6435170557713187
  0.7417827070788772  0.7456530122254248  0.1422869067706645
  0.7460232463043781  0.7431817233212626  0.6433024645641633
 
             NaN             NaN             NaN
             NaN             NaN             NaN
             NaN             NaN             NaN
             NaN             NaN             NaN
             NaN             NaN             NaN
             NaN             NaN             NaN
             NaN             NaN             NaN
             NaN             NaN             NaN
             NaN             NaN             NaN
             NaN             NaN             NaN
             NaN             NaN             NaN
             NaN             NaN             NaN
             NaN             NaN             NaN
             NaN             NaN             NaN
             NaN             NaN             NaN
             NaN             NaN             NaN
             NaN             NaN             NaN
             NaN             NaN             NaN
             NaN             NaN             NaN
             NaN             NaN             NaN
             NaN             NaN             NaN
             NaN             NaN             NaN
             NaN             NaN             NaN
             NaN             NaN             NaN
             NaN             NaN             NaN
             NaN             NaN             NaN
             NaN             NaN             NaN
             NaN             NaN             NaN
             NaN             NaN             NaN
             NaN             NaN             NaN
             NaN             NaN             NaN
             NaN             NaN             NaN
             NaN             NaN             NaN
             NaN             NaN             NaN
             NaN             NaN             NaN
             NaN             NaN             NaN
             NaN             NaN             NaN
             NaN             NaN             NaN
             NaN             NaN             NaN
             NaN             NaN             NaN
             NaN             NaN             NaN
             NaN             NaN             NaN
             NaN             NaN             NaN
             NaN             NaN             NaN
             NaN             NaN             NaN
             NaN             NaN             NaN
             NaN             NaN             NaN
             NaN             NaN             NaN
             NaN             NaN             NaN
             NaN             NaN             NaN
             NaN             NaN             NaN
             NaN             NaN             NaN
             NaN             NaN             NaN
             NaN             NaN             NaN
             NaN             NaN             NaN
             NaN             NaN             NaN
             NaN             NaN             NaN
             NaN             NaN             NaN
             NaN             NaN             NaN
             NaN             NaN             NaN
             NaN             NaN             NaN
             NaN             NaN             NaN
             NaN             NaN             NaN
             NaN             NaN             NaN
             NaN             NaN             NaN
             NaN             NaN             NaN
             NaN             NaN             NaN
             NaN             NaN             NaN
             NaN             NaN             NaN
             NaN             NaN             NaN
             NaN             NaN             NaN
