Li17 Co18 O36
1.0
8.293443 0.600853 1.261982
3.530773 7.527540 1.263725
1.296687 0.893932 9.737342
Li Co O
17 18 36
direct
0.301237 0.626140 0.517419 Li
0.332813 0.332900 -0.000073 Li
0.332876 0.665829 -0.000220 Li
0.332839 0.999489 0.999943 Li
0.332663 1.004732 0.499931 Li
0.665928 0.332831 0.999735 Li
0.655293 0.335529 0.499840 Li
0.665981 0.666162 1.000082 Li
0.663189 0.665898 0.500864 Li
0.666269 0.999255 0.000070 Li
0.657452 1.008023 0.500202 Li
-0.000280 0.332790 0.999859 Li
0.007491 0.332752 0.499688 Li
-0.000508 0.666139 -0.000021 Li
0.010952 0.657535 0.500106 Li
-0.000315 -0.000359 0.999699 Li
0.002542 0.997154 0.498593 Li
0.167989 0.167703 0.247939 Co
0.166742 0.167369 0.750147 Co
0.168067 0.499825 0.250936 Co
0.166591 0.499733 0.749433 Co
0.167630 0.834341 0.248517 Co
0.166304 0.833651 0.749692 Co
0.500208 0.167579 0.251166 Co
0.499126 0.166605 0.750024 Co
0.500128 0.500146 0.249969 Co
0.499176 0.499769 0.750801 Co
0.500209 0.833435 0.250385 Co
0.499497 0.832578 0.752315 Co
0.834952 0.167240 0.248197 Co
0.833388 0.166764 0.749619 Co
0.834195 0.500271 0.249606 Co
0.832324 0.500126 0.751936 Co
0.834373 0.833611 0.250743 Co
0.832819 0.833574 0.749626 Co
0.253418 0.252980 0.356387 O
0.253008 0.253536 0.859942 O
0.253487 0.590478 0.355105 O
0.252302 0.587056 0.859703 O
0.253526 0.922188 0.357022 O
0.252098 0.920127 0.860354 O
0.591163 0.253338 0.356029 O
0.586948 0.252503 0.859842 O
0.588179 0.586277 0.358192 O
0.585622 0.585572 0.862325 O
0.587057 0.920371 0.359923 O
0.586837 0.919737 0.860896 O
0.921616 0.253607 0.357643 O
0.919721 0.252703 0.860097 O
0.921145 0.586478 0.359593 O
0.919755 0.587213 0.860199 O
0.921574 0.921004 0.358404 O
0.919714 0.920210 0.859102 O
0.081243 0.080960 0.137370 O
0.080087 0.080386 0.640418 O
0.080634 0.414807 0.139382 O
0.075855 0.413973 0.644162 O
0.080200 0.746683 0.140101 O
0.078650 0.746550 0.641179 O
0.415021 0.080036 0.140057 O
0.413359 0.076143 0.644547 O
0.413693 0.413179 0.140512 O
0.413406 0.412462 0.644759 O
0.414316 0.746936 0.139778 O
0.413165 0.746523 0.642826 O
0.746932 0.079804 0.140269 O
0.745628 0.080252 0.640340 O
0.747144 0.414165 0.139484 O
0.745770 0.413662 0.641673 O
0.747064 0.747167 0.140985 O
0.745394 0.746141 0.642005 O
