Li7 Mn16 O32                            
   1.00000000000000     
     8.2213410000000007   -0.0163690000000000    0.0301680000000000
    -0.0150640000000000    8.6164170000000002   -0.0667950000000000
     0.0254690000000000   -0.0692480000000000    8.2568789999999996
   Li   Mn   O 
     7    16    32
Direct
  0.1572602453268880  0.5851097912000124  0.6528484665694924
  0.8715109931634404  0.8776985340141843  0.8767290509439419
  0.1303739447795491  0.1189658942576204  0.1214137969660638
  0.8753675611945789  0.3794839574717235  0.3730455985455195
  0.3720393569151267  0.8825121771168388  0.3816459782744842
  0.6264123452975708  0.1224666789357513  0.6236547755429427
  0.6240731216962626  0.6213584089810654  0.1255262380137454
  0.5001198519467186  0.2425220310526990  0.2539546899393807
  0.2520162164519547  0.4979324462811342  0.2463476844956557
  0.2472645560151676  0.2523442326785144  0.5024774359199456
  0.5023207855224137  0.4911730505899735  0.5020010443447582
  0.4980044189655837  0.7429661794877399  0.7457404312141853
  0.7470797209667419  0.4995072028640540  0.7511078983736351
  0.7567834641045045  0.7411724742967758  0.4962584179833628
  0.2517198809432477  0.0029835174432200  0.7493457591087292
  0.2515101818417892  0.7491773941781642  0.9987474695207411
  0.5032619071543712  0.9938479248529269  0.0029044884405514
  0.7509290402956121  0.9993584849161148  0.2537408784264735
  0.7445976885780936  0.2559878772304768  0.0047720534050324
  0.0027426329630284  0.2588621871900936  0.7510341748577313
 -0.0002489060700585  0.5079147492505776  0.9987097118877930
  0.0026198587533839  0.7519826180447714  0.2509129305032313
  0.9988198919349812  0.0033938283597461  0.5004487742215609
  0.7331313030371522  0.9985124653457995  0.0191244513781701
  0.0146122658785387  0.7346533426163504  0.0092275574628213
  0.0112774981735009  0.0361499816475092  0.7493535099770310
  0.7378978697014944  0.7273545072794690  0.7339855841606600
  0.2641257514269056  0.9758674186651860  0.9827925953783383
  0.9913183008514872  0.2817483766142825  0.9880150396863998
  0.9892733279795862  0.9733263375893543  0.2527197516046618
  0.2656967993962588  0.2440744654697456  0.2703227336232611
  0.7320307290582970  0.4903109435697136  0.5208101095388076
  0.0147993355323815  0.2539846877484184  0.5175364576646531
  0.0142072607081249  0.5221301985535469  0.2328461727347454
  0.7330486340207060  0.2558629823759869  0.2351683526912586
  0.2664334649384523  0.4774687157571255  0.4849442626818140
  0.9969476147945219  0.7548914970300986  0.4789876098412087
  0.9838613793988779  0.4867189357916560  0.7635373745646955
  0.2680639543952712  0.7419376584335620  0.7664459676911737
  0.2347619022142231  0.0268930285875236  0.5151775932235023
  0.5084228391850847  0.7174817947996872  0.5108197816944720
  0.5161578757469406  0.0246032245667337  0.2663347223015707
  0.2368309773538465  0.7555760372443903  0.2297651083839896
  0.7709177997457224  0.9957426239258231  0.4886896070780802
  0.4856290937854476  0.2664763651202163  0.4930005068086744
  0.4860841620398779  0.9634283150579931  0.7381660865970573
  0.7601250663650377  0.2731882861017240  0.7669433607748302
  0.2341059435224228  0.5256748454130895  0.0119704624639907
  0.5075869585758660  0.2222047889002493  0.0255981375965217
  0.5155904476537236  0.5157049579088668  0.7361608458600059
  0.2290802090057985  0.2612294212791407  0.7314653298024478
  0.7676557374266231  0.5083822397314877  0.9804407460592055
  0.4867489281387377  0.7587954571621419  0.9820492428965422
  0.4888235935314319  0.4748813538999469  0.2652345046970388
  0.7699628161924554  0.7417730732115601  0.2668289450701352
 
             NaN             NaN             NaN
             NaN             NaN             NaN
             NaN             NaN             NaN
             NaN             NaN             NaN
             NaN             NaN             NaN
             NaN             NaN             NaN
             NaN             NaN             NaN
             NaN             NaN             NaN
             NaN             NaN             NaN
             NaN             NaN             NaN
             NaN             NaN             NaN
             NaN             NaN             NaN
             NaN             NaN             NaN
             NaN             NaN             NaN
             NaN             NaN             NaN
             NaN             NaN             NaN
             NaN             NaN             NaN
             NaN             NaN             NaN
             NaN             NaN             NaN
             NaN             NaN             NaN
             NaN             NaN             NaN
             NaN             NaN             NaN
             NaN             NaN             NaN
             NaN             NaN             NaN
             NaN             NaN             NaN
             NaN             NaN             NaN
             NaN             NaN             NaN
             NaN             NaN             NaN
             NaN             NaN             NaN
             NaN             NaN             NaN
             NaN             NaN             NaN
             NaN             NaN             NaN
             NaN             NaN             NaN
             NaN             NaN             NaN
             NaN             NaN             NaN
             NaN             NaN             NaN
             NaN             NaN             NaN
             NaN             NaN             NaN
             NaN             NaN             NaN
             NaN             NaN             NaN
             NaN             NaN             NaN
             NaN             NaN             NaN
             NaN             NaN             NaN
             NaN             NaN             NaN
             NaN             NaN             NaN
             NaN             NaN             NaN
             NaN             NaN             NaN
             NaN             NaN             NaN
             NaN             NaN             NaN
             NaN             NaN             NaN
             NaN             NaN             NaN
             NaN             NaN             NaN
             NaN             NaN             NaN
             NaN             NaN             NaN
             NaN             NaN             NaN
