Li7 Mn16 O32
1.0
8.221341 -0.016369 0.030168
-0.015064 8.616417 -0.066795
0.025469 -0.069248 8.256879
Li Mn O
7 16 32
direct
0.159472 0.586950 0.653216 Li
0.870857 0.878162 0.876021 Li
0.131011 0.118509 0.122113 Li
0.873826 0.380443 0.372528 Li
0.371245 0.883398 0.380573 Li
0.625838 0.122344 0.623577 Li
0.624550 0.621026 0.125459 Li
0.500274 0.243600 0.253986 Mn
0.251582 0.498133 0.246183 Mn
0.246990 0.254303 0.502691 Mn
0.499800 0.492444 0.502111 Mn
0.495046 0.742505 0.745056 Mn
0.747347 0.500246 0.750355 Mn
0.754878 0.742896 0.496162 Mn
0.251305 0.003426 0.749015 Mn
0.250863 0.748428 0.996942 Mn
0.502912 0.993353 0.002362 Mn
0.750428 -0.000711 0.253634 Mn
0.745657 0.254880 0.004466 Mn
0.003275 0.260462 0.750094 Mn
0.000191 0.508334 0.996812 Mn
0.002461 0.751698 0.249936 Mn
0.998596 0.004519 0.500365 Mn
0.732972 -0.001816 0.018808 O
0.013951 0.734973 0.008686 O
0.010357 0.036550 0.747613 O
0.736179 0.728199 0.732551 O
0.263760 0.975634 0.982440 O
0.991714 0.282381 0.987066 O
0.988934 0.973667 0.253925 O
0.265927 0.244593 0.270230 O
0.730090 0.492161 0.518909 O
0.014753 0.256036 0.517222 O
0.013513 0.522555 0.231708 O
0.733486 0.254752 0.235370 O
0.264074 0.479193 0.484629 O
0.997236 0.754331 0.478679 O
-0.015361 0.488436 0.761608 O
0.265391 0.742411 0.764577 O
0.235101 0.028014 0.515000 O
0.505199 0.718005 0.510522 O
0.515507 0.024857 0.263937 O
0.236096 0.755675 0.228805 O
0.769519 0.994567 0.488772 O
0.485067 0.267397 0.493198 O
0.486038 0.963799 0.739986 O
0.761135 0.273726 0.766587 O
0.234736 0.525189 0.011880 O
0.508677 0.225031 0.025098 O
0.514298 0.515599 0.736085 O
0.229915 0.259576 0.732044 O
0.768757 0.509127 0.980704 O
0.485291 0.756222 0.980861 O
0.488642 0.475119 0.265381 O
0.769526 0.742522 0.267058 O
