Mg1 Ti16 S32                            
   1.00000000000000     
     9.8638809999999992   -0.0021170000000000    0.0000000000000000
    -0.0021170000000000    9.8638709999999996    0.0000040000000000
     0.0000000000000000    0.0000040000000000    9.8654100000000007
   Mg   Ti   S 
     1    16    32
Direct
  0.3750244441677920  0.3749748825606504  0.8725884187244332
  0.2458810804885150  0.7620559498253477  0.0020461473949027
  0.5041199016554767  0.9879293704604097  0.0020654486934672
  0.7620702101548280  0.2458795472829511  0.0020654179642929
  0.9879435881633881  0.5041185194975435  0.0020462277249770
  0.5044288256455102  0.2455709507762863  0.2609863992584465
  0.2455786279795226  0.5044212545102823  0.2609527456370188
  0.2450888424668183  0.2451068918756897  0.4858556389389609
  0.5048930262986068  0.5049111990451094  0.4858564107287648
  0.5050241474902696  0.7628558366609069  0.7428510985336052
  0.7628363646857945  0.5050385130747831  0.7428565169800295
  0.7524177531998230  0.7524138870590823  0.4944541792878892
  0.2449611537434498  0.9871631223274492  0.7428565342950626
  0.7520592813380231  0.9979402964689161  0.2487441291408204
  0.9871435824651847  0.2449755298234047  0.7428512581381476
  0.9979493790752986  0.7520502624391465  0.2487397534254027
  0.9975857965410156  0.9975820523758542  0.4944537667551642
  0.7495268424263960  0.0004725297057354  0.0006973461388398
  0.0004776018343136  0.7495222840631787  0.0006880950036760
 -0.0001724695841699 -0.0001650730997338  0.7433787400283072
  0.7501645526333952  0.7501722367121292  0.7433784549030699
  0.2541494005911921  1.0007132531229030  0.9929968687613643
  1.0007230136094343  0.2541468201040194  0.9929885779247810
  0.9977775617668837  0.9977686099370462  0.2491646635909576
  0.2544620648633278  0.2544507791780833  0.2472890809987869
  0.7499714260248950  0.5037435563037160  0.4976546480329517
  0.0000147559929071  0.2462581471423962  0.4976484341314841
  0.0001905176024908  0.5036047528530867  0.2473140282686458
  0.7498202952936590  0.2463866983584681  0.2473316456236910
  0.2544685902376351  0.4955311337979578  0.4992181876295621
  0.9977096082875381  0.7522897998584797  0.4945430591671450
  1.0012091588257601  0.4952907125576568  0.7519114857920167
  0.2547088206977255  0.7487908404969746  0.7519115122840316
  0.2462559560955580  0.0000278286379576  0.4976548810802656
  0.5037418062794775  0.7499848720293439  0.4976480918690329
  0.5036131076673016  0.0001787984097039  0.2473317967474580
  0.2463947429807707  0.7498091446932765  0.2473138869272421
  0.7522945885938267  0.9977051626046722  0.4945471625592896
  0.4955173116461876  0.2544819882126640  0.4992430394681583
  0.4952844333597995  1.0012235722472016  0.7519278782769326
  0.7487768995692553  0.2547147253387152  0.7519278896593512
  0.2379120168652457  0.5120873132700771  0.0106195238535946
  0.5121053373350383  0.2378944057878878  0.0106552796304299
  0.5127442374283242  0.5127614543307791  0.7356149649223330
  0.2372376652807304  0.2372553409903557  0.7356143321735248
  0.7492865073139608  0.4958503965912117  0.9929971743721534
  0.4958525828186284  0.7492764130723425  0.9929888730918509
  0.4955485819134178  0.4955376071195701  0.2472894861510741
  0.7522313113608019  0.7522219963338362  0.2491648198356576
 
             NaN             NaN             NaN
             NaN             NaN             NaN
             NaN             NaN             NaN
             NaN             NaN             NaN
             NaN             NaN             NaN
             NaN             NaN             NaN
             NaN             NaN             NaN
             NaN             NaN             NaN
             NaN             NaN             NaN
             NaN             NaN             NaN
             NaN             NaN             NaN
             NaN             NaN             NaN
             NaN             NaN             NaN
             NaN             NaN             NaN
             NaN             NaN             NaN
             NaN             NaN             NaN
             NaN             NaN             NaN
             NaN             NaN             NaN
             NaN             NaN             NaN
             NaN             NaN             NaN
             NaN             NaN             NaN
             NaN             NaN             NaN
             NaN             NaN             NaN
             NaN             NaN             NaN
             NaN             NaN             NaN
             NaN             NaN             NaN
             NaN             NaN             NaN
             NaN             NaN             NaN
             NaN             NaN             NaN
             NaN             NaN             NaN
             NaN             NaN             NaN
             NaN             NaN             NaN
             NaN             NaN             NaN
             NaN             NaN             NaN
             NaN             NaN             NaN
             NaN             NaN             NaN
             NaN             NaN             NaN
             NaN             NaN             NaN
             NaN             NaN             NaN
             NaN             NaN             NaN
             NaN             NaN             NaN
             NaN             NaN             NaN
             NaN             NaN             NaN
             NaN             NaN             NaN
             NaN             NaN             NaN
             NaN             NaN             NaN
             NaN             NaN             NaN
             NaN             NaN             NaN
             NaN             NaN             NaN
