Mg1 Ti16 S32
1.0
9.863881 -0.002117 0.000000
-0.002117 9.863871 0.000004
0.000000 0.000004 9.865410
Mg Ti S
1 16 32
direct
0.375012 0.374987 0.749701 Mg
0.248379 0.754464 0.006434 Ti
0.501623 -0.004457 0.006409 Ti
0.754456 0.248375 0.006411 Ti
0.995535 0.501619 0.006433 Ti
0.501303 0.248696 0.249771 Ti
0.248689 0.501311 0.249796 Ti
0.244975 0.244965 0.490190 Ti
0.505034 0.505024 0.490189 Ti
0.504641 0.754837 0.750333 Ti
0.754842 0.504663 0.750332 Ti
0.751543 0.751535 0.497844 Ti
0.245337 -0.004844 0.750331 Ti
0.751505 0.998494 0.250840 Ti
0.995162 0.245359 0.750332 Ti
0.998481 0.751519 0.250868 Ti
0.998463 0.998455 0.497843 Ti
0.747542 0.002458 0.003695 S
0.002462 0.747539 0.003710 S
0.001130 1.001113 0.747683 S
0.748886 0.748869 0.747682 S
0.252654 -0.001915 0.997149 S
0.998067 0.252648 0.997148 S
0.997516 0.997515 0.252244 S
0.252614 0.252603 0.249302 S
0.748785 0.503511 0.502793 S
0.001211 0.246479 0.502792 S
0.002319 0.502530 0.249165 S
0.747674 0.247470 0.249156 S
0.253859 0.496142 0.495221 S
0.997594 0.752406 0.497316 S
0.997799 0.496229 0.753579 S
0.253771 0.752200 0.753579 S
0.246489 1.001214 0.502792 S
0.503521 0.748788 0.502793 S
0.502530 0.002326 0.249156 S
0.247468 0.747683 0.249165 S
0.752413 0.997587 0.497310 S
0.496135 0.253867 0.495207 S
0.496235 -0.002205 0.753570 S
0.752204 0.253764 0.753569 S
0.246010 0.503992 0.003723 S
0.503976 0.246025 0.003707 S
0.504686 0.504689 0.744908 S
0.245311 0.245313 0.744908 S
0.751915 0.497346 0.997150 S
0.497351 0.751935 0.997148 S
0.497397 0.497386 0.249303 S
0.752484 0.752484 0.252244 S
