Li47 P16 O64                            
   1.00000000000000     
    10.4146300000000007    0.0007630000000000   -0.0016270000000000
     0.0008800000000000   12.1861490000000003    0.0017650000000000
    -0.0015600000000000    0.0014160000000000    9.7929379999999995
   Li   P    O 
    47    16    64
Direct
  0.2446325472059976  0.3280985203744992  0.1690970781062674
  0.6602555628050860  0.2514566518741259  0.0964567922346701
  0.6677102079690287  0.2477563162899026  0.5973393959550141
  0.6594182683725401  0.7480412713177490  0.0970128957888521
  0.6642511301150501  0.7502911048697471  0.5984636019865182
  0.1564336431299450  0.5120103714415294  0.1483457349376479
  0.1655585548448301  0.5008853171280936  0.6515913693873908
  0.1651335041159120  0.0002223558707554  0.1505125744836454
  0.1645899517289831  0.0003368462747827  0.6527691944539353
  0.3362953048676706  0.0001970878632996  0.4007883840327134
  0.3364821678256087  0.9992051342542798  0.9026727482718573
  0.3374022648393935  0.5008076776579437  0.4009790077615759
  0.3376860554658557  0.4971930566713897  0.9086172594307779
  0.8374413815936135  0.2493628347437344  0.3472192502831268
  0.8362690808693052  0.2497282476635752  0.8496459707765572
  0.8350138419161859  0.7488142107350670  0.3479894438189615
  0.8354764222446033  0.7498270162765397  0.8474512293910134
  0.3405611761746574  0.2459828841007665  0.4083742898182793
  0.3378754082660950  0.2494688318593329  0.9024282055498342
  0.3365895826664402  0.7485894244208996  0.4015594133088033
  0.3348942395286699  0.7475585657272394  0.9027531292711966
  0.8377734994625831  0.0022100730918709  0.3493300626430441
  0.8359136128534483  0.0010070082631336  0.8456301581757056
  0.8366996504442906  0.4993290128614347  0.3456543080732251
  0.8356412804876867  0.5010400086305661  0.8514294943774410
  0.6589261172054112  0.4960976361490916  0.0962918893304933
  0.6675730364473350  0.5006498295765036  0.5976047871359946
  0.6637726351285319  0.9946592540138358  0.0965451579212982
  0.6653886461902635  0.9977039395006241  0.5973634526796521
  0.1653831132958908  0.2523977995529587  0.6522946177821761
  0.1637280940421741  0.7538004961442881  0.1533357139603733
  0.1646932712186729  0.7525640595685270  0.6513908175424779
  0.9304282013365301  0.3717261137737908  0.1461759258187804
  0.9255182967088968  0.3756523471357635  0.6520957175073524
  0.9216373780382331  0.8742837957574797  0.1481704229294296
  0.9238788261142152  0.8755605954019018  0.6482571083796576
  0.4236579964827322  0.3748585570375474  0.6098935297770082
  0.4239959201679083  0.8716953961568059  0.1015291356707764
  0.4237558780419665  0.8743478497474227  0.6002731377617002
  0.0818821436861123  0.1331186335183173  0.3411618486140199
  0.0786794256217834  0.1272960745500501  0.8557399665411840
  0.0755903907941790  0.6280561993203920  0.3530742170598931
  0.0759254324128391  0.6262765731138026  0.8496156734042170
  0.5781881596804115  0.1236533826920014  0.3982058300596514
  0.5769993714018907  0.1230010820955678  0.8984075605520113
  0.5761653411693283  0.6240796098018779  0.3990739721313790
  0.5741926478803835  0.6230906976657670  0.8978943055088244
  0.9097699181138040  0.1237122518109395  0.0948120100417851
  0.9150260450177720  0.1260115819755515  0.5951903076230483
  0.9082630256821745  0.6268112330919302  0.0953214657591367
  0.9125027118657607  0.6254117497670634  0.5953837615419394
  0.4143237973817255  0.1210465135318138  0.1541279267957680
  0.4130680218451311  0.1231874181068175  0.6551594851626232
  0.4081217712175431  0.6234817896015902  0.1545420030065248
  0.4117918404141107  0.6245024907598683  0.6548019070239396
  0.0908683273501109  0.3774544679624007  0.4039051709957564
  0.0913030985516362  0.3770604334472774  0.9055897096500449
  0.0884732733054423  0.8768228292327852  0.4044952598947551
  0.0877799050991018  0.8756741756665315  0.9046374702878668
  0.5901287011046999  0.3737837846679727  0.3464019333076807
  0.5881035708720710  0.3739526827076299  0.8392176391549671
  0.5884583545868940  0.8738412944352794  0.3453623367301663
  0.5878384234341684  0.8732227653714052  0.8448083446160273
  0.8382283518536002  0.0206499386313219  0.1465897791652089
  0.8432273212376892  0.0225294291862036  0.6448365248042403
  0.8410581644618477  0.5215548424209058  0.1453193067063386
  0.8440548935726758  0.5222206154599881  0.6499497406474295
  0.3454983524372849  0.2206022750647608  0.0944109496436532
  0.3435363082192209  0.2272166156322846  0.6044152576312110
  0.3406580759476142  0.7293253913230618  0.1045024867517876
  0.3421789140452874  0.7280636550716808  0.6026607153405625
  0.1682645265242331  0.2779544623807574  0.3522771394366262
  0.1597583421427015  0.2741638156793917  0.8512340112563622
  0.1593351440068532  0.7734572539355707  0.3538777670195787
  0.1580376274828796  0.7724287316542393  0.8526886948312130
  0.6589100983106015  0.4775878855538137  0.3999140925636341
  0.6555445061670312  0.4768206497406928  0.8954849308548015
  0.6592880572858515  0.9771393618488761  0.3963549646732601
  0.6588347055580602  0.9761552565205146  0.8965754886481743
  0.1582361297275194  0.4819130854491512  0.3502956232786265
  0.1581770402798965  0.4806988775001246  0.8497418713605270
  0.1581159611694349  0.9800691746322684  0.3521034370828460
  0.1587532629659209  0.9789016451607584  0.8538598645023324
  0.6593628534064662  0.2702691339089472  0.4002105722168312
  0.6549019734858561  0.2705537712285508  0.8956071246567405
  0.6580830030100113  0.7706361573264843  0.3981723124800146
  0.6574712039450742  0.7695029832272844  0.8960284200262124
  0.8406312549515337  0.2275022157309479  0.1463588836998591
  0.8445064521065615  0.2289154066321822  0.6481727433178139
  0.8354984250067328  0.7288317708731241  0.1466842218721109
  0.8420664283148919  0.7287846114276459  0.6466374955774736
  0.3450748821845477  0.0163845455457448  0.1052942526514212
  0.3422809924486020  0.0207935662549263  0.6017148614964204
  0.3320288651460669  0.5240574704011457  0.1043367329931757
  0.3426988307662861  0.5215470872247386  0.6005180415014475
  0.5540875368419098  0.1207868386357316  0.1035903281359544
  0.5522728517765528  0.1232731803544713  0.6028532964770745
  0.5466369835541411  0.6220507397510782  0.0999052634171862
  0.5516665763972631  0.6246897922794047  0.6043165743391985
  0.0475055875964780  0.1195592082750476  0.1474020972429879
  0.0533216430605928  0.1258080112055287  0.6493402850283994
  0.0464592738596104  0.6313105930970860  0.1497778926054573
  0.0524233363889248  0.6268680097403599  0.6450218039356306
  0.4501886177441079  0.3735935391529269  0.3970706336421125
  0.4446035554373851  0.3738761566410141  0.8712537876998009
  0.4492583454354726  0.8746561515777310  0.3972817096244928
  0.4488307811368312  0.8733136548986843  0.8970550759258522
  0.9522463455742013  0.3737671577366766  0.3505144590292027
  0.9497406319763506  0.3755673580212371  0.8594342463983837
  0.9492241512087770  0.8752396323103135  0.3520307277750693
  0.9488054046910200  0.8757289577558425  0.8517098573979525
  0.5964460780375731  0.3734707415663071  0.1908745244261301
  0.5992424071821304  0.3740610570463985  0.6818937992210449
  0.5890015812964864  0.8727398712432953  0.1880083807251190
  0.5890001834143512  0.8741177466394662  0.6873897474376098
  0.0982950728663597  0.3803623848468445  0.0627364265935278
  0.0901537631773636  0.3775284006273471  0.5613134135687390
  0.0877407399278991  0.8755402994680809  0.0619888671058272
  0.0891304327620846  0.8769929345017036  0.5619309068767250
  0.4121913331367282  0.1245025800945134  0.3114113327487745
  0.4118468624190358  0.1221321604435294  0.8122725990599919
  0.4112235196731863  0.6246004460008776  0.3122245501246277
  0.4089569294665888  0.6236650918187630  0.8119891595923543
  0.9154813170596916  0.1270282151353070  0.4376961617173057
  0.9087090955989161  0.1242045158728386  0.9373572583777245
  0.9093713313775478  0.6240612734861535  0.4379229256295305
  0.9100501815475328  0.6267902134037026  0.9378839046740920
 
             NaN             NaN             NaN
             NaN             NaN             NaN
             NaN             NaN             NaN
             NaN             NaN             NaN
             NaN             NaN             NaN
             NaN             NaN             NaN
             NaN             NaN             NaN
             NaN             NaN             NaN
             NaN             NaN             NaN
             NaN             NaN             NaN
             NaN             NaN             NaN
             NaN             NaN             NaN
             NaN             NaN             NaN
             NaN             NaN             NaN
             NaN             NaN             NaN
             NaN             NaN             NaN
             NaN             NaN             NaN
             NaN             NaN             NaN
             NaN             NaN             NaN
             NaN             NaN             NaN
             NaN             NaN             NaN
             NaN             NaN             NaN
             NaN             NaN             NaN
             NaN             NaN             NaN
             NaN             NaN             NaN
             NaN             NaN             NaN
             NaN             NaN             NaN
             NaN             NaN             NaN
             NaN             NaN             NaN
             NaN             NaN             NaN
             NaN             NaN             NaN
             NaN             NaN             NaN
             NaN             NaN             NaN
             NaN             NaN             NaN
             NaN             NaN             NaN
             NaN             NaN             NaN
             NaN             NaN             NaN
             NaN             NaN             NaN
             NaN             NaN             NaN
             NaN             NaN             NaN
             NaN             NaN             NaN
             NaN             NaN             NaN
             NaN             NaN             NaN
             NaN             NaN             NaN
             NaN             NaN             NaN
             NaN             NaN             NaN
             NaN             NaN             NaN
             NaN             NaN             NaN
             NaN             NaN             NaN
             NaN             NaN             NaN
             NaN             NaN             NaN
             NaN             NaN             NaN
             NaN             NaN             NaN
             NaN             NaN             NaN
             NaN             NaN             NaN
             NaN             NaN             NaN
             NaN             NaN             NaN
             NaN             NaN             NaN
             NaN             NaN             NaN
             NaN             NaN             NaN
             NaN             NaN             NaN
             NaN             NaN             NaN
             NaN             NaN             NaN
             NaN             NaN             NaN
             NaN             NaN             NaN
             NaN             NaN             NaN
             NaN             NaN             NaN
             NaN             NaN             NaN
             NaN             NaN             NaN
             NaN             NaN             NaN
             NaN             NaN             NaN
             NaN             NaN             NaN
             NaN             NaN             NaN
             NaN             NaN             NaN
             NaN             NaN             NaN
             NaN             NaN             NaN
             NaN             NaN             NaN
             NaN             NaN             NaN
             NaN             NaN             NaN
             NaN             NaN             NaN
             NaN             NaN             NaN
             NaN             NaN             NaN
             NaN             NaN             NaN
             NaN             NaN             NaN
             NaN             NaN             NaN
             NaN             NaN             NaN
             NaN             NaN             NaN
             NaN             NaN             NaN
             NaN             NaN             NaN
             NaN             NaN             NaN
             NaN             NaN             NaN
             NaN             NaN             NaN
             NaN             NaN             NaN
             NaN             NaN             NaN
             NaN             NaN             NaN
             NaN             NaN             NaN
             NaN             NaN             NaN
             NaN             NaN             NaN
             NaN             NaN             NaN
             NaN             NaN             NaN
             NaN             NaN             NaN
             NaN             NaN             NaN
             NaN             NaN             NaN
             NaN             NaN             NaN
             NaN             NaN             NaN
             NaN             NaN             NaN
             NaN             NaN             NaN
             NaN             NaN             NaN
             NaN             NaN             NaN
             NaN             NaN             NaN
             NaN             NaN             NaN
             NaN             NaN             NaN
             NaN             NaN             NaN
             NaN             NaN             NaN
             NaN             NaN             NaN
             NaN             NaN             NaN
             NaN             NaN             NaN
             NaN             NaN             NaN
             NaN             NaN             NaN
             NaN             NaN             NaN
             NaN             NaN             NaN
             NaN             NaN             NaN
             NaN             NaN             NaN
             NaN             NaN             NaN
             NaN             NaN             NaN
             NaN             NaN             NaN
             NaN             NaN             NaN
