Li47 P16 O64                            
   1.00000000000000     
    10.5865120000000008    0.0010530000000000   -0.0042260000000000
     0.0012300000000000   12.3077529999999999   -0.0027940000000000
    -0.0039590000000000   -0.0022230000000000    9.9875489999999996
   Li   P    O 
    47    16    64
Direct
  0.4734560806067852  0.3240869005880277  0.0827745772953958
  0.6638896507056530  0.2506893147381537  0.6041706285863576
  0.6642431045495759  0.7513241936571642  0.0986290569923002
  0.6642807328740881  0.7521735025396079  0.5999102681869771
  0.1651300831211176  0.4982120012775231  0.1502373425243739
  0.1643159676799186  0.4993930763777608  0.6513605240330989
  0.1640958983523323  0.9937816740352222  0.1542833301761586
  0.1639836740081023  0.9982874159263033  0.6512108859936552
  0.3363093381972832  0.9996134595713453  0.4021398469019380
  0.3368896177641184 -0.0000378455410009  0.9010567850997399
  0.3369268655715001  0.5013573228885897  0.3982894030105686
  0.3387114988377891  0.4975027782297758  0.9075167056567387
  0.8345319399548878  0.2493349446699195  0.3473160734063506
  0.8374452507166031  0.2494162259474376  0.8527363049725547
  0.8366417251356018  0.7488528950908728  0.3494052212854524
  0.8368904517309307  0.7490737414039046  0.8491516674683970
  0.3364433883222140  0.2489296221220910  0.3997209285411327
  0.3326064422858812  0.2474180830395904  0.8972090180306257
  0.3369231050512808  0.7495155270368913  0.4010641588971546
  0.3369083814794908  0.7492031857185755  0.9018076477911755
  0.8367386942743568  0.0011364546581557  0.3502238045622960
  0.8364688260972952  0.0013559053744012  0.8489285357534793
  0.8354947886720356  0.5018163129671651  0.3490552096847326
  0.8367930672795928  0.5011709317857701  0.8492032124508307
  0.6632493378474623  0.4971802461952317  0.0965992907776543
  0.6644160031192733  0.5028431980279270  0.6000388161089556
  0.6649177877349920  0.0033788178114890  0.1012083351739690
  0.6637075401184221  0.0004598314173421  0.5986295007862977
  0.1649288080940762  0.2519235889544533  0.1497649292219821
  0.1627414183153292  0.2504668269289597  0.6504349842904320
  0.1642404444586310  0.7505564500352925  0.1511072714073956
  0.1637845035768899  0.7508868592095109  0.6521506209962268
  0.9232837690213782  0.3766350388140747  0.1463167722755959
  0.9254693495192836  0.3751367487233814  0.6491977894011531
  0.9248655536858545  0.8744500651193614  0.1495556860375374
  0.9251996583357348  0.8752275562013723  0.6490950733300350
  0.4221594534657421  0.3763666745765050  0.6005378065017563
  0.4289156501694166  0.8747298388722318  0.1009905269473765
  0.4266252260493839  0.8751890438963534  0.6019216476177837
  0.0755461639710146  0.1242033757936067  0.3522488983679262
  0.0752959043898041  0.1243523591254098  0.8506435814910933
  0.0747115014726994  0.6246417754018514  0.3507779774528410
  0.0757476238167562  0.6242982307940367  0.8524095477413652
  0.5743928378705829  0.1265271484156024  0.3952804912801338
  0.5779898928089018  0.1284788498203209  0.9051673408903772
  0.5746164101661334  0.6265433684417164  0.4005797075891922
  0.5738990638396616  0.6250368888232584  0.8982759826106316
  0.9152948503289938  0.1240923431646069  0.0976422341139253
  0.9119671646052486  0.1251060595828198  0.5963884992744178
  0.9112400217783886  0.6254774147859720  0.0968701658727679
  0.9120819777949069  0.6252799516759807  0.5971534177382299
  0.4075333681570030  0.1185723464717380  0.1527240590859148
  0.4113159045034735  0.1247054281310562  0.6532102463599493
  0.4115174099488912  0.6271723940053520  0.1527017376627049
  0.4106352782008200  0.6258741305904814  0.6541535039948667
  0.0885918069983048  0.3753375378324682  0.4031227824811657
  0.0886170922707067  0.3750692864181556  0.9029734396694468
  0.0884352679370963  0.8741527759406399  0.4047133269484051
  0.0885674862476077  0.8746711871702328  0.9037177436681497
  0.5894863751858961  0.3775731720964938  0.3513105270532481
  0.5896669234263059  0.3745229918546891  0.8396700241728968
  0.5899114618917920  0.8755462461454635  0.3471214946213987
  0.5900689482535674  0.8756909593893244  0.8468153268245503
  0.8432791572476062  0.0222541133451492  0.1498047506256897
  0.8413188689750708  0.0219508781308819  0.6478431101797363
  0.8403270077024596  0.5224959279763585  0.1480071263408910
  0.8419972299112609  0.5220352762813069  0.6487690136162946
  0.3369879557485440  0.2207668831534130  0.0977044405519289
  0.3402965086553590  0.2281255121433827  0.6022859637240869
  0.3436299225436258  0.7333836440312808  0.1049964323817976
  0.3408998669046424  0.7299174483079465  0.6037267756947802
  0.1577091964477701  0.2713791723204929  0.3513414584899937
  0.1572921212085801  0.2710277621885980  0.8508716906912501
  0.1587560905384386  0.7709768812751271  0.3528909792362634
  0.1589463316086279  0.7711029496919706  0.8531119821506351
  0.6592918707409482  0.4804998791946131  0.4047891254506109
  0.6587453131677237  0.4771783022659865  0.8949146576944044
  0.6593208600114139  0.9794233850134008  0.3983716800303410
  0.6602835376436195  0.9785756081186391  0.8992700847380583
  0.1591361559069965  0.4783057141321436  0.3517138284987876
  0.1599355616322375  0.4777551664706873  0.8515574690374268
  0.1586370658532025  0.9776869965638032  0.3540933367795573
  0.1591199503791309  0.9778903795627578  0.8525455654033032
  0.6587682156024266  0.2733982003982122  0.4015094153953905
  0.6605692574780329  0.2694139262870027  0.8790190118056402
  0.6601372243813554  0.7722628915863549  0.3990952570440093
  0.6595337208689657  0.7715367745101881  0.8972252444887782
  0.8555280512554519  0.2296986994966884  0.1527170657173968
  0.8429738954129238  0.2288372223352537  0.6479810669834758
  0.8413723152350739  0.7291358100270643  0.1480537547764153
  0.8417975214095882  0.7287868833468623  0.6481242766180603
  0.3377935152651560  0.0140059079374268  0.1048835333228687
  0.3411904173271315  0.0211241801898242  0.6020160188542732
  0.3366595282701074  0.5284385868152686  0.0992793776375970
  0.3406617041569721  0.5232253467492745  0.6003017401379938
  0.5438692553557689  0.1205599484427424  0.0990387391001025
  0.5490403241638204  0.1256241248660380  0.5993274803795533
  0.5496745089322749  0.6259273115847951  0.0993628958722002
  0.5493430142696595  0.6272901116131501  0.6028462611529102
  0.0549793442365817  0.1211142396482765  0.1475898391404316
  0.0505989226010224  0.1241221505061299  0.6483163856273558
  0.0495890893179778  0.6249650138896677  0.1493340422662625
  0.0504310220408749  0.6251857934302023  0.6495777147248943
  0.4506484121757612  0.3753022592372926  0.4025145376265097
  0.4526818276703595  0.3704232510906179  0.8964074640466155
  0.4514556366906923  0.8749171640451642  0.3992000018934834
  0.4514363190801979  0.8751786325595545  0.8982492700117307
  0.9498642477524573  0.3759574067553734  0.3517996544487439
  0.9501270162891851  0.3758799272124534  0.8509411052778224
  0.9501211858261187  0.8745941878739018  0.3521090276186318
  0.9503651632412906  0.8750685976181056  0.8507082831581928
  0.5916510188291213  0.3811391767074872  0.1968983200698049
  0.5858580055215213  0.3802725329725100  0.6837060179970899
  0.5915904950069916  0.8756147289761413  0.1909129455071384
  0.5906946636607976  0.8764849743458404  0.6904489590418850
  0.0890021404374813  0.3749717354205946  0.0590820420066103
  0.0897622990305997  0.3751029132570989  0.5594233038402887
  0.0877561928495095  0.8740474977571265  0.0599781930135878
  0.0888049748534903  0.8740837359437296  0.5609374963098128
  0.4074489983336210  0.1230253049010449  0.3091485467388023
  0.4115831875262967  0.1242773761707256  0.8093635124394971
  0.4126174415322459  0.6257289419188957  0.3093349687384861
  0.4095642516400230  0.6239267181932389  0.8104285656602476
  0.9112635273215789  0.1251850020499973  0.4400948439209025
  0.9125562674137089  0.1241767163504315  0.9415953627808848
  0.9115734582553539  0.6250382771213968  0.4408111862556434
  0.9110761314048770  0.6253021601657268  0.9404985054450566
 
             NaN             NaN             NaN
             NaN             NaN             NaN
             NaN             NaN             NaN
             NaN             NaN             NaN
             NaN             NaN             NaN
             NaN             NaN             NaN
             NaN             NaN             NaN
             NaN             NaN             NaN
             NaN             NaN             NaN
             NaN             NaN             NaN
             NaN             NaN             NaN
             NaN             NaN             NaN
             NaN             NaN             NaN
             NaN             NaN             NaN
             NaN             NaN             NaN
             NaN             NaN             NaN
             NaN             NaN             NaN
             NaN             NaN             NaN
             NaN             NaN             NaN
             NaN             NaN             NaN
             NaN             NaN             NaN
             NaN             NaN             NaN
             NaN             NaN             NaN
             NaN             NaN             NaN
             NaN             NaN             NaN
             NaN             NaN             NaN
             NaN             NaN             NaN
             NaN             NaN             NaN
             NaN             NaN             NaN
             NaN             NaN             NaN
             NaN             NaN             NaN
             NaN             NaN             NaN
             NaN             NaN             NaN
             NaN             NaN             NaN
             NaN             NaN             NaN
             NaN             NaN             NaN
             NaN             NaN             NaN
             NaN             NaN             NaN
             NaN             NaN             NaN
             NaN             NaN             NaN
             NaN             NaN             NaN
             NaN             NaN             NaN
             NaN             NaN             NaN
             NaN             NaN             NaN
             NaN             NaN             NaN
             NaN             NaN             NaN
             NaN             NaN             NaN
             NaN             NaN             NaN
             NaN             NaN             NaN
             NaN             NaN             NaN
             NaN             NaN             NaN
             NaN             NaN             NaN
             NaN             NaN             NaN
             NaN             NaN             NaN
             NaN             NaN             NaN
             NaN             NaN             NaN
             NaN             NaN             NaN
             NaN             NaN             NaN
             NaN             NaN             NaN
             NaN             NaN             NaN
             NaN             NaN             NaN
             NaN             NaN             NaN
             NaN             NaN             NaN
             NaN             NaN             NaN
             NaN             NaN             NaN
             NaN             NaN             NaN
             NaN             NaN             NaN
             NaN             NaN             NaN
             NaN             NaN             NaN
             NaN             NaN             NaN
             NaN             NaN             NaN
             NaN             NaN             NaN
             NaN             NaN             NaN
             NaN             NaN             NaN
             NaN             NaN             NaN
             NaN             NaN             NaN
             NaN             NaN             NaN
             NaN             NaN             NaN
             NaN             NaN             NaN
             NaN             NaN             NaN
             NaN             NaN             NaN
             NaN             NaN             NaN
             NaN             NaN             NaN
             NaN             NaN             NaN
             NaN             NaN             NaN
             NaN             NaN             NaN
             NaN             NaN             NaN
             NaN             NaN             NaN
             NaN             NaN             NaN
             NaN             NaN             NaN
             NaN             NaN             NaN
             NaN             NaN             NaN
             NaN             NaN             NaN
             NaN             NaN             NaN
             NaN             NaN             NaN
             NaN             NaN             NaN
             NaN             NaN             NaN
             NaN             NaN             NaN
             NaN             NaN             NaN
             NaN             NaN             NaN
             NaN             NaN             NaN
             NaN             NaN             NaN
             NaN             NaN             NaN
             NaN             NaN             NaN
             NaN             NaN             NaN
             NaN             NaN             NaN
             NaN             NaN             NaN
             NaN             NaN             NaN
             NaN             NaN             NaN
             NaN             NaN             NaN
             NaN             NaN             NaN
             NaN             NaN             NaN
             NaN             NaN             NaN
             NaN             NaN             NaN
             NaN             NaN             NaN
             NaN             NaN             NaN
             NaN             NaN             NaN
             NaN             NaN             NaN
             NaN             NaN             NaN
             NaN             NaN             NaN
             NaN             NaN             NaN
             NaN             NaN             NaN
             NaN             NaN             NaN
             NaN             NaN             NaN
             NaN             NaN             NaN
             NaN             NaN             NaN
             NaN             NaN             NaN
