Mg7 Sc16 Se32                           
   1.00000000000000     
    11.2085039999999996    0.0000000000000000    0.0000010000000000
     0.0000000000000000   11.2085039999999996    0.0000000000000000
     0.0000010000000000    0.0000000000000000   11.2085050000000006
   Mg   Sc   Se
     7    16    32
Direct
  0.4630530657983423  0.4630535037599489  0.4630529752778338
  0.6244981470358782  0.1266683965861468  0.1266684530669764
  0.1266682888286459  0.6244983566369601  0.1266680349862032
  0.1266688729384987  0.1266686262649318  0.6244979351706935
  0.3753609887368365  0.8723597275935000  0.8723598052351349
  0.8723596519193522  0.3753611110384943  0.8723598820377118
  0.8723601965469487  0.8723602121780121  0.3753606513982167
  0.9932181468932094  0.7500657478544751  0.7500661134738653
  0.7500661272174521  0.9932183125409341  0.7500664509038276
  0.7500662175298056  0.7500661884699373  0.9932181576606075
  1.0001601946102390  1.0001604258799859  1.0001581740023846
  0.0063975084234437  0.2499729265592347  0.2499729412080300
  0.2499725975238404  0.0063969870407421  0.2499727782205247
  0.2499730785367960  0.2499730321090522  0.0063979259305321
  0.7477626927056706  0.4993872966432004  0.2520077930641121
  0.7477632716636812  0.2520079028680324  0.4993882640672688
  0.9891851951420454  0.4999783756929583  0.4999786511974816
  0.2520070495774353  0.4993867376077908  0.7477628430794646
  0.2520081218966903  0.7477631700217321  0.4993880949428003
  0.4993874352700300  0.7477630420023305  0.2520078614855475
  0.4999783060153754  0.9891859779379270  0.4999785957913038
  0.4993868119766859  0.2520071802923226  0.7477631675159627
  0.4999784367615371  0.4999784949078616  0.9891845689978785
  0.7576199685809446  0.9932524774655336  0.9932525487997912
  0.9932524632648710  0.7576203571601069  0.9932521141096383
  0.9932525816612643  0.9932521819679550  0.7576180199211784
  0.7561853199882355  0.7561854540224041  0.7561852485303068
  0.2430197008750731  0.0068141300576717  0.0068137827988567
  0.0068143541660137  0.2430200429674687  0.0068139417662131
  0.0068139940215003  0.0068141724097412  0.2430179156992740
  0.2440911257147035  0.2440908878668293  0.2440912499482683
  0.7468865774862741  0.4921989698997284  0.4921989722735059
  0.9909237417662715  0.2577592674764260  0.4931393859539250
  0.9909234521561027  0.4931396357870699  0.2577595044751361
  0.7609411550998640  0.2563931423096102  0.2563937865646995
  0.2382818975287417  0.5051027383474473  0.5051025959051556
  0.0072892897258666  0.7417991703264399  0.5069911144880985
  0.0072887467122607  0.5069909098742877  0.7417997407897524
  0.2386330760807256  0.7424336402517360  0.7424346760127009
  0.2577591766519879  0.9909235126000757  0.4931391905406161
  0.4921991835613093  0.7468869617482220  0.4921990812862799
  0.4931392882621576  0.9909236374601955  0.2577593313233287
  0.2563932146932854  0.7609409968986964  0.2563937623761741
  0.7417994873898871  0.0072893034792052  0.5069915301711839
  0.5051030361264233  0.2382823596282197  0.5051031754761344
  0.5069912352371185  0.0072889509722648  0.7417997856648014
  0.7424336580410509  0.2386332444119326  0.7424349103420206
  0.2577591249516235  0.4931392751180619  0.9909233326632874
  0.4931393217872354  0.2577590390913064  0.9909237054809421
  0.4921980109236481  0.4921982046156958  0.7468864424492297
  0.2563927858430408  0.2563927733121942  0.7609416992640030
  0.7417994441688635  0.5069911151348528  0.0072890853264579
  0.5069909856929589  0.7417992220736841  0.0072891886670667
  0.5051023840701026  0.5051027042499076  0.2382816751433945
  0.7424340654544475  0.7424340420445471  0.2386331322979765
 
             NaN             NaN             NaN
             NaN             NaN             NaN
             NaN             NaN             NaN
             NaN             NaN             NaN
             NaN             NaN             NaN
             NaN             NaN             NaN
             NaN             NaN             NaN
             NaN             NaN             NaN
             NaN             NaN             NaN
             NaN             NaN             NaN
             NaN             NaN             NaN
             NaN             NaN             NaN
             NaN             NaN             NaN
             NaN             NaN             NaN
             NaN             NaN             NaN
             NaN             NaN             NaN
             NaN             NaN             NaN
             NaN             NaN             NaN
             NaN             NaN             NaN
             NaN             NaN             NaN
             NaN             NaN             NaN
             NaN             NaN             NaN
             NaN             NaN             NaN
             NaN             NaN             NaN
             NaN             NaN             NaN
             NaN             NaN             NaN
             NaN             NaN             NaN
             NaN             NaN             NaN
             NaN             NaN             NaN
             NaN             NaN             NaN
             NaN             NaN             NaN
             NaN             NaN             NaN
             NaN             NaN             NaN
             NaN             NaN             NaN
             NaN             NaN             NaN
             NaN             NaN             NaN
             NaN             NaN             NaN
             NaN             NaN             NaN
             NaN             NaN             NaN
             NaN             NaN             NaN
             NaN             NaN             NaN
             NaN             NaN             NaN
             NaN             NaN             NaN
             NaN             NaN             NaN
             NaN             NaN             NaN
             NaN             NaN             NaN
             NaN             NaN             NaN
             NaN             NaN             NaN
             NaN             NaN             NaN
             NaN             NaN             NaN
             NaN             NaN             NaN
             NaN             NaN             NaN
             NaN             NaN             NaN
             NaN             NaN             NaN
             NaN             NaN             NaN
