Mg7 Sc16 Se32                           
   1.00000000000000     
    11.2467210000000009    0.0000100000000000   -0.0000340000000000
     0.0000100000000000   11.2467609999999993    0.0001000000000000
    -0.0000340000000000    0.0001660000000000   11.2463379999999997
   Mg   Sc   Se
     7    16    32
Direct
  0.4388361399597706  0.4388533488792447  0.4388413845841916
  0.6257707245881545  0.1268778283513243  0.1268736115411052
  0.1268700263707629  0.6257701882092703  0.1268662594915967
  0.1268746976362844  0.1268842556893515  0.6257584920448159
  0.3771076302723663  0.8726673872295773  0.8726489997890202
  0.8726480999357279  0.3771044120248051  0.8726493162129663
  0.8726469317601010  0.8726743345620435  0.3771107402309147
  0.9941891345632444  0.7506204438755277  0.7506283145392968
  0.7506857062856575  0.9940902424012947  0.7506767713360606
  0.7506313348669283  0.7506160428721825  0.9941722714251808
  0.9992031184942626  0.9991935652621795  0.9992030213501440
  0.0054178437510273  0.2481826303973366  0.2481767977010332
  0.2481723794044306  0.0054632607941964  0.2481845763020918
  0.2481756114903751  0.2481801462317370  0.0054322679365879
  0.7522311723435406  0.5004099230331148  0.2536815877385630
  0.7522195353390798  0.2536733939456676  0.5003943814444322
  0.9909599507267507  0.4992652076611285  0.4992585690243442
  0.2536831276650923  0.5003873849618699  0.7522220612170127
  0.2536762916654758  0.7522134124207465  0.5003657844102108
  0.5003828330956259  0.7522249237223965  0.2536698555744311
  0.4992739122457167  0.9909623425881896  0.4992638395659937
  0.5004053203094206  0.2536705059623249  0.7522243617258251
  0.4992677994209090  0.4992557535478489  0.9909690136699241
  0.7576600137451434  0.9937224699715520  0.9937573138231096
  0.9937313454689795  0.7576635237929725  0.9937451730839341
  0.9937556855341391  0.9937232839027561  0.7576516440295565
  0.7593018139769541  0.7592417940669919  0.7592853783322029
  0.2421283155097627  0.0058734498564242  0.0058581846970394
  0.0058585116897115  0.2421352413280146  0.0058599888952825
  0.0058598405968784  0.0058810498658289  0.2421455864340716
  0.2418121586613365  0.2418362898282657  0.2418239797553074
  0.7551282929284766  0.4906900222448340  0.4906852820398607
  0.9942105622320564  0.2570084854327648  0.4918149661778226
  0.9942137724880836  0.4918132023620734  0.2569873928964478
  0.7601418537760001  0.2570191589391572  0.2569965058847770
  0.2392772952298160  0.5100424669174924  0.5100266694200229
  0.0081790256869892  0.7419886802646465  0.5074335318794461
  0.0081840423548679  0.5074422407881808  0.7419857286694218
  0.2404092356058065  0.7434074449302881  0.7434131469724200
  0.2569941349958060  0.9942216769427341  0.4918123319401992
  0.4906754508333726  0.7551368453561205  0.4906718079771678
  0.4917995228795212  0.9942277793111624  0.2569774370904193
  0.2569967099506353  0.7601616518091799  0.2569895486421179
  0.7419818204889665  0.0081857895985219  0.5074580573509567
  0.5100267390896539  0.2392896660481129  0.5100273759599971
  0.5074701083567824  0.0081721876614313  0.7419856959679676
  0.7434141364900727  0.2403859780659910  0.7434209565011788
  0.2569955143756260  0.4918042668572152  0.9942322121608426
  0.4918015124956769  0.2569969619545739  0.9942378231863902
  0.4906810401087516  0.4906790513527006  0.7551444267932291
  0.2570056805225815  0.2570034972956088  0.7601460437985154
  0.7419803146263149  0.5074418423529434  0.0081824859797591
  0.5074394398590810  0.7419776432969376  0.0081721543607278
  0.5100368894360593  0.5100486808259153  0.2392801598514533
  0.7434065752393976  0.7434224465741097  0.2404034463837362
 
             NaN             NaN             NaN
             NaN             NaN             NaN
             NaN             NaN             NaN
             NaN             NaN             NaN
             NaN             NaN             NaN
             NaN             NaN             NaN
             NaN             NaN             NaN
             NaN             NaN             NaN
             NaN             NaN             NaN
             NaN             NaN             NaN
             NaN             NaN             NaN
             NaN             NaN             NaN
             NaN             NaN             NaN
             NaN             NaN             NaN
             NaN             NaN             NaN
             NaN             NaN             NaN
             NaN             NaN             NaN
             NaN             NaN             NaN
             NaN             NaN             NaN
             NaN             NaN             NaN
             NaN             NaN             NaN
             NaN             NaN             NaN
             NaN             NaN             NaN
             NaN             NaN             NaN
             NaN             NaN             NaN
             NaN             NaN             NaN
             NaN             NaN             NaN
             NaN             NaN             NaN
             NaN             NaN             NaN
             NaN             NaN             NaN
             NaN             NaN             NaN
             NaN             NaN             NaN
             NaN             NaN             NaN
             NaN             NaN             NaN
             NaN             NaN             NaN
             NaN             NaN             NaN
             NaN             NaN             NaN
             NaN             NaN             NaN
             NaN             NaN             NaN
             NaN             NaN             NaN
             NaN             NaN             NaN
             NaN             NaN             NaN
             NaN             NaN             NaN
             NaN             NaN             NaN
             NaN             NaN             NaN
             NaN             NaN             NaN
             NaN             NaN             NaN
             NaN             NaN             NaN
             NaN             NaN             NaN
             NaN             NaN             NaN
             NaN             NaN             NaN
             NaN             NaN             NaN
             NaN             NaN             NaN
             NaN             NaN             NaN
             NaN             NaN             NaN
