Li47 P16 O64
1.0
10.428667 -0.000000 -0.015548
-0.000000 12.254888 -0.000001
-0.014716 -0.000001 9.829818
Li P O
47 16 64
direct
0.654622 0.253449 0.097254 Li
0.666633 0.249145 0.597708 Li
0.663265 0.750046 0.097632 Li
0.664329 0.750611 0.598462 Li
0.164833 0.497271 0.151035 Li
0.165389 0.498368 0.652416 Li
0.164484 0.998628 0.151901 Li
0.165260 0.998656 0.652600 Li
0.337037 0.000778 0.400414 Li
0.336440 0.000980 0.905185 Li
0.339799 0.498263 0.397151 Li
0.338205 0.496153 0.909641 Li
0.835307 0.249015 0.347107 Li
0.833232 0.249123 0.849387 Li
0.836594 0.748355 0.347926 Li
0.836421 0.748729 0.847465 Li
0.339799 0.251737 0.397151 Li
0.338205 0.253847 0.909641 Li
0.337037 0.749222 0.400414 Li
0.336440 0.749020 0.905185 Li
0.836594 0.001645 0.347926 Li
0.836420 0.001271 0.847465 Li
0.835307 0.500985 0.347107 Li
0.833232 0.500876 0.849387 Li
0.654623 0.496551 0.097253 Li
0.666634 0.500855 0.597708 Li
0.663264 0.999953 0.097632 Li
0.664329 0.999390 0.598462 Li
0.164833 0.252729 0.151036 Li
0.165389 0.251632 0.652416 Li
0.164484 0.751372 0.151901 Li
0.165260 0.751345 0.652600 Li
0.918718 0.375000 0.147810 Li
0.921700 0.375000 0.649333 Li
0.922167 0.875000 0.149268 Li
0.923957 0.875000 0.648512 Li
0.427709 0.375000 0.607890 Li
0.428213 0.875000 0.101649 Li
0.424504 0.875000 0.600436 Li
0.077845 0.125951 0.350498 Li
0.077756 0.126027 0.852413 Li
0.077845 0.624049 0.350498 Li
0.077756 0.623974 0.852413 Li
0.576242 0.126678 0.399599 Li
0.573483 0.126185 0.899358 Li
0.576242 0.623322 0.399600 Li
0.573483 0.623815 0.899357 Li
0.910714 0.124843 0.095338 P
0.913791 0.124359 0.595455 P
0.910714 0.625157 0.095339 P
0.913791 0.625641 0.595455 P
0.409072 0.120639 0.153991 P
0.411234 0.124495 0.654779 P
0.409072 0.629361 0.153991 P
0.411234 0.625505 0.654779 P
0.087823 0.375000 0.404598 P
0.085560 0.375000 0.904573 P
0.087931 0.875000 0.404920 P
0.087598 0.875000 0.905108 P
0.592341 0.375000 0.348827 P
0.586877 0.375000 0.838639 P
0.590017 0.875000 0.345887 P
0.588950 0.875000 0.844740 P
0.841250 0.021421 0.146593 O
0.843450 0.021245 0.646196 O
0.839126 0.523123 0.145968 O
0.843975 0.523611 0.648546 O
0.331615 0.215408 0.098188 O
0.342023 0.226724 0.600689 O
0.344252 0.737292 0.108327 O
0.342197 0.729007 0.602166 O
0.158096 0.272258 0.353562 O
0.155781 0.272424 0.852995 O
0.157598 0.772150 0.353393 O
0.158066 0.772238 0.854164 O
0.661314 0.478653 0.403180 O
0.654077 0.477765 0.896358 O
0.659554 0.978021 0.398309 O
0.658895 0.977969 0.896444 O
0.158096 0.477742 0.353562 O
0.155781 0.477576 0.852995 O
0.157598 0.977851 0.353393 O
0.158066 0.977763 0.854164 O
0.661314 0.271347 0.403180 O
0.654077 0.272235 0.896359 O
0.659554 0.771979 0.398309 O
0.658895 0.772031 0.896444 O
0.839126 0.226877 0.145969 O
0.843975 0.226389 0.648546 O
0.841251 0.728578 0.146595 O
0.843450 0.728755 0.646195 O
0.344252 0.012707 0.108327 O
0.342197 0.020993 0.602166 O
0.331615 0.534592 0.098188 O
0.342023 0.523276 0.600689 O
0.548232 0.122621 0.101112 O
0.551136 0.123963 0.604968 O
0.548233 0.627379 0.101112 O
0.551136 0.626037 0.604969 O
0.049598 0.124981 0.148193 O
0.052999 0.123915 0.647302 O
0.049598 0.625018 0.148192 O
0.052999 0.626086 0.647302 O
0.453844 0.375000 0.402373 O
0.443990 0.375000 0.868406 O
0.450858 0.875000 0.396931 O
0.449921 0.875000 0.895640 O
0.948770 0.375000 0.351637 O
0.946136 0.375000 0.852154 O
0.948519 0.875000 0.353209 O
0.948825 0.875000 0.851626 O
0.600434 0.375000 0.194664 O
0.602957 0.375000 0.682327 O
0.593147 0.875000 0.189069 O
0.590654 0.875000 0.687721 O
0.084709 0.375000 0.061419 O
0.087805 0.375000 0.561746 O
0.087014 0.875000 0.061952 O
0.089355 0.875000 0.561984 O
0.411385 0.123922 0.311520 O
0.408120 0.124438 0.811577 O
0.411385 0.626078 0.311520 O
0.408120 0.625561 0.811577 O
0.912300 0.125045 0.438436 O
0.910621 0.124540 0.938174 O
0.912300 0.624955 0.438436 O
0.910621 0.625460 0.938174 O
