Li48 P16 O64                            
   1.00000000000000     
    10.6460594051279500   -0.0036937063514503   -0.0015790421623092
    -0.0043365016163216   12.4450442249909585    0.0017844522312801
    -0.0015402164373436    0.0014168114011850   10.0851798614661980
   Li   P    O 
    46    16    64
Direct
  0.6547176989823242  0.2517101127535781  0.1001772635680922
  0.6655734162493090  0.2490879547108378  0.5990505608527315
  0.6628359740208651  0.7492697473521091  0.0988926036465827
  0.6634314380670432  0.7506355145703196  0.5988954227535288
  0.1665928652462227  0.4887688017888649  0.1517123108359399
  0.1632811510990066  0.5008770134819116  0.6518785241806953
  0.1663436219823851  0.0022276384131317  0.1487141536921399
  0.1643003535006287  0.0013693639515964  0.6511512901598380
  0.3384325403630655  0.0025589950011380  0.3985707523186477
  0.3375492773586117  0.0023877253842386  0.9049766645659929
  0.3397143889053496  0.4971250269167058  0.3952518143568327
  0.3352338785206257  0.4959446690045226  0.9073768187307252
  0.8368930413399340  0.2476400286376688  0.3497028648914480
  0.8339277143281052  0.2495102035132106  0.8509610296774497
  0.8381589343723661  0.7489580159790492  0.3487904921461507
  0.8374521485196738  0.7490331220682336  0.8495985059349707
  0.3379682595593323  0.2531852108596055  0.3798359663841424
  0.3331025521154274  0.2570615998393535  0.9155285832675162
  0.3375874859261998  0.7490149762753830  0.3989301313907418
  0.3368368720738886  0.7494179992244554  0.9034746528640056
  0.8385563659314457  0.0016396401291203  0.3474259701062010
  0.8372096816605747  0.0011788236668906  0.8489890594841825
  0.8371357402307567  0.4995395303970724  0.3480841376166737
  0.8341037474944812  0.5007692540325266  0.8517669960907810
  0.6550325572389752  0.4954190996644954  0.0980594439083120
  0.6655243455957844  0.5005564504981734  0.5988897917591132
  0.6619326642469829  0.9964077268335529  0.0976287097985704
  0.6641145408243574  0.9992635102172258  0.5997457291320032
  0.1637310483015781  0.2538743868001490  0.6472862294070936
  0.1637359470583064  0.7509031430755257  0.1515207273356722
  0.1643405786565708  0.7523216788307110  0.6507926882067849
  0.9310278046619302  0.3666285026071776  0.1522338355600965
  0.9221296902782683  0.3762464215795731  0.6507995857858333
  0.9260750990806059  0.8759864204018086  0.1490554287038464
  0.9276567797196122  0.8760607557877051  0.6487598101733241
  0.4296058661353683  0.3728528395462760  0.6054757226520735
  0.4293614746678642  0.8758633946460179  0.1028764205814738
  0.4261361375349750  0.8761294693931774  0.6001547201322950
  0.0784400607355664  0.1334171996873010  0.3383731458259334
  0.0750957120084976  0.1309627055642864  0.8587146244791484
  0.0752663267740132  0.6219280345470324  0.3497699465870241
  0.0744435354146873  0.6236475315016321  0.8525830801448322
  0.5734650746545569  0.1266731241328927  0.3990960915611765
  0.5699457645085033  0.1272389749979226  0.9026248072821943
  0.5733854578267099  0.6224066738396274  0.3992643407312997
  0.5699743496043794  0.6226492696824337  0.8993073170227106
  0.9075062477502982  0.1202537823121190  0.0979737813637840
  0.9129208632872761  0.1238411709203291  0.5975527765722717
  0.9100893703623782  0.6251768390232471  0.0987956380324277
  0.9117925488871066  0.6276088857068416  0.5973618459478729
  0.4129121044550530  0.1207854853308348  0.1503692903418283
  0.4112871506499758  0.1248903776046504  0.6535996350685167
  0.4075606881678979  0.6298379273973254  0.1512143700629309
  0.4102948359141152  0.6258528295588803  0.6523887695465689
  0.0883364256930790  0.3742874795976832  0.4088635382569805
  0.0834460577976017  0.3782904224573898  0.9000974842056308
  0.0904352936377748  0.8753553602920334  0.4027482104934279
  0.0894891531332007  0.8750986772243579  0.9033825891216836
  0.5948968291877108  0.3750005467395781  0.3505442872020623
  0.5864698059145965  0.3754880240135847  0.8403440870257484
  0.5910082109238459  0.8739040029608560  0.3483461507539332
  0.5893049308130287  0.8740784041370802  0.8449424933512972
  0.8343644593538713  0.0172145163328778  0.1449883483883880
  0.8430522332525783  0.0205461462939880  0.6477189697473875
  0.8382420031527715  0.5241746580698035  0.1493867812500582
  0.8411602388716943  0.5268766805810543  0.6506591290903572
  0.3441515924079255  0.2169115356236233  0.0945361693627973
  0.3437030737014553  0.2273304479414051  0.6018329593392480
  0.3442421907037883  0.7381592476391390  0.1074300874604930
  0.3415065372949329  0.7289505839651724  0.6006200094215757
  0.1584515555916752  0.2700778374242603  0.3737577897324371
  0.1539965299812280  0.2760563350325071  0.8495092579536134
  0.1585242811472583  0.7714439552926109  0.3534011399084775
  0.1594730026500031  0.7727816437023804  0.8519274603438021
  0.6623078644940676  0.4785395188524220  0.4054707938240938
  0.6540120532480955  0.4780469429080014  0.8967700784947397
  0.6609713229891412  0.9760849202653645  0.3997616166048488
  0.6592736017162864  0.9762989074603894  0.8953301465941621
  0.1590658324487606  0.4755664278776663  0.3539265061256387
  0.1546103174308300  0.4799327443147234  0.8457777865716238
  0.1611969940245714  0.9764801551573541  0.3513403044997219
  0.1590306927067502  0.9778605383917167  0.8533892770313614
  0.6622176551580097  0.2718782020335766  0.4058229603320314
  0.6532498558693050  0.2733604821657423  0.8978905020712205
  0.6600477378173579  0.7709896281241129  0.3996456539192437
  0.6587770045314087  0.7713219819122656  0.8961198562729678
  0.8382256818402354  0.2225017405262975  0.1506262832230050
  0.8417031842996252  0.2250606900276892  0.6491501484353748
  0.8407719501170590  0.7290276033585954  0.1481487975740450
  0.8421109650508924  0.7309575383786395  0.6465130360721716
  0.3467592568842903  0.0130327804379817  0.1055909095955840
  0.3418563699310866  0.0219689402169365  0.6010458778489536
  0.3296197059830774  0.5365435924687318  0.0952783476913197
  0.3417607964132472  0.5239289349054630  0.5991371253521649
  0.5531665737981513  0.1177665432451391  0.1013755358515169
  0.5498737857692220  0.1231796112762282  0.6022434347564882
  0.5456112197231207  0.6270446780386578  0.0982116556373569
  0.5488312939775568  0.6264680954096988  0.6018463565335281
  0.0424306704216875  0.1142316373208700  0.1506091165335377
  0.0497160987569600  0.1244409713756554  0.6517535295947283
  0.0472811192266462  0.6257364894509010  0.1520271876698018
  0.0493265587856158  0.6290101825455565  0.6495300787753777
  0.4565222147414616  0.3753175365774268  0.4013692935617144
  0.4450589852387594  0.3766001081334451  0.8706242545424203
  0.4532517936344433  0.8743144392189137  0.4003663399615007
  0.4516835605883571  0.8741216123802857  0.8964722917607233
  0.9514401925598577  0.3736151470757108  0.3521493476108617
  0.9457771025351676  0.3762369654495359  0.8439967779157271
  0.9523457032925009  0.8752008940710994  0.3508022228794232
  0.9519133336987977  0.8746478514684242  0.8500088638407348
  0.6057087355982276  0.3748697573348494  0.1986510766382352
  0.6026114450710125  0.3750665074257071  0.6856354098577953
  0.5922370550445279  0.8727589616030897  0.1935391610475108
  0.5900710085700140  0.8739552605964462  0.6897386579242522
  0.0780168016527440  0.3844530064670835  0.0519586600726072
  0.0824545197344335  0.3825913563984784  0.5639410813580241
  0.0887309433658672  0.8738879634324661  0.0581235250753522
  0.0904046267120364  0.8759705871639696  0.5581721001663666
  0.4142594591503794  0.1224296944555192  0.3068569281446472
  0.4097791272908609  0.1233768859373114  0.8083675155097367
  0.4107266781022574  0.6256790820408753  0.3069353665205128
  0.4081135867871168  0.6263303773032192  0.8072658117778460
  0.9128958041211064  0.1238361744960912  0.4425880321305797
  0.9066619284417570  0.1237751606155868  0.9421140896632139
  0.9116131444684541  0.6256540974400409  0.4422543921293496
  0.9103379081269836  0.6257780095061847  0.9432440807918283
 
  0.00000000E+00  0.00000000E+00  0.00000000E+00
  0.00000000E+00  0.00000000E+00  0.00000000E+00
  0.00000000E+00  0.00000000E+00  0.00000000E+00
  0.00000000E+00  0.00000000E+00  0.00000000E+00
  0.00000000E+00  0.00000000E+00  0.00000000E+00
  0.00000000E+00  0.00000000E+00  0.00000000E+00
  0.00000000E+00  0.00000000E+00  0.00000000E+00
  0.00000000E+00  0.00000000E+00  0.00000000E+00
  0.00000000E+00  0.00000000E+00  0.00000000E+00
  0.00000000E+00  0.00000000E+00  0.00000000E+00
  0.00000000E+00  0.00000000E+00  0.00000000E+00
  0.00000000E+00  0.00000000E+00  0.00000000E+00
  0.00000000E+00  0.00000000E+00  0.00000000E+00
  0.00000000E+00  0.00000000E+00  0.00000000E+00
  0.00000000E+00  0.00000000E+00  0.00000000E+00
  0.00000000E+00  0.00000000E+00  0.00000000E+00
  0.00000000E+00  0.00000000E+00  0.00000000E+00
  0.00000000E+00  0.00000000E+00  0.00000000E+00
  0.00000000E+00  0.00000000E+00  0.00000000E+00
  0.00000000E+00  0.00000000E+00  0.00000000E+00
  0.00000000E+00  0.00000000E+00  0.00000000E+00
  0.00000000E+00  0.00000000E+00  0.00000000E+00
  0.00000000E+00  0.00000000E+00  0.00000000E+00
  0.00000000E+00  0.00000000E+00  0.00000000E+00
  0.00000000E+00  0.00000000E+00  0.00000000E+00
  0.00000000E+00  0.00000000E+00  0.00000000E+00
  0.00000000E+00  0.00000000E+00  0.00000000E+00
  0.00000000E+00  0.00000000E+00  0.00000000E+00
  0.00000000E+00  0.00000000E+00  0.00000000E+00
  0.00000000E+00  0.00000000E+00  0.00000000E+00
  0.00000000E+00  0.00000000E+00  0.00000000E+00
  0.00000000E+00  0.00000000E+00  0.00000000E+00
  0.00000000E+00  0.00000000E+00  0.00000000E+00
  0.00000000E+00  0.00000000E+00  0.00000000E+00
  0.00000000E+00  0.00000000E+00  0.00000000E+00
  0.00000000E+00  0.00000000E+00  0.00000000E+00
  0.00000000E+00  0.00000000E+00  0.00000000E+00
  0.00000000E+00  0.00000000E+00  0.00000000E+00
  0.00000000E+00  0.00000000E+00  0.00000000E+00
  0.00000000E+00  0.00000000E+00  0.00000000E+00
  0.00000000E+00  0.00000000E+00  0.00000000E+00
  0.00000000E+00  0.00000000E+00  0.00000000E+00
  0.00000000E+00  0.00000000E+00  0.00000000E+00
  0.00000000E+00  0.00000000E+00  0.00000000E+00
  0.00000000E+00  0.00000000E+00  0.00000000E+00
  0.00000000E+00  0.00000000E+00  0.00000000E+00
  0.00000000E+00  0.00000000E+00  0.00000000E+00
  0.00000000E+00  0.00000000E+00  0.00000000E+00
  0.00000000E+00  0.00000000E+00  0.00000000E+00
  0.00000000E+00  0.00000000E+00  0.00000000E+00
  0.00000000E+00  0.00000000E+00  0.00000000E+00
  0.00000000E+00  0.00000000E+00  0.00000000E+00
  0.00000000E+00  0.00000000E+00  0.00000000E+00
  0.00000000E+00  0.00000000E+00  0.00000000E+00
  0.00000000E+00  0.00000000E+00  0.00000000E+00
  0.00000000E+00  0.00000000E+00  0.00000000E+00
  0.00000000E+00  0.00000000E+00  0.00000000E+00
  0.00000000E+00  0.00000000E+00  0.00000000E+00
  0.00000000E+00  0.00000000E+00  0.00000000E+00
  0.00000000E+00  0.00000000E+00  0.00000000E+00
  0.00000000E+00  0.00000000E+00  0.00000000E+00
  0.00000000E+00  0.00000000E+00  0.00000000E+00
  0.00000000E+00  0.00000000E+00  0.00000000E+00
  0.00000000E+00  0.00000000E+00  0.00000000E+00
  0.00000000E+00  0.00000000E+00  0.00000000E+00
  0.00000000E+00  0.00000000E+00  0.00000000E+00
  0.00000000E+00  0.00000000E+00  0.00000000E+00
  0.00000000E+00  0.00000000E+00  0.00000000E+00
  0.00000000E+00  0.00000000E+00  0.00000000E+00
  0.00000000E+00  0.00000000E+00  0.00000000E+00
  0.00000000E+00  0.00000000E+00  0.00000000E+00
  0.00000000E+00  0.00000000E+00  0.00000000E+00
  0.00000000E+00  0.00000000E+00  0.00000000E+00
  0.00000000E+00  0.00000000E+00  0.00000000E+00
  0.00000000E+00  0.00000000E+00  0.00000000E+00
  0.00000000E+00  0.00000000E+00  0.00000000E+00
  0.00000000E+00  0.00000000E+00  0.00000000E+00
  0.00000000E+00  0.00000000E+00  0.00000000E+00
  0.00000000E+00  0.00000000E+00  0.00000000E+00
  0.00000000E+00  0.00000000E+00  0.00000000E+00
  0.00000000E+00  0.00000000E+00  0.00000000E+00
  0.00000000E+00  0.00000000E+00  0.00000000E+00
  0.00000000E+00  0.00000000E+00  0.00000000E+00
  0.00000000E+00  0.00000000E+00  0.00000000E+00
  0.00000000E+00  0.00000000E+00  0.00000000E+00
  0.00000000E+00  0.00000000E+00  0.00000000E+00
  0.00000000E+00  0.00000000E+00  0.00000000E+00
  0.00000000E+00  0.00000000E+00  0.00000000E+00
  0.00000000E+00  0.00000000E+00  0.00000000E+00
  0.00000000E+00  0.00000000E+00  0.00000000E+00
  0.00000000E+00  0.00000000E+00  0.00000000E+00
  0.00000000E+00  0.00000000E+00  0.00000000E+00
  0.00000000E+00  0.00000000E+00  0.00000000E+00
  0.00000000E+00  0.00000000E+00  0.00000000E+00
  0.00000000E+00  0.00000000E+00  0.00000000E+00
  0.00000000E+00  0.00000000E+00  0.00000000E+00
  0.00000000E+00  0.00000000E+00  0.00000000E+00
  0.00000000E+00  0.00000000E+00  0.00000000E+00
  0.00000000E+00  0.00000000E+00  0.00000000E+00
  0.00000000E+00  0.00000000E+00  0.00000000E+00
  0.00000000E+00  0.00000000E+00  0.00000000E+00
  0.00000000E+00  0.00000000E+00  0.00000000E+00
  0.00000000E+00  0.00000000E+00  0.00000000E+00
  0.00000000E+00  0.00000000E+00  0.00000000E+00
  0.00000000E+00  0.00000000E+00  0.00000000E+00
  0.00000000E+00  0.00000000E+00  0.00000000E+00
  0.00000000E+00  0.00000000E+00  0.00000000E+00
  0.00000000E+00  0.00000000E+00  0.00000000E+00
  0.00000000E+00  0.00000000E+00  0.00000000E+00
  0.00000000E+00  0.00000000E+00  0.00000000E+00
  0.00000000E+00  0.00000000E+00  0.00000000E+00
  0.00000000E+00  0.00000000E+00  0.00000000E+00
  0.00000000E+00  0.00000000E+00  0.00000000E+00
  0.00000000E+00  0.00000000E+00  0.00000000E+00
  0.00000000E+00  0.00000000E+00  0.00000000E+00
  0.00000000E+00  0.00000000E+00  0.00000000E+00
  0.00000000E+00  0.00000000E+00  0.00000000E+00
  0.00000000E+00  0.00000000E+00  0.00000000E+00
  0.00000000E+00  0.00000000E+00  0.00000000E+00
  0.00000000E+00  0.00000000E+00  0.00000000E+00
  0.00000000E+00  0.00000000E+00  0.00000000E+00
  0.00000000E+00  0.00000000E+00  0.00000000E+00
  0.00000000E+00  0.00000000E+00  0.00000000E+00
  0.00000000E+00  0.00000000E+00  0.00000000E+00
  0.00000000E+00  0.00000000E+00  0.00000000E+00
  0.00000000E+00  0.00000000E+00  0.00000000E+00
