Li46 P16 O64
1.0
10.646059 -0.003694 -0.001579
-0.004337 12.445044 0.001784
-0.001540 0.001417 10.085180
Li P O
46 16 64
direct
0.654718 0.251710 0.100177 Li
0.665573 0.249088 0.599051 Li
0.662836 0.749270 0.098893 Li
0.663431 0.750636 0.598895 Li
0.166593 0.488769 0.151712 Li
0.163281 0.500877 0.651879 Li
0.166344 0.002228 0.148714 Li
0.164300 0.001369 0.651151 Li
0.338433 0.002559 0.398571 Li
0.337549 0.002388 0.904977 Li
0.339714 0.497125 0.395252 Li
0.335234 0.495945 0.907377 Li
0.836893 0.247640 0.349703 Li
0.833928 0.249510 0.850961 Li
0.838159 0.748958 0.348790 Li
0.837452 0.749033 0.849599 Li
0.337968 0.253185 0.379836 Li
0.333103 0.257062 0.915529 Li
0.337587 0.749015 0.398930 Li
0.336837 0.749418 0.903475 Li
0.838556 0.001640 0.347426 Li
0.837210 0.001179 0.848989 Li
0.837136 0.499540 0.348084 Li
0.834104 0.500769 0.851767 Li
0.655033 0.495419 0.098059 Li
0.665524 0.500556 0.598890 Li
0.661933 0.996408 0.097629 Li
0.664115 0.999264 0.599746 Li
0.163731 0.253874 0.647286 Li
0.163736 0.750903 0.151521 Li
0.164341 0.752322 0.650793 Li
0.931028 0.366629 0.152234 Li
0.922130 0.376246 0.650800 Li
0.926075 0.875986 0.149055 Li
0.927657 0.876061 0.648760 Li
0.429606 0.372853 0.605476 Li
0.429361 0.875863 0.102876 Li
0.426136 0.876129 0.600155 Li
0.078440 0.133417 0.338373 Li
0.075096 0.130963 0.858715 Li
0.075266 0.621928 0.349770 Li
0.074444 0.623648 0.852583 Li
0.573465 0.126673 0.399096 Li
0.569946 0.127239 0.902625 Li
0.573385 0.622407 0.399264 Li
0.569974 0.622649 0.899307 Li
0.907506 0.120254 0.097974 P
0.912921 0.123841 0.597553 P
0.910089 0.625177 0.098796 P
0.911793 0.627609 0.597362 P
0.412912 0.120785 0.150369 P
0.411287 0.124890 0.653600 P
0.407561 0.629838 0.151214 P
0.410295 0.625853 0.652389 P
0.088336 0.374287 0.408864 P
0.083446 0.378290 0.900097 P
0.090435 0.875355 0.402748 P
0.089489 0.875099 0.903383 P
0.594897 0.375001 0.350544 P
0.586470 0.375488 0.840344 P
0.591008 0.873904 0.348346 P
0.589305 0.874078 0.844942 P
0.834364 0.017215 0.144988 O
0.843052 0.020546 0.647719 O
0.838242 0.524175 0.149387 O
0.841160 0.526877 0.650659 O
0.344152 0.216912 0.094536 O
0.343703 0.227330 0.601833 O
0.344242 0.738159 0.107430 O
0.341507 0.728951 0.600620 O
0.158452 0.270078 0.373758 O
0.153997 0.276056 0.849509 O
0.158524 0.771444 0.353401 O
0.159473 0.772782 0.851927 O
0.662308 0.478540 0.405471 O
0.654012 0.478047 0.896770 O
0.660971 0.976085 0.399762 O
0.659274 0.976299 0.895330 O
0.159066 0.475566 0.353927 O
0.154610 0.479933 0.845778 O
0.161197 0.976480 0.351340 O
0.159031 0.977861 0.853389 O
0.662218 0.271878 0.405823 O
0.653250 0.273360 0.897891 O
0.660048 0.770990 0.399646 O
0.658777 0.771322 0.896120 O
0.838226 0.222502 0.150626 O
0.841703 0.225061 0.649150 O
0.840772 0.729028 0.148149 O
0.842111 0.730958 0.646513 O
0.346759 0.013033 0.105591 O
0.341856 0.021969 0.601046 O
0.329620 0.536544 0.095278 O
0.341761 0.523929 0.599137 O
0.553167 0.117767 0.101376 O
0.549874 0.123180 0.602243 O
0.545611 0.627045 0.098212 O
0.548831 0.626468 0.601846 O
0.042431 0.114232 0.150609 O
0.049716 0.124441 0.651754 O
0.047281 0.625736 0.152027 O
0.049327 0.629010 0.649530 O
0.456522 0.375318 0.401369 O
0.445059 0.376600 0.870624 O
0.453252 0.874314 0.400366 O
0.451684 0.874122 0.896472 O
0.951440 0.373615 0.352149 O
0.945777 0.376237 0.843997 O
0.952346 0.875201 0.350802 O
0.951913 0.874648 0.850009 O
0.605709 0.374870 0.198651 O
0.602611 0.375067 0.685635 O
0.592237 0.872759 0.193539 O
0.590071 0.873955 0.689739 O
0.078017 0.384453 0.051959 O
0.082455 0.382591 0.563941 O
0.088731 0.873888 0.058124 O
0.090405 0.875971 0.558172 O
0.414259 0.122430 0.306857 O
0.409779 0.123377 0.808368 O
0.410727 0.625679 0.306935 O
0.408114 0.626330 0.807266 O
0.912896 0.123836 0.442588 O
0.906662 0.123775 0.942114 O
0.911613 0.625654 0.442254 O
0.910338 0.625778 0.943244 O
