Mg7 Mn16 O32
1.0
8.174582 0.000069 -0.000332
0.000087 9.358195 0.000109
-0.000321 0.000048 8.174681
Mg Mn O
7 16 32
direct
0.379483 0.872789 0.370515 Mg
0.379659 0.377087 0.879645 Mg
0.870354 0.377078 0.370344 Mg
0.870509 0.872769 0.879491 Mg
0.624997 0.125092 0.625002 Mg
0.125008 0.624986 0.624990 Mg
0.124998 0.125094 0.124995 Mg
0.001235 0.250976 0.748771 Mn
0.997960 0.750661 0.249523 Mn
0.497576 0.250261 0.252423 Mn
0.500468 0.750656 0.752037 Mn
0.248819 0.999133 0.748831 Mn
0.252021 0.499241 0.249594 Mn
0.752368 0.999624 0.252376 Mn
0.749611 0.499255 0.752001 Mn
0.248756 0.250978 0.501245 Mn
0.252041 0.750647 0.000471 Mn
0.752409 0.250270 0.997592 Mn
0.749521 0.750656 0.497961 Mn
0.001179 0.999135 0.501180 Mn
0.997990 0.499252 0.000387 Mn
0.497627 0.999599 0.997638 Mn
0.500405 0.499248 0.497972 Mn
0.238015 0.998819 0.511983 O
0.238035 0.503865 0.012774 O
0.737375 0.015254 0.012618 O
0.737213 0.503870 0.511950 O
0.011942 0.251073 0.511961 O
0.012139 0.746225 0.012800 O
0.512615 0.234049 0.012635 O
0.512786 0.746233 0.512133 O
0.011978 0.998798 0.738022 O
0.011975 0.503857 0.237212 O
0.512595 0.015306 0.237415 O
0.512797 0.503855 0.738016 O
0.238047 0.251073 0.738058 O
0.237862 0.746230 0.237214 O
0.737396 0.234015 0.237407 O
0.737206 0.746225 0.737855 O
0.763910 0.002571 0.488060 O
0.765893 0.463518 0.984103 O
0.261947 0.002564 0.986098 O
0.263020 0.498742 0.486973 O
0.986832 0.751154 0.486829 O
0.988164 0.247667 0.985952 O
0.484166 0.787014 0.984163 O
0.485942 0.247664 0.488163 O
0.988054 0.002571 0.263914 O
0.986994 0.498724 0.762999 O
0.486106 0.002590 0.761957 O
0.484122 0.463459 0.265872 O
0.765821 0.787065 0.265833 O
0.764044 0.247656 0.761831 O
0.263156 0.751152 0.763157 O
0.261836 0.247669 0.264060 O
