Mg7 Sc16 Se32
1.0
11.246865 0.000010 -0.000038
0.000010 11.246881 0.000114
-0.000038 0.000205 11.246419
Mg Sc Se
7 16 32
direct
0.407737 0.407772 0.407793 Mg
0.624725 0.125288 0.125287 Mg
0.125270 0.624711 0.125288 Mg
0.125270 0.125285 0.624713 Mg
0.376778 0.873194 0.873173 Mg
0.873185 0.376793 0.873158 Mg
0.873186 0.873214 0.376835 Mg
-0.005489 0.749318 0.749348 Sc
0.749326 -0.005646 0.749348 Sc
0.749358 0.749347 -0.005436 Sc
-0.000504 -0.000502 -0.000500 Sc
0.000272 0.250674 0.250669 Sc
0.250662 0.000280 0.250663 Sc
0.250664 0.250663 0.000272 Sc
0.748574 0.500501 0.255604 Sc
0.748537 0.255817 0.500477 Sc
-0.004744 0.500523 0.500495 Sc
0.255810 0.500477 0.748633 Sc
0.255787 0.748566 0.500429 Sc
0.500457 0.748608 0.255563 Sc
0.500493 -0.004721 0.500432 Sc
0.500502 0.255641 0.748617 Sc
0.500463 0.500444 -0.004623 Sc
0.757768 0.993030 0.993057 Se
0.993044 0.757775 0.993060 Se
0.993032 0.993024 0.757766 Se
0.758307 0.758244 0.758348 Se
0.242537 0.007350 0.007338 Se
0.007344 0.242538 0.007332 Se
0.007344 0.007352 0.242557 Se
0.242504 0.242504 0.242512 Se
0.758546 0.491785 0.491669 Se
0.992759 0.256965 0.492260 Se
0.992781 0.492244 0.256924 Se
0.758026 0.256955 0.256923 Se
0.240889 0.507275 0.507291 Se
0.009002 0.742919 0.507228 Se
0.009007 0.507194 0.742883 Se
0.240936 0.742863 0.742867 Se
0.256942 0.992785 0.492245 Se
0.491753 0.758568 0.491648 Se
0.492226 0.992805 0.256895 Se
0.256926 0.758043 0.256900 Se
0.742871 0.009000 0.507225 Se
0.507234 0.240896 0.507282 Se
0.507222 0.008952 0.742877 Se
0.742893 0.240884 0.742874 Se
0.256928 0.492234 0.992818 Se
0.492230 0.256915 0.992820 Se
0.491772 0.491697 0.758631 Se
0.256947 0.256929 0.758030 Se
0.742868 0.507212 0.008969 Se
0.507204 0.742866 0.008955 Se
0.507231 0.507287 0.240903 Se
0.742859 0.742913 0.240926 Se
