Li7 Mn16 O32                            
   1.00000000000000     
     8.1529469999999993    0.0000740000000000   -0.0000900000000000
     0.0000740000000000    8.1529209999999992   -0.0000800000000000
    -0.0000900000000000   -0.0000800000000000    8.1529229999999995
   Li   Mn   O 
     7    16    32
Direct
  0.2500129965994088  0.4999871261844068  0.7500131975074339
  0.8771578585631317  0.8728463768197201  0.8733522898407573
  0.1266467612712295  0.1271564879549024  0.1228431830703540
  0.8771575038174853  0.3766479999910875  0.3771537387886958
  0.3733557322077916  0.8728466464964690  0.3771538791512815
  0.6228395661631521  0.1271564990909185  0.6266502048131991
  0.6228392516086583  0.6233490642934389  0.1228433126526540
  0.5001896115040813  0.2498097920885954  0.2479208499834949
  0.2499995053328526  0.5000001383451489  0.2500009758308599
  0.2500000523478043  0.2487630904574573  0.4987620285666145
  0.5012363497246769  0.4999978975454867  0.4987600785587355
  0.5012369368205160  0.7512399478167859  0.7500016835433507
  0.7500009867027081  0.5000015132527901  0.7499988134905927
  0.7520819854586431  0.7501911165623413  0.4998093993009372
  0.2499996302490381  0.9999996612289094  0.7500003133058730
  0.2499996653189692  0.7512385346678371  1.0012374210756947
  0.5001895838476493  0.0020792899837018  0.0001902672720302
  0.7499990378937307  0.0000003149325562  0.2500002742092402
  0.7479179390942787  0.2498093866771601  0.0001908728019136
 -0.0012365442484126  0.2487611998360264  0.7499972849002721
 -0.0012369230741392  0.5000028712921073  1.0012388981797156
  0.9998100882688029  0.7501895703860527  0.2520791554866783
  0.9998094872156539  0.9979209440274448  0.4998104507390403
  0.7375244053925232  0.0124757814564998  0.0128958348393927
  0.0126180429044774  0.7373815088237516  0.0140388078549842
  0.0129486519092702  0.0118223622592799  0.7366966672847763
  0.7381785292512268  0.7370526534454721  0.7366971618754277
  0.2633020725985180  0.9881787886364217  0.9870511674140638
  0.9859614526877599  0.2626180506583505  0.9873815923457425
  0.9871043029556611  0.9875241677788765  0.2624766942940091
  0.2633015456836560  0.2629479182924432  0.2618218639415606
  0.7381783891948819  0.5133021268734964  0.5129482236057507
  0.0126183373429727  0.2359620315146419  0.5126192845651970
  0.0129486108886193  0.5133022689655132  0.2381767568080281
  0.7375241854044761  0.2371047045165394  0.2375232315919878
  0.2657874764823266  0.4842137035117908  0.4888188773120789
  0.9850975766515894  0.7649018797499042  0.4850980475623738
  0.9888167776365057  0.4842123335186798  0.7657883858570396
  0.2657868702483545  0.7611804900497718  0.7657863218607081
  0.2366977433292330  0.0118210399693092  0.5129479599605758
  0.5140379358159022  0.7373828728847827  0.5126176384715490
  0.5128972480367348  0.0124768665716503  0.2375221802544720
  0.2366981893960921  0.7370527478700425  0.2381781896170903
  0.7624756919178721  0.9875250254422608  0.4871039123351037
  0.4873814281381583  0.2626193171526118  0.4859608838872162
  0.4870508918597494  0.9881778345625177  0.7633025802678388
  0.7618211693898616  0.2629478587249996  0.7633020416216927
  0.2342120229486775  0.5157865906715574  0.0111811601922567
  0.5149017711279237  0.2350990913098991  0.0149008801280857
  0.5111830770181683  0.5157877713877890  0.7342116398206376
  0.2342125104811237  0.2388195297333723  0.7342134232106131
  0.7618214071239635  0.4866983583211192  0.9870513558825785
  0.4873812250837612  0.7640382160234316  0.9873798585605218
  0.4870508581302719  0.4866982405280209  0.2618231831623548
  0.7624754120228810  0.7628945271250570  0.2624754922959434
 
             NaN             NaN             NaN
             NaN             NaN             NaN
             NaN             NaN             NaN
             NaN             NaN             NaN
             NaN             NaN             NaN
             NaN             NaN             NaN
             NaN             NaN             NaN
             NaN             NaN             NaN
             NaN             NaN             NaN
             NaN             NaN             NaN
             NaN             NaN             NaN
             NaN             NaN             NaN
             NaN             NaN             NaN
             NaN             NaN             NaN
             NaN             NaN             NaN
             NaN             NaN             NaN
             NaN             NaN             NaN
             NaN             NaN             NaN
             NaN             NaN             NaN
             NaN             NaN             NaN
             NaN             NaN             NaN
             NaN             NaN             NaN
             NaN             NaN             NaN
             NaN             NaN             NaN
             NaN             NaN             NaN
             NaN             NaN             NaN
             NaN             NaN             NaN
             NaN             NaN             NaN
             NaN             NaN             NaN
             NaN             NaN             NaN
             NaN             NaN             NaN
             NaN             NaN             NaN
             NaN             NaN             NaN
             NaN             NaN             NaN
             NaN             NaN             NaN
             NaN             NaN             NaN
             NaN             NaN             NaN
             NaN             NaN             NaN
             NaN             NaN             NaN
             NaN             NaN             NaN
             NaN             NaN             NaN
             NaN             NaN             NaN
             NaN             NaN             NaN
             NaN             NaN             NaN
             NaN             NaN             NaN
             NaN             NaN             NaN
             NaN             NaN             NaN
             NaN             NaN             NaN
             NaN             NaN             NaN
             NaN             NaN             NaN
             NaN             NaN             NaN
             NaN             NaN             NaN
             NaN             NaN             NaN
             NaN             NaN             NaN
             NaN             NaN             NaN
