Li7 Mn16 O32
1.0
8.152947 0.000074 -0.000090
0.000074 8.152921 -0.000080
-0.000090 -0.000080 8.152923
Li Mn O
7 16 32
direct
0.250013 0.499987 0.750014 Li
0.876336 0.873661 0.873666 Li
0.126352 0.126353 0.123648 Li
0.876336 0.376334 0.376339 Li
0.373663 0.873662 0.376339 Li
0.623651 0.126352 0.626349 Li
0.623649 0.623650 0.123648 Li
0.500014 0.249985 0.249090 Mn
0.249999 0.500001 0.250001 Mn
0.249999 0.250901 0.500899 Mn
0.499102 0.500001 0.500899 Mn
0.499102 0.749103 0.750000 Mn
0.750002 0.500001 0.750000 Mn
0.750911 0.750012 0.499989 Mn
0.250000 -0.000002 0.750000 Mn
0.250000 0.749100 0.999100 Mn
0.500013 0.000910 1.000014 Mn
0.749998 1.000002 0.249999 Mn
0.749087 0.249986 1.000014 Mn
0.000898 0.250900 0.749999 Mn
0.000899 0.500001 0.999100 Mn
0.999990 0.750011 0.250911 Mn
0.999987 0.999088 0.499987 Mn
0.737337 0.012662 0.012949 O
0.012958 0.737043 0.013034 O
0.012957 0.012747 0.736758 O
0.737252 0.737042 0.736756 O
0.263245 0.987253 0.987038 O
0.986971 0.262960 0.987037 O
0.987052 0.987335 0.262664 O
0.263243 0.262960 0.262749 O
0.737253 0.513243 0.512958 O
0.012957 0.236968 0.512959 O
0.012957 0.513243 0.237253 O
0.737335 0.237052 0.237335 O
0.264293 0.485708 0.485922 O
0.986003 0.763996 0.486002 O
0.985922 0.485709 0.764291 O
0.264294 0.764080 0.764292 O
0.236758 0.012747 0.512959 O
0.513033 0.737043 0.512958 O
0.512949 0.012663 0.237336 O
0.236756 0.737042 0.237252 O
0.762664 0.987335 0.487051 O
0.487038 0.262960 0.486970 O
0.487040 0.987254 0.763244 O
0.762748 0.262960 0.763242 O
0.235708 0.514292 0.014082 O
0.513999 0.236001 0.014000 O
0.514082 0.514293 0.735708 O
0.235707 0.235918 0.735707 O
0.762747 0.486758 0.987038 O
0.487039 0.763030 0.987038 O
0.487039 0.486757 0.262747 O
0.762666 0.762949 0.262666 O
