Li7 Mn16 O32                            
   1.00000000000000     
     8.7309129999999993   -0.0181090000000000    0.0167910000000000
    -0.0169830000000000    8.2138749999999998   -0.0342670000000000
     0.0182250000000000   -0.0308360000000000    8.2138139999999993
   Li   Mn   O 
     7    16    32
Direct
  0.2011958076720509  0.5513932850654801  0.6986093086452390
  0.3623410714016074  0.8741739689073145  0.3758271189980419
  0.8658152070985344  0.8709146764401086  0.8717928095545464
  0.1394104028974812  0.1257067708814483  0.1242941286539106
  0.8658139216953521  0.3782058498512027  0.3790863505508563
  0.6337746643218853  0.1250740362981502  0.6248371523870747
  0.6337732628246218  0.6251624631610052  0.1249269787388310
  0.5055233747993553  0.2522843000947421  0.2493921376768835
  0.2501175225813891  0.4989766412293667  0.2475070570397979
  0.2511029388037155  0.2477638278242957  0.4986266080499023
  0.5008426863169465  0.5012987406187096  0.4988223559267496
  0.5008409954147430  0.7511810639304689  0.7487010383429826
  0.7446066998966643  0.4986199366202825  0.7513791622208249
  0.7519682607048866  0.7491826904206305  0.5008180910311497
  0.2501197506286818  0.0024952986243395  0.7510260786061326
  0.2511037416214661  0.7513757097388819  0.0022373474366867
  0.5055156100237437  0.0006071251455106  0.9977128048643883
  0.7528897788308287  0.9991743732939793  0.2508342879460678
  0.7504916392440871  0.2485627916365351  0.0014386008688080
  0.9946676725935732  0.2457339170464868  0.7490416091117013
  0.9946670039870612  0.5009590620524179  0.0042709947501718
  0.0001927808171511  0.7505045694154936  0.2516563652086060
  0.0001900560742714  0.9983402284440490  0.4994909563812414
  0.7316522727399555  0.0132391608130153  0.0114690253201148
  0.9953729635135065  0.7333328553295050  0.0147718933299180
  0.9953609229356437  0.0120819128949226  0.7345033364785211
  0.7246076545008852  0.7366248677751084  0.7384582407971624
  0.2812886037268735  0.9929548389927226  0.9884809412841872
  0.9773137808721064  0.2582293771163245  0.9917703561516608
  0.0043996836616761  0.9859354120890977  0.2640625742751209
  0.2812870408709101  0.2615195430244504  0.2570476026160318
  0.7246070265586670  0.5115431191450359  0.5133742911049149
  0.9953723250705476  0.2352267798027144  0.5166675567792334
  0.9953594721465127  0.5154997032295414  0.2379195569875046
  0.7316588385690472  0.2385311664623864  0.2367536365663418
  0.2782262199378518  0.4836282335225423  0.4865231749156130
  0.0006898753985826  0.7675513925809085  0.4824508639127834
  0.9977608067767071  0.4798308966562041  0.7701678391620379
  0.2782248788883225  0.7634779271186559  0.7663717090876692
  0.2245468341250396  0.0123610608078741  0.5123657168186209
  0.4990375815108422  0.7368849892987657  0.5131177781511916
  0.5017575920597606  0.0169134545185928  0.2330868446279596
  0.2245474278758249  0.7376336343051678  0.2376390912163960
  0.7759358208866192  0.9880324852053939  0.4876042968070200
  0.5041712311588160  0.2644678400508626  0.4819809278502163
  0.5043008671379452  0.9868731482756827  0.7640482839561450
  0.7681364266138512  0.2598607206247319  0.7663738385177792
  0.2142921787317592  0.5128619990718636  0.0120325657921128
  0.5286039504088846  0.2377906568487638  0.0122093163798457
  0.4941493867381422  0.5199883192127422  0.7300119604859275
  0.2142923366013653  0.2379679398638518  0.7371372604621922
  0.7681356993314480  0.4836269584034915  0.9901408912315025
  0.5041709765320646  0.7680166863426118  0.9855318930216361
  0.5043013603927121  0.4859499526852872  0.2631280426310921
  0.7759271853894767  0.7623937328489520  0.2619689097554886
 
             NaN             NaN             NaN
             NaN             NaN             NaN
             NaN             NaN             NaN
             NaN             NaN             NaN
             NaN             NaN             NaN
             NaN             NaN             NaN
             NaN             NaN             NaN
             NaN             NaN             NaN
             NaN             NaN             NaN
             NaN             NaN             NaN
             NaN             NaN             NaN
             NaN             NaN             NaN
             NaN             NaN             NaN
             NaN             NaN             NaN
             NaN             NaN             NaN
             NaN             NaN             NaN
             NaN             NaN             NaN
             NaN             NaN             NaN
             NaN             NaN             NaN
             NaN             NaN             NaN
             NaN             NaN             NaN
             NaN             NaN             NaN
             NaN             NaN             NaN
             NaN             NaN             NaN
             NaN             NaN             NaN
             NaN             NaN             NaN
             NaN             NaN             NaN
             NaN             NaN             NaN
             NaN             NaN             NaN
             NaN             NaN             NaN
             NaN             NaN             NaN
             NaN             NaN             NaN
             NaN             NaN             NaN
             NaN             NaN             NaN
             NaN             NaN             NaN
             NaN             NaN             NaN
             NaN             NaN             NaN
             NaN             NaN             NaN
             NaN             NaN             NaN
             NaN             NaN             NaN
             NaN             NaN             NaN
             NaN             NaN             NaN
             NaN             NaN             NaN
             NaN             NaN             NaN
             NaN             NaN             NaN
             NaN             NaN             NaN
             NaN             NaN             NaN
             NaN             NaN             NaN
             NaN             NaN             NaN
             NaN             NaN             NaN
             NaN             NaN             NaN
             NaN             NaN             NaN
             NaN             NaN             NaN
             NaN             NaN             NaN
             NaN             NaN             NaN
