Li7 Mn16 O32                            
   1.00000000000000     
     8.7309129999999993   -0.0181090000000000    0.0167910000000000
    -0.0169830000000000    8.2138749999999998   -0.0342670000000000
     0.0182250000000000   -0.0308360000000000    8.2138139999999993
   Li   Mn   O 
     7    16    32
Direct
  0.2014403220578818  0.5510518529230051  0.6989499135514300
  0.3622904836763214  0.8741266625250773  0.3758742154493829
  0.8657815684106123  0.8711215966347896  0.8718008000057541
  0.1393633365131972  0.1257612291815722  0.1242397542198501
  0.8657815593938398  0.3781986395319102  0.3788789402223236
  0.6337444794832544  0.1250115008361346  0.6248391014084304
  0.6337442935406667  0.6251613422132298  0.1249889682090222
  0.5054073373217737  0.2522877662131582  0.2494103304893691
  0.2500864844218308  0.4989831940989229  0.2474732418306363
  0.2511469049600666  0.2478753289223204  0.4987225586971925
  0.5009936428830466  0.5013591576563803  0.4988161458041203
  0.5009954229242448  0.7511859378494831  0.7486414613607975
  0.7446841530650586  0.4986769517312262  0.7513194951305417
  0.7520983749534454  0.7492199230651483  0.5007775143647112
  0.2500869769141523  0.0025271302304309  0.7510169916236080
  0.2511477123867081  0.7512780630209058  1.0021256578916675
  0.5054060992057918  1.0005903569101280  0.9977129290395452
  0.7527972872568972  0.9991872575446069  0.2508140670406173
  0.7502104223011132  0.2486227826378545  0.0013788695302481
  0.9945553618666344  0.2457572987137823  0.7490429299872527
  0.9945546830835379  0.5009576805750970  0.0042429838923345
  0.0002367535430867  0.7506268030807541  0.2515781441832864
  0.0002364088807887  0.9984227957239726  0.4993731807260006
  0.7314771015146356  0.0132954697252192  0.0114691471919936
  0.9953884542921418  0.7333598124677085  0.0146539684464361
  0.9952926126717948  0.0121454630094408  0.7344172889537239
  0.7247134200359673  0.7367247064728771  0.7383868544208081
  0.2811841909754115  0.9928839872164068  0.9884331418335904
  0.9770893396668648  0.2582294026224343  0.9917715108781051
  0.0044365164713856  0.9860351998477802  0.2639635341441540
  0.2811846599597837  0.2615691378337767  0.2571176075683775
  0.7247133164704435  0.5116128076430729  0.5132736437482989
  0.9953874942871311  0.2353463973617282  0.5166390080332989
  0.9952925523771327  0.5155840280079675  0.2378552306409645
  0.7314760865427508  0.2385311956446992  0.2367063201203393
  0.2782890612950175  0.4836835059061715  0.4865786763923155
  0.0007841454943701  0.7676817984872842  0.4823192511836221
  0.9976848022517120  0.4798364971888908  0.7701618004648122
  0.2782890222339964  0.7634232997409286  0.7663164075838755
  0.2245766280074678  0.0124808499097591  0.5124401819319495
  0.4991878964824784  0.7369032833812004  0.5130963111052983
  0.5015790894107772  0.0169080432858263  0.2330939872830218
  0.2245766293459338  0.7375591376384510  0.2375207904342803
  0.7759726927464098  0.9881205745302207  0.4875079715579059
  0.5041574600256430  0.2644616200414467  0.4819847121332105
  0.5042971260804698  0.9868793513271588  0.7640844991699844
  0.7680053802201041  0.2599514662766143  0.7662880585683630
  0.2141563655223636  0.5127225671422772  0.0119481070857701
  0.5283911180803986  0.2377676097757152  0.0122329017066647
  0.4942685606018838  0.5200142693477362  0.7299884081269288
  0.2141553970820601  0.2380512149319058  0.7372789345333784
  0.7680056019132094  0.4837114929640167  0.9900479163671463
  0.5041555578875032  0.7680149871513522  0.9855400043062962
  0.5042973095658807  0.4859158951880310  0.2631211284031226
  0.7759732111241272  0.7624904686896269  0.2618794023745437
 
             NaN             NaN             NaN
             NaN             NaN             NaN
             NaN             NaN             NaN
             NaN             NaN             NaN
             NaN             NaN             NaN
             NaN             NaN             NaN
             NaN             NaN             NaN
             NaN             NaN             NaN
             NaN             NaN             NaN
             NaN             NaN             NaN
             NaN             NaN             NaN
             NaN             NaN             NaN
             NaN             NaN             NaN
             NaN             NaN             NaN
             NaN             NaN             NaN
             NaN             NaN             NaN
             NaN             NaN             NaN
             NaN             NaN             NaN
             NaN             NaN             NaN
             NaN             NaN             NaN
             NaN             NaN             NaN
             NaN             NaN             NaN
             NaN             NaN             NaN
             NaN             NaN             NaN
             NaN             NaN             NaN
             NaN             NaN             NaN
             NaN             NaN             NaN
             NaN             NaN             NaN
             NaN             NaN             NaN
             NaN             NaN             NaN
             NaN             NaN             NaN
             NaN             NaN             NaN
             NaN             NaN             NaN
             NaN             NaN             NaN
             NaN             NaN             NaN
             NaN             NaN             NaN
             NaN             NaN             NaN
             NaN             NaN             NaN
             NaN             NaN             NaN
             NaN             NaN             NaN
             NaN             NaN             NaN
             NaN             NaN             NaN
             NaN             NaN             NaN
             NaN             NaN             NaN
             NaN             NaN             NaN
             NaN             NaN             NaN
             NaN             NaN             NaN
             NaN             NaN             NaN
             NaN             NaN             NaN
             NaN             NaN             NaN
             NaN             NaN             NaN
             NaN             NaN             NaN
             NaN             NaN             NaN
             NaN             NaN             NaN
             NaN             NaN             NaN
