Li47 P16 O64                            
   1.00000000000000     
    10.6192890000000002   -0.0025430000000000   -0.0095960000000000
    -0.0029400000000000   12.3545599999999993   -0.0037940000000000
    -0.0090230000000000   -0.0030340000000000   10.0294240000000006
   Li   P    O 
    47    16    64
Direct
  0.4765678475251887  0.3233581965080417  0.0833752550588699
  0.6632857215682789  0.2526262086836152  0.6022266592891138
  0.6632757281008650  0.7511372017277256  0.0986854616307452
  0.6636267434387068  0.7520794366372628  0.5996881269654112
  0.1651551916419204  0.4977877011651993  0.1505177299241942
  0.1643511612631288  0.4991216697283978  0.6509099358556225
  0.1629621728136193  0.9949531553293081  0.1522676551031321
  0.1637227863525241  0.9988094625164313  0.6510955571898317
  0.3363690914810591  0.0003646223619755  0.4018115878064197
  0.3374293522502576  0.0002704143840031  0.9021781494453005
  0.3385850288840971  0.5001265099114689  0.3960893659272817
  0.3391908338397613  0.4972053495658770  0.9083361748928969
  0.8327842765702772  0.2490277552796967  0.3437622521183897
  0.8357247305718133  0.2487676992565628  0.8560537226559000
  0.8365880506981777  0.7488130562335484  0.3492080667501563
  0.8366613622008725  0.7489730851029432  0.8493912583081371
  0.3375082983196077  0.2500704894965824  0.3989597898285811
  0.3336299785556319  0.2480091226565422  0.8972694037144535
  0.3373185736858422  0.7491665367210699  0.4000089730732408
  0.3372199283175134  0.7492198694662272  0.9028289996817354
  0.8371617060587371  0.0021636317174279  0.3484327660860564
  0.8373908166710944  0.0020996995970406  0.8503170380533092
  0.8348911064092143  0.5006096601295406  0.3501671464607717
  0.8361206724228126  0.5003755735995771  0.8500322484142058
  0.6612989711332348  0.4958555248016815  0.0979382611514440
  0.6632532426921421  0.5021357875236374  0.6000019223259155
  0.6660386956462693  0.0044984108668067  0.1016720272902380
  0.6635026935775827  0.0010339257107840  0.5992955127351338
  0.1643366705134969  0.2504373271233284  0.1492465477809545
  0.1628730068541975  0.2504826430380163  0.6501169277956048
  0.1647925538697454  0.7505633655536804  0.1508737891725525
  0.1637501836076692  0.7510242147094789  0.6517011028244483
  0.9223234770628379  0.3733999777779231  0.1477284559207824
  0.9254206530611405  0.3740910496265227  0.6489818321621671
  0.9253393033620790  0.8757383557895664  0.1491280084952906
  0.9254620089235136  0.8756767144912360  0.6492893746616938
  0.4245671788024638  0.3763997480819157  0.5984532060299815
  0.4286139937065443  0.8755901120699696  0.1015641079183245
  0.4268668301992119  0.8754122039674235  0.6015017645429156
  0.0739870621470339  0.1255566427745142  0.3481365902080880
  0.0740700011566619  0.1245905912065182  0.8524387083005506
  0.0741851168749216  0.6239532380258516  0.3505358401931834
  0.0752425624184508  0.6240012435187551  0.8520450292888589
  0.5746048501972152  0.1290433537019594  0.3951014699047118
  0.5782418595969783  0.1298334504305592  0.9067490815798749
  0.5739408151432493  0.6247203457756361  0.3998062918870902
  0.5731425153308309  0.6239110096012527  0.8989508050817938
  0.9161969951602446  0.1250915190946114  0.0984255854445620
  0.9119096263330387  0.1251905648611756  0.5967967221820337
  0.9110698612067623  0.6252505268044920  0.0972733598250276
  0.9118558846407988  0.6253724094934204  0.5974682497704363
  0.4076637834529879  0.1181226404851426  0.1525744967002529
  0.4111512223584896  0.1245763979941902  0.6533994596687152
  0.4102677531315465  0.6279903904145514  0.1519187954418738
  0.4101909586502222  0.6261806323292937  0.6537378070017824
  0.0883537931447107  0.3755491715766456  0.4032861950008759
  0.0882685920504357  0.3750885977546424  0.9028234043254556
  0.0883785062076021  0.8742230480226201  0.4044625417859981
  0.0887271316367520  0.8741007913684281  0.9031653060087896
  0.5898106429922940  0.3776905219830246  0.3508114604554446
  0.5897984440955945  0.3740785433085532  0.8398852021619138
  0.5901937358874749  0.8757001528717075  0.3473655364525958
  0.5903074297900074  0.8757319238261064  0.8469314305944808
  0.8449092648806247  0.0218273665285739  0.1494745132422580
  0.8417755712699010  0.0219263072927256  0.6479336123892782
  0.8405464375440203  0.5227395636672344  0.1482227421898072
  0.8422642754049011  0.5225781182300357  0.6493107952902294
  0.3377503211021087  0.2203116751403371  0.0976806555152617
  0.3400184127772246  0.2273282111304136  0.6025970152639535
  0.3437352819510623  0.7348373578918931  0.1051188312040520
  0.3406943084907720  0.7299937197397922  0.6032028290982094
  0.1578964147435716  0.2723948680733624  0.3514606985444286
  0.1571766854585029  0.2716315403215079  0.8508131817574116
  0.1582962148212906  0.7711496357765039  0.3531441159864737
  0.1589371230188493  0.7710096295136905  0.8522521104853570
  0.6593293972667997  0.4807889325834169  0.4056322227403384
  0.6583686913651140  0.4772478125160066  0.8948017940234323
  0.6595406987871174  0.9791361270460911  0.3987002872916393
  0.6608911833931888  0.9780277547976867  0.8988188778939430
  0.1589245863861312  0.4785244619222756  0.3524258588958005
  0.1591178853128083  0.4776340897911147  0.8513008722225945
  0.1583497313236608  0.9772734303595355  0.3541225830981917
  0.1591546915804146  0.9770408922450970  0.8523850204909815
  0.6593114988824690  0.2743938824414765  0.4030538138224743
  0.6596667051784713  0.2698340206664810  0.8801383709167271
  0.6600014427746833  0.7725533321674759  0.3991254438321535
  0.6594043481498747  0.7716858624419248  0.8970607029627605
  0.8550305193208451  0.2285291352931236  0.1525531122991000
  0.8431067372490034  0.2281504020052368  0.6486443682147606
  0.8414760560085939  0.7288626110775973  0.1478842131596327
  0.8417483925814004  0.7286247536816143  0.6482105606061060
  0.3369051820005092  0.0140040550620369  0.1055317472845876
  0.3412021126536895  0.0209841081840442  0.6022419743991771
  0.3349021307279030  0.5302938416515381  0.0986109838968079
  0.3403042359725932  0.5239946983238145  0.6000108286175038
  0.5433150280101403  0.1190786371429226  0.0993258295223938
  0.5484268690747258  0.1252365090722830  0.5998004048561317
  0.5482117059090049  0.6266079880567131  0.0986124155611224
  0.5484746818205992  0.6278266364420041  0.6025702051840032
  0.0565352143986579  0.1197457224919343  0.1460194621088433
  0.0502367815920179  0.1240305803553131  0.6491057603152526
  0.0491520324963892  0.6251883568754175  0.1496360922501994
  0.0500234365291361  0.6256046981058913  0.6496320575772645
  0.4514338317451654  0.3755654202659086  0.4039465295963537
  0.4527979777872510  0.3709115009424533  0.8966357259993027
  0.4520600121896832  0.8750791335221229  0.3993756269338287
  0.4520825166833614  0.8753322372853303  0.8982812376664018
  0.9500491123042755  0.3767028136646537  0.3528165713066932
  0.9501732151921062  0.3756849034258020  0.8506749159296346
  0.9503278050632369  0.8743324807723285  0.3521128283885910
  0.9509262393637050  0.8745262331051195  0.8499181685875761
  0.5911615491944379  0.3824043987709115  0.1979886802763039
  0.5855025536224228  0.3807606352005423  0.6844497846915076
  0.5918126205366313  0.8756874878958739  0.1917334850027710
  0.5905998371426610  0.8761968875007780  0.6909355912577632
  0.0887333258655298  0.3749862209392201  0.0583316409881741
  0.0899912898109004  0.3751364515972081  0.5593424411705865
  0.0878411258000791  0.8729512888079834  0.0587339937303037
  0.0886897362635271  0.8741309367880360  0.5603099802663016
  0.4073033591470544  0.1229431316248711  0.3087148774834200
  0.4111262979397136  0.1239500484049599  0.8091029161770723
  0.4120172634533036  0.6263088991406681  0.3082397842415239
  0.4090664669578008  0.6245405215229571  0.8095021243605758
  0.9114440715782851  0.1251651432107608  0.4410565780842996
  0.9130466833389205  0.1239911307875024  0.9420145637351869
  0.9112900013811520  0.6252495258268793  0.4416737191180706
  0.9110808831173953  0.6252466473679539  0.9412854506893085
 
             NaN             NaN             NaN
             NaN             NaN             NaN
             NaN             NaN             NaN
             NaN             NaN             NaN
             NaN             NaN             NaN
             NaN             NaN             NaN
             NaN             NaN             NaN
             NaN             NaN             NaN
             NaN             NaN             NaN
             NaN             NaN             NaN
             NaN             NaN             NaN
             NaN             NaN             NaN
             NaN             NaN             NaN
             NaN             NaN             NaN
             NaN             NaN             NaN
             NaN             NaN             NaN
             NaN             NaN             NaN
             NaN             NaN             NaN
             NaN             NaN             NaN
             NaN             NaN             NaN
             NaN             NaN             NaN
             NaN             NaN             NaN
             NaN             NaN             NaN
             NaN             NaN             NaN
             NaN             NaN             NaN
             NaN             NaN             NaN
             NaN             NaN             NaN
             NaN             NaN             NaN
             NaN             NaN             NaN
             NaN             NaN             NaN
             NaN             NaN             NaN
             NaN             NaN             NaN
             NaN             NaN             NaN
             NaN             NaN             NaN
             NaN             NaN             NaN
             NaN             NaN             NaN
             NaN             NaN             NaN
             NaN             NaN             NaN
             NaN             NaN             NaN
             NaN             NaN             NaN
             NaN             NaN             NaN
             NaN             NaN             NaN
             NaN             NaN             NaN
             NaN             NaN             NaN
             NaN             NaN             NaN
             NaN             NaN             NaN
             NaN             NaN             NaN
             NaN             NaN             NaN
             NaN             NaN             NaN
             NaN             NaN             NaN
             NaN             NaN             NaN
             NaN             NaN             NaN
             NaN             NaN             NaN
             NaN             NaN             NaN
             NaN             NaN             NaN
             NaN             NaN             NaN
             NaN             NaN             NaN
             NaN             NaN             NaN
             NaN             NaN             NaN
             NaN             NaN             NaN
             NaN             NaN             NaN
             NaN             NaN             NaN
             NaN             NaN             NaN
             NaN             NaN             NaN
             NaN             NaN             NaN
             NaN             NaN             NaN
             NaN             NaN             NaN
             NaN             NaN             NaN
             NaN             NaN             NaN
             NaN             NaN             NaN
             NaN             NaN             NaN
             NaN             NaN             NaN
             NaN             NaN             NaN
             NaN             NaN             NaN
             NaN             NaN             NaN
             NaN             NaN             NaN
             NaN             NaN             NaN
             NaN             NaN             NaN
             NaN             NaN             NaN
             NaN             NaN             NaN
             NaN             NaN             NaN
             NaN             NaN             NaN
             NaN             NaN             NaN
             NaN             NaN             NaN
             NaN             NaN             NaN
             NaN             NaN             NaN
             NaN             NaN             NaN
             NaN             NaN             NaN
             NaN             NaN             NaN
             NaN             NaN             NaN
             NaN             NaN             NaN
             NaN             NaN             NaN
             NaN             NaN             NaN
             NaN             NaN             NaN
             NaN             NaN             NaN
             NaN             NaN             NaN
             NaN             NaN             NaN
             NaN             NaN             NaN
             NaN             NaN             NaN
             NaN             NaN             NaN
             NaN             NaN             NaN
             NaN             NaN             NaN
             NaN             NaN             NaN
             NaN             NaN             NaN
             NaN             NaN             NaN
             NaN             NaN             NaN
             NaN             NaN             NaN
             NaN             NaN             NaN
             NaN             NaN             NaN
             NaN             NaN             NaN
             NaN             NaN             NaN
             NaN             NaN             NaN
             NaN             NaN             NaN
             NaN             NaN             NaN
             NaN             NaN             NaN
             NaN             NaN             NaN
             NaN             NaN             NaN
             NaN             NaN             NaN
             NaN             NaN             NaN
             NaN             NaN             NaN
             NaN             NaN             NaN
             NaN             NaN             NaN
             NaN             NaN             NaN
             NaN             NaN             NaN
             NaN             NaN             NaN
             NaN             NaN             NaN
             NaN             NaN             NaN
