Li47 P16 O64
1.0
10.619289 -0.002543 -0.009596
-0.002940 12.354560 -0.003794
-0.009023 -0.003034 10.029424
Li P O
47 16 64
direct
0.489629 0.338493 0.097554 Li
0.662833 0.252417 0.601729 Li
0.663216 0.750387 0.098600 Li
0.663345 0.751647 0.599581 Li
0.164632 0.497882 0.150601 Li
0.163792 0.499181 0.651076 Li
0.163415 0.996475 0.151810 Li
0.164013 0.998918 0.650894 Li
0.337001 0.001080 0.400609 Li
0.337541 0.001283 0.903270 Li
0.337867 0.500071 0.398689 Li
0.338272 0.498567 0.903274 Li
0.832389 0.249165 0.344618 Li
0.834476 0.248895 0.854283 Li
0.836463 0.748847 0.349097 Li
0.836412 0.749013 0.849320 Li
0.337531 0.250125 0.399112 Li
0.337858 0.249453 0.902577 Li
0.337223 0.749118 0.400253 Li
0.337338 0.749482 0.902172 Li
0.836785 0.001974 0.348391 Li
0.836956 0.002123 0.850005 Li
0.834097 0.500439 0.349640 Li
0.835086 0.499950 0.849895 Li
0.660858 0.493237 0.096942 Li
0.663201 0.501154 0.598386 Li
0.664830 1.002814 0.100872 Li
0.663071 1.001048 0.599452 Li
0.163930 0.249889 0.149394 Li
0.163706 0.250714 0.650896 Li
0.164127 0.750436 0.150842 Li
0.163671 0.750945 0.651580 Li
0.923307 0.373585 0.148102 Li
0.925236 0.374249 0.649006 Li
0.925532 0.875801 0.149054 Li
0.925488 0.875686 0.649331 Li
0.424981 0.375768 0.601227 Li
0.427885 0.876046 0.101700 Li
0.426710 0.875858 0.601229 Li
0.073957 0.125485 0.348841 Li
0.074772 0.125156 0.852422 Li
0.073734 0.623995 0.350633 Li
0.074301 0.624139 0.851719 Li
0.574019 0.128891 0.394561 Li
0.575782 0.131184 0.908173 Li
0.573892 0.624193 0.399067 Li
0.573608 0.623296 0.899105 Li
0.914419 0.125114 0.097992 P
0.911871 0.125198 0.596622 P
0.910739 0.624856 0.097053 P
0.911431 0.625285 0.597272 P
0.408506 0.121087 0.152486 P
0.410958 0.124615 0.653283 P
0.410770 0.625820 0.151959 P
0.410337 0.626451 0.653361 P
0.088154 0.375411 0.403304 P
0.088596 0.375052 0.902917 P
0.088490 0.874384 0.404093 P
0.088826 0.874345 0.903144 P
0.588426 0.377139 0.349361 P
0.588176 0.374477 0.840582 P
0.590004 0.875187 0.347139 P
0.590011 0.875510 0.847143 P
0.843590 0.021734 0.148899 O
0.841770 0.021916 0.647781 O
0.840508 0.522171 0.147919 O
0.841870 0.522454 0.648996 O
0.337145 0.222286 0.098793 O
0.339999 0.227198 0.601949 O
0.342230 0.730842 0.103162 O
0.340811 0.730173 0.602637 O
0.157610 0.272299 0.351572 O
0.158370 0.272047 0.851386 O
0.158267 0.771184 0.352690 O
0.158738 0.771097 0.852142 O
0.658764 0.480162 0.403894 O
0.657751 0.477047 0.896234 O
0.659403 0.978582 0.398420 O
0.660759 0.977757 0.898720 O
0.158560 0.478501 0.352253 O
0.158527 0.478259 0.851646 O
0.158482 0.977400 0.353715 O
0.159142 0.977245 0.852258 O
0.658398 0.273941 0.401688 O
0.657824 0.270224 0.881937 O
0.659688 0.772013 0.399089 O
0.659046 0.771360 0.897302 O
0.851144 0.228493 0.151103 O
0.842889 0.228191 0.648178 O
0.841452 0.728482 0.148015 O
0.841567 0.728610 0.648161 O
0.337340 0.016467 0.105372 O
0.341216 0.020922 0.601909 O
0.338379 0.525196 0.099547 O
0.339803 0.524198 0.600799 O
0.544508 0.117992 0.100193 O
0.548326 0.125118 0.599782 O
0.548622 0.625586 0.099264 O
0.548344 0.627383 0.601598 O
0.054055 0.120869 0.147151 O
0.050175 0.124263 0.648929 O
0.048990 0.624806 0.149222 O
0.049633 0.625500 0.649383 O
0.450628 0.375779 0.404361 O
0.449862 0.373968 0.890515 O
0.451808 0.874841 0.398954 O
0.451878 0.875287 0.898929 O
0.949855 0.376418 0.352521 O
0.950461 0.375272 0.850691 O
0.950411 0.874480 0.351704 O
0.950880 0.874648 0.850244 O
0.588080 0.381271 0.196614 O
0.588172 0.380486 0.684970 O
0.591434 0.874564 0.191528 O
0.590182 0.875795 0.691128 O
0.089009 0.375089 0.058560 O
0.089783 0.375231 0.559314 O
0.088347 0.873397 0.058797 O
0.088754 0.874150 0.559927 O
0.407985 0.124379 0.308882 O
0.410656 0.124164 0.808886 O
0.411094 0.625368 0.308072 O
0.409678 0.625582 0.809105 O
0.911250 0.125074 0.440842 O
0.912509 0.124346 0.941696 O
0.910796 0.625186 0.441463 O
0.910463 0.625029 0.941097 O
