Li47 P16 O64                            
   1.00000000000000     
    10.4642940000000007   -0.0023760000000000   -0.0121860000000000
    -0.0027350000000000   12.2011810000000001   -0.0044160000000000
    -0.0114910000000000   -0.0035500000000000    9.8383810000000000
   Li   P    O 
    47    16    64
Direct
  0.4749034276250745  0.3245124011077874  0.0822879114757987
  0.6639504280654149  0.2521983991504744  0.6020005294602629
  0.6640479258111843  0.7511215292834262  0.0974327983838466
  0.6641670901717998  0.7521846983244223  0.5984643102091445
  0.1657809750624011  0.4975560060897712  0.1520674445527673
  0.1646690685584135  0.4990708084084696  0.6520562713982867
  0.1633310092783780  0.9950823810029197  0.1534116965234025
  0.1641685750980029  0.9986842625269334  0.6523088788593002
  0.3356630449566213  0.0002640676956382  0.4029612336145550
  0.3368757855165876  0.0003078171032397  0.9034580104259182
  0.3381433759940625  0.4998969182926861  0.3976681211278519
  0.3385497498575800  0.4971660903085869  0.9090863389942828
  0.8325047385266506  0.2490222588892854  0.3425896146123008
  0.8353949503018161  0.2488357908127222  0.8546946471303295
  0.8360315273405898  0.7487587439829844  0.3476588538460686
  0.8361809259117663  0.7489714992440692  0.8478905272603239
  0.3371368502284205  0.2501792936219133  0.4004764143562664
  0.3330049484032183  0.2480275900380152  0.8984406827188420
  0.3367747228500710  0.7492186090389892  0.4012259155922716
  0.3366133175100253  0.7489883158421887  0.9041740155578096
  0.8366708959548139  0.0022895259637721  0.3469962717308628
  0.8367247143242470  0.0018465438797574  0.8486089645837593
  0.8344802917014619  0.5006356439282553  0.3485713710324786
  0.8356655562754675  0.5005198177653695  0.8489167426709971
  0.6623065872600820  0.4962856428758004  0.0966589318577423
  0.6640563498685398  0.5026101366468130  0.5998464181616000
  0.6663899768605503  0.0042153455428266  0.1004225573635472
  0.6639932359870561  0.0010157687901565  0.5978074419307966
  0.1643859954636969  0.2507805226593865  0.1505875968458350
  0.1631775934118118  0.2505134481053848  0.6514944733305389
  0.1653845981471857  0.7503806000255088  0.1520385192951863
  0.1642017776005420  0.7511243321727814  0.6527830033101110
  0.9197633404690559  0.3738051117765375  0.1474861619603619
  0.9231645117173003  0.3743085760174999  0.6489270827230615
  0.9235158752478767  0.8756319840893628  0.1489683438005305
  0.9236651124526568  0.8756100548326706  0.6489830776428147
  0.4226149104465650  0.3761567911345369  0.5991076178861839
  0.4270060168984657  0.8751254532727600  0.1011001422448996
  0.4249874619151967  0.8754354767072986  0.6011882694008259
  0.0758575340060617  0.1255094987552522  0.3478647998467206
  0.0762751889209350  0.1244546792949810  0.8524066538079609
  0.0761589202419318  0.6240315990841334  0.3503343565646644
  0.0772644058863843  0.6240558332973594  0.8518291692659677
  0.5765525645100046  0.1289718637786761  0.3948298402092816
  0.5799717417156930  0.1295484649744692  0.9075237069726612
  0.5761757163411517  0.6248627734628304  0.4004725807387872
  0.5747699663827571  0.6241642788539448  0.8991411231003731
  0.9162636821729517  0.1250584569369781  0.0959932638117472
  0.9125412895226616  0.1251630592333896  0.5953194485849826
  0.9119658582118340  0.6253264584223909  0.0953986126247106
  0.9125582621404175  0.6254287702292022  0.5955468348029070
  0.4081540303143532  0.1184221158509712  0.1543211353324727
  0.4119511906057281  0.1245805504648542  0.6549398773715879
  0.4115055974404930  0.6270978154947022  0.1542652713964187
  0.4107114819847010  0.6260886459211683  0.6550737057321743
  0.0875379721459579  0.3754184886577743  0.4047597437200351
  0.0874439572383686  0.3751966915443685  0.9046276818986178
  0.0876399672542370  0.8742952017463665  0.4053274841917564
  0.0881219424848367  0.8741104032653823  0.9047377681662565
  0.5899647502418759  0.3775977567494990  0.3502422858523991
  0.5892096501079528  0.3743454761456136  0.8387130224399353
  0.5895007465037567  0.8757519333960183  0.3454953472754556
  0.5894947066546099  0.8757276108163021  0.8453652834378697
  0.8453350718557275  0.0215875898532313  0.1476605947264219
  0.8422729512115785  0.0216975176063238  0.6464022749936865
  0.8411695818457839  0.5229419651625089  0.1468604610009260
  0.8428619092589633  0.5227350155302114  0.6481826749444195
  0.3376843667351530  0.2203373037325677  0.0986102163034768
  0.3405735949525437  0.2274735940498094  0.6040806005322790
  0.3441282400792689  0.7334982188702746  0.1063093817643419
  0.3410723611031704  0.7299200493893263  0.6040219471318451
  0.1574418425839089  0.2723077965061018  0.3526767353441285
  0.1564360936347086  0.2716877934594470  0.8522105072321650
  0.1577626084555790  0.7711995191562673  0.3537085694324237
  0.1585119308858674  0.7709952682764801  0.8533808133201017
  0.6593507261650038  0.4809288981714952  0.4053837192119801
  0.6576600517627116  0.4777400743075905  0.8939196236786525
  0.6590275932457249  0.9792348596171504  0.3972129984676628
  0.6600427414079324  0.9781033893114990  0.8978625066925865
  0.1582588206921570  0.4784836830242075  0.3537451475496630
  0.1587149275189137  0.4776923866966022  0.8527466887672320
  0.1577024549750201  0.9774007133702906  0.3546128938169652
  0.1587413336936952  0.9770248619632926  0.8534975098098512
  0.6594770359932474  0.2743336012476304  0.4031551556765555
  0.6589894269225417  0.2702393379629534  0.8803988032955119
  0.6594719208780911  0.7726057999033955  0.3977913155775841
  0.6588353028473258  0.7716443318995819  0.8958110406911503
  0.8542627500162000  0.2283822435533754  0.1501741771698316
  0.8435763048116353  0.2279235653493420  0.6482537330625230
  0.8422924882448585  0.7289821871680819  0.1464359744146767
  0.8423009198713909  0.7287622929950348  0.6466089748936896
  0.3376556217557969  0.0141076880350190  0.1065490743995708
  0.3415893466544739  0.0210330987418651  0.6034306681089804
  0.3368973894457828  0.5285092889395946  0.1011460629849766
  0.3408419723331483  0.5237946705514226  0.6008578294813975
  0.5445466784957173  0.1196807170918425  0.1017491227913121
  0.5495439296288827  0.1251755431070100  0.6010804737254094
  0.5498938311365923  0.6264456902362378  0.1009695812098213
  0.5496216669493601  0.6278966883237784  0.6045173554853095
  0.0570683984730617  0.1202026732658528  0.1438649860107457
  0.0513767359553991  0.1238895093845600  0.6475145118335371
  0.0505931029450942  0.6250610714727194  0.1477061167372543
  0.0512283599496779  0.6257057106414815  0.6477014772333382
  0.4510242467100458  0.3754059943307528  0.4029204188149754
  0.4512734949430503  0.3713173184135202  0.8942198595478983
  0.4509254024744845  0.8751762255767809  0.3974726149232679
  0.4507838059964577  0.8750748802292913  0.8967600740782099
  0.9488244361143501  0.3764200414756279  0.3539659460515763
  0.9489869580441813  0.3759436573174361  0.8521595276593509
  0.9490494585983870  0.8744089820910883  0.3532042458533191
  0.9498607004492050  0.8744725501299759  0.8514119382978854
  0.5924167667297418  0.3821203738881123  0.1963332465295851
  0.5859171007145075  0.3805695007547543  0.6822259036344613
  0.5914982612181745  0.8756608934538371  0.1888050013335619
  0.5901761467145052  0.8763084697111195  0.6883790656468216
  0.0879420074907921  0.3751757578990807  0.0611387355887853
  0.0892948565971167  0.3750503208286601  0.5618429657079136
  0.0877538226833193  0.8729637526690892  0.0613312594981150
  0.0884837106777815  0.8741834725745636  0.5622088983347173
  0.4070616730059324  0.1231085954303721  0.3114712435156733
  0.4119421852635904  0.1238645281651973  0.8117216118530124
  0.4127006070049649  0.6261657588377912  0.3115955238203371
  0.4088997612857703  0.6244009397377038  0.8118832627434892
  0.9116518203851560  0.1255052834247458  0.4385332440873974
  0.9131636729219309  0.1236906609419155  0.9386077745450874
  0.9115769644216567  0.6251809487955623  0.4387386436569150
  0.9115205829194611  0.6253264194199681  0.9384045073933410
 
             NaN             NaN             NaN
             NaN             NaN             NaN
             NaN             NaN             NaN
             NaN             NaN             NaN
             NaN             NaN             NaN
             NaN             NaN             NaN
             NaN             NaN             NaN
             NaN             NaN             NaN
             NaN             NaN             NaN
             NaN             NaN             NaN
             NaN             NaN             NaN
             NaN             NaN             NaN
             NaN             NaN             NaN
             NaN             NaN             NaN
             NaN             NaN             NaN
             NaN             NaN             NaN
             NaN             NaN             NaN
             NaN             NaN             NaN
             NaN             NaN             NaN
             NaN             NaN             NaN
             NaN             NaN             NaN
             NaN             NaN             NaN
             NaN             NaN             NaN
             NaN             NaN             NaN
             NaN             NaN             NaN
             NaN             NaN             NaN
             NaN             NaN             NaN
             NaN             NaN             NaN
             NaN             NaN             NaN
             NaN             NaN             NaN
             NaN             NaN             NaN
             NaN             NaN             NaN
             NaN             NaN             NaN
             NaN             NaN             NaN
             NaN             NaN             NaN
             NaN             NaN             NaN
             NaN             NaN             NaN
             NaN             NaN             NaN
             NaN             NaN             NaN
             NaN             NaN             NaN
             NaN             NaN             NaN
             NaN             NaN             NaN
             NaN             NaN             NaN
             NaN             NaN             NaN
             NaN             NaN             NaN
             NaN             NaN             NaN
             NaN             NaN             NaN
             NaN             NaN             NaN
             NaN             NaN             NaN
             NaN             NaN             NaN
             NaN             NaN             NaN
             NaN             NaN             NaN
             NaN             NaN             NaN
             NaN             NaN             NaN
             NaN             NaN             NaN
             NaN             NaN             NaN
             NaN             NaN             NaN
             NaN             NaN             NaN
             NaN             NaN             NaN
             NaN             NaN             NaN
             NaN             NaN             NaN
             NaN             NaN             NaN
             NaN             NaN             NaN
             NaN             NaN             NaN
             NaN             NaN             NaN
             NaN             NaN             NaN
             NaN             NaN             NaN
             NaN             NaN             NaN
             NaN             NaN             NaN
             NaN             NaN             NaN
             NaN             NaN             NaN
             NaN             NaN             NaN
             NaN             NaN             NaN
             NaN             NaN             NaN
             NaN             NaN             NaN
             NaN             NaN             NaN
             NaN             NaN             NaN
             NaN             NaN             NaN
             NaN             NaN             NaN
             NaN             NaN             NaN
             NaN             NaN             NaN
             NaN             NaN             NaN
             NaN             NaN             NaN
             NaN             NaN             NaN
             NaN             NaN             NaN
             NaN             NaN             NaN
             NaN             NaN             NaN
             NaN             NaN             NaN
             NaN             NaN             NaN
             NaN             NaN             NaN
             NaN             NaN             NaN
             NaN             NaN             NaN
             NaN             NaN             NaN
             NaN             NaN             NaN
             NaN             NaN             NaN
             NaN             NaN             NaN
             NaN             NaN             NaN
             NaN             NaN             NaN
             NaN             NaN             NaN
             NaN             NaN             NaN
             NaN             NaN             NaN
             NaN             NaN             NaN
             NaN             NaN             NaN
             NaN             NaN             NaN
             NaN             NaN             NaN
             NaN             NaN             NaN
             NaN             NaN             NaN
             NaN             NaN             NaN
             NaN             NaN             NaN
             NaN             NaN             NaN
             NaN             NaN             NaN
             NaN             NaN             NaN
             NaN             NaN             NaN
             NaN             NaN             NaN
             NaN             NaN             NaN
             NaN             NaN             NaN
             NaN             NaN             NaN
             NaN             NaN             NaN
             NaN             NaN             NaN
             NaN             NaN             NaN
             NaN             NaN             NaN
             NaN             NaN             NaN
             NaN             NaN             NaN
             NaN             NaN             NaN
             NaN             NaN             NaN
             NaN             NaN             NaN
             NaN             NaN             NaN
