Li47 P16 O64
1.0
10.464294 -0.002376 -0.012186
-0.002735 12.201181 -0.004416
-0.011491 -0.003550 9.838381
Li P O
47 16 64
direct
0.487785 0.339365 0.097743 Li
0.663364 0.252142 0.601669 Li
0.663826 0.750332 0.097083 Li
0.663885 0.751826 0.598437 Li
0.165042 0.497916 0.151898 Li
0.164050 0.499119 0.652149 Li
0.163786 0.996536 0.153047 Li
0.164457 0.998801 0.652101 Li
0.336331 0.001003 0.401728 Li
0.337044 0.001301 0.904485 Li
0.337381 0.500025 0.400158 Li
0.337798 0.498537 0.904197 Li
0.832205 0.249230 0.343718 Li
0.834329 0.248890 0.852689 Li
0.835865 0.748744 0.347605 Li
0.836091 0.748970 0.847848 Li
0.336941 0.250226 0.400770 Li
0.337582 0.249437 0.903615 Li
0.336679 0.749223 0.401263 Li
0.336759 0.749464 0.903193 Li
0.836452 0.002072 0.347011 Li
0.836470 0.002006 0.848339 Li
0.833481 0.500431 0.348151 Li
0.834658 0.499811 0.848791 Li
0.661385 0.493578 0.096084 Li
0.663630 0.501614 0.598001 Li
0.665462 1.002404 0.099664 Li
0.663623 1.001167 0.597957 Li
0.164255 0.250091 0.150634 Li
0.163900 0.250740 0.652228 Li
0.164632 0.750217 0.151875 Li
0.164002 0.751032 0.652597 Li
0.920870 0.373903 0.147907 Li
0.923038 0.374485 0.648863 Li
0.923468 0.875582 0.148796 Li
0.923493 0.875607 0.648955 Li
0.422491 0.375723 0.602153 Li
0.426160 0.875676 0.101359 Li
0.424883 0.875917 0.600855 Li
0.076075 0.125415 0.348651 Li
0.077036 0.124951 0.852454 Li
0.075684 0.624061 0.350609 Li
0.076400 0.624155 0.851590 Li
0.576075 0.128641 0.394483 Li
0.577729 0.130438 0.908699 Li
0.575951 0.624539 0.399427 Li
0.575562 0.623507 0.898903 Li
0.914674 0.125121 0.095758 P
0.912602 0.125196 0.595145 P
0.911334 0.624841 0.095270 P
0.912000 0.625262 0.595419 P
0.409309 0.121460 0.154401 P
0.411640 0.124625 0.654884 P
0.411670 0.625478 0.153879 P
0.410778 0.626489 0.654836 P
0.087417 0.375365 0.404685 P
0.088032 0.375053 0.904634 P
0.087754 0.874412 0.405164 P
0.088251 0.874319 0.904716 P
0.588023 0.376904 0.348681 P
0.587555 0.374448 0.839438 P
0.589455 0.875241 0.345344 P
0.589331 0.875665 0.845414 P
0.844073 0.021549 0.147132 O
0.842257 0.021804 0.646295 O
0.840724 0.522277 0.146554 O
0.842223 0.522538 0.647802 O
0.337797 0.222655 0.100193 O
0.340298 0.227264 0.603521 O
0.342695 0.730322 0.104294 O
0.341120 0.730267 0.603688 O
0.157136 0.272273 0.352662 O
0.158072 0.272031 0.852845 O
0.157816 0.771199 0.353552 O
0.158332 0.771023 0.853354 O
0.658375 0.480294 0.403015 O
0.657248 0.477180 0.895277 O
0.659045 0.978691 0.396949 O
0.660049 0.978032 0.897534 O
0.158092 0.478504 0.353535 O
0.158255 0.478236 0.852961 O
0.157870 0.977469 0.354432 O
0.158846 0.977155 0.853425 O
0.658418 0.273979 0.401841 O
0.657369 0.270189 0.881089 O
0.659285 0.772101 0.397957 O
0.658713 0.771492 0.895795 O
0.850775 0.228377 0.149130 O
0.843469 0.228081 0.647414 O
0.841852 0.728518 0.146459 O
0.842008 0.728666 0.646609 O
0.338092 0.016770 0.106461 O
0.341519 0.020948 0.603169 O
0.339358 0.524557 0.101261 O
0.340104 0.524216 0.601817 O
0.546074 0.118293 0.102905 O
0.549290 0.125090 0.601024 O
0.549970 0.625463 0.101147 O
0.549333 0.627542 0.603337 O
0.054798 0.121184 0.145096 O
0.051352 0.124155 0.647522 O
0.050022 0.624737 0.147597 O
0.050703 0.625485 0.647527 O
0.449741 0.375704 0.403555 O
0.448666 0.374073 0.888850 O
0.450763 0.874925 0.397028 O
0.450768 0.875189 0.897248 O
0.948716 0.376360 0.353595 O
0.949517 0.375324 0.852083 O
0.949192 0.874442 0.352800 O
0.949849 0.874616 0.851668 O
0.587977 0.380463 0.194716 O
0.587909 0.380444 0.682796 O
0.591304 0.874409 0.188707 O
0.589855 0.876051 0.688393 O
0.088410 0.375217 0.061288 O
0.089121 0.375157 0.561733 O
0.088148 0.873389 0.061397 O
0.088355 0.874230 0.562024 O
0.407946 0.124489 0.311818 O
0.411482 0.124084 0.811550 O
0.411539 0.625325 0.310993 O
0.409758 0.625538 0.811613 O
0.911770 0.125289 0.438320 O
0.912757 0.124184 0.938448 O
0.911000 0.625064 0.438587 O
0.910891 0.624959 0.938297 O
