Li47 P16 O64
1.0
10.409202 0.000508 -0.003335
0.000585 12.194549 0.001182
-0.003173 0.000947 9.791777
Li P O
47 16 64
direct
0.228392 0.283774 0.139772 Li
0.659218 0.251962 0.097422 Li
0.666324 0.248647 0.598300 Li
0.664751 0.750638 0.097724 Li
0.664605 0.751135 0.598152 Li
0.164187 0.496246 0.152558 Li
0.164324 0.499799 0.652203 Li
0.163673 -0.000729 0.151820 Li
0.164432 -0.000921 0.652548 Li
0.335992 0.000733 0.401668 Li
0.335985 0.000747 0.902392 Li
0.337035 0.499762 0.400482 Li
0.336347 0.498191 0.905720 Li
0.836843 0.248438 0.347972 Li
0.834827 0.248873 0.848427 Li
0.836567 0.748863 0.348189 Li
0.836476 0.749024 0.847697 Li
0.337116 0.250182 0.399602 Li
0.335981 0.251959 0.906307 Li
0.335988 0.749372 0.401573 Li
0.335869 0.749327 0.902536 Li
0.836590 0.001181 0.348309 Li
0.836391 0.000969 0.847423 Li
0.836878 0.501237 0.347492 Li
0.834932 0.501352 0.848623 Li
0.659409 0.498018 0.097231 Li
0.666406 0.501388 0.598392 Li
0.664566 0.998007 0.096945 Li
0.664684 0.998672 0.598325 Li
0.164116 0.251139 0.650715 Li
0.163188 0.751172 0.152367 Li
0.164541 0.751626 0.652322 Li
0.921938 0.373928 0.149057 Li
0.921304 0.375273 0.648864 Li
0.922751 0.874828 0.149118 Li
0.923824 0.875178 0.648501 Li
0.423321 0.375000 0.609453 Li
0.426587 0.874857 0.100356 Li
0.423600 0.875066 0.600861 Li
0.078050 0.126437 0.348968 Li
0.077304 0.125781 0.852846 Li
0.077509 0.624555 0.351090 Li
0.077248 0.624971 0.851765 Li
0.577219 0.124768 0.399763 Li
0.575448 0.124716 0.897971 Li
0.576891 0.625023 0.399598 Li
0.575213 0.625043 0.898177 Li
0.910474 0.124731 0.095378 P
0.913119 0.124516 0.595394 P
0.911387 0.624553 0.095424 P
0.912945 0.625779 0.595384 P
0.411863 0.121981 0.154489 P
0.411668 0.124852 0.654891 P
0.410979 0.627827 0.154537 P
0.411568 0.625274 0.654823 P
0.087838 0.375044 0.406093 P
0.086115 0.375464 0.903855 P
0.088191 0.875179 0.404733 P
0.087904 0.875112 0.905079 P
0.590693 0.375031 0.348546 P
0.587826 0.375058 0.840553 P
0.588862 0.874867 0.345521 P
0.588503 0.874797 0.844855 P
0.840448 0.021070 0.146729 O
0.842457 0.021217 0.646578 O
0.839847 0.521754 0.146537 O
0.842645 0.523077 0.648210 O
0.338321 0.220006 0.097940 O
0.342356 0.228021 0.601784 O
0.343057 0.733507 0.106124 O
0.341882 0.728671 0.602458 O
0.158509 0.271221 0.358610 O
0.156771 0.272431 0.852411 O
0.158141 0.771732 0.353149 O
0.158568 0.771942 0.853674 O
0.660155 0.478698 0.400657 O
0.655399 0.478137 0.896437 O
0.658925 0.978110 0.397573 O
0.658639 0.978111 0.896481 O
0.158586 0.477741 0.353706 O
0.156863 0.478489 0.852106 O
0.158381 0.978284 0.352702 O
0.158459 0.978415 0.853989 O
0.660036 0.271278 0.400615 O
0.655101 0.271829 0.896635 O
0.658826 0.771514 0.397521 O
0.658621 0.771540 0.896799 O
0.839264 0.227509 0.146992 O
0.842675 0.227356 0.647805 O
0.841680 0.728186 0.147155 O
0.842412 0.729158 0.646398 O
0.343623 0.016601 0.105872 O
0.341898 0.021506 0.602533 O
0.335030 0.530344 0.098776 O
0.342038 0.522178 0.601749 O
0.551064 0.122882 0.102059 O
0.551529 0.124446 0.604053 O
0.549843 0.626156 0.101576 O
0.551381 0.625452 0.603940 O
0.049133 0.123888 0.148140 O
0.052153 0.124502 0.647898 O
0.050529 0.624159 0.147956 O
0.052221 0.626185 0.647238 O
0.451528 0.375091 0.400407 O
0.445059 0.375208 0.875599 O
0.449463 0.874963 0.397003 O
0.449204 0.874902 0.896633 O
0.948906 0.374697 0.352719 O
0.946853 0.375141 0.851094 O
0.948764 0.875090 0.352926 O
0.948927 0.875047 0.852185 O
0.594729 0.375098 0.192305 O
0.598264 0.374992 0.683351 O
0.590771 0.874691 0.188057 O
0.589452 0.874768 0.687462 O
0.085234 0.376241 0.060776 O
0.087275 0.376558 0.563616 O
0.088022 0.874934 0.062470 O
0.089490 0.875329 0.562206 O
0.411978 0.124652 0.311855 O
0.409520 0.125011 0.812201 O
0.411480 0.625108 0.311934 O
0.409432 0.625108 0.812131 O
0.912134 0.124901 0.437960 O
0.909936 0.124981 0.937855 O
0.911746 0.624994 0.437903 O
0.910847 0.625009 0.937877 O
