Mg15 Mn32 O64                           
   1.00000000000000     
    11.4999620000000000   -0.0000100000000000    0.0007170000000000
    -0.0000260000000000   11.5157740000000004   -0.0000010000000000
     0.0002560000000000    0.0000000000000000    9.1701309999999996
   Mg   Mn   O 
    15    32    64
Direct
  0.4999848171527780  0.5106361441211308  0.5125928494185877
  0.4999958514023396  0.2582783776568296  0.7592783398397674
  0.9999829622873464  0.2583768772474837  0.7592843323125577
 -0.0000611306779320  0.7584311836288327  0.7584080047857765
  0.4999607874182706  0.0059146340393787  0.5119970556315615
 -0.0000262450911401  0.0089890072013828  0.5093901390555390
  0.0000322561378120  0.5076367676967559  0.5092302554153263
  0.2488374949193666  0.0109632856702919  0.2574463268675886
  0.2489478065135416  0.5058187454540444  0.2573933514989399
  0.7510231600621121  0.0108024436771170  0.2574327124231772
  0.7513850057772542  0.5054832811760255  0.2575159966902143
  0.2505205470921983  0.2583194968102027  0.0058531402679390
  0.2545574403224504  0.7584273967087086  0.0093733467099806
  0.7494532032132106  0.2583982145094462  0.0058526672422301
  0.7455805828806839  0.7582229055661199  0.0092228625797327
  0.1248489852991662  0.2583831617283407  0.3830667573389913
  0.1245831784301648  0.7583649629252458  0.3815662070421798
  0.6245410871973075  0.2582949033454696  0.3844487750222328
  0.6268900277732393  0.7578474333051557  0.3835350194798406
  0.3754391249525603  0.2583743197083722  0.3843997677186235
  0.3731118246049773  0.7581784187916795  0.3835376373228016
  0.8751481010739685  0.2582227554471091  0.3830912996995451
  0.8753818413369324  0.7582797412917656  0.3816748652678060
  0.1255225708175544  0.0078420364874705  0.8823692645808890
  0.1255546070671564  0.5089126037293388  0.8824168354213453
  0.6227343090642588  0.0058562971366373  0.8835986889284237
  0.6228356489745467  0.5107141345834404  0.8836380195973448
  0.3772028219454868  0.0058955304945587  0.8836646849358754
  0.3772062627340556  0.5107965415116520  0.8835392353925843
  0.8743679873650584  0.0078108385975322  0.8823805997765618
  0.8744807988707252  0.5088479950187588  0.8823543129016089
 -0.0000268443875014  0.1334106336069895  0.1320591713610368
  1.0000101828645733  0.6334143954817237  0.1318045138998878
  0.4999531914890737  0.1335540352350241  0.1325687638057512
  0.5004460108861587  0.6305011214753844  0.1376167952126345
  0.0000158563602513  0.3832698626233573  0.1320758688780375
  0.9999736195736926  0.8832685874028698  0.1318394053444951
  0.5001024261125586  0.3828609044819734  0.1325579859947544
  0.4999293346655012  0.8848026139235934  0.1376896468588161
  0.2499513649245294  0.3833724424052732  0.6335465994403416
  0.2511408985160326  0.8827413734527748  0.6319293422074250
  0.7500481591831055  0.3833458458102982  0.6335529343366271
  0.7486787903895993  0.8826898470101548  0.6319021368928378
  0.2499644980362735  0.1332994995497430  0.6335509988349052
  0.2509966489301628  0.6339023965361413  0.6319978120322894
  0.7500151531998763  0.1332824746377251  0.6335663777366473
  0.7489588768138037  0.6338605152664167  0.6320192829077933
  0.1367989025429572  0.2583581961495559  0.6294323405737362
  0.1377643118264790  0.7583963842437313  0.6275435766164088
  0.6371129232388586  0.2583024384720531  0.6296919034732170
  0.6391769460348380  0.7581109122029775  0.5883766917594541
  0.3628874719560684  0.2583918100035919  0.6296833989778984
  0.3606973969591403  0.7582122014636820  0.5884703391671678
  0.8632164365952771  0.2582782085828562  0.6294141597081440
  0.8620896465597037  0.7584007151342839  0.6275157682981041
  0.1371369074260473  0.5090469682820025  0.6373766476396350
  0.1371929691172097  0.0076154098426697  0.6373545086078843
  0.6378819508441296  0.5088840150606647  0.6369473490874604
  0.6377365327728756  0.0077139030550587  0.6367443015280366
  0.3621131008029748  0.5089675469900052  0.6370222329549247
  0.3621771026180692  0.0077501039128124  0.6367539281708281
  0.8629080337159829  0.5090503815286134  0.6373303967395496
  0.8627095850891388  0.0075261466760840  0.6373390773791431
  0.5000433466133162  0.1220971021809259  0.8885260007166922
  0.5001207843246164  0.6179595177560859  0.9068392410670610
 -0.0000696590089508  0.1210638262096791  0.8875016009627005
  0.0000013230543264  0.6214245884883851  0.8871029267315479
  0.4999347192721575  0.3945421522272766  0.8883779900294543
  0.4999159819232011  0.8985941376137797  0.9065800315384295
  0.0000567468227516  0.3956779221770952  0.8875024263208539
  0.9999347402654779  0.8953825288082280  0.8871165551592898
  0.5000135104036421  0.3720107632605846  0.3819207273995638
  0.5001463030282727  0.8673618449277775  0.3817723799754035
 -0.0000305584646248  0.3715680783044910  0.3787455498849345
  0.9999472043991132  0.8712855144939473  0.3798532580396846
  0.4999641767081429  0.1446912521597293  0.3819020172916666
  0.4998463619403538  0.6486085943781861  0.3817824390442579
  0.0000256326438850  0.1450762854873744  0.3788626433303335
 -0.0000265618814543  0.6454288312082924  0.3798289691470460
  0.3874312025649503  0.5080774311140720  0.1343311400921363
  0.3869440051432514  0.0089382759273923  0.1341958746997010
  0.8873468092507243  0.5084801504900281  0.1287383342921696
  0.8871760221945346  0.0082121122540463  0.1288196293905173
  0.1127247541586423  0.0082256604370637  0.1287915456485326
  0.1128548667080582  0.5084836359907252  0.1287670265767669
  0.6127167757657064  0.0081369960212185  0.1343225130511913
  0.6136603348284135  0.5066233467965627  0.1338128006642836
  0.3867392507865335  0.2584422946864512  0.1379383352653700
  0.3850043176446269  0.7584181596270664  0.1626309636894614
  0.8866346532232572  0.2583651993905622  0.1367534911581554
  0.8864356547862087  0.7583428400321807  0.1366874389053446
  0.1133484689703477  0.2583358747849308  0.1367578740292363
  0.1135526550615920  0.7583642257547425  0.1366752495029690
  0.6132164160634586  0.2579393862939770  0.1379380592874227
  0.6149998679181283  0.7571243647595645  0.1623292297693678
  0.2497039112575344  0.3712406248652912  0.3883437587687669
  0.2516515580467830  0.8699632404842242  0.3803866849648463
  0.7503680202323806  0.3710004242383258  0.3885106659291366
  0.7482203915493585  0.8696802164957612  0.3801409933812008
  0.2496676840405237  0.1456110390613291  0.3883727744407807
  0.2515311551647115  0.6466855798794221  0.3803550220293269
  0.7502568185302326  0.1454172811442705  0.3883404795991685
  0.7483904774808620  0.6464409178514419  0.3805008327607491
  0.2503260861646494  0.1200314976387599  0.8785925347575998
  0.2500957253239582  0.6235341122728497  0.8772556009537886
  0.7495975457168734  0.1199934759934179  0.8787152186026929
  0.7499803776884804  0.6234541939816192  0.8770962328541814
  0.2503539434764455  0.3967213822572224  0.8787270843485414
  0.2500234835247352  0.8931999438686804  0.8771193572418103
  0.7497528048541996  0.3965938057759679  0.8784043915716010
  0.7498547674895962  0.8931231370985218  0.8771235433795760
 
             NaN             NaN             NaN
             NaN             NaN             NaN
             NaN             NaN             NaN
             NaN             NaN             NaN
             NaN             NaN             NaN
             NaN             NaN             NaN
             NaN             NaN             NaN
             NaN             NaN             NaN
             NaN             NaN             NaN
             NaN             NaN             NaN
             NaN             NaN             NaN
             NaN             NaN             NaN
             NaN             NaN             NaN
             NaN             NaN             NaN
             NaN             NaN             NaN
             NaN             NaN             NaN
             NaN             NaN             NaN
             NaN             NaN             NaN
             NaN             NaN             NaN
             NaN             NaN             NaN
             NaN             NaN             NaN
             NaN             NaN             NaN
             NaN             NaN             NaN
             NaN             NaN             NaN
             NaN             NaN             NaN
             NaN             NaN             NaN
             NaN             NaN             NaN
             NaN             NaN             NaN
             NaN             NaN             NaN
             NaN             NaN             NaN
             NaN             NaN             NaN
             NaN             NaN             NaN
             NaN             NaN             NaN
             NaN             NaN             NaN
             NaN             NaN             NaN
             NaN             NaN             NaN
             NaN             NaN             NaN
             NaN             NaN             NaN
             NaN             NaN             NaN
             NaN             NaN             NaN
             NaN             NaN             NaN
             NaN             NaN             NaN
             NaN             NaN             NaN
             NaN             NaN             NaN
             NaN             NaN             NaN
             NaN             NaN             NaN
             NaN             NaN             NaN
             NaN             NaN             NaN
             NaN             NaN             NaN
             NaN             NaN             NaN
             NaN             NaN             NaN
             NaN             NaN             NaN
             NaN             NaN             NaN
             NaN             NaN             NaN
             NaN             NaN             NaN
             NaN             NaN             NaN
             NaN             NaN             NaN
             NaN             NaN             NaN
             NaN             NaN             NaN
             NaN             NaN             NaN
             NaN             NaN             NaN
             NaN             NaN             NaN
             NaN             NaN             NaN
             NaN             NaN             NaN
             NaN             NaN             NaN
             NaN             NaN             NaN
             NaN             NaN             NaN
             NaN             NaN             NaN
             NaN             NaN             NaN
             NaN             NaN             NaN
             NaN             NaN             NaN
             NaN             NaN             NaN
             NaN             NaN             NaN
             NaN             NaN             NaN
             NaN             NaN             NaN
             NaN             NaN             NaN
             NaN             NaN             NaN
             NaN             NaN             NaN
             NaN             NaN             NaN
             NaN             NaN             NaN
             NaN             NaN             NaN
             NaN             NaN             NaN
             NaN             NaN             NaN
             NaN             NaN             NaN
             NaN             NaN             NaN
             NaN             NaN             NaN
             NaN             NaN             NaN
             NaN             NaN             NaN
             NaN             NaN             NaN
             NaN             NaN             NaN
             NaN             NaN             NaN
             NaN             NaN             NaN
             NaN             NaN             NaN
             NaN             NaN             NaN
             NaN             NaN             NaN
             NaN             NaN             NaN
             NaN             NaN             NaN
             NaN             NaN             NaN
             NaN             NaN             NaN
             NaN             NaN             NaN
             NaN             NaN             NaN
             NaN             NaN             NaN
             NaN             NaN             NaN
             NaN             NaN             NaN
             NaN             NaN             NaN
             NaN             NaN             NaN
             NaN             NaN             NaN
             NaN             NaN             NaN
             NaN             NaN             NaN
             NaN             NaN             NaN
             NaN             NaN             NaN
