Li15 Fe16 P16 O64
1.0
10.426954 0.002084 0.005787
0.002425 12.142358 -0.001855
0.003767 -0.001714 9.521629
Li Fe P O
15 16 16 64
direct
0.499292 0.489204 0.745906 Li
0.495918 0.496743 0.243566 Li
0.498414 0.004703 0.249827 Li
0.495470 0.014222 0.760880 Li
0.999931 0.251190 0.502626 Li
0.001086 0.251240 0.001397 Li
0.006132 0.744857 0.496577 Li
0.000778 0.747672 0.995773 Li
0.498601 0.252183 0.247106 Li
0.496566 0.746620 0.246935 Li
0.497838 0.749185 0.754199 Li
0.001300 0.003717 0.994975 Li
0.006454 0.005170 0.496504 Li
0.000360 0.498214 0.001864 Li
0.999799 0.497406 0.503116 Li
0.779514 0.126936 0.263069 Fe
0.778577 0.127014 0.763170 Fe
0.779462 0.622143 0.262567 Fe
0.781885 0.624140 0.764545 Fe
0.285027 0.126853 0.489598 Fe
0.282806 0.127897 0.985596 Fe
0.283060 0.623819 0.487011 Fe
0.281585 0.624003 0.985993 Fe
0.219418 0.375346 0.236325 Fe
0.222812 0.373706 0.738739 Fe
0.220560 0.875231 0.236584 Fe
0.219358 0.874841 0.736068 Fe
0.716746 0.373886 0.010671 Fe
0.717510 0.372367 0.516015 Fe
0.715274 0.875629 0.015949 Fe
0.719680 0.875700 0.507757 Fe
0.595904 0.122683 0.042307 P
0.595286 0.121404 0.538281 P
0.595164 0.625288 0.041272 P
0.595433 0.628024 0.540072 P
0.094141 0.123611 0.209357 P
0.093849 0.123744 0.708010 P
0.093410 0.626407 0.208183 P
0.094109 0.625429 0.707553 P
0.405484 0.378314 0.458049 P
0.405960 0.375372 0.959030 P
0.408381 0.874321 0.459948 P
0.404921 0.875167 0.958663 P
0.906841 0.375078 0.292022 P
0.907286 0.375206 0.793014 P
0.904721 0.874388 0.293337 P
0.899199 0.875165 0.791745 P
0.596495 0.122308 0.376276 O
0.602915 0.115217 0.882919 O
0.596920 0.627122 0.379044 O
0.598917 0.627842 0.880108 O
0.097241 0.122242 0.370973 O
0.096007 0.122937 0.869527 O
0.096538 0.627259 0.369759 O
0.095885 0.627157 0.868948 O
0.402909 0.375977 0.121963 O
0.398710 0.385256 0.617376 O
0.402933 0.874597 0.120346 O
0.403359 0.872966 0.620308 O
0.904868 0.375672 0.130651 O
0.903664 0.374949 0.631285 O
0.901460 0.874598 0.133172 O
0.887349 0.874423 0.629179 O
0.955881 0.122200 0.147942 O
0.956091 0.122375 0.645708 O
0.955042 0.627747 0.147155 O
0.956137 0.627467 0.645219 O
0.457235 0.124329 0.103036 O
0.459181 0.117775 0.599217 O
0.457003 0.625609 0.102978 O
0.459117 0.628260 0.604596 O
0.044251 0.375748 0.355542 O
0.044952 0.375510 0.854962 O
0.041514 0.874195 0.356486 O
0.039363 0.874339 0.845122 O
0.544404 0.375866 0.397760 O
0.543683 0.379140 0.901430 O
0.550353 0.874195 0.401556 O
0.542700 0.874139 0.897127 O
0.664994 0.021889 0.116261 O
0.666051 0.014493 0.600635 O
0.665717 0.523479 0.107559 O
0.669822 0.528724 0.607044 O
0.162964 0.226232 0.143835 O
0.164147 0.225484 0.641576 O
0.164603 0.727967 0.141290 O
0.165998 0.726544 0.639323 O
0.334822 0.275590 0.393152 O
0.326909 0.276978 0.898652 O
0.341078 0.772690 0.389399 O
0.333134 0.773920 0.891794 O
0.834852 0.476233 0.359266 O
0.836491 0.477262 0.859076 O
0.829779 0.973698 0.363971 O
0.832492 0.977477 0.860010 O
0.336916 0.479532 0.384816 O
0.335291 0.478390 0.892647 O
0.340155 0.975724 0.390565 O
0.334336 0.977126 0.892383 O
0.836876 0.272781 0.357878 O
0.836490 0.273845 0.859982 O
0.829092 0.775189 0.363311 O
0.831193 0.773299 0.860203 O
0.665996 0.225391 0.107076 O
0.677116 0.217206 0.599982 O
0.665555 0.726574 0.110894 O
0.666011 0.733683 0.602776 O
0.165664 0.022460 0.141816 O
0.165160 0.022054 0.640381 O
0.162564 0.524248 0.141457 O
0.163355 0.522986 0.641566 O
