Li17 Co18 O36                           
   1.00000000000000     
     8.0557280000000002   -0.0035030000000000    2.3736009999999998
     3.6800970000000000    7.1672200000000004    2.3705020000000001
    -0.0129210000000000   -0.0041040000000000    9.8886179999999992
   Li   Co   O 
    17    18    36
Direct
  0.3213531001549166  0.6284534843323596  0.5073960057533831
  0.3335093341374772  0.3320830834421206  0.9976251142892125
  0.3318408463259262  0.6664333468684698  0.9965553576754873
  0.3313848090720949  0.0038392059840013  0.5036953858972526
  0.3323124307776936  0.0023360209411567  0.9967335548829702
  0.6623847702545307  0.3303352450523057  0.5059118177116917
  0.6671396574513910  0.3314932293619333  0.9964373120092327
  0.6572926793275227  0.6652987963502398  0.5055869458741932
  0.6677308837933424  0.6679591805186017  0.9968129978453637
  0.6512892362406224  0.0088540941559563  0.5054916732784935
  0.6671699217629002  0.9989510262543245  0.9987133969254305
  0.0114781939330214  0.3315055399986983  0.5031370993196791
  0.0031687733999421  0.3310747378566466  0.9971175248820893
  0.9894624630567170  0.6627352154815943  0.5046060634680165
  0.9995252787284600  0.6666275954790373  0.9992270384920835
  0.0040070819441770  0.9947974978963195  0.5017055191637766
  0.9997783184250228  0.9991987206026560  0.9976973337406096
  0.1635185782017362  0.1669179237718768  0.2485985422710213
  0.1682435429171367  0.1650661902479110  0.7508330613192808
  0.1638807955670832  0.4986835334138345  0.2503604905815677
  0.1660726600492701  0.4963468794857331  0.7518453793245585
  0.1626289925624899  0.8344749151464931  0.2474548543724219
  0.1673026463542287  0.8305868349250382  0.7515615133239167
  0.4959184684954797  0.1664981680609561  0.2514949964003266
  0.4997432158066088  0.1641280945432056  0.7506138567281033
  0.4964821936530153  0.4991365481682808  0.2505708464025996
  0.4991028898828618  0.4976583579018286  0.7531182396908185
  0.4961702071151068  0.8334118463346788  0.2513534083699341
  0.4992537647866302  0.8307634341394515  0.7540765646985459
  0.8318184590748403  0.1661757763755145  0.2495685962928347
  0.8337727216179338  0.1647342700545077  0.7509085874441805
  0.8303136425002384  0.5002487074293044  0.2504159642414616
  0.8322127264951200  0.4980917029208165  0.7536205699741898
  0.8295457268889829  0.8333000152894460  0.2509758704473983
  0.8331516459886330  0.8303694241376690  0.7511421551035934
  0.2494909742838078  0.2518819155829854  0.3560213380545429
  0.2539143984982692  0.2505454753353695  0.8625450788359521
  0.2547862955971703  0.5876733593544708  0.3530136232729570
  0.2523208703858000  0.5845497573658686  0.8629457567068596
  0.2493537024301392  0.9206964974595627  0.3573506688478285
  0.2524202144771528  0.9180202786159830  0.8629706400954698
  0.5845228458969945  0.2590301896447244  0.3551392296917078
  0.5876216885729312  0.2501266479536455  0.8621579008202089
  0.5821624666910545  0.5848291547153656  0.3599465166689552
  0.5855944059787945  0.5838446436268564  0.8653058340187703
  0.5828948731821370  0.9203048009208425  0.3612926615945771
  0.5875758981984536  0.9176555482420745  0.8629803230897778
  0.9174607022741668  0.2538344781561833  0.3589343098649286
  0.9202493526985828  0.2508119192353465  0.8622447650266799
  0.9175851506739798  0.5861235859636604  0.3601565282852407
  0.9192380988335617  0.5848330933685700  0.8633195266927534
  0.9184186519653514  0.9201649279809679  0.3590070360939733
  0.9201021896505243  0.9178853687621552  0.8606991312171206
  0.0761841889596616  0.0800902413262837  0.1378229393649837
  0.0808355501834748  0.0775744552341256  0.6412406254118953
  0.0759317217745862  0.4144233313430837  0.1396497616521829
  0.0746930267434709  0.4130572728373906  0.6449740381281035
  0.0758272232404929  0.7462873305041053  0.1395115417652474
  0.0800409474227414  0.7426589319075672  0.6410735823365341
  0.4118507256070200  0.0787704312390047  0.1402604107733826
  0.4147511794313453  0.0723782128183170  0.6451517478833924
  0.4114846336693359  0.4131205287427881  0.1408336945339085
  0.4145738616020615  0.4101731819669632  0.6459741748090351
  0.4142366021571059  0.7407523396623253  0.1408463438206660
  0.4132941986397295  0.7440040738905555  0.6436172283676997
  0.7429740097906411  0.0796898209808652  0.1410361337778765
  0.7468780480820771  0.0773040775656811  0.6405486866608783
  0.7379590857968766  0.4169476747278744  0.1415155654267870
  0.7459283635889156  0.4116873036181914  0.6423040234219959
  0.7428674772371106  0.7464254767790315  0.1415268802338203
  0.7450422398037936  0.7442463833991932  0.6424552954473869
 
             NaN             NaN             NaN
             NaN             NaN             NaN
             NaN             NaN             NaN
             NaN             NaN             NaN
             NaN             NaN             NaN
             NaN             NaN             NaN
             NaN             NaN             NaN
             NaN             NaN             NaN
             NaN             NaN             NaN
             NaN             NaN             NaN
             NaN             NaN             NaN
             NaN             NaN             NaN
             NaN             NaN             NaN
             NaN             NaN             NaN
             NaN             NaN             NaN
             NaN             NaN             NaN
             NaN             NaN             NaN
             NaN             NaN             NaN
             NaN             NaN             NaN
             NaN             NaN             NaN
             NaN             NaN             NaN
             NaN             NaN             NaN
             NaN             NaN             NaN
             NaN             NaN             NaN
             NaN             NaN             NaN
             NaN             NaN             NaN
             NaN             NaN             NaN
             NaN             NaN             NaN
             NaN             NaN             NaN
             NaN             NaN             NaN
             NaN             NaN             NaN
             NaN             NaN             NaN
             NaN             NaN             NaN
             NaN             NaN             NaN
             NaN             NaN             NaN
             NaN             NaN             NaN
             NaN             NaN             NaN
             NaN             NaN             NaN
             NaN             NaN             NaN
             NaN             NaN             NaN
             NaN             NaN             NaN
             NaN             NaN             NaN
             NaN             NaN             NaN
             NaN             NaN             NaN
             NaN             NaN             NaN
             NaN             NaN             NaN
             NaN             NaN             NaN
             NaN             NaN             NaN
             NaN             NaN             NaN
             NaN             NaN             NaN
             NaN             NaN             NaN
             NaN             NaN             NaN
             NaN             NaN             NaN
             NaN             NaN             NaN
             NaN             NaN             NaN
             NaN             NaN             NaN
             NaN             NaN             NaN
             NaN             NaN             NaN
             NaN             NaN             NaN
             NaN             NaN             NaN
             NaN             NaN             NaN
             NaN             NaN             NaN
             NaN             NaN             NaN
             NaN             NaN             NaN
             NaN             NaN             NaN
             NaN             NaN             NaN
             NaN             NaN             NaN
             NaN             NaN             NaN
             NaN             NaN             NaN
             NaN             NaN             NaN
             NaN             NaN             NaN
