Li17 Co18 O36                           
   1.00000000000000     
     8.0557280000000002   -0.0035030000000000    2.3736009999999998
     3.6800970000000000    7.1672200000000004    2.3705020000000001
    -0.0129210000000000   -0.0041040000000000    9.8886179999999992
   Li   Co   O 
    17    18    36
Direct
  0.3202345328204586  0.6271973521152583  0.5074747779204215
  0.3332682627104743  0.3317440338063933  0.9977812195817257
  0.3315296256673052  0.6663077649063367  0.9966802576297356
  0.3310295408634802  0.0038766886406317  0.5038491087633900
  0.3321473802857478  0.0021749647758536  0.9968583572897867
  0.6617494670840856  0.3302530939099515  0.5061410191017460
  0.6669527909177367  0.3311917446581643  0.9965921298473736
  0.6566012077976958  0.6650112719114603  0.5058132857039943
  0.6674782601208388  0.6677528098183741  0.9968503962619428
  0.6518313859487797  0.0079527682536344  0.5059669730262405
  0.6669146306627491  0.9987181632895251  0.9987652104290570
  0.0117022817726442  0.3313013853326127  0.5030706436914492
  0.0033153485100635  0.3307390064032902  0.9970555271897515
  0.9891348286482129  0.6625926011418569  0.5048407883964210
  0.9991128908144348  0.6667600010068364  0.9993169362173397
  0.0035647424828018  0.9947100680274329  0.5019434956675672
 -0.0002485693969250  0.9991605203980388  0.9979010915102783
  0.1634717126645623  0.1666625723391266  0.2486827399907641
  0.1681210621081752  0.1650786659620414  0.7508915294414191
  0.1635955324495007  0.4983025159385505  0.2503762712491048
  0.1659381187836978  0.4964140195297599  0.7519311798524700
  0.1625888546371505  0.8342395208169335  0.2473271966054320
  0.1665383883375809  0.8311764841410318  0.7517130581874814
  0.4959189276260468  0.1659147910109879  0.2518599327023339
  0.4996790570877312  0.1640893223965975  0.7506824226885546
  0.4964444482183786  0.4984720913234028  0.2508493935935955
  0.4988141678042318  0.4978178131476984  0.7532764519313944
  0.4960954602033074  0.8328552154007947  0.2514268098295750
  0.4991087903839262  0.8306789901103230  0.7542056850044815
  0.8318583301176885  0.1658268133640705  0.2497739093823614
  0.8333128308754676  0.1648995469050527  0.7511265472095811
  0.8300403413896548  0.4997768908665614  0.2502291628840509
  0.8320656497467014  0.4981167290191293  0.7536892215629242
  0.8295003163590258  0.8329906940589024  0.2509980199021818
  0.8329471310548190  0.8303465760357144  0.7512724191968054
  0.2495083523041824  0.2512509219173545  0.3564156602698207
  0.2539051438309961  0.2504560439857136  0.8625864948171509
  0.2545730034649764  0.5874699148750506  0.3531927783830336
  0.2519398608350096  0.5848042897299515  0.8629043631326940
  0.2491607873776291  0.9202298756918030  0.3570976137615214
  0.2521696880828616  0.9181838004526454  0.8630349228786512
  0.5845045034356665  0.2586319977761460  0.3555215640191968
  0.5872590762762632  0.2501319267343210  0.8622376153834609
  0.5822779325907398  0.5842882212768759  0.3600080125080728
  0.5854357160403658  0.5837639918644019  0.8654353446164894
  0.5829399358707232  0.9194544419675772  0.3616015950759614
  0.5874101044407577  0.9176164374699083  0.8630421429231308
  0.9175696610143611  0.2535137143224865  0.3588976198607823
  0.9200951021200655  0.2508732148651868  0.8623105289109978
  0.9175823817587471  0.5855534274877668  0.3599399027173805
  0.9191634668612730  0.5848058162091740  0.8633848508076967
  0.9184290714980401  0.9198691196775237  0.3590828178872432
  0.9196176235362244  0.9180960398768591  0.8608838444365399
  0.0761509181447211  0.0798545583968314  0.1378712627701094
  0.0803867669633650  0.0779464663606524  0.6413209049047841
  0.0757521649827967  0.4140226991926576  0.1394664966899421
  0.0746224657908346  0.4131247711765643  0.6450249373202459
  0.0754949027505888  0.7464050650420349  0.1391425356583928
  0.0797373967867747  0.7428466221965893  0.6411364169498902
  0.4117836837545850  0.0783104752835869  0.1406048595932352
  0.4146434071382235  0.0722666984505975  0.6451202010311951
  0.4115086638936737  0.4125698928796702  0.1410789983782789
  0.4144091812024622  0.4101460653392965  0.6460292198945333
  0.4141384629352503  0.7400716936880887  0.1409214352858709
  0.4127751894525288  0.7442405369267910  0.6438795090468089
  0.7427332144440971  0.0794678203736273  0.1413282468328191
  0.7467404560295847  0.0772741221723448  0.6406370550591636
  0.7377034154384252  0.4163577103423576  0.1417999255975110
  0.7456147360087986  0.4117807250149926  0.6424580821585201
  0.7427011730276019  0.7460886269871833  0.1415706354017740
  0.7448989025816989  0.7442129817974606  0.6425143169450910
 
             NaN             NaN             NaN
             NaN             NaN             NaN
             NaN             NaN             NaN
             NaN             NaN             NaN
             NaN             NaN             NaN
             NaN             NaN             NaN
             NaN             NaN             NaN
             NaN             NaN             NaN
             NaN             NaN             NaN
             NaN             NaN             NaN
             NaN             NaN             NaN
             NaN             NaN             NaN
             NaN             NaN             NaN
             NaN             NaN             NaN
             NaN             NaN             NaN
             NaN             NaN             NaN
             NaN             NaN             NaN
             NaN             NaN             NaN
             NaN             NaN             NaN
             NaN             NaN             NaN
             NaN             NaN             NaN
             NaN             NaN             NaN
             NaN             NaN             NaN
             NaN             NaN             NaN
             NaN             NaN             NaN
             NaN             NaN             NaN
             NaN             NaN             NaN
             NaN             NaN             NaN
             NaN             NaN             NaN
             NaN             NaN             NaN
             NaN             NaN             NaN
             NaN             NaN             NaN
             NaN             NaN             NaN
             NaN             NaN             NaN
             NaN             NaN             NaN
             NaN             NaN             NaN
             NaN             NaN             NaN
             NaN             NaN             NaN
             NaN             NaN             NaN
             NaN             NaN             NaN
             NaN             NaN             NaN
             NaN             NaN             NaN
             NaN             NaN             NaN
             NaN             NaN             NaN
             NaN             NaN             NaN
             NaN             NaN             NaN
             NaN             NaN             NaN
             NaN             NaN             NaN
             NaN             NaN             NaN
             NaN             NaN             NaN
             NaN             NaN             NaN
             NaN             NaN             NaN
             NaN             NaN             NaN
             NaN             NaN             NaN
             NaN             NaN             NaN
             NaN             NaN             NaN
             NaN             NaN             NaN
             NaN             NaN             NaN
             NaN             NaN             NaN
             NaN             NaN             NaN
             NaN             NaN             NaN
             NaN             NaN             NaN
             NaN             NaN             NaN
             NaN             NaN             NaN
             NaN             NaN             NaN
             NaN             NaN             NaN
             NaN             NaN             NaN
             NaN             NaN             NaN
             NaN             NaN             NaN
             NaN             NaN             NaN
             NaN             NaN             NaN
