Li17 Co18 O36                           
   1.00000000000000     
     8.0557280000000002   -0.0035030000000000    2.3736009999999998
     3.6800970000000000    7.1672200000000004    2.3705020000000001
    -0.0129210000000000   -0.0041040000000000    9.8886179999999992
   Li   Co   O 
    17    18    36
Direct
  0.3224758836322156  0.6305375528202276  0.5069574697545871
  0.3332253337074683  0.3315536815790630  0.9977162756293094
  0.3312744237261483  0.6662898614037553  0.9963979547493389
  0.3310492162564676  0.0038839771941439  0.5035621902352991
  0.3324229270215202  0.0026732987358895  0.9970900115382210
  0.6631949766559753  0.3298949483674424  0.5058400247856989
  0.6673437882829979  0.3308357710905204  0.9963273248214539
  0.6571279625963643  0.6654415566827323  0.5059067915848754
  0.6677762992781762  0.6682257898259188  0.9966501621933530
  0.6514632194768922  0.0082864440657892  0.5056791806900577
  0.6665829403536685  0.9994145087997071  0.9992341768124205
  0.0121798201185952  0.3312340549357590  0.5028303905840048
  0.0041722514527297  0.3309467948827196  0.9968742738002550
  0.9889501737622521  0.6624758553533685  0.5051534980889723
  0.9992598115160181  0.6662994737338113  0.9992988128483367
  0.0041776942246602  0.9950971356636416  0.5016827720943209
  0.9998117125422429  0.9990779265365796  0.9981154832323100
  0.1631888516328570  0.1668781596642819  0.2488251358021697
  0.1682504070599108  0.1649053993196099  0.7507846235979430
  0.1637855251643932  0.4988597006147220  0.2504816318036784
  0.1660245063802960  0.4961813383611242  0.7515371504137575
  0.1624078959180218  0.8343890858075533  0.2478424399841642
  0.1680625385495902  0.8300372347890516  0.7512820247533658
  0.4954376393433819  0.1667442894357337  0.2512457511173023
  0.4997488952367651  0.1641714620741171  0.7504725346118324
  0.4963305232372928  0.4991978824028979  0.2507997874705973
  0.4992156679898980  0.4973276569388147  0.7529991616254503
  0.4959476180409594  0.8334171112120323  0.2514895463478115
  0.4991754517937082  0.8303813005748931  0.7544796807831077
  0.8313062016529035  0.1664687051638334  0.2497917133749830
  0.8338431488994684  0.1642030712502013  0.7505734824947148
  0.8300338944227396  0.5001380555227427  0.2506187658759080
  0.8320454566534299  0.4980709871341953  0.7537114222220216
  0.8295206265070515  0.8334217918334536  0.2510282849617568
  0.8332464978964507  0.8300948682137064  0.7511923901450064
  0.2486552564702863  0.2522435940787486  0.3563336349854243
  0.2539635419269766  0.2505214316341812  0.8623212072018627
  0.2549485533584701  0.5874601758933690  0.3532972173826260
  0.2522824472721637  0.5842374813768862  0.8628934180713471
  0.2491475501538300  0.9204587806830058  0.3577981894619504
  0.2526648483483232  0.9176295189039241  0.8628474681738721
  0.5841624005676164  0.2594798866333672  0.3553083967892227
  0.5876492903018300  0.2498122893770585  0.8621805427971337
  0.5816407999100867  0.5847399629953721  0.3602339003418743
  0.5856439053041638  0.5834821444677557  0.8651832122373608
  0.5827279551446130  0.9205605592152903  0.3616957470765725
  0.5874928881648922  0.9175287343434995  0.8627447653377784
  0.9171039547527700  0.2538428684932764  0.3591982374117406
  0.9202157207708933  0.2504162740819130  0.8623774729224478
  0.9173349485418228  0.5863594089281824  0.3603456121544502
  0.9190351305269654  0.5843516165839047  0.8628279898917010
  0.9182765421437246  0.9202723038132735  0.3590028969564063
  0.9200970657569996  0.9176273069645392  0.8607623146783924
  0.0760890062750566  0.0798109297569983  0.1380013684241126
  0.0808824377236308  0.0773315599527015  0.6412560858441811
  0.0753097896228044  0.4144938482626356  0.1397058780667267
  0.0745343675787435  0.4126534572862947  0.6449591041430274
  0.0757074913377000  0.7463117828094304  0.1395929724371407
  0.0799243058074586  0.7425328144767621  0.6410860345464497
  0.4114846976536309  0.0787191025211626  0.1406685513980503
  0.4146968280118824  0.0722420739406604  0.6449505226696992
  0.4110273854729160  0.4132052858500726  0.1408407496636338
  0.4144611477696195  0.4102543305079483  0.6459202461924545
  0.4142183729605136  0.7405298192190412  0.1411625469048415
  0.4132454142785772  0.7436521034530077  0.6433336710041183
  0.7425524720175170  0.0799806712245149  0.1412475978844477
  0.7469652272228580  0.0770127584288699  0.6406350512635207
  0.7373687706874730  0.4172905308849663  0.1417359224507135
  0.7457617323830718  0.4110386740379702  0.6417594604827679
  0.7423679410984189  0.7465807096657427  0.1418998284079712
  0.7452115906348650  0.7437234651254772  0.6421321712576666
 
             NaN             NaN             NaN
             NaN             NaN             NaN
             NaN             NaN             NaN
             NaN             NaN             NaN
             NaN             NaN             NaN
             NaN             NaN             NaN
             NaN             NaN             NaN
             NaN             NaN             NaN
             NaN             NaN             NaN
             NaN             NaN             NaN
             NaN             NaN             NaN
             NaN             NaN             NaN
             NaN             NaN             NaN
             NaN             NaN             NaN
             NaN             NaN             NaN
             NaN             NaN             NaN
             NaN             NaN             NaN
             NaN             NaN             NaN
             NaN             NaN             NaN
             NaN             NaN             NaN
             NaN             NaN             NaN
             NaN             NaN             NaN
             NaN             NaN             NaN
             NaN             NaN             NaN
             NaN             NaN             NaN
             NaN             NaN             NaN
             NaN             NaN             NaN
             NaN             NaN             NaN
             NaN             NaN             NaN
             NaN             NaN             NaN
             NaN             NaN             NaN
             NaN             NaN             NaN
             NaN             NaN             NaN
             NaN             NaN             NaN
             NaN             NaN             NaN
             NaN             NaN             NaN
             NaN             NaN             NaN
             NaN             NaN             NaN
             NaN             NaN             NaN
             NaN             NaN             NaN
             NaN             NaN             NaN
             NaN             NaN             NaN
             NaN             NaN             NaN
             NaN             NaN             NaN
             NaN             NaN             NaN
             NaN             NaN             NaN
             NaN             NaN             NaN
             NaN             NaN             NaN
             NaN             NaN             NaN
             NaN             NaN             NaN
             NaN             NaN             NaN
             NaN             NaN             NaN
             NaN             NaN             NaN
             NaN             NaN             NaN
             NaN             NaN             NaN
             NaN             NaN             NaN
             NaN             NaN             NaN
             NaN             NaN             NaN
             NaN             NaN             NaN
             NaN             NaN             NaN
             NaN             NaN             NaN
             NaN             NaN             NaN
             NaN             NaN             NaN
             NaN             NaN             NaN
             NaN             NaN             NaN
             NaN             NaN             NaN
             NaN             NaN             NaN
             NaN             NaN             NaN
             NaN             NaN             NaN
             NaN             NaN             NaN
             NaN             NaN             NaN
