Li17 Co18 O36                           
   1.00000000000000     
     8.0557280000000002   -0.0035030000000000    2.3736009999999998
     3.6800970000000000    7.1672200000000004    2.3705020000000001
    -0.0129210000000000   -0.0041040000000000    9.8886179999999992
   Li   Co   O 
    17    18    36
Direct
  0.3197105044852491  0.6282372565666018  0.5093497692025584
  0.3339280784661377  0.3313324672806983  0.9964518283712817
  0.3319610351055037  0.6664928411601069  0.9962247754586381
  0.3307238926100695  0.0012275827294204  0.5042768668272556
  0.3319788266260127  1.0012242384736854  0.9965706863085728
  0.6614469311040577  0.3300243082296964  0.5063091147015621
  0.6662910009457612  0.3316483360102418  0.9962105492367254
  0.6568889684817980  0.6634523549527667  0.5054498474053534
  0.6673780965768470  0.6671361174195807  0.9970420487241228
  0.6496111788031139  0.0092810812717803  0.5059690788113049
  0.6670153281812129  0.9982391365534790  0.9980950171726567
  0.0076397276113370  0.3311176061332261  0.5054958788236140
  1.0027009283247934  0.3312822634046608  0.9971127142596530
  0.9848114921318671  0.6648857730425588  0.5056633363061216
  0.9980113041457448  0.6669184159434250  0.9985344449471769
  0.0034169733554439  0.9944744294142954  0.5021302754119455
  0.0002351063948390 -0.0008663533357788  0.9975566010594515
  0.1643460048249581  0.1656721771591800  0.2481782592138205
  0.1675635817344028  0.1651039524632904  0.7508172931503314
  0.1636648920489945  0.4955382211200207  0.2520469241512938
  0.1655799084754737  0.4964568415811242  0.7519194421218252
  0.1642239574172534  0.8355994670684597  0.2491961164433793
  0.1661425719334265  0.8311183847854950  0.7519025643354996
  0.4980741661641537  0.1656253557280767  0.2502979078949313
  0.4992064070210227  0.1640830148307499  0.7506910522029666
  0.4989476270319491  0.4976846027601841  0.2501760624411984
  0.4985086803626818  0.4976069870487517  0.7533320287370513
  0.4970388894918922  0.8326397112981690  0.2518270817587589
  0.4988436630911807  0.8307124461619669  0.7541688630632214
  0.8327808662356798  0.1657556041999401  0.2492102674745769
  0.8329537477408450  0.1648311566010305  0.7512747012624975
  0.8290936694637893  0.5000655016969684  0.2504597131321806
  0.8315536863781728  0.4982635582745046  0.7538355927224100
  0.8291751363989796  0.8334394902102220  0.2512610959339168
  0.8324859664856633  0.8304653892658986  0.7514032256310246
  0.2513722126526557  0.2467854429347237  0.3582034421456994
  0.2533272612782646  0.2503838265296861  0.8623849590607755
  0.2585977996655803  0.5897853684369880  0.3548445991791870
  0.2514895111951257  0.5846885205156990  0.8630769726563872
  0.2503603208977787  0.9209980516504659  0.3582631566215551
  0.2518268384567254  0.9181074195170384  0.8629265859019994
  0.5855925395332052  0.2579888451141459  0.3548431303465696
  0.5869596349492333  0.2498059394645256  0.8620279764360953
  0.5826767054347346  0.5838108245242922  0.3601896269849468
  0.5851084346400524  0.5839191836458101  0.8650878004134300
  0.5831659834395818  0.9207523180990873  0.3610320229112060
  0.5868808437099383  0.9175333358560164  0.8631075819728844
  0.9181520162991854  0.2531318000356885  0.3588220575318219
  0.9195418141501399  0.2509036451047400  0.8624377638644156
  0.9074898817184808  0.5886768155560766  0.3649847226513520
  0.9184280163663907  0.5852244752732428  0.8631042342581837
  0.9186967490610051  0.9204128879553999  0.3593615332797630
  0.9192997725612631  0.9179823217098391  0.8609267261505336
  0.0775580614529597  0.0793679182327737  0.1381923057178933
  0.0797723104859461  0.0777179772661574  0.6414375739107150
  0.0725566082751147  0.4119776592461690  0.1357992634448002
  0.0739295669442705  0.4133521066620828  0.6450064575269009
  0.0755524243416733  0.7501309875221184  0.1385267054465075
  0.0790856690755320  0.7429129544017846  0.6414171769837227
  0.4132019059981303  0.0776511241696455  0.1399533407208096
  0.4139393563018365  0.0722843293724402  0.6451997122293619
  0.4213158840839183  0.4101231921795112  0.1363640408276515
  0.4138337219230129  0.4098670485526798  0.6462963554463135
  0.4152467290462962  0.7404352858824580  0.1412620104487905
  0.4124143263326750  0.7438765464443799  0.6438602116041617
  0.7441416523207017  0.0787106440596473  0.1408862843127365
  0.7461896528892852  0.0774931746028008  0.6405917312759830
  0.7391784220331902  0.4164006487654225  0.1411610829294158
  0.7450792894168471  0.4113365379087935  0.6427946285886047
  0.7427981046156862  0.7462818959968156  0.1416755752200522
  0.7440720176534404  0.7445064528212276  0.6429261553927934
 
             NaN             NaN             NaN
             NaN             NaN             NaN
             NaN             NaN             NaN
             NaN             NaN             NaN
             NaN             NaN             NaN
             NaN             NaN             NaN
             NaN             NaN             NaN
             NaN             NaN             NaN
             NaN             NaN             NaN
             NaN             NaN             NaN
             NaN             NaN             NaN
             NaN             NaN             NaN
             NaN             NaN             NaN
             NaN             NaN             NaN
             NaN             NaN             NaN
             NaN             NaN             NaN
             NaN             NaN             NaN
             NaN             NaN             NaN
             NaN             NaN             NaN
             NaN             NaN             NaN
             NaN             NaN             NaN
             NaN             NaN             NaN
             NaN             NaN             NaN
             NaN             NaN             NaN
             NaN             NaN             NaN
             NaN             NaN             NaN
             NaN             NaN             NaN
             NaN             NaN             NaN
             NaN             NaN             NaN
             NaN             NaN             NaN
             NaN             NaN             NaN
             NaN             NaN             NaN
             NaN             NaN             NaN
             NaN             NaN             NaN
             NaN             NaN             NaN
             NaN             NaN             NaN
             NaN             NaN             NaN
             NaN             NaN             NaN
             NaN             NaN             NaN
             NaN             NaN             NaN
             NaN             NaN             NaN
             NaN             NaN             NaN
             NaN             NaN             NaN
             NaN             NaN             NaN
             NaN             NaN             NaN
             NaN             NaN             NaN
             NaN             NaN             NaN
             NaN             NaN             NaN
             NaN             NaN             NaN
             NaN             NaN             NaN
             NaN             NaN             NaN
             NaN             NaN             NaN
             NaN             NaN             NaN
             NaN             NaN             NaN
             NaN             NaN             NaN
             NaN             NaN             NaN
             NaN             NaN             NaN
             NaN             NaN             NaN
             NaN             NaN             NaN
             NaN             NaN             NaN
             NaN             NaN             NaN
             NaN             NaN             NaN
             NaN             NaN             NaN
             NaN             NaN             NaN
             NaN             NaN             NaN
             NaN             NaN             NaN
             NaN             NaN             NaN
             NaN             NaN             NaN
             NaN             NaN             NaN
             NaN             NaN             NaN
             NaN             NaN             NaN
