Li17 Co18 O36                           
   1.00000000000000     
     8.0557280000000002   -0.0035030000000000    2.3736009999999998
     3.6800970000000000    7.1672200000000004    2.3705020000000001
    -0.0129210000000000   -0.0041040000000000    9.8886179999999992
   Li   Co   O 
    17    18    36
Direct
  0.3106073720655114  0.6219713788730339  0.5108522623815791
  0.3324798223679633  0.3348082987088881 -0.0048528803912400
  0.3320152851186010  0.6713407932734904 -0.0051881262476900
  0.3294398629282925  0.0045937561976978  0.5059754679901509
  0.3319649647694228  0.9998964087696027  0.9959062094393136
  0.6597379742029275  0.3331273371711954  0.5068226932335922
  0.6699782963633338  0.3333050403567654 -0.0054183698185402
  0.6601929782929556  0.6623886917540098  0.5073356343887500
  0.6675855497236428  0.6679333075922510 -0.0027908997357074
  0.6571118221752545  0.0067672504803246  0.5069341855278543
  0.6694060243752865 -0.0004418588248121  0.9954762985723188
  0.0082731543686175  0.3318891212288786  0.5042483154157618
  0.9994789078286237  0.3332486933903117  0.9987255551070304
 -0.0093608300561903  0.6628225865287710  0.5021140935351429
 -0.0006878832621791  0.6677803358695500  0.9980306464149760
  1.0024038470434538  0.9977768813837381  0.5010193097246243
  1.0020737460978657  1.0005995074703811  0.9962115495378202
  0.1655577635622863  0.1670620706389977  0.2474806545311764
  0.1673223311824277  0.1675915947593872  0.7496544306565602
  0.1646089050488795  0.4988454295262448  0.2499312749723447
  0.1656959080654702  0.4972303075211812  0.7519315397712460
  0.1666039590489490  0.8348759819789238  0.2481176019612759
  0.1671328424736311  0.8324228772977665  0.7498801028634527
  0.4994251637736000  0.1657632863561133  0.2519372090830581
  0.4995879350524939  0.1647064593714722  0.7503759725486290
  0.4985993032996606  0.5009334586423211  0.2527077487254679
  0.4990919646744783  0.4990706701562135  0.7515526540477446
  0.4987755411697290  0.8334754207920634  0.2517896841044067
  0.4984641221526427  0.8320671408271563  0.7535342468909724
  0.8349106901076787  0.1660287853279783  0.2490712081198831
  0.8338392704619838  0.1665638854342425  0.7493283622243428
  0.8327403796292568  0.5001204597087612  0.2510220656862429
  0.8320954156216381  0.5000235054768678  0.7522487973549300
  0.8341707983811540  0.8321948823289390  0.2494283558996463
  0.8325567903636766  0.8323081735261242  0.7503970734329828
  0.2525852858919396  0.2505616708513776  0.3558705589752394
  0.2532346760204190  0.2515397312454472  0.8623738399520325
  0.2464586491544646  0.5918664217988813  0.3571685162629166
  0.2522868289421992  0.5866900369717809  0.8619490535232144
  0.2517805673124829  0.9226227279772518  0.3577392389875573
  0.2511852491658086  0.9203865860351753  0.8612835848640024
  0.5923325718139122  0.2417179423796901  0.3588202971396699
  0.5877886615543793  0.2515422730672311  0.8609722825433905
  0.5873813001943158  0.5881791437795914  0.3647692688334866
  0.5852936090585293  0.5850041886365273  0.8639189211559964
  0.5862609739794843  0.9247484589373742  0.3600145911305113
  0.5875448193857482  0.9187537992824603  0.8622091750294464
  0.9205401995371747  0.2529530186500305  0.3583362262593248
  0.9199190872668752  0.2527906832171730  0.8607653671765975
  0.9189093559954635  0.5869903054651667  0.3601762231514439
  0.9186116772898133  0.5871401180328044  0.8621510126179269
  0.9211704194185414  0.9200960137860514  0.3580564439156974
  0.9198086498442806  0.9200176977158261  0.8595205843771863
  0.0794067838020025  0.0805363020553846  0.1368276185748487
  0.0804002210893525  0.0799267802599716  0.6397296176299343
  0.0774095520125199  0.4149263836244353  0.1388390143937126
  0.0744965549621616  0.4150918860838629  0.6444371408842572
  0.0792760723462580  0.7463510647093443  0.1386318065694297
  0.0794372244209205  0.7438583109830017  0.6411577434111974
  0.4151842997114928  0.0827322340629777  0.1408176635430995
  0.4140779059435095  0.0738309385115351  0.6446821917469991
  0.4134288324718420  0.4031160068936748  0.1389968231271886
  0.4137594785693977  0.4102625027687702  0.6463572277109640
  0.4133213377729056  0.7528832555117679  0.1359996550355470
  0.4128939636486748  0.7461559889798022  0.6428065799458769
  0.7453896447731364  0.0795490857810601  0.1401459787378352
  0.7464759388237583  0.0790176652481073  0.6400286946537669
  0.7494622516482324  0.4127821175537288  0.1373163866426480
  0.7462300176635254  0.4132764889413046  0.6410663734579740
  0.7452969885618960  0.7471495717456927  0.1410285149800840
  0.7443749128595690  0.7463185975475796  0.6415247932216961
 
             NaN             NaN             NaN
             NaN             NaN             NaN
             NaN             NaN             NaN
             NaN             NaN             NaN
             NaN             NaN             NaN
             NaN             NaN             NaN
             NaN             NaN             NaN
             NaN             NaN             NaN
             NaN             NaN             NaN
             NaN             NaN             NaN
             NaN             NaN             NaN
             NaN             NaN             NaN
             NaN             NaN             NaN
             NaN             NaN             NaN
             NaN             NaN             NaN
             NaN             NaN             NaN
             NaN             NaN             NaN
             NaN             NaN             NaN
             NaN             NaN             NaN
             NaN             NaN             NaN
             NaN             NaN             NaN
             NaN             NaN             NaN
             NaN             NaN             NaN
             NaN             NaN             NaN
             NaN             NaN             NaN
             NaN             NaN             NaN
             NaN             NaN             NaN
             NaN             NaN             NaN
             NaN             NaN             NaN
             NaN             NaN             NaN
             NaN             NaN             NaN
             NaN             NaN             NaN
             NaN             NaN             NaN
             NaN             NaN             NaN
             NaN             NaN             NaN
             NaN             NaN             NaN
             NaN             NaN             NaN
             NaN             NaN             NaN
             NaN             NaN             NaN
             NaN             NaN             NaN
             NaN             NaN             NaN
             NaN             NaN             NaN
             NaN             NaN             NaN
             NaN             NaN             NaN
             NaN             NaN             NaN
             NaN             NaN             NaN
             NaN             NaN             NaN
             NaN             NaN             NaN
             NaN             NaN             NaN
             NaN             NaN             NaN
             NaN             NaN             NaN
             NaN             NaN             NaN
             NaN             NaN             NaN
             NaN             NaN             NaN
             NaN             NaN             NaN
             NaN             NaN             NaN
             NaN             NaN             NaN
             NaN             NaN             NaN
             NaN             NaN             NaN
             NaN             NaN             NaN
             NaN             NaN             NaN
             NaN             NaN             NaN
             NaN             NaN             NaN
             NaN             NaN             NaN
             NaN             NaN             NaN
             NaN             NaN             NaN
             NaN             NaN             NaN
             NaN             NaN             NaN
             NaN             NaN             NaN
             NaN             NaN             NaN
             NaN             NaN             NaN
