Li47 P16 O64                            
   1.00000000000000     
    10.5889059999999997   -0.0004060000000000   -0.0102000000000000
    -0.0004700000000000   12.4007839999999998    0.0006090000000000
    -0.0096440000000000    0.0004860000000000   10.0202190000000009
   Li   P    O 
    47    16    64
Direct
  0.1969118641358674  0.2674769484175735  0.1436607165740509
  0.6546880619222588  0.2532762545465559  0.0982463855661129
  0.6658038204607292  0.2497742279422774  0.5984820240931530
  0.6628720311017423  0.7500648760083011  0.0988650238126263
  0.6638919796433707  0.7505559973453855  0.5993049508321953
  0.1643736971479869  0.4969498187584985  0.1500701682570340
  0.1649448340934425  0.4987973313019792  0.6514319329223187
  0.1644279348925117  0.9990878693464621  0.1506678807865067
  0.1645497732291702  0.9991541276229341  0.6514389013808475
  0.3374887196145900  0.0010548195378382  0.3995352207792419
  0.3369688789602014  0.0009247718423610  0.9033864939430074
  0.3397380972356374  0.4985022833014772  0.3958863955181572
  0.3381612911673166  0.4967123118449718  0.9078347685932509
  0.8358351382863738  0.2488748294023970  0.3486927013521890
  0.8340340111806773  0.2491767865024463  0.8505471850356581
  0.8371280043080348  0.7485880996036026  0.3492449338142404
  0.8368749917079463  0.7488140564235831  0.8491300656715082
  0.3396262777094920  0.2512908584395261  0.3951830132250843
  0.3378872269118144  0.2532421599188645  0.9086841422372183
  0.3373999250478956  0.7491288778669161  0.3996179878190810
  0.3369169227381368  0.7492148680398211  0.9032558816937579
  0.8371501944490323  0.0015361236933287  0.3490675729294015
  0.8368270955676719  0.0012291589471375  0.8490671967942580
  0.8359088990120885  0.5007868143786800  0.3485590004184635
  0.8341079060469511  0.5008590497673362  0.8506130169956433
  0.6548063172202481  0.4963517837768200  0.0980192010527822
  0.6658197236219451  0.5002088212710696  0.5984599973518727
  0.6627335643128448  0.9994185984603013  0.0986939669430769
  0.6639421311274668  0.9994349295931081  0.5994300218494466
  0.1648837203633295  0.2518040233848912  0.6509015318072763
  0.1641590024448101  0.7514369373885351  0.1510350045857684
  0.1646039208381536  0.7513101109242049  0.6513948972432636
  0.9230257627483297  0.3739466839427946  0.1488606283623475
  0.9242667339720636  0.3751290753855872  0.6498119087990000
  0.9246811739075727  0.8751653658228243  0.1494448912894724
  0.9260950943229802  0.8751441075246298  0.6490009543680046
  0.4294088951932732  0.3748760142823036  0.6054767062971561
  0.4289957793951284  0.8751236335330868  0.1021898865288273
  0.4263689294127489  0.8751049763756013  0.6007130041145420
  0.0758048217308866  0.1268538362648536  0.3490673330951816
  0.0753683600213166  0.1266459602545444  0.8532077637879569
  0.0754458581301927  0.6238701508454444  0.3505700506409627
  0.0753698296946140  0.6238802559149096  0.8524478756868340
  0.5740235377074775  0.1265859879834646  0.3992130679151623
  0.5717955682943977  0.1262900333137899  0.8995048905849432
  0.5739689874880759  0.6232899598196665  0.3993058325710616
  0.5717690755131347  0.6236418562594382  0.8991711354272278
  0.9098969126318013  0.1243216262072824  0.0972729231404772
  0.9128944638753689  0.1244119462398478  0.5973075920108968
  0.9102825866905212  0.6251520525309331  0.0973532047776383
  0.9127965230918456  0.6257701547801404  0.5972899678048132
  0.4091354641891908  0.1207648467734864  0.1518938530840069
  0.4109083689494891  0.1245839761784703  0.6532656557920008
  0.4085242378524981  0.6292242966564604  0.1520176375568892
  0.4108402795637510  0.6255019941808010  0.6531331510659819
  0.0886149590326464  0.3749052770694520  0.4038226526235874
  0.0862175126045452  0.3753632612752015  0.9027372576034252
  0.0888129207886685  0.8750841781406340  0.4035637425832615
  0.0884377828985591  0.8750350187839930  0.9038182703602546
  0.5928142916979799  0.3750082233674409  0.3492785491428673
  0.5873990071958702  0.3750721881504478  0.8408317208681942
  0.5904512585437924  0.8748857070168289  0.3475900776277080
  0.5894922511454529  0.8749038039061089  0.8456810409701454
  0.8399910378136151  0.0209459965640521  0.1477547814780181
  0.8427379248959788  0.0212950091328431  0.6478729889150234
  0.8392774987302677  0.5229579154027748  0.1478230237433266
  0.8430258748159430  0.5236191345113806  0.6497169765269447
  0.3335086975706705  0.2162832067989701  0.0964713199778922
  0.3419918311162815  0.2270400670058747  0.6000201919362406
  0.3436866613585427  0.7367771405822539  0.1063365424879548
  0.3416438810824806  0.7288670006303735  0.6011430070394014
  0.1586464046071163  0.2719201791893411  0.3547757167198279
  0.1562419397093601  0.2727212688196760  0.8514581059655741
  0.1582211243215783  0.7720439018925858  0.3525390580243434
  0.1586191510794877  0.7722369954673328  0.8529647800380937
  0.6612529477616996  0.4785822408801307  0.4035452914059605
  0.6551457421305555  0.4778411763495765  0.8971447761490591
  0.6599477697998095  0.9778759531759945  0.3993409178319866
  0.6591827219181948  0.9778149562908628  0.8971558585787754
  0.1586514608117504  0.4775946268244600  0.3523893939028774
  0.1563028825782616  0.4779676403106520  0.8510839318852010
  0.1585066341412744  0.9778088313451727  0.3523041151925457
  0.1585593763471032  0.9778841471555841  0.8530978514360353
  0.6612207657706101  0.2714565991897718  0.4035713613569298
  0.6549764152219166  0.2722997278517203  0.8972769452173360
  0.6598938966958219  0.7718440719692001  0.3993539108437703
  0.6591649020458556  0.7719730576561310  0.8973258541556619
  0.8390707971038746  0.2266171619306217  0.1479600618436279
  0.8430458430028414  0.2266180823419506  0.6495228919306452
  0.8408301227244189  0.7285988482954997  0.1481239092139170
  0.8426739250411945  0.7288930314059507  0.6477458905182377
  0.3440489780207855  0.0132576192127712  0.1062084315675822
  0.3416790246152522  0.0212212545392703  0.6012331194929489
  0.3317276389839861  0.5338222538280045  0.0969785723890309
  0.3418306988335700  0.5230678947356203  0.5998620812304191
  0.5479863240890073  0.1222803509894941  0.0996225111620910
  0.5500626108118307  0.1239529799805743  0.6027549636882141
  0.5471472027409091  0.6270092186202104  0.0992361838404511
  0.5499768218504529  0.6260150037511101  0.6026538648081465
  0.0479051560662148  0.1236075249707966  0.1499393195184130
  0.0514000593658222  0.1241532784840610  0.6494532799867236
  0.0486013715188879  0.6252987523110809  0.1500920461893193
  0.0514117923888747  0.6262740256337750  0.6491369849154724
  0.4543327246531608  0.3750406971195615  0.4017073418898280
  0.4458006599264119  0.3752446116643796  0.8745880561252112
  0.4518717167864370  0.8749311631722898  0.3989790271684690
  0.4509047753357524  0.8749151175594856  0.8964253247013100
  0.9501068982044955  0.3748261292741329  0.3509005842831070
  0.9474052830088049  0.3751340888644549  0.8500824974395079
  0.9499963416648279  0.8750469230959161  0.3518010301628520
  0.9501332522577032  0.8749769246598448  0.8506509154721050
  0.6007785911012453  0.3750237460243226  0.1959941430508115
  0.6009982641247127  0.3750359587777885  0.6853094320283989
  0.5926884177285761  0.8747279935678768  0.1917860777980131
  0.5910566271365355  0.8748639668298419  0.6896750474601906
  0.0851102999582434  0.3760471456749601  0.0582123247497188
  0.0880637547580748  0.3759093582814786  0.5599125820769751
  0.0877874349968403  0.8749217815260595  0.0596217747326235
  0.0897540351610502  0.8751370800723395  0.5596150276042103
  0.4111801474266861  0.1238331164955314  0.3083902896768071
  0.4085679497867288  0.1243631359807552  0.8090276730783149
  0.4108569608617966  0.6260560678628955  0.3084615401142591
  0.4084980433268071  0.6256920174738705  0.8088977891520053
  0.9119041103278873  0.1248439681305207  0.4413514216749769
  0.9097741490395963  0.1245219982645389  0.9410715288654614
  0.9117430294277982  0.6251100028495449  0.4413089165058171
  0.9103112637045545  0.6254359196999367  0.9412029669970493
 
             NaN             NaN             NaN
             NaN             NaN             NaN
             NaN             NaN             NaN
             NaN             NaN             NaN
             NaN             NaN             NaN
             NaN             NaN             NaN
             NaN             NaN             NaN
             NaN             NaN             NaN
             NaN             NaN             NaN
             NaN             NaN             NaN
             NaN             NaN             NaN
             NaN             NaN             NaN
             NaN             NaN             NaN
             NaN             NaN             NaN
             NaN             NaN             NaN
             NaN             NaN             NaN
             NaN             NaN             NaN
             NaN             NaN             NaN
             NaN             NaN             NaN
             NaN             NaN             NaN
             NaN             NaN             NaN
             NaN             NaN             NaN
             NaN             NaN             NaN
             NaN             NaN             NaN
             NaN             NaN             NaN
             NaN             NaN             NaN
             NaN             NaN             NaN
             NaN             NaN             NaN
             NaN             NaN             NaN
             NaN             NaN             NaN
             NaN             NaN             NaN
             NaN             NaN             NaN
             NaN             NaN             NaN
             NaN             NaN             NaN
             NaN             NaN             NaN
             NaN             NaN             NaN
             NaN             NaN             NaN
             NaN             NaN             NaN
             NaN             NaN             NaN
             NaN             NaN             NaN
             NaN             NaN             NaN
             NaN             NaN             NaN
             NaN             NaN             NaN
             NaN             NaN             NaN
             NaN             NaN             NaN
             NaN             NaN             NaN
             NaN             NaN             NaN
             NaN             NaN             NaN
             NaN             NaN             NaN
             NaN             NaN             NaN
             NaN             NaN             NaN
             NaN             NaN             NaN
             NaN             NaN             NaN
             NaN             NaN             NaN
             NaN             NaN             NaN
             NaN             NaN             NaN
             NaN             NaN             NaN
             NaN             NaN             NaN
             NaN             NaN             NaN
             NaN             NaN             NaN
             NaN             NaN             NaN
             NaN             NaN             NaN
             NaN             NaN             NaN
             NaN             NaN             NaN
             NaN             NaN             NaN
             NaN             NaN             NaN
             NaN             NaN             NaN
             NaN             NaN             NaN
             NaN             NaN             NaN
             NaN             NaN             NaN
             NaN             NaN             NaN
             NaN             NaN             NaN
             NaN             NaN             NaN
             NaN             NaN             NaN
             NaN             NaN             NaN
             NaN             NaN             NaN
             NaN             NaN             NaN
             NaN             NaN             NaN
             NaN             NaN             NaN
             NaN             NaN             NaN
             NaN             NaN             NaN
             NaN             NaN             NaN
             NaN             NaN             NaN
             NaN             NaN             NaN
             NaN             NaN             NaN
             NaN             NaN             NaN
             NaN             NaN             NaN
             NaN             NaN             NaN
             NaN             NaN             NaN
             NaN             NaN             NaN
             NaN             NaN             NaN
             NaN             NaN             NaN
             NaN             NaN             NaN
             NaN             NaN             NaN
             NaN             NaN             NaN
             NaN             NaN             NaN
             NaN             NaN             NaN
             NaN             NaN             NaN
             NaN             NaN             NaN
             NaN             NaN             NaN
             NaN             NaN             NaN
             NaN             NaN             NaN
             NaN             NaN             NaN
             NaN             NaN             NaN
             NaN             NaN             NaN
             NaN             NaN             NaN
             NaN             NaN             NaN
             NaN             NaN             NaN
             NaN             NaN             NaN
             NaN             NaN             NaN
             NaN             NaN             NaN
             NaN             NaN             NaN
             NaN             NaN             NaN
             NaN             NaN             NaN
             NaN             NaN             NaN
             NaN             NaN             NaN
             NaN             NaN             NaN
             NaN             NaN             NaN
             NaN             NaN             NaN
             NaN             NaN             NaN
             NaN             NaN             NaN
             NaN             NaN             NaN
             NaN             NaN             NaN
             NaN             NaN             NaN
             NaN             NaN             NaN
             NaN             NaN             NaN
             NaN             NaN             NaN
