Li16 Co18 O36                           
   1.00000000000000     
     8.0633520000000001    0.0216390000000000    2.3671690000000001
     3.6626080000000001    7.1811160000000003    2.3717779999999999
     0.0313660000000000    0.0121200000000000    9.8894839999999995
   Li   Co   O 
    16    18    36
Direct
  0.7064438543678548  0.3744051448960164  0.4930844487519721
  0.3344419767195745  0.3337403813919906  0.9990134374288004
  0.3297285004378452  0.3349067740986840  0.4986807589277760
  0.3342428461948614  0.6676665808260935  0.9999580332079745
  0.3435027854667609  0.6651122728461374  0.5004286551361972
  0.3341791304715400  0.0006579893553607  0.9991638852398452
  0.3340023171580953  0.0012107197352620  0.4988850603734392
  0.6676645995950921  0.3345370577185349  0.9993792037267610
  0.6663299462546846  0.6682124946256209  0.9996785509230151
  0.6670578939557004  0.0009816996310690  0.9992701259946486
  0.6685871919490651  0.9961451988619814  0.4986446183808226
  0.0017092594343922  0.3330158907777303  0.9995293753525019
  0.0009840643912042  0.6673116173248204  0.0000488936721865
  0.9839042683347969  0.6499605978074072  0.5003619499324472
  0.0008930586298703  0.0007510360532876  0.0000944264544174
  0.9980923569243672  0.0108684682455404  0.5001868611717555
  0.1665192424007671  0.1695017481984777  0.2497881100683870
  0.1659450198144654  0.1657335496402155  0.7479903424384915
  0.1675731330217545  0.5006023557410089  0.2476263000603041
  0.1677479675403291  0.4992673790250990  0.7526097489745496
  0.1661225360755481  0.8344438111446664  0.2499696561483020
  0.1657808752425183  0.8313780598880527  0.7528304284926506
  0.5014356082550719  0.1698004271563036  0.2446251061329576
  0.5010252807308433  0.1655737088934401  0.7484041840399840
  0.5008988886345520  0.5013373334850684  0.2482809944455369
  0.4996105948281340  0.4994081995191522  0.7511292740778401
  0.5006111266584341  0.8352764892426663  0.2499631052767199
  0.5007644207685971  0.8317569661512962  0.7475925270681287
  0.8335574675401247  0.1688207928739089  0.2478916668035964
  0.8344551894010124  0.1647258948214869  0.7511074918295293
  0.8344652993033037  0.5024855971354327  0.2489058441631400
  0.8348412972090884  0.4994651034857611  0.7506161009032937
  0.8323654823062441  0.8357733791674704  0.2475295600367389
  0.8344194528172650  0.8322939227633768  0.7529652469068253
  0.2596288460209095  0.2547479178558589  0.3523308875089910
  0.2546575124879880  0.2509560248671221  0.8584719753538721
  0.2537639062352000  0.5871237988844271  0.3571783157396595
  0.2539281496623929  0.5846991592821738  0.8631456682569478
  0.2535085345653982  0.9221530485278819  0.3587637921333595
  0.2544364570605637  0.9195423031126637  0.8591507596683314
  0.5870873228882516  0.2546944238408457  0.3538608393254350
  0.5864381875558848  0.2515317769905039  0.8597513987506886
  0.5871151014000233  0.5886650085151999  0.3538823586350262
  0.5867559471452921  0.5871510629633292  0.8598106467941946
  0.5865036945009265  0.9279235992006818  0.3523436962754616
  0.5859224160547996  0.9196840888767923  0.8587004048921258
  0.9204507187257889  0.2551946534101930  0.3537716028901272
  0.9216230843366162  0.2519086111434703  0.8601198244157402
  0.9235225383115448  0.5915880591879485  0.3483677550193036
  0.9207371474747603  0.5853681788235008  0.8621595520860339
  0.9190815024626531  0.9219179289805837  0.3569750366866558
  0.9194789960305556  0.9192603296003554  0.8634439421802398
  0.0810456641122954  0.0810175806055753  0.1400292087902031
  0.0800876576160405  0.0736681329166302  0.6453765919752286
  0.0809297515747502  0.4144219549072616  0.1383558914611527
  0.0811042044844683  0.4139837039552745  0.6457109175220097
  0.0806120402086137  0.7486546646171419  0.1391099223552175
  0.0799682657384935  0.7453460326513266  0.6446004072783538
  0.4128446301377693  0.0812556838943124  0.1382946261601958
  0.4134720001099765  0.0791051542331047  0.6390894304513068
  0.4142660143922470  0.4169887940389785  0.1361984139419903
  0.4130431408611699  0.4134863370257023  0.6426149160192196
  0.4128619660096646  0.7489750098792456  0.1403510131097718
  0.4082994798416237  0.7454959603141944  0.6454035443034698
  0.7487675720940388  0.0823175183197051  0.1361072368297300
  0.7487295040786464  0.0776531399412548  0.6428848074254816
  0.7475546423970627  0.4155683592461514  0.1384501867775896
  0.7449768926757798  0.4099803003815055  0.6533550798459160
  0.7459558964996589  0.7490270709066280  0.1385699937638094
  0.7492858189004963  0.7461776834148424  0.6458746556022064
 
  0.00000000E+00  0.00000000E+00  0.00000000E+00
  0.00000000E+00  0.00000000E+00  0.00000000E+00
  0.00000000E+00  0.00000000E+00  0.00000000E+00
  0.00000000E+00  0.00000000E+00  0.00000000E+00
  0.00000000E+00  0.00000000E+00  0.00000000E+00
  0.00000000E+00  0.00000000E+00  0.00000000E+00
  0.00000000E+00  0.00000000E+00  0.00000000E+00
  0.00000000E+00  0.00000000E+00  0.00000000E+00
  0.00000000E+00  0.00000000E+00  0.00000000E+00
  0.00000000E+00  0.00000000E+00  0.00000000E+00
  0.00000000E+00  0.00000000E+00  0.00000000E+00
  0.00000000E+00  0.00000000E+00  0.00000000E+00
  0.00000000E+00  0.00000000E+00  0.00000000E+00
  0.00000000E+00  0.00000000E+00  0.00000000E+00
  0.00000000E+00  0.00000000E+00  0.00000000E+00
  0.00000000E+00  0.00000000E+00  0.00000000E+00
  0.00000000E+00  0.00000000E+00  0.00000000E+00
  0.00000000E+00  0.00000000E+00  0.00000000E+00
  0.00000000E+00  0.00000000E+00  0.00000000E+00
  0.00000000E+00  0.00000000E+00  0.00000000E+00
  0.00000000E+00  0.00000000E+00  0.00000000E+00
  0.00000000E+00  0.00000000E+00  0.00000000E+00
  0.00000000E+00  0.00000000E+00  0.00000000E+00
  0.00000000E+00  0.00000000E+00  0.00000000E+00
  0.00000000E+00  0.00000000E+00  0.00000000E+00
  0.00000000E+00  0.00000000E+00  0.00000000E+00
  0.00000000E+00  0.00000000E+00  0.00000000E+00
  0.00000000E+00  0.00000000E+00  0.00000000E+00
  0.00000000E+00  0.00000000E+00  0.00000000E+00
  0.00000000E+00  0.00000000E+00  0.00000000E+00
  0.00000000E+00  0.00000000E+00  0.00000000E+00
  0.00000000E+00  0.00000000E+00  0.00000000E+00
  0.00000000E+00  0.00000000E+00  0.00000000E+00
  0.00000000E+00  0.00000000E+00  0.00000000E+00
  0.00000000E+00  0.00000000E+00  0.00000000E+00
  0.00000000E+00  0.00000000E+00  0.00000000E+00
  0.00000000E+00  0.00000000E+00  0.00000000E+00
  0.00000000E+00  0.00000000E+00  0.00000000E+00
  0.00000000E+00  0.00000000E+00  0.00000000E+00
  0.00000000E+00  0.00000000E+00  0.00000000E+00
  0.00000000E+00  0.00000000E+00  0.00000000E+00
  0.00000000E+00  0.00000000E+00  0.00000000E+00
  0.00000000E+00  0.00000000E+00  0.00000000E+00
  0.00000000E+00  0.00000000E+00  0.00000000E+00
  0.00000000E+00  0.00000000E+00  0.00000000E+00
  0.00000000E+00  0.00000000E+00  0.00000000E+00
  0.00000000E+00  0.00000000E+00  0.00000000E+00
  0.00000000E+00  0.00000000E+00  0.00000000E+00
  0.00000000E+00  0.00000000E+00  0.00000000E+00
  0.00000000E+00  0.00000000E+00  0.00000000E+00
  0.00000000E+00  0.00000000E+00  0.00000000E+00
  0.00000000E+00  0.00000000E+00  0.00000000E+00
  0.00000000E+00  0.00000000E+00  0.00000000E+00
  0.00000000E+00  0.00000000E+00  0.00000000E+00
  0.00000000E+00  0.00000000E+00  0.00000000E+00
  0.00000000E+00  0.00000000E+00  0.00000000E+00
  0.00000000E+00  0.00000000E+00  0.00000000E+00
  0.00000000E+00  0.00000000E+00  0.00000000E+00
  0.00000000E+00  0.00000000E+00  0.00000000E+00
  0.00000000E+00  0.00000000E+00  0.00000000E+00
  0.00000000E+00  0.00000000E+00  0.00000000E+00
  0.00000000E+00  0.00000000E+00  0.00000000E+00
  0.00000000E+00  0.00000000E+00  0.00000000E+00
  0.00000000E+00  0.00000000E+00  0.00000000E+00
  0.00000000E+00  0.00000000E+00  0.00000000E+00
  0.00000000E+00  0.00000000E+00  0.00000000E+00
  0.00000000E+00  0.00000000E+00  0.00000000E+00
  0.00000000E+00  0.00000000E+00  0.00000000E+00
  0.00000000E+00  0.00000000E+00  0.00000000E+00
  0.00000000E+00  0.00000000E+00  0.00000000E+00
