Li15 Fe16 P16 O64
1.0
10.242234 -0.002457 0.024134
-0.002523 11.964261 0.006560
0.008294 0.007712 9.372788
Li Fe P O
15 16 16 64
direct
0.505661 0.255324 0.748397 Li
0.499966 -0.000766 0.248157 Li
0.500167 -0.001324 0.748026 Li
0.501469 0.502159 0.252777 Li
0.998175 0.249958 0.496638 Li
0.996970 0.247721 0.001593 Li
0.999364 0.748610 0.500653 Li
0.999153 0.750068 0.001630 Li
0.499479 0.249649 0.251285 Li
0.502119 0.749108 0.251513 Li
0.499361 0.739345 0.753240 Li
0.997392 0.500407 0.496416 Li
0.996623 0.502840 0.001944 Li
0.999859 0.000731 0.500382 Li
0.999541 0.998313 0.001632 Li
0.780859 0.124921 0.263845 Fe
0.781176 0.124845 0.763873 Fe
0.779210 0.625819 0.266980 Fe
0.777516 0.624811 0.761059 Fe
0.281405 0.124885 0.485535 Fe
0.280936 0.124388 0.986194 Fe
0.282067 0.625064 0.485635 Fe
0.281746 0.625030 0.985655 Fe
0.217571 0.374841 0.232179 Fe
0.224653 0.375790 0.744972 Fe
0.219094 0.874957 0.236166 Fe
0.219315 0.874820 0.736098 Fe
0.719879 0.376020 0.011758 Fe
0.718329 0.376974 0.517008 Fe
0.718837 0.874642 0.013960 Fe
0.718427 0.874745 0.514422 Fe
0.594483 0.126040 0.041379 P
0.593711 0.126014 0.542687 P
0.595772 0.626931 0.041872 P
0.592654 0.624030 0.541206 P
0.093317 0.124513 0.207290 P
0.094092 0.127568 0.710203 P
0.093205 0.625327 0.209072 P
0.094274 0.622049 0.710971 P
0.398048 0.373299 0.458177 P
0.407740 0.375436 0.957646 P
0.405754 0.875707 0.456855 P
0.407057 0.875367 0.956990 P
0.906059 0.374586 0.289646 P
0.910515 0.374724 0.788852 P
0.907058 0.875187 0.293520 P
0.907570 0.874520 0.792176 P
0.595498 0.126521 0.380612 O
0.596844 0.125967 0.879337 O
0.594551 0.624130 0.377702 O
0.601688 0.633063 0.881815 O
0.094875 0.125860 0.369420 O
0.094284 0.126009 0.871937 O
0.095085 0.624258 0.371320 O
0.094637 0.623241 0.872780 O
0.403210 0.374579 0.119671 O
0.383001 0.367926 0.619685 O
0.404961 0.875674 0.119017 O
0.402430 0.876539 0.618757 O
0.906048 0.374042 0.127291 O
0.908149 0.374489 0.627309 O
0.905672 0.875167 0.131353 O
0.906974 0.875276 0.630131 O
0.954965 0.124426 0.144634 O
0.957153 0.126641 0.644545 O
0.954752 0.625369 0.146744 O
0.957722 0.622741 0.645040 O
0.455470 0.126622 0.103751 O
0.455111 0.127036 0.605506 O
0.456023 0.623859 0.103060 O
0.453983 0.625102 0.599256 O
0.044341 0.373990 0.352818 O
0.052373 0.374143 0.848864 O
0.045280 0.875901 0.356736 O
0.046043 0.875310 0.855264 O
0.539285 0.374564 0.405109 O
0.544838 0.371215 0.898128 O
0.544318 0.875905 0.394016 O
0.545147 0.876160 0.893604 O
0.664823 0.023584 0.108131 O
0.664816 0.023720 0.608584 O
0.667310 0.524108 0.106783 O
0.674516 0.526477 0.602066 O
0.164773 0.226071 0.138743 O
0.164872 0.233008 0.647541 O
0.164816 0.727305 0.142833 O
0.168661 0.722270 0.644121 O
0.331513 0.271146 0.386001 O
0.331345 0.274565 0.887732 O
0.333643 0.774095 0.390530 O
0.335054 0.773156 0.891663 O
0.835389 0.476649 0.355733 O
0.842047 0.476265 0.857742 O
0.834862 0.977233 0.359264 O
0.835592 0.976549 0.858320 O
0.329348 0.475808 0.391172 O
0.323945 0.471818 0.893270 O
0.334666 0.977997 0.390007 O
0.334660 0.977404 0.890995 O
0.833790 0.273145 0.357042 O
0.841634 0.272488 0.857359 O
0.836382 0.773021 0.360454 O
0.837115 0.771892 0.858082 O
0.666430 0.227691 0.107842 O
0.665936 0.227620 0.609626 O
0.664242 0.728821 0.114153 O
0.662466 0.728303 0.606231 O
0.164586 0.022306 0.141837 O
0.168528 0.027572 0.643112 O
0.164516 0.523659 0.141344 O
0.165379 0.516533 0.648314 O
