Li46 P16 O64
1.0
10.580142 0.009638 0.000590
0.011245 12.334327 0.002517
0.000520 0.002006 9.999196
Li P O
46 16 64
direct
0.597793 0.253783 0.104723 Li
0.665647 0.248609 0.599824 Li
0.664060 0.749949 0.099311 Li
0.663959 0.751107 0.598651 Li
0.167172 0.490906 0.153504 Li
0.164512 0.501664 0.651387 Li
0.163685 0.998654 0.151005 Li
0.163685 0.999464 0.651637 Li
0.336393 0.001224 0.401620 Li
0.335973 0.000968 0.899631 Li
0.338732 0.499227 0.397998 Li
0.336825 0.497514 0.907346 Li
0.837028 0.247788 0.350092 Li
0.835094 0.248664 0.849576 Li
0.837179 0.748883 0.349314 Li
0.836930 0.748928 0.849254 Li
0.338191 0.252201 0.392754 Li
0.334467 0.253837 0.905538 Li
0.336522 0.749480 0.400376 Li
0.336456 0.749408 0.901712 Li
0.837231 0.001148 0.349686 Li
0.836991 0.000728 0.848265 Li
0.836739 0.501140 0.348145 Li
0.834140 0.501947 0.849841 Li
0.657054 0.496246 0.098211 Li
0.665982 0.502042 0.598350 Li
0.665094 0.995646 0.095727 Li
0.664488 0.998476 0.599444 Li
0.163088 0.250886 0.645978 Li
0.163048 0.750116 0.151560 Li
0.164184 0.751880 0.651093 Li
0.926392 0.371334 0.151403 Li
0.920690 0.376293 0.649127 Li
0.925434 0.873949 0.149128 Li
0.926320 0.875266 0.648889 Li
0.425955 0.375256 0.606741 Li
0.428688 0.875398 0.100593 Li
0.425667 0.875122 0.600645 Li
0.077308 0.128851 0.344248 Li
0.075127 0.126258 0.855351 Li
0.075487 0.623557 0.350673 Li
0.075016 0.625136 0.851996 Li
0.575754 0.125202 0.400752 Li
0.573743 0.125539 0.896561 Li
0.574381 0.624675 0.399061 Li
0.572211 0.624657 0.898666 Li
0.909149 0.122915 0.097242 P
0.912630 0.124254 0.597211 P
0.910812 0.623674 0.097632 P
0.911957 0.626576 0.596997 P
0.413133 0.121391 0.152804 P
0.410932 0.125202 0.653760 P
0.409429 0.629473 0.152595 P
0.410944 0.625592 0.653290 P
0.088034 0.374784 0.408218 P
0.084855 0.376741 0.900944 P
0.089234 0.875035 0.403092 P
0.088754 0.874756 0.904109 P
0.592757 0.374992 0.350104 P
0.588012 0.375121 0.840566 P
0.589618 0.875096 0.347060 P
0.589022 0.874677 0.845614 P
0.837434 0.019586 0.146917 O
0.842161 0.021000 0.648120 O
0.839062 0.521281 0.148192 O
0.841318 0.524443 0.649966 O
0.346400 0.222453 0.094004 O
0.342379 0.228759 0.601216 O
0.343666 0.736938 0.106362 O
0.341326 0.729200 0.601505 O
0.158513 0.268784 0.371445 O
0.155298 0.272828 0.852228 O
0.158332 0.770944 0.352501 O
0.159278 0.771645 0.852645 O
0.661250 0.478772 0.403116 O
0.654884 0.477690 0.897471 O
0.659501 0.978174 0.398909 O
0.659035 0.978046 0.896503 O
0.159880 0.475759 0.353792 O
0.156766 0.478609 0.848383 O
0.159856 0.977650 0.351296 O
0.158659 0.978224 0.853364 O
0.660970 0.270923 0.403486 O
0.654864 0.271239 0.894700 O
0.659217 0.771404 0.398173 O
0.658837 0.771426 0.897666 O
0.840969 0.226322 0.150206 O
0.841886 0.227227 0.648731 O
0.841416 0.727925 0.148381 O
0.841720 0.730360 0.646995 O
0.342659 0.018206 0.103219 O
0.341171 0.021989 0.601670 O
0.331369 0.534762 0.095640 O
0.341906 0.522572 0.600239 O
0.551197 0.121370 0.099656 O
0.550171 0.124206 0.603013 O
0.547678 0.626423 0.099511 O
0.549959 0.625999 0.602090 O
0.045821 0.117661 0.150775 O
0.050472 0.124703 0.651086 O
0.049059 0.623156 0.150588 O
0.050356 0.627217 0.649126 O
0.453989 0.375280 0.401322 O
0.445347 0.374566 0.873353 O
0.450896 0.875411 0.398603 O
0.450519 0.875416 0.897725 O
0.950671 0.373863 0.352767 O
0.946762 0.375472 0.846578 O
0.950594 0.875350 0.350939 O
0.950386 0.874728 0.851437 O
0.599420 0.374465 0.196163 O
0.599232 0.375943 0.684666 O
0.590987 0.875090 0.190809 O
0.589639 0.874599 0.689583 O
0.081145 0.380639 0.055312 O
0.084526 0.380278 0.564396 O
0.088741 0.874158 0.060151 O
0.089796 0.875692 0.559303 O
0.412663 0.124058 0.308217 O
0.408813 0.125083 0.809725 O
0.410832 0.625466 0.308770 O
0.409066 0.625221 0.809296 O
0.912673 0.124294 0.441245 O
0.908446 0.124655 0.941024 O
0.911544 0.624938 0.440815 O
0.910734 0.624527 0.941249 O
