Li15 Fe16 P16 O64                       
   1.00000000000000     
    10.4262210000000000   -0.0008000000000000    0.0054550000000000
    -0.0009200000000000   12.1422980000000003    0.0007420000000000
     0.0033540000000000    0.0006870000000000    9.5213269999999994
   Li   Fe   P    O 
    15    16    16    64
Direct
  0.5441872907062453  0.3425103620204415  0.7186933775716600
  0.4965244582636464  0.4991206025474637  0.2456294798117591
  0.4976773069767701  0.0037561703701485  0.2480966187836661
  0.4954501821076748  0.0106960328599270  0.7598965688614181
  0.0017764821186655  0.2521122983537593  0.5032589083836548
  0.0021326951381930  0.2509186223137971  0.0006303154589121
  0.0058723187413514  0.7449552498943558  0.4967113691963991
  0.0004663665373013  0.7469425525928859  0.9951495008820348
  0.4963419356124643  0.2517784840586157  0.2453242113849605
  0.4980040898820263  0.7458754587395107  0.2488549274848059
  0.4956813228125417  0.7380998149034789  0.7598877554402595
  0.0007378381506899  0.0027873529548873  0.9952137216424324
  0.0059565879226401  0.0051344655173470  0.4967479750814323
  0.0021062214124838  0.4993824802000220  0.0002807808280107
  0.0018172971628510  0.4985773107520853  0.5030728000152597
  0.7795471861068941  0.1266150897541536  0.2635817265074378
  0.7797476300049409  0.1259805481737821  0.7642097292361101
  0.7792601161310539  0.6240149458169257  0.2633633842663494
  0.7783994329006511  0.6234732968950178  0.7632688174767664
  0.2828718653707783  0.1260422742331682  0.4878116648044649
  0.2824423788542514  0.1267464066987470  0.9857988679053193
  0.2838285832121912  0.6243124820007978  0.4888182021206524
  0.2823868315046915  0.6236958276407842  0.9858772993057745
  0.2181008572974447  0.3751932304764920  0.2346672321356003
  0.2221391359517992  0.3754868735645154  0.7403532870225333
  0.2209595926745460  0.8750206434548622  0.2364405365939410
  0.2194903580266088  0.8751099683425009  0.7360517561403457
  0.7172229712214867  0.3756600816832167  0.0143293803281548
  0.7219693522772491  0.3774982240407741  0.5050960477244095
  0.7151418327489391  0.8749800130731932  0.0168201797985920
  0.7195262689793965  0.8752671118621477  0.5100187297158381
  0.5962567510805992  0.1233083987128626  0.0425848124928586
  0.5929832664300294  0.1253671740151742  0.5407534558376430
  0.5961193203415297  0.6274832231411186  0.0424336104778425
  0.5940739516965970  0.6262240972985402  0.5396168746311991
  0.0932153845675789  0.1232518395010929  0.2087732753049731
  0.0931128685908957  0.1244227276698713  0.7078325795326320
  0.0931477009391469  0.6269616982867107  0.2089535149552685
  0.0930641186188311  0.6259920848076188  0.7078511520803129
  0.4032045550521120  0.3750939119513377  0.4546042752659780
  0.4020335005890190  0.3755146064747821  0.9624507830844764
  0.4083442086806346  0.8753884803155272  0.4605957762003006
  0.4055182273825942  0.8751863860860878  0.9584349903675972
  0.9087724616425115  0.3750284973220502  0.2906874462094333
  0.9059149278106567  0.3750443501274093  0.7921353026845295
  0.9045386069360867  0.8751852873827517  0.2943464353618621
  0.8991262394213516  0.8748544997079611  0.7926322175542428
  0.5978458792407997  0.1268896820263587  0.3792130218090597
  0.6025571709047459  0.1171235423647318  0.8827900981596178
  0.5971040234795266  0.6253570703209866  0.3776662178476087
  0.6028898235524852  0.6346548913847668  0.8830640663974239
  0.0962645339534319  0.1223044231943396  0.3704308034619332
  0.0949376175423437  0.1229851313622432  0.8692844471493621
  0.0963391821128718  0.6279936005873946  0.3705706069199499
  0.0950600968325019  0.6272626424974296  0.8693174556232034
  0.4015454933979677  0.3753863792093144  0.1252159485687641
  0.3961929465102665  0.3739743801639194  0.6144835231529301
  0.4033924476308213  0.8752199995148503  0.1202024347823200
  0.4020989893397088  0.8754045840664925  0.6206850783064310
  0.9061311869599538  0.3746820135783453  0.1295963869773101
  0.9038004830074132  0.3751530031353074  0.6303085251478557
  0.9011025803106610  0.8750653692277540  0.1341970958240185
  0.8862631939334499  0.8753451590481741  0.6300896410687659
  0.9548174217162263  0.1214706052521955  0.1477963193992047
  0.9551380853800873  0.1232229988452594  0.6453379266465847
  0.9548004434212114  0.6287489428865762  0.1478032837653417
  0.9551999599362441  0.6273141642562757  0.6454067707656199
  0.4576292835342559  0.1246815229224885  0.1033937562276330
  0.4565161801488133  0.1174677672360754  0.6002606494346699
  0.4574869220223604  0.6256374998494370  0.1032480749951919
  0.4577737339717227  0.6326348433382426  0.5995521697529452
  0.0454167192395986  0.3747800576711895  0.3552096044441513
  0.0431533770507216  0.3747042941496752  0.8551775754566260
  0.0415216253156089  0.8752626956688865  0.3571320319376266
  0.0396131283697710  0.8750995137937163  0.8450214996023538
  0.5427835581094557  0.3755336107138416  0.3961803506239198
  0.5414285423146562  0.3748493041785043  0.9076530826172460
  0.5511520648214765  0.8761070612000272  0.4044181850513842
  0.5432036826156610  0.8755083774131935  0.8970919815588971
  0.6649767335204649  0.0223329530208118  0.1161376878687865
  0.6696981735568179  0.0218836124951323  0.6022763837622171
  0.6669265484130609  0.5250989460757189  0.1075876415084570
  0.6704984460398888  0.5268203299438362  0.6030838587533404
  0.1614111214104263  0.2258481029682697  0.1424742194518693
  0.1629910884123787  0.2266404410747100  0.6418241190986987
  0.1651018788631365  0.7280091044769650  0.1417085042102675
  0.1644469007225524  0.7275023854286438  0.6399400865989161
  0.3342319262755388  0.2727301841813568  0.3866945263383755
  0.3277310618893541  0.2749535093236787  0.8991278941085230
  0.3414529841054401  0.7738957174105845  0.3893004887137738
  0.3341721004905900  0.7735663367123354  0.8920455899269913
  0.8378906318447661  0.4771052898861053  0.3567987023464943
  0.8344589010205185  0.4763343355856716  0.8586394257879213
  0.8293123289243256  0.9743682080230384  0.3649080750029748
  0.8320431240712662  0.9768540342243444  0.8613162281944866
  0.3338044101327178  0.4773703377809749  0.3876595647343116
  0.3261661104469016  0.4751273096968521  0.9000632403312131
  0.3409521086838533  0.9766235749390120  0.3891132133407075
  0.3339012175331172  0.9767477940561446  0.8920551491745604
  0.8368872880760972  0.2737025299695678  0.3578583086480281
  0.8339141966644505  0.2734625727958744  0.8578365473250412
  0.8294159164339764  0.7760760024374330  0.3651218669190021
  0.8323546214268692  0.7726178944713008  0.8609045340676156
  0.6669716936739107  0.2256915151391620  0.1077355986161142
  0.6633822909413695  0.2279965286889307  0.6073902169949498
  0.6646605033635360  0.7284035503591182  0.1166911967857747
  0.6682262915711563  0.7315563032719841  0.6014330550078036
  0.1651068129377881  0.0222037760993411  0.1416248196628621
  0.1642950720722538  0.0229203659000423  0.6398304209126782
  0.1612478511495626  0.5243660603168487  0.1427013054610594
  0.1630171768492741  0.5238789826725135  0.6416706546112997
 
             NaN             NaN             NaN
             NaN             NaN             NaN
             NaN             NaN             NaN
             NaN             NaN             NaN
             NaN             NaN             NaN
             NaN             NaN             NaN
             NaN             NaN             NaN
             NaN             NaN             NaN
             NaN             NaN             NaN
             NaN             NaN             NaN
             NaN             NaN             NaN
             NaN             NaN             NaN
             NaN             NaN             NaN
             NaN             NaN             NaN
             NaN             NaN             NaN
             NaN             NaN             NaN
             NaN             NaN             NaN
             NaN             NaN             NaN
             NaN             NaN             NaN
             NaN             NaN             NaN
             NaN             NaN             NaN
             NaN             NaN             NaN
             NaN             NaN             NaN
             NaN             NaN             NaN
             NaN             NaN             NaN
             NaN             NaN             NaN
             NaN             NaN             NaN
             NaN             NaN             NaN
             NaN             NaN             NaN
             NaN             NaN             NaN
             NaN             NaN             NaN
             NaN             NaN             NaN
             NaN             NaN             NaN
             NaN             NaN             NaN
             NaN             NaN             NaN
             NaN             NaN             NaN
             NaN             NaN             NaN
             NaN             NaN             NaN
             NaN             NaN             NaN
             NaN             NaN             NaN
             NaN             NaN             NaN
             NaN             NaN             NaN
             NaN             NaN             NaN
             NaN             NaN             NaN
             NaN             NaN             NaN
             NaN             NaN             NaN
             NaN             NaN             NaN
             NaN             NaN             NaN
             NaN             NaN             NaN
             NaN             NaN             NaN
             NaN             NaN             NaN
             NaN             NaN             NaN
             NaN             NaN             NaN
             NaN             NaN             NaN
             NaN             NaN             NaN
             NaN             NaN             NaN
             NaN             NaN             NaN
             NaN             NaN             NaN
             NaN             NaN             NaN
             NaN             NaN             NaN
             NaN             NaN             NaN
             NaN             NaN             NaN
             NaN             NaN             NaN
             NaN             NaN             NaN
             NaN             NaN             NaN
             NaN             NaN             NaN
             NaN             NaN             NaN
             NaN             NaN             NaN
             NaN             NaN             NaN
             NaN             NaN             NaN
             NaN             NaN             NaN
             NaN             NaN             NaN
             NaN             NaN             NaN
             NaN             NaN             NaN
             NaN             NaN             NaN
             NaN             NaN             NaN
             NaN             NaN             NaN
             NaN             NaN             NaN
             NaN             NaN             NaN
             NaN             NaN             NaN
             NaN             NaN             NaN
             NaN             NaN             NaN
             NaN             NaN             NaN
             NaN             NaN             NaN
             NaN             NaN             NaN
             NaN             NaN             NaN
             NaN             NaN             NaN
             NaN             NaN             NaN
             NaN             NaN             NaN
             NaN             NaN             NaN
             NaN             NaN             NaN
             NaN             NaN             NaN
             NaN             NaN             NaN
             NaN             NaN             NaN
             NaN             NaN             NaN
             NaN             NaN             NaN
             NaN             NaN             NaN
             NaN             NaN             NaN
             NaN             NaN             NaN
             NaN             NaN             NaN
             NaN             NaN             NaN
             NaN             NaN             NaN
             NaN             NaN             NaN
             NaN             NaN             NaN
             NaN             NaN             NaN
             NaN             NaN             NaN
             NaN             NaN             NaN
             NaN             NaN             NaN
             NaN             NaN             NaN
             NaN             NaN             NaN
             NaN             NaN             NaN
