Li15 Fe16 P16 O64                       
   1.00000000000000     
    10.4262210000000000   -0.0008000000000000    0.0054550000000000
    -0.0009200000000000   12.1422980000000003    0.0007420000000000
     0.0033540000000000    0.0006870000000000    9.5213269999999994
   Li   Fe   P    O 
    15    16    16    64
Direct
  0.5441838380767972  0.3425114959437024  0.7186966225638804
  0.4965234076587912  0.4991191922974783  0.2456274423430681
  0.4976753322549013  0.0037604436755025  0.2480893083491093
  0.4954466861861108  0.0106970909832420  0.7599023183780077
  1.0017778035043572  0.2521135786713252  0.5032592841687732
  0.0021329707698956  0.2509196490285240  0.0006298972042064
  0.0058790385450487  0.7449499348329124  0.4967130441874908
  0.0004681492384691  0.7469398293819626  0.9951492409130589
  0.4963406833859316  0.2517800445171392  0.2453221573894728
  0.4980022267165016  0.7458709446783395  0.2488476259858364
  0.4956778688580455  0.7380984574652939  0.7598935646157969
  0.0007397200093276  0.0027899103230852  0.9952133963445972
  0.0059632692710483  0.0051395943750534  0.4967494859458164
  0.0021064011637037  0.4993816077248946  0.0002803297640064
  1.0018184811155311  0.4985761953523474  0.5030733344081089
  0.7795443214513894  0.1266257733854364  0.2635710956716818
  0.7797509188661932  0.1259878518646806  0.7642159379553790
  0.7792572307469794  0.6240040480951868  0.2633528530146969
  0.7784036774357456  0.6234668386659884  0.7632758818080883
  0.2828630468065347  0.1260470912119790  0.4878127387451109
  0.2824399479739401  0.1267475031344165  0.9858010535123604
  0.2838190804246428  0.6243078023828883  0.4888186814022678
  0.2823842832232026  0.6236951383755259  0.9858796753426039
  0.2181029460365578  0.3751934202653279  0.2346680245008421
  0.2221404055715681  0.3754868200084505  0.7403577627644722
  0.2209632317600881  0.8750203787136269  0.2364378821940537
  0.2194950194744196  0.8751097553369236  0.7360585644285950
  0.7172274440238747  0.3756602990825571  0.0143281177805909
  0.7219754264654832  0.3774969951871877  0.5050905894231161
  0.7151400533976172  0.8749796243372382  0.0168164864299388
  0.7195353911252195  0.8752652963119497  0.5100053512819248
  0.5962528780959389  0.1233152100763777  0.0425892151409278
  0.5929568310082440  0.1253960325806608  0.5407453772472051
  0.5961156178178169  0.6274761210385603  0.0424367679832382
  0.5940486481570368  0.6261918241101295  0.5396089742307357
  0.0932177689405819  0.1232578732072338  0.2087627485656210
  0.0931161741122294  0.1244294177236287  0.7078280010217763
  0.0931499776950662  0.6269556107184532  0.2089429217692982
  0.0930669496924660  0.6259852456202315  0.7078464153125953
  0.4032010254892012  0.3750939101542616  0.4546015524239737
  0.4020305433926403  0.3755151605117254  0.9624421250530788
  0.4082995084192862  0.8753878245455219  0.4606057886860166
  0.4055177920447824  0.8751859703628946  0.9584242997825216
  0.9087792622588753  0.3750293242627756  0.2906902047302876
  0.9059191694673091  0.3750454870282278  0.7921482820245729
  0.9045705576304784  0.8751854433264452  0.2943215884749316
  0.8991311301693392  0.8748537356364210  0.7926908451913582
  0.5978464949205924  0.1268832642896424  0.3792246310330185
  0.6025547956848445  0.1171206757530383  0.8827926801894709
  0.5971040279309627  0.6253638183810636  0.3776776261598548
  0.6028865197216146  0.6346578592835432  0.8830678545739644
  0.0962610376946853  0.1223012661696289  0.3704296638633146
  0.0949347999750272  0.1229826380063983  0.8692809427954815
  0.0963357521480687  0.6279967347236204  0.3705695509965563
  0.0950572815211130  0.6272652796170406  0.8693141029050769
  0.4015487025059527  0.3753862860743665  0.1252149713393459
  0.3961985133779788  0.3739742412857483  0.6144765918882914
  0.4033958059470753  0.8752201841326118  0.1202032167996094
  0.4021122861404434  0.8754047233260542  0.6206697399536828
  0.9061308229424391  0.3746818393656241  0.1296012176323363
  0.9037988725771654  0.3751526249362876  0.6303077631386550
  0.9011017259713904  0.8750654263931016  0.1342159608473466
  0.8862345954243118  0.8753455375434339  0.6300533388223623
  0.9548205158752133  0.1214677400789696  0.1477961953372801
  0.9551396399575602  0.1232187849407806  0.6453332581661375
  0.9548036803353582  0.6287517423531039  0.1478031910403228
  0.9552021720190241  0.6273182954546860  0.6454021237338146
  0.4576363273955658  0.1246790935949861  0.1033973771466832
  0.4565371855156607  0.1174621351669463  0.6002644833712673
  0.4574938337294118  0.6256397726710283  0.1032519503485071
  0.4577957794633520  0.6326410251595478  0.5995562718345820
  0.0454083640044336  0.3747798953341813  0.3552119452889654
  0.0431457736926509  0.3747041310165411  0.8551786839149317
  0.0415036378859150  0.8752627521486318  0.3571362237387639
  0.0395990630103035  0.8750997881655427  0.8450120785581758
  0.5427824969446414  0.3755335155414454  0.3961800556557911
  0.5414235257740437  0.3748489421730847  0.9076494489545550
  0.5511993965174729  0.8761073743777825  0.4044289990599398
  0.5431988955891709  0.8755084563067539  0.8970871147702805
  0.6649746999922590  0.0223361331716713  0.1161428120137931
  0.6697098473377736  0.0218481533530694  0.6022660918843349
  0.6669206955503133  0.5251079465800534  0.1075868406156224
  0.6704914195309535  0.5268379653809317  0.6030806446658920
  0.1614035065030780  0.2258376848626718  0.1424763495212381
  0.1629839145655204  0.2266303129099129  0.6418241431457297
  0.1650965309176870  0.7280049561951440  0.1417094136729528
  0.1644415826487129  0.7274994604989220  0.6399381334656308
  0.3342376526152403  0.2727350672883477  0.3866949048038822
  0.3277378711389412  0.2749613050765422  0.8991289577909674
  0.3414690363212169  0.7739087698330150  0.3893022260551190
  0.3341774165911611  0.7735747335218717  0.8920453035676790
  0.8378944486770387  0.4771000687678310  0.3567999345777925
  0.8344635911550642  0.4763267432552385  0.8586389927347143
  0.8292949322627259  0.9743476757566667  0.3649356992273092
  0.8320501220610240  0.9768427169827495  0.8613055925900377
  0.3338103322523601  0.4773651087657444  0.3876592125202852
  0.3261727977850440  0.4751187435664783  0.9000647208839175
  0.3409683923177979  0.9766108189753191  0.3891148994503840
  0.3339063000656616  0.9767397835198757  0.8920548548287931
  0.8368904938818312  0.2737069740927561  0.3578606477047735
  0.8339180560399752  0.2734690512619317  0.8578362376101064
  0.8293982130865714  0.7760970251896486  0.3651501463243726
  0.8323618319234809  0.7726300102190394  0.8608940462630599
  0.6669659534403564  0.2256823975474691  0.1077345795504544
  0.6633778658343397  0.2279808685194854  0.6073881678460868
  0.6646585056776743  0.7284005923360116  0.1166967694999687
  0.6682387731860462  0.7315939847647152  0.6014227433433376
  0.1651014633673104  0.0222079609843045  0.1416256772742091
  0.1642896837273940  0.0229235776795178  0.6398283297970873
  0.1612402885074503  0.5243763723583394  0.1427034827720570
  0.1630100876343216  0.5238889569322677  0.6416707254832577
 
             NaN             NaN             NaN
             NaN             NaN             NaN
             NaN             NaN             NaN
             NaN             NaN             NaN
             NaN             NaN             NaN
             NaN             NaN             NaN
             NaN             NaN             NaN
             NaN             NaN             NaN
             NaN             NaN             NaN
             NaN             NaN             NaN
             NaN             NaN             NaN
             NaN             NaN             NaN
             NaN             NaN             NaN
             NaN             NaN             NaN
             NaN             NaN             NaN
             NaN             NaN             NaN
             NaN             NaN             NaN
             NaN             NaN             NaN
             NaN             NaN             NaN
             NaN             NaN             NaN
             NaN             NaN             NaN
             NaN             NaN             NaN
             NaN             NaN             NaN
             NaN             NaN             NaN
             NaN             NaN             NaN
             NaN             NaN             NaN
             NaN             NaN             NaN
             NaN             NaN             NaN
             NaN             NaN             NaN
             NaN             NaN             NaN
             NaN             NaN             NaN
             NaN             NaN             NaN
             NaN             NaN             NaN
             NaN             NaN             NaN
             NaN             NaN             NaN
             NaN             NaN             NaN
             NaN             NaN             NaN
             NaN             NaN             NaN
             NaN             NaN             NaN
             NaN             NaN             NaN
             NaN             NaN             NaN
             NaN             NaN             NaN
             NaN             NaN             NaN
             NaN             NaN             NaN
             NaN             NaN             NaN
             NaN             NaN             NaN
             NaN             NaN             NaN
             NaN             NaN             NaN
             NaN             NaN             NaN
             NaN             NaN             NaN
             NaN             NaN             NaN
             NaN             NaN             NaN
             NaN             NaN             NaN
             NaN             NaN             NaN
             NaN             NaN             NaN
             NaN             NaN             NaN
             NaN             NaN             NaN
             NaN             NaN             NaN
             NaN             NaN             NaN
             NaN             NaN             NaN
             NaN             NaN             NaN
             NaN             NaN             NaN
             NaN             NaN             NaN
             NaN             NaN             NaN
             NaN             NaN             NaN
             NaN             NaN             NaN
             NaN             NaN             NaN
             NaN             NaN             NaN
             NaN             NaN             NaN
             NaN             NaN             NaN
             NaN             NaN             NaN
             NaN             NaN             NaN
             NaN             NaN             NaN
             NaN             NaN             NaN
             NaN             NaN             NaN
             NaN             NaN             NaN
             NaN             NaN             NaN
             NaN             NaN             NaN
             NaN             NaN             NaN
             NaN             NaN             NaN
             NaN             NaN             NaN
             NaN             NaN             NaN
             NaN             NaN             NaN
             NaN             NaN             NaN
             NaN             NaN             NaN
             NaN             NaN             NaN
             NaN             NaN             NaN
             NaN             NaN             NaN
             NaN             NaN             NaN
             NaN             NaN             NaN
             NaN             NaN             NaN
             NaN             NaN             NaN
             NaN             NaN             NaN
             NaN             NaN             NaN
             NaN             NaN             NaN
             NaN             NaN             NaN
             NaN             NaN             NaN
             NaN             NaN             NaN
             NaN             NaN             NaN
             NaN             NaN             NaN
             NaN             NaN             NaN
             NaN             NaN             NaN
             NaN             NaN             NaN
             NaN             NaN             NaN
             NaN             NaN             NaN
             NaN             NaN             NaN
             NaN             NaN             NaN
             NaN             NaN             NaN
             NaN             NaN             NaN
             NaN             NaN             NaN
             NaN             NaN             NaN
