Li7 Mn16 O32
1.0
8.381029 0.066796 0.006827
0.026470 8.190016 0.022639
-0.017301 -0.004057 8.251853
Li Mn O
7 16 32
direct
0.282539 0.465682 0.779495 Li
0.880661 0.874002 0.879443 Li
0.117929 0.128854 0.123691 Li
0.883882 0.372263 0.379540 Li
0.377416 0.874434 0.380665 Li
0.616758 0.127885 0.625633 Li
0.620064 0.625579 0.117832 Li
0.503530 0.251718 0.249027 Mn
0.256788 0.495841 0.242873 Mn
0.254773 0.249235 0.503997 Mn
0.503265 0.497701 0.497442 Mn
0.497959 0.749874 0.751165 Mn
0.753580 0.498286 0.742535 Mn
0.745459 0.751499 0.496074 Mn
0.244121 1.001629 0.758491 Mn
0.250071 0.749837 1.001199 Mn
0.495276 0.004705 0.003809 Mn
0.746261 0.003667 0.254783 Mn
0.751688 0.250436 -0.000588 Mn
-0.000269 0.250900 0.748148 Mn
0.005067 0.497255 0.995533 Mn
0.998981 0.747780 0.251292 Mn
0.996194 0.002186 0.502053 Mn
0.753344 0.014199 0.026205 O
0.019065 0.732280 0.015985 O
0.012629 0.014395 0.738383 O
0.741159 0.734523 0.730818 O
0.238798 0.979420 0.989633 O
0.983971 0.264008 0.980446 O
0.973230 0.001448 0.270044 O
0.276839 0.264690 0.241158 O
0.744977 0.516676 0.508856 O
0.018852 0.240083 0.519196 O
0.028963 0.495148 0.231024 O
0.730004 0.234843 0.260418 O
0.266056 0.484316 0.474244 O
0.972394 0.762892 0.481775 O
0.982705 0.484095 0.759647 O
0.257886 0.767401 0.769821 O
0.253287 0.015321 0.528116 O
0.516090 0.730996 0.509901 O
0.514811 0.017187 0.239716 O
0.246612 0.731238 0.234459 O
0.738110 0.980172 0.486270 O
0.489743 0.264855 0.481142 O
0.472207 1.002866 0.772429 O
0.772194 0.267071 0.739239 O
0.250742 0.517230 0.012848 O
0.521422 0.241024 0.020671 O
0.526777 0.499106 0.728024 O
0.224044 0.232103 0.761244 O
0.755949 0.489583 0.973465 O
0.477602 0.764885 0.990000 O
0.489062 0.485890 0.259544 O
0.750924 0.767522 0.263884 O
