Li7 Mn16 O32                            
   1.00000000000000     
     8.3810289999999998    0.0667960000000000    0.0068270000000000
     0.0264700000000000    8.1900160000000000    0.0226390000000000
    -0.0173010000000000   -0.0040570000000000    8.2518530000000005
   Li   Mn   O 
     7    16    32
Direct
  0.2793473977359191  0.4722000550766687  0.7760513362004080
  0.8810610553059108  0.8732160819385759  0.8787759368642201
  0.1177150086552403  0.1297943658888187  0.1224149504872906
  0.8840624053545674  0.3721650271737938  0.3797837672209298
  0.3767665003226482  0.8737970404799823  0.3807600840502389
  0.6156043838522591  0.1290660267676467  0.6265251107634857
  0.6193170539605928  0.6249552443830790  0.1158933293775284
  0.5042908994680377  0.2506404051632654  0.2477946420684878
  0.2591065939045180  0.4964154095198515  0.2413629002979325
  0.2564180823360406  0.2458254657132305  0.4990778808121396
  0.5046896368474555  0.4966415630376647  0.4959679614904371
  0.4996554059113307  0.7528940551880267  0.7524298275691439
  0.7514680264707712  0.4958965230062848  0.7419592073707652
  0.7450390215977679  0.7529802254309566  0.4963258175181028
  0.2452160724049425  0.0041347643736398  0.7598102598595481
  0.2498973005949565  0.7529545017469946  0.0037588642054682
  0.4959856332150637  0.0077867619273882  0.0028070942411013
  0.7467266522654361  0.0035708436833460  0.2543752711163917
  0.7499552515879976  0.2500273033272243  0.9987796673230939
  0.9974227729990303  0.2492807439039485  0.7466826181119424
  0.0001050115471768  0.4959586708733947  0.9995231590619799
  0.9980167521656583  0.7467940927280479  0.2527570369598159
  0.9970945450755618  0.0005893248568408  0.5022053924678325
  0.7534489070117445  0.0132586709572535  0.0262526248683809
  0.0187116300005890  0.7327446356780145  0.0189841374267856
  0.0141279456879344  0.0131849792770814  0.7384592987498130
  0.7415693106573213  0.7324745956363481  0.7316347983977202
  0.2392167923891446  0.9822705044935318  0.9896327095001984
  0.9811066564804077  0.2624313614734073  0.9802273320576196
  0.9736195325345544  0.0004819264572058  0.2694215932011546
  0.2764346354039087  0.2656872411232361  0.2406669155415445
  0.7356802661299408  0.5155941010491194  0.5057535900973410
  0.0186359521185688  0.2378927558681503  0.5170374732948958
  0.0319220596101304  0.4958985488871120  0.2374749169014116
  0.7305121133618505  0.2345483335537240  0.2608599116904638
  0.2777238346394995  0.4829021749083075  0.4807342586376201
  0.9700634790655503  0.7628051660960391  0.4808429521143627
  0.9827605800462420  0.4812371258762158  0.7583171966960445
  0.2602376123782568  0.7666569269555220  0.7722809464500220
  0.2542710075554648  0.0149586688386427  0.5278318051943356
  0.5140150659666675  0.7326694759669028  0.5161949742792357
  0.5148316117210987  0.0168633677667290  0.2396987412757697
  0.2485641801136528  0.7312072492088368  0.2355440710041824
  0.7380942160399261  0.9805925265984239  0.4867372161612646
  0.4924414580048366  0.2644439349527523  0.4797098476112985
  0.4712639081977131  0.0095754967228580  0.7718611807559712
  0.7706118764235880  0.2657821146132630  0.7375278633276172
  0.2566303487053129  0.5217188113343711  0.0115601452312592
  0.5226197556533946  0.2407825571727236  0.0221619445266178
  0.5200115969976824  0.4945461849397913  0.7218717718442832
  0.2218764147386523  0.2376326546779319  0.7572392926124045
  0.7471429529640308  0.4888382304655992  0.9697594807893201
  0.4800949742227503  0.7670852309530233  0.9850248746894131
  0.4903956374588836  0.4867038647580687  0.2607286503007952
  0.7482793836560164  0.7678033348041434  0.2643383158441533
 
             NaN             NaN             NaN
             NaN             NaN             NaN
             NaN             NaN             NaN
             NaN             NaN             NaN
             NaN             NaN             NaN
             NaN             NaN             NaN
             NaN             NaN             NaN
             NaN             NaN             NaN
             NaN             NaN             NaN
             NaN             NaN             NaN
             NaN             NaN             NaN
             NaN             NaN             NaN
             NaN             NaN             NaN
             NaN             NaN             NaN
             NaN             NaN             NaN
             NaN             NaN             NaN
             NaN             NaN             NaN
             NaN             NaN             NaN
             NaN             NaN             NaN
             NaN             NaN             NaN
             NaN             NaN             NaN
             NaN             NaN             NaN
             NaN             NaN             NaN
             NaN             NaN             NaN
             NaN             NaN             NaN
             NaN             NaN             NaN
             NaN             NaN             NaN
             NaN             NaN             NaN
             NaN             NaN             NaN
             NaN             NaN             NaN
             NaN             NaN             NaN
             NaN             NaN             NaN
             NaN             NaN             NaN
             NaN             NaN             NaN
             NaN             NaN             NaN
             NaN             NaN             NaN
             NaN             NaN             NaN
             NaN             NaN             NaN
             NaN             NaN             NaN
             NaN             NaN             NaN
             NaN             NaN             NaN
             NaN             NaN             NaN
             NaN             NaN             NaN
             NaN             NaN             NaN
             NaN             NaN             NaN
             NaN             NaN             NaN
             NaN             NaN             NaN
             NaN             NaN             NaN
             NaN             NaN             NaN
             NaN             NaN             NaN
             NaN             NaN             NaN
             NaN             NaN             NaN
             NaN             NaN             NaN
             NaN             NaN             NaN
             NaN             NaN             NaN
