Li47 P16 O64
1.0
10.597258 0.001439 -0.003884
0.001681 12.289808 -0.003704
-0.003623 -0.002946 9.991071
Li P O
47 16 64
direct
0.431114 0.370068 0.098040 Li
0.662565 0.251415 0.604166 Li
0.664003 0.750390 0.099072 Li
0.663604 0.752161 0.599785 Li
0.164517 0.498653 0.150593 Li
0.163147 0.499595 0.651062 Li
0.163482 0.994720 0.153716 Li
0.163717 0.998586 0.650823 Li
0.336414 0.000680 0.401882 Li
0.336830 0.000960 0.901014 Li
0.335587 0.501737 0.401098 Li
0.336773 0.500466 0.901588 Li
0.833119 0.249397 0.346072 Li
0.836611 0.249477 0.853129 Li
0.836263 0.749064 0.349214 Li
0.836386 0.749186 0.849307 Li
0.335474 0.249075 0.401611 Li
0.336601 0.248019 0.899429 Li
0.336643 0.749175 0.400711 Li
0.336643 0.749300 0.901288 Li
0.836465 0.001173 0.349536 Li
0.836518 0.001597 0.849121 Li
0.834629 0.501201 0.348972 Li
0.836708 0.500377 0.849086 Li
0.664998 0.494057 0.096370 Li
0.663566 0.502384 0.598963 Li
0.666093 1.001825 0.101074 Li
0.663035 1.000624 0.599002 Li
0.163886 0.250832 0.149882 Li
0.162810 0.250574 0.651122 Li
0.164009 0.749779 0.150586 Li
0.163291 0.750800 0.651503 Li
0.924310 0.375912 0.146678 Li
0.925480 0.374892 0.648957 Li
0.925671 0.874451 0.149001 Li
0.925224 0.875290 0.649086 Li
0.421312 0.376276 0.600982 Li
0.426886 0.874353 0.101783 Li
0.426097 0.875610 0.601458 Li
0.074561 0.124337 0.351718 Li
0.075311 0.124639 0.850804 Li
0.073560 0.624652 0.350776 Li
0.074235 0.624683 0.851499 Li
0.574345 0.126965 0.394907 Li
0.577030 0.129840 0.907342 Li
0.574074 0.626068 0.399494 Li
0.574675 0.624552 0.899085 Li
0.915170 0.124409 0.097389 P
0.911251 0.125324 0.596243 P
0.911104 0.624983 0.096689 P
0.911018 0.625181 0.596924 P
0.408560 0.122719 0.153141 P
0.411159 0.124877 0.653354 P
0.412109 0.623871 0.152720 P
0.410502 0.626337 0.653747 P
0.088095 0.375276 0.403183 P
0.089430 0.375015 0.903088 P
0.088579 0.874231 0.404135 P
0.088861 0.874590 0.903197 P
0.586599 0.377326 0.349451 P
0.588060 0.374991 0.841284 P
0.589344 0.875340 0.346712 P
0.589534 0.875631 0.847653 P
0.843693 0.021923 0.149298 O
0.840846 0.021946 0.647809 O
0.840812 0.521672 0.148013 O
0.841125 0.521673 0.648493 O
0.340173 0.226588 0.099999 O
0.339707 0.228266 0.602844 O
0.341886 0.727810 0.101857 O
0.340611 0.730290 0.603190 O
0.157373 0.271363 0.351173 O
0.159132 0.271249 0.851548 O
0.158773 0.770809 0.352267 O
0.158816 0.770854 0.852037 O
0.657998 0.480034 0.402548 O
0.659338 0.476696 0.896219 O
0.658882 0.979250 0.397825 O
0.660255 0.978575 0.899271 O
0.158556 0.478540 0.351758 O
0.159554 0.478518 0.851537 O
0.158940 0.977842 0.353638 O
0.159214 0.977962 0.851965 O
0.657105 0.273433 0.398942 O
0.658827 0.268787 0.876497 O
0.659443 0.771933 0.398794 O
0.658983 0.771252 0.897877 O
0.855073 0.229809 0.152256 O
0.841923 0.229162 0.647563 O
0.841438 0.728765 0.148148 O
0.840938 0.728837 0.648170 O
0.336422 0.019034 0.103977 O
0.341029 0.021136 0.602074 O
0.341841 0.520444 0.101429 O
0.339608 0.523468 0.601666 O
0.544343 0.117309 0.098998 O
0.548495 0.125880 0.598797 O
0.550318 0.624060 0.100326 O
0.548626 0.627079 0.601431 O
0.054890 0.121074 0.147029 O
0.049694 0.124581 0.648349 O
0.049543 0.624590 0.148665 O
0.049305 0.625143 0.649103 O
0.448704 0.375639 0.403756 O
0.451051 0.373545 0.897095 O
0.450873 0.875023 0.398477 O
0.451274 0.875502 0.900179 O
0.949509 0.375934 0.352206 O
0.951097 0.375222 0.851067 O
0.950450 0.874657 0.351456 O
0.950564 0.875051 0.850906 O
0.583978 0.381827 0.195193 O
0.584038 0.381344 0.685042 O
0.590537 0.874804 0.190524 O
0.589388 0.876189 0.691293 O
0.090199 0.375160 0.059251 O
0.089669 0.375049 0.559447 O
0.088948 0.873772 0.059470 O
0.088678 0.874157 0.560315 O
0.408033 0.125050 0.309430 O
0.411916 0.124393 0.809395 O
0.411393 0.624586 0.309122 O
0.410608 0.625155 0.810028 O
0.910554 0.125279 0.440013 O
0.912622 0.124472 0.941270 O
0.910387 0.624990 0.440650 O
0.910458 0.624945 0.940386 O
