Li47 P16 O64                            
   1.00000000000000     
    10.6079279999999994   -0.0016560000000000   -0.0022710000000000
    -0.0019170000000000   12.3716139999999992    0.0025170000000000
    -0.0021720000000000    0.0020170000000000   10.0260970000000000
   Li   P    O 
    47    16    64
Direct
  0.2766210441145081  0.3479408679400958  0.1486477619101113
  0.6573733939443310  0.2516902894656998  0.0986070249499714
  0.6666878411658645  0.2491183337734950  0.5983950255602927
  0.6585870362298658  0.7474779101393343  0.0983048269815637
  0.6633162979150711  0.7500841037506047  0.5991082754402970
  0.1527998458106564  0.5121523550454778  0.1504177229433429
  0.1646123531719437  0.5009685413890360  0.6503032440248291
  0.1643231002124314  0.0025241885151974  0.1484978760545237
  0.1640014183170714  0.0009029246532333  0.6511255265506275
  0.3373837284264499  0.0009445624303465  0.3982050663778786
  0.3371484677798580  0.0000301112348620  0.9033273036682492
  0.3389456711209227  0.4994983952548482  0.4013797969892368
  0.3384914925452422  0.4973577175516178  0.9038952878465374
  0.8363263396165997  0.2488574078129531  0.3475597782568287
  0.8352175357047019  0.2494664718908527  0.8530278992100534
  0.8359060416387210  0.7490316151162022  0.3489735332117024
  0.8359290498811521  0.7496555140529315  0.8489091646129685
  0.3411365242574123  0.2464882862163507  0.4044926584551694
  0.3400886819323626  0.2494099118289366  0.9017442051151850
  0.3370625645348144  0.7482478755838795  0.4005425968602548
  0.3355119193447910  0.7477524553734534  0.9018716403573918
  0.8385999704427999  0.0025344474074278  0.3478259511330805
  0.8363352952548812  0.0012494499829308  0.8480775566527592
  0.8360989800802705  0.4982791317368929  0.3462051564258258
  0.8350201710157279  0.5004200157771493  0.8539341822002622
  0.6565994595327216  0.4931181315722170  0.0968293964770886
  0.6663427175761886  0.4990421758912649  0.5984571286042651
  0.6618603996683653  0.9954675922201690  0.0982575834377407
  0.6647322177912205  0.9982140559132140  0.5985882644292371
  0.1647668589258939  0.2529512203513932  0.6499249962364511
  0.1625925467232835  0.7539724099638165  0.1527838360072243
  0.1641874037720362  0.7527952181403793  0.6502227984411952
  0.9372956074063469  0.3658333934187868  0.1477303617503786
  0.9264697802514761  0.3756672293237750  0.6534455284596679
  0.9240073060201657  0.8763363158690594  0.1483898534237138
  0.9265352314560084  0.8761761508524020  0.6484259876262131
  0.4292948814566319  0.3741888873170138  0.6063113441184106
  0.4252163342449466  0.8727237168366410  0.1021721199766207
  0.4258420116610712  0.8748433020618258  0.5999714501329233
  0.0795410401327838  0.1348628008242060  0.3372718158400070
  0.0756259898897240  0.1287694852561393  0.8578453331482569
  0.0731909325652566  0.6272353184260593  0.3546583406845170
  0.0736361845527708  0.6259089659703303  0.8493035488405037
  0.5754775616414094  0.1250463920457357  0.3969302897333040
  0.5741386474143152  0.1243849544943652  0.9010784709933543
  0.5741469984481339  0.6221464947675495  0.3994462094643850
  0.5717727920519661  0.6218618010286582  0.8980488306529305
  0.9084116571563120  0.1215537391914168  0.0966606352673859
  0.9140366406067802  0.1258790973300771  0.5971074452867351
  0.9073344930985310  0.6268563911269228  0.0974080895612601
  0.9113931040211917  0.6258029488707868  0.5972829880439227
  0.4131108199298060  0.1215280279129639  0.1511515430066110
  0.4125768747933509  0.1229284892692824  0.6534405313981676
  0.4063074011019312  0.6224999265733544  0.1532250569236769
  0.4110667518673798  0.6250672385376227  0.6531910600872650
  0.0913856815320197  0.3766448882044943  0.4038596875449875
  0.0925662538438059  0.3781726874314382  0.9040153951974693
  0.0896268383265694  0.8765055573358924  0.4029922191052371
  0.0886415851397813  0.8754750974112542  0.9029223054106136
  0.5917034071390727  0.3738018717441813  0.3482244470784265
  0.5868758013233089  0.3742017369695635  0.8404128745155114
  0.5892181461720142  0.8732512620822670  0.3470904748285416
  0.5882872429650179  0.8730242633780374  0.8457871151988433
  0.8348185381892912  0.0189568373591851  0.1458585787965533
  0.8429064342187460  0.0223877931749883  0.6465601447998963
  0.8406076422408765  0.5221997470719161  0.1467592706972540
  0.8433809315937729  0.5232457513999191  0.6519626241043340
  0.3454759050936215  0.2204368054288747  0.0931080081780677
  0.3434830927700761  0.2265128767748596  0.6030603201010987
  0.3390162306764258  0.7278868199646304  0.1033840904796631
  0.3414681965667422  0.7283253512125758  0.6015268238697131
  0.1677765290879694  0.2766591024786528  0.3580134609879459
  0.1601297297985926  0.2754416125432429  0.8497152628706905
  0.1593133888662499  0.7725026763621304  0.3537298604028555
  0.1585886758304518  0.7724672416244056  0.8513277220777078
  0.6599495730729250  0.4775410809193126  0.4028846548985716
  0.6554190261133342  0.4769751404452406  0.8960796734946508
  0.6599034154643896  0.9761864778641982  0.3974277873002079
  0.6587914874941756  0.9756308769808313  0.8966126136559205
  0.1588108662028527  0.4812098505670042  0.3512092151167223
  0.1583727055918512  0.4814163968144566  0.8467207008919480
  0.1600147069283607  0.9785224559541100  0.3512218691927174
  0.1590447504324508  0.9784518920677425  0.8526067753224444
  0.6602623721579990  0.2706109328670143  0.4034676559127643
  0.6545144138246127  0.2714130986344114  0.8966997192019149
  0.6586762245406821  0.7701961345602093  0.3991553028258432
  0.6576206777142839  0.7695045699752485  0.8967611176834502
  0.8396590822592356  0.2255124749042965  0.1476099116660222
  0.8441114674516538  0.2283360256185576  0.6500374084740963
  0.8350918888006019  0.7290247387130966  0.1475172870121195
  0.8413830440633780  0.7291642149540779  0.6475647135859909
  0.3447052055025338  0.0157792196194689  0.1040861626097638
  0.3418788318932126  0.0205934971525770  0.6007135962266703
  0.3299476407871651  0.5225650335837478  0.1047948222099239
  0.3421071131756366  0.5223819253255193  0.6001348067554438
  0.5525923189771997  0.1190424661131683  0.1017784677888713
  0.5507247669837189  0.1225324070899744  0.6010266371191507
  0.5434126082190320  0.6210750608861059  0.0977605686216057
  0.5497796505463395  0.6253441503906390  0.6025447966823351
  0.0442337468980239  0.1172314769724815  0.1488411143759483
  0.0514770669835567  0.1256590947926673  0.6512194565735525
  0.0445558734155972  0.6315572291978871  0.1524896098655876
  0.0503979378162906  0.6278079547106360  0.6469139642347116
  0.4523555633526298  0.3738761797292595  0.3990686287665543
  0.4453247924414739  0.3750764087378579  0.8741958139444012
  0.4511226293281112  0.8740211415376828  0.3995681249245571
  0.4502215209515874  0.8728732877315433  0.8980525067323789
  0.9541478683755109  0.3734088992747309  0.3484734422623024
  0.9513838886826755  0.3760597510755991  0.8594001131488322
  0.9512912697182273  0.8750804701385250  0.3504746456154429
  0.9506139501653044  0.8752364118285730  0.8497782796360975
  0.5996468480769024  0.3733797197081628  0.1952305752661676
  0.5997885382394382  0.3741388538484671  0.6847374748590035
  0.5886547643892215  0.8715618119555993  0.1913999752184073
  0.5891415534336483  0.8735760708312988  0.6898592217718053
  0.1019992050356955  0.3827115759936768  0.0591702931690430
  0.0875197043374359  0.3793299176635535  0.5599921854043434
  0.0881844867239792  0.8749341567315733  0.0585705534520066
  0.0894327723367839  0.8767435148531361  0.5590303691008498
  0.4121265277152238  0.1241576860178454  0.3075265137487115
  0.4117788245878817  0.1215513865932965  0.8089876867355508
  0.4103368239837778  0.6240286082326235  0.3092549442170047
  0.4088043523393569  0.6249679183159254  0.8088622971984967
  0.9143605102883978  0.1266498155328913  0.4412738729577638
  0.9075026788325448  0.1234306374239144  0.9401457010432168
  0.9087785311543717  0.6241118754705711  0.4414016056361326
  0.9101794057147939  0.6270191968961611  0.9414391604103208
 
             NaN             NaN             NaN
             NaN             NaN             NaN
             NaN             NaN             NaN
             NaN             NaN             NaN
             NaN             NaN             NaN
             NaN             NaN             NaN
             NaN             NaN             NaN
             NaN             NaN             NaN
             NaN             NaN             NaN
             NaN             NaN             NaN
             NaN             NaN             NaN
             NaN             NaN             NaN
             NaN             NaN             NaN
             NaN             NaN             NaN
             NaN             NaN             NaN
             NaN             NaN             NaN
             NaN             NaN             NaN
             NaN             NaN             NaN
             NaN             NaN             NaN
             NaN             NaN             NaN
             NaN             NaN             NaN
             NaN             NaN             NaN
             NaN             NaN             NaN
             NaN             NaN             NaN
             NaN             NaN             NaN
             NaN             NaN             NaN
             NaN             NaN             NaN
             NaN             NaN             NaN
             NaN             NaN             NaN
             NaN             NaN             NaN
             NaN             NaN             NaN
             NaN             NaN             NaN
             NaN             NaN             NaN
             NaN             NaN             NaN
             NaN             NaN             NaN
             NaN             NaN             NaN
             NaN             NaN             NaN
             NaN             NaN             NaN
             NaN             NaN             NaN
             NaN             NaN             NaN
             NaN             NaN             NaN
             NaN             NaN             NaN
             NaN             NaN             NaN
             NaN             NaN             NaN
             NaN             NaN             NaN
             NaN             NaN             NaN
             NaN             NaN             NaN
             NaN             NaN             NaN
             NaN             NaN             NaN
             NaN             NaN             NaN
             NaN             NaN             NaN
             NaN             NaN             NaN
             NaN             NaN             NaN
             NaN             NaN             NaN
             NaN             NaN             NaN
             NaN             NaN             NaN
             NaN             NaN             NaN
             NaN             NaN             NaN
             NaN             NaN             NaN
             NaN             NaN             NaN
             NaN             NaN             NaN
             NaN             NaN             NaN
             NaN             NaN             NaN
             NaN             NaN             NaN
             NaN             NaN             NaN
             NaN             NaN             NaN
             NaN             NaN             NaN
             NaN             NaN             NaN
             NaN             NaN             NaN
             NaN             NaN             NaN
             NaN             NaN             NaN
             NaN             NaN             NaN
             NaN             NaN             NaN
             NaN             NaN             NaN
             NaN             NaN             NaN
             NaN             NaN             NaN
             NaN             NaN             NaN
             NaN             NaN             NaN
             NaN             NaN             NaN
             NaN             NaN             NaN
             NaN             NaN             NaN
             NaN             NaN             NaN
             NaN             NaN             NaN
             NaN             NaN             NaN
             NaN             NaN             NaN
             NaN             NaN             NaN
             NaN             NaN             NaN
             NaN             NaN             NaN
             NaN             NaN             NaN
             NaN             NaN             NaN
             NaN             NaN             NaN
             NaN             NaN             NaN
             NaN             NaN             NaN
             NaN             NaN             NaN
             NaN             NaN             NaN
             NaN             NaN             NaN
             NaN             NaN             NaN
             NaN             NaN             NaN
             NaN             NaN             NaN
             NaN             NaN             NaN
             NaN             NaN             NaN
             NaN             NaN             NaN
             NaN             NaN             NaN
             NaN             NaN             NaN
             NaN             NaN             NaN
             NaN             NaN             NaN
             NaN             NaN             NaN
             NaN             NaN             NaN
             NaN             NaN             NaN
             NaN             NaN             NaN
             NaN             NaN             NaN
             NaN             NaN             NaN
             NaN             NaN             NaN
             NaN             NaN             NaN
             NaN             NaN             NaN
             NaN             NaN             NaN
             NaN             NaN             NaN
             NaN             NaN             NaN
             NaN             NaN             NaN
             NaN             NaN             NaN
             NaN             NaN             NaN
             NaN             NaN             NaN
             NaN             NaN             NaN
             NaN             NaN             NaN
             NaN             NaN             NaN
             NaN             NaN             NaN
             NaN             NaN             NaN
