Li48 P16 O64                            
   1.00000000000000     
    10.3986573194684375   -0.0000461349149197   -0.0067274165970787
    -0.0000539119464553   12.2108837828775290    0.0000086299483352
    -0.0063865464073229    0.0000069619989373    9.7900825016122184
   Li   P    O 
    47    16    64
Direct
  0.6575777058248755  0.2522802554190846  0.0969766615669367
  0.6673873400037401  0.2479882228549339  0.5985012013442905
  0.6647535559856461  0.7509604125740549  0.0975347303705549
  0.6648641749106761  0.7512649160959303  0.5983962049303191
  0.1638790028029009  0.4969720063239165  0.1519656462726990
  0.1643739861561228  0.4988343485333389  0.6523474848566903
  0.1627998146961617  0.9985949911568176  0.1523263599339398
  0.1646911726572169  0.9985699420824934  0.6525773315347561
  0.3360240903258385  0.0005632784831032  0.4014305418906177
  0.3359145946230762  0.0006052357682987  0.9026182197893585
  0.3372709685825462  0.4995480850248000  0.4000446226465490
  0.3370739040092975  0.4971873042572725  0.9068564216966504
  0.8370386533470598  0.2485551988651971  0.3475053881610237
  0.8348328853199816  0.2487684112639576  0.8489076872728428
  0.8366666367493737  0.7487486264826737  0.3483516850258604
  0.8365289794791956  0.7489602687474226  0.8475230471623429
  0.3372747004755410  0.2504635205462802  0.4000422564831618
  0.3370740914897292  0.2528277752304725  0.9068538926908900
  0.3360209119909224  0.7494188040487133  0.4014279437140345
  0.3359095415042330  0.7493737053496108  0.9026269587328984
  0.8366689681449266  0.0012404574949500  0.3483536503796723
  0.8365328662254556  0.0010240970036232  0.8475224502875686
  0.8370363677162467  0.5014564285656421  0.3475022969179860
  0.8348255762138348  0.5012456378886615  0.8489030122835163
  0.6575758680949680  0.4977464230330201  0.0969711140451709
  0.6673893615014034  0.5020271886817562  0.5984989600994574
  0.6647526433112708  0.9990227566734021  0.0975373669332125
  0.6648589772464081  0.9987272416185927  0.5983923149213193
  0.1638736617117851  0.2530481835648273  0.1519618614498475
  0.1643671675240354  0.2511755347022384  0.6523444320375099
  0.1628040254448784  0.7513898681286774  0.1523259623830426
  0.1646969067558638  0.7514168518710947  0.6525802879700369
  0.9198043971247980  0.3750070930273521  0.1481307624244633
  0.9221444835391679  0.3750037239309775  0.6489392056554322
  0.9220838130957928  0.8749942933054916  0.1493114896077836
  0.9237482058234876  0.8749926387619845  0.6483481107389163
  0.4232833895761738  0.3750043185781397  0.6125731480713835
  0.4274475835918405  0.8749851455336435  0.1000951301034202
  0.4236650599268494  0.8749952841211360  0.6007676612926810
  0.0777366776015575  0.1254442027525013  0.3510998231900588
  0.0775791283662567  0.1254287183008650  0.8521972348236547
  0.0777349734000346  0.6245582327997244  0.3510989326110926
  0.0775774486669651  0.6245755112758604  0.8521962402676023
  0.5771131251908119  0.1248296530084414  0.3999344693829184
  0.5750902224740793  0.1248264129319317  0.8978910548955537
  0.5770991531554281  0.6251749427117101  0.3999328686365663
  0.5750801303592447  0.6251774467461637  0.8978962386937108
  0.9108562608709078  0.1251504616250920  0.0954063245937382
  0.9135295642863637  0.1243765161843149  0.5955005638014020
  0.9108631081236118  0.6248491375753430  0.0954059584387915
  0.9135306106317679  0.6256208051738534  0.5954995067768051
  0.4107833141998500  0.1213188896359014  0.1544237423323184
  0.4115485428191732  0.1247098148145665  0.6548843095771963
  0.4107668337743878  0.6286703272088581  0.1544115696194850
  0.4115483678840081  0.6252895658964728  0.6548903420955086
  0.0880342848914006  0.3750111214346619  0.4047688441603225
  0.0861180184164601  0.3750185709753432  0.9047451787322622
  0.0880540811116687  0.8749896444001199  0.4048286305478149
  0.0876628414925970  0.8749865506969320  0.9051203561650338
  0.5912876625951705  0.3750156829523252  0.3496603344256144
  0.5880417129444124  0.3750175477810275  0.8389189164055878
  0.5890310396406536  0.8749862901978248  0.3455878638951362
  0.5886278048805729  0.8749869696501653  0.8448852470942463
  0.8413586494736265  0.0215832736641923  0.1471959101804411
  0.8428393725569172  0.0211832679888964  0.6465365297674056
  0.8389248233330829  0.5222991655797479  0.1463784171895992
  0.8435036441744775  0.5229588386822036  0.6484863282559884
  0.3331766144269070  0.2169871594025242  0.0973736471607827
  0.3422238576794068  0.2277004351390587  0.6014533459295475
  0.3434665233568585  0.7349674952013037  0.1069767224110564
  0.3420566882901971  0.7286005469845060  0.6022326812253127
  0.1585226624816962  0.2719641934206098  0.3533320501254142
  0.1566814339584023  0.2720589554185583  0.8532161711078794
  0.1580758144550523  0.7718230492852410  0.3529503281598662
  0.1584234857152761  0.7718625111791633  0.8541040744363252
  0.6604524765016523  0.4787853530377365  0.4018021961816439
  0.6544151305065055  0.4780514935452454  0.8963121376907931
  0.6589287462501580  0.9782216868213996  0.3977807562621567
  0.6586590660306676  0.9782108363358828  0.8967667020949432
  0.1585266776668748  0.4780546641679819  0.3533288849087173
  0.1566868063670585  0.4779772903237181  0.8532218441680891
  0.1580709366353573  0.9781632963890368  0.3529569722085066
  0.1584216400072879  0.9781106354113356  0.8540933662279843
  0.6604568692375175  0.2712512054113720  0.4018077839988444
  0.6544256974740502  0.2719903709644464  0.8963158317514394
  0.6589313458790743  0.7717556921232849  0.3977852223999054
  0.6586589860860560  0.7717626334882092  0.8967599426065160
  0.8389246031772813  0.2277029852923547  0.1463777490982650
  0.8435051315904458  0.2270375640103088  0.6484897949942693
  0.8413618144668074  0.7284130784352835  0.1471954849617207
  0.8428384835419563  0.7288102415203973  0.6465400077137372
  0.3434918443594557  0.0150141792609405  0.1069936410175452
  0.3420604243044304  0.0213944089414398  0.6022296248324107
  0.3331663355445166  0.5330023873015572  0.0973606617444850
  0.3422237042262964  0.5222989439447095  0.6014568690289007
  0.5496494369204771  0.1233607190319226  0.1012620234080509
  0.5516770167414736  0.1244498311186633  0.6044105280859474
  0.5496308091638246  0.6266374679877847  0.1012448708820102
  0.5516749447326317  0.6255531156499422  0.6044160007734619
  0.0501338236791080  0.1256853670502710  0.1479961069195362
  0.0530086475498657  0.1241191229420071  0.6472418659464527
  0.0501386678499625  0.6243150376877329  0.1479921244179075
  0.0530081079411381  0.6258789718634612  0.6472394992710128
  0.4520220710325362  0.3750144240167734  0.4014638277196622
  0.4439685313843029  0.3750211821898938  0.8683335892661457
  0.4494611502990289  0.8749844576080754  0.3967973472086782
  0.4491447219461120  0.8749826229938235  0.8963601282098250
  0.9486132519559040  0.3750099487882219  0.3521544520151744
  0.9465830319080206  0.3750152345959289  0.8522922868514228
  0.9484141050973979  0.8749899904399436  0.3532562016268558
  0.9486691178423571  0.8749877276196166  0.8518710157588789
  0.5963208595359892  0.3750203596594902  0.1937359614128274
  0.6014515842607556  0.3750105519305064  0.6817744653770040
  0.5913907364012144  0.8749789985563360  0.1881088928162755
  0.5897916082600013  0.8749930434073618  0.6874535364134836
  0.0854897783292258  0.3750173905612708  0.0620665988745756
  0.0884797172556144  0.3750109488054922  0.5623076917335424
  0.0873884151480540  0.8749872282914719  0.0625281881510317
  0.0896667035649059  0.8749855137962793  0.5623162111247374
  0.4116929183307944  0.1248457532944167  0.3118395224579179
  0.4090178032212032  0.1248501272792397  0.8121748309397095
  0.4116771115873225  0.6251468979876856  0.3118262942056828
  0.4090196243757114  0.6251483457568695  0.8121782759131325
  0.9119433875496786  0.1250629851793446  0.4379967126161910
  0.9104721106954746  0.1248363068835064  0.9378468197717084
  0.9119475083638779  0.6249382768616268  0.4379965421024765
  0.9104814660399910  0.6251627191687679  0.9378478530470146
 
  0.00000000E+00  0.00000000E+00  0.00000000E+00
  0.00000000E+00  0.00000000E+00  0.00000000E+00
  0.00000000E+00  0.00000000E+00  0.00000000E+00
  0.00000000E+00  0.00000000E+00  0.00000000E+00
  0.00000000E+00  0.00000000E+00  0.00000000E+00
  0.00000000E+00  0.00000000E+00  0.00000000E+00
  0.00000000E+00  0.00000000E+00  0.00000000E+00
  0.00000000E+00  0.00000000E+00  0.00000000E+00
  0.00000000E+00  0.00000000E+00  0.00000000E+00
  0.00000000E+00  0.00000000E+00  0.00000000E+00
  0.00000000E+00  0.00000000E+00  0.00000000E+00
  0.00000000E+00  0.00000000E+00  0.00000000E+00
  0.00000000E+00  0.00000000E+00  0.00000000E+00
  0.00000000E+00  0.00000000E+00  0.00000000E+00
  0.00000000E+00  0.00000000E+00  0.00000000E+00
  0.00000000E+00  0.00000000E+00  0.00000000E+00
  0.00000000E+00  0.00000000E+00  0.00000000E+00
  0.00000000E+00  0.00000000E+00  0.00000000E+00
  0.00000000E+00  0.00000000E+00  0.00000000E+00
  0.00000000E+00  0.00000000E+00  0.00000000E+00
  0.00000000E+00  0.00000000E+00  0.00000000E+00
  0.00000000E+00  0.00000000E+00  0.00000000E+00
  0.00000000E+00  0.00000000E+00  0.00000000E+00
  0.00000000E+00  0.00000000E+00  0.00000000E+00
  0.00000000E+00  0.00000000E+00  0.00000000E+00
  0.00000000E+00  0.00000000E+00  0.00000000E+00
  0.00000000E+00  0.00000000E+00  0.00000000E+00
  0.00000000E+00  0.00000000E+00  0.00000000E+00
  0.00000000E+00  0.00000000E+00  0.00000000E+00
  0.00000000E+00  0.00000000E+00  0.00000000E+00
  0.00000000E+00  0.00000000E+00  0.00000000E+00
  0.00000000E+00  0.00000000E+00  0.00000000E+00
  0.00000000E+00  0.00000000E+00  0.00000000E+00
  0.00000000E+00  0.00000000E+00  0.00000000E+00
  0.00000000E+00  0.00000000E+00  0.00000000E+00
  0.00000000E+00  0.00000000E+00  0.00000000E+00
  0.00000000E+00  0.00000000E+00  0.00000000E+00
  0.00000000E+00  0.00000000E+00  0.00000000E+00
  0.00000000E+00  0.00000000E+00  0.00000000E+00
  0.00000000E+00  0.00000000E+00  0.00000000E+00
  0.00000000E+00  0.00000000E+00  0.00000000E+00
  0.00000000E+00  0.00000000E+00  0.00000000E+00
  0.00000000E+00  0.00000000E+00  0.00000000E+00
  0.00000000E+00  0.00000000E+00  0.00000000E+00
  0.00000000E+00  0.00000000E+00  0.00000000E+00
  0.00000000E+00  0.00000000E+00  0.00000000E+00
  0.00000000E+00  0.00000000E+00  0.00000000E+00
  0.00000000E+00  0.00000000E+00  0.00000000E+00
  0.00000000E+00  0.00000000E+00  0.00000000E+00
  0.00000000E+00  0.00000000E+00  0.00000000E+00
  0.00000000E+00  0.00000000E+00  0.00000000E+00
  0.00000000E+00  0.00000000E+00  0.00000000E+00
  0.00000000E+00  0.00000000E+00  0.00000000E+00
  0.00000000E+00  0.00000000E+00  0.00000000E+00
  0.00000000E+00  0.00000000E+00  0.00000000E+00
  0.00000000E+00  0.00000000E+00  0.00000000E+00
  0.00000000E+00  0.00000000E+00  0.00000000E+00
  0.00000000E+00  0.00000000E+00  0.00000000E+00
  0.00000000E+00  0.00000000E+00  0.00000000E+00
  0.00000000E+00  0.00000000E+00  0.00000000E+00
  0.00000000E+00  0.00000000E+00  0.00000000E+00
  0.00000000E+00  0.00000000E+00  0.00000000E+00
  0.00000000E+00  0.00000000E+00  0.00000000E+00
  0.00000000E+00  0.00000000E+00  0.00000000E+00
  0.00000000E+00  0.00000000E+00  0.00000000E+00
  0.00000000E+00  0.00000000E+00  0.00000000E+00
  0.00000000E+00  0.00000000E+00  0.00000000E+00
  0.00000000E+00  0.00000000E+00  0.00000000E+00
  0.00000000E+00  0.00000000E+00  0.00000000E+00
  0.00000000E+00  0.00000000E+00  0.00000000E+00
  0.00000000E+00  0.00000000E+00  0.00000000E+00
  0.00000000E+00  0.00000000E+00  0.00000000E+00
  0.00000000E+00  0.00000000E+00  0.00000000E+00
  0.00000000E+00  0.00000000E+00  0.00000000E+00
  0.00000000E+00  0.00000000E+00  0.00000000E+00
  0.00000000E+00  0.00000000E+00  0.00000000E+00
  0.00000000E+00  0.00000000E+00  0.00000000E+00
  0.00000000E+00  0.00000000E+00  0.00000000E+00
  0.00000000E+00  0.00000000E+00  0.00000000E+00
  0.00000000E+00  0.00000000E+00  0.00000000E+00
  0.00000000E+00  0.00000000E+00  0.00000000E+00
  0.00000000E+00  0.00000000E+00  0.00000000E+00
  0.00000000E+00  0.00000000E+00  0.00000000E+00
  0.00000000E+00  0.00000000E+00  0.00000000E+00
  0.00000000E+00  0.00000000E+00  0.00000000E+00
  0.00000000E+00  0.00000000E+00  0.00000000E+00
  0.00000000E+00  0.00000000E+00  0.00000000E+00
  0.00000000E+00  0.00000000E+00  0.00000000E+00
  0.00000000E+00  0.00000000E+00  0.00000000E+00
  0.00000000E+00  0.00000000E+00  0.00000000E+00
  0.00000000E+00  0.00000000E+00  0.00000000E+00
  0.00000000E+00  0.00000000E+00  0.00000000E+00
  0.00000000E+00  0.00000000E+00  0.00000000E+00
  0.00000000E+00  0.00000000E+00  0.00000000E+00
  0.00000000E+00  0.00000000E+00  0.00000000E+00
  0.00000000E+00  0.00000000E+00  0.00000000E+00
  0.00000000E+00  0.00000000E+00  0.00000000E+00
  0.00000000E+00  0.00000000E+00  0.00000000E+00
  0.00000000E+00  0.00000000E+00  0.00000000E+00
  0.00000000E+00  0.00000000E+00  0.00000000E+00
  0.00000000E+00  0.00000000E+00  0.00000000E+00
  0.00000000E+00  0.00000000E+00  0.00000000E+00
  0.00000000E+00  0.00000000E+00  0.00000000E+00
  0.00000000E+00  0.00000000E+00  0.00000000E+00
  0.00000000E+00  0.00000000E+00  0.00000000E+00
  0.00000000E+00  0.00000000E+00  0.00000000E+00
  0.00000000E+00  0.00000000E+00  0.00000000E+00
  0.00000000E+00  0.00000000E+00  0.00000000E+00
  0.00000000E+00  0.00000000E+00  0.00000000E+00
  0.00000000E+00  0.00000000E+00  0.00000000E+00
  0.00000000E+00  0.00000000E+00  0.00000000E+00
  0.00000000E+00  0.00000000E+00  0.00000000E+00
  0.00000000E+00  0.00000000E+00  0.00000000E+00
  0.00000000E+00  0.00000000E+00  0.00000000E+00
  0.00000000E+00  0.00000000E+00  0.00000000E+00
  0.00000000E+00  0.00000000E+00  0.00000000E+00
  0.00000000E+00  0.00000000E+00  0.00000000E+00
  0.00000000E+00  0.00000000E+00  0.00000000E+00
  0.00000000E+00  0.00000000E+00  0.00000000E+00
  0.00000000E+00  0.00000000E+00  0.00000000E+00
  0.00000000E+00  0.00000000E+00  0.00000000E+00
  0.00000000E+00  0.00000000E+00  0.00000000E+00
  0.00000000E+00  0.00000000E+00  0.00000000E+00
  0.00000000E+00  0.00000000E+00  0.00000000E+00
  0.00000000E+00  0.00000000E+00  0.00000000E+00
  0.00000000E+00  0.00000000E+00  0.00000000E+00
  0.00000000E+00  0.00000000E+00  0.00000000E+00
