Li47 P16 O64
1.0
10.398657 -0.000046 -0.006727
-0.000054 12.210884 0.000009
-0.006387 0.000007 9.790083
Li P O
47 16 64
direct
0.657578 0.252280 0.096977 Li
0.667387 0.247988 0.598501 Li
0.664754 0.750960 0.097535 Li
0.664864 0.751265 0.598396 Li
0.163879 0.496972 0.151966 Li
0.164374 0.498834 0.652347 Li
0.162800 0.998595 0.152326 Li
0.164691 0.998570 0.652577 Li
0.336024 0.000563 0.401431 Li
0.335915 0.000605 0.902618 Li
0.337271 0.499548 0.400045 Li
0.337074 0.497187 0.906856 Li
0.837039 0.248555 0.347505 Li
0.834833 0.248768 0.848908 Li
0.836667 0.748749 0.348352 Li
0.836529 0.748960 0.847523 Li
0.337275 0.250464 0.400042 Li
0.337074 0.252828 0.906854 Li
0.336021 0.749419 0.401428 Li
0.335910 0.749374 0.902627 Li
0.836669 0.001240 0.348354 Li
0.836533 0.001024 0.847522 Li
0.837036 0.501456 0.347502 Li
0.834826 0.501246 0.848903 Li
0.657576 0.497746 0.096971 Li
0.667389 0.502027 0.598499 Li
0.664753 0.999023 0.097537 Li
0.664859 0.998727 0.598392 Li
0.163874 0.253048 0.151962 Li
0.164367 0.251176 0.652344 Li
0.162804 0.751390 0.152326 Li
0.164697 0.751417 0.652580 Li
0.919804 0.375007 0.148131 Li
0.922144 0.375004 0.648939 Li
0.922084 0.874994 0.149311 Li
0.923748 0.874993 0.648348 Li
0.423283 0.375004 0.612573 Li
0.427448 0.874985 0.100095 Li
0.423665 0.874995 0.600768 Li
0.077737 0.125444 0.351100 Li
0.077579 0.125429 0.852197 Li
0.077735 0.624558 0.351099 Li
0.077577 0.624576 0.852196 Li
0.577113 0.124830 0.399934 Li
0.575090 0.124826 0.897891 Li
0.577099 0.625175 0.399933 Li
0.575080 0.625177 0.897896 Li
0.910856 0.125150 0.095406 P
0.913530 0.124377 0.595501 P
0.910863 0.624849 0.095406 P
0.913531 0.625621 0.595500 P
0.410783 0.121319 0.154424 P
0.411549 0.124710 0.654884 P
0.410767 0.628670 0.154412 P
0.411548 0.625290 0.654890 P
0.088034 0.375011 0.404769 P
0.086118 0.375019 0.904745 P
0.088054 0.874990 0.404829 P
0.087663 0.874987 0.905120 P
0.591288 0.375016 0.349660 P
0.588042 0.375018 0.838919 P
0.589031 0.874986 0.345588 P
0.588628 0.874987 0.844885 P
0.841359 0.021583 0.147196 O
0.842839 0.021183 0.646537 O
0.838925 0.522299 0.146378 O
0.843504 0.522959 0.648486 O
0.333177 0.216987 0.097374 O
0.342224 0.227700 0.601453 O
0.343467 0.734967 0.106977 O
0.342057 0.728601 0.602233 O
0.158523 0.271964 0.353332 O
0.156681 0.272059 0.853216 O
0.158076 0.771823 0.352950 O
0.158423 0.771863 0.854104 O
0.660452 0.478785 0.401802 O
0.654415 0.478051 0.896312 O
0.658929 0.978222 0.397781 O
0.658659 0.978211 0.896767 O
0.158527 0.478055 0.353329 O
0.156687 0.477977 0.853222 O
0.158071 0.978163 0.352957 O
0.158422 0.978111 0.854093 O
0.660457 0.271251 0.401808 O
0.654426 0.271990 0.896316 O
0.658931 0.771756 0.397785 O
0.658659 0.771763 0.896760 O
0.838925 0.227703 0.146378 O
0.843505 0.227038 0.648490 O
0.841362 0.728413 0.147195 O
0.842838 0.728810 0.646540 O
0.343492 0.015014 0.106994 O
0.342060 0.021394 0.602230 O
0.333166 0.533002 0.097361 O
0.342224 0.522299 0.601457 O
0.549649 0.123361 0.101262 O
0.551677 0.124450 0.604411 O
0.549631 0.626637 0.101245 O
0.551675 0.625553 0.604416 O
0.050134 0.125685 0.147996 O
0.053009 0.124119 0.647242 O
0.050139 0.624315 0.147992 O
0.053008 0.625879 0.647239 O
0.452022 0.375014 0.401464 O
0.443969 0.375021 0.868334 O
0.449461 0.874984 0.396797 O
0.449145 0.874983 0.896360 O
0.948613 0.375010 0.352154 O
0.946583 0.375015 0.852292 O
0.948414 0.874990 0.353256 O
0.948669 0.874988 0.851871 O
0.596321 0.375020 0.193736 O
0.601452 0.375011 0.681774 O
0.591391 0.874979 0.188109 O
0.589792 0.874993 0.687454 O
0.085490 0.375017 0.062067 O
0.088480 0.375011 0.562308 O
0.087388 0.874987 0.062528 O
0.089667 0.874986 0.562316 O
0.411693 0.124846 0.311840 O
0.409018 0.124850 0.812175 O
0.411677 0.625147 0.311826 O
0.409020 0.625148 0.812178 O
0.911943 0.125063 0.437997 O
0.910472 0.124836 0.937847 O
0.911948 0.624938 0.437997 O
0.910481 0.625163 0.937848 O
