Li17 Co18 O36
1.0
8.298101 0.589041 1.236734
3.548400 7.523897 1.236713
1.327235 0.911218 9.731449
Li Co O
17 18 36
direct
0.332789 0.654946 0.499776 Li
0.332739 0.332632 -0.000188 Li
0.332712 0.665503 -0.000306 Li
0.332564 0.999432 0.999967 Li
0.332477 1.009740 0.500188 Li
0.665616 0.332626 0.999703 Li
0.655116 0.332722 0.499746 Li
0.665852 0.665839 1.000183 Li
0.665759 0.665656 0.501340 Li
0.666118 0.999100 -0.000071 Li
0.654463 1.010788 0.499902 Li
-0.000474 0.332493 0.999958 Li
0.009815 0.332378 0.500121 Li
-0.000807 0.666097 -0.000115 Li
0.010898 0.654380 0.499871 Li
-0.000440 -0.000506 0.999602 Li
-0.000231 0.999658 0.498193 Li
0.168348 0.168459 0.248189 Co
0.166811 0.166768 0.750260 Co
0.168452 0.500291 0.251691 Co
0.166331 0.498807 0.749115 Co
0.167844 0.835494 0.247479 Co
0.166158 0.833370 0.749866 Co
0.500267 0.168471 0.251703 Co
0.498876 0.166262 0.749122 Co
0.500465 0.500528 0.249566 Co
0.499073 0.499062 0.751376 Co
0.500604 0.834429 0.250514 Co
0.499547 0.831809 0.752620 Co
0.835411 0.167947 0.247444 Co
0.833378 0.166144 0.749886 Co
0.834237 0.501006 0.250340 Co
0.831869 0.499514 0.752605 Co
0.834580 0.834628 0.250956 Co
0.833038 0.832988 0.748598 Co
0.253384 0.253396 0.356034 O
0.253143 0.253011 0.859732 O
0.253807 0.592665 0.354823 O
0.251750 0.586565 0.859690 O
0.253800 0.921860 0.357716 O
0.252020 0.919438 0.860567 O
0.592682 0.253812 0.354811 O
0.586647 0.251660 0.859718 O
0.586997 0.587069 0.359304 O
0.585098 0.585005 0.863171 O
0.587227 0.921281 0.360278 O
0.587233 0.919448 0.860101 O
0.921762 0.254025 0.357608 O
0.919555 0.251930 0.860548 O
0.921273 0.587279 0.360207 O
0.919593 0.587116 0.860070 O
0.921999 0.922011 0.357856 O
0.919514 0.919412 0.858737 O
0.081894 0.081998 0.136586 O
0.079999 0.080025 0.640603 O
0.080586 0.415508 0.140233 O
0.074339 0.413315 0.645293 O
0.080312 0.747021 0.140031 O
0.079979 0.745656 0.639767 O
0.415321 0.080689 0.140286 O
0.413344 0.074324 0.645289 O
0.413625 0.413662 0.140649 O
0.413264 0.413230 0.644562 O
0.414976 0.747677 0.139486 O
0.412990 0.745672 0.642232 O
0.746947 0.080386 0.140026 O
0.745669 0.079971 0.639782 O
0.747538 0.415156 0.139426 O
0.745662 0.412998 0.642248 O
0.747271 0.747710 0.141458 O
0.745212 0.745226 0.641861 O
