Li46 P16 O64                            
   1.00000000000000     
    10.4919919999999998   -0.0038560000000000   -0.0156380000000000
    -0.0044680000000000   12.2831399999999995   -0.0056370000000000
    -0.0146340000000000   -0.0045350000000000    9.8875700000000002
   Li   P    O 
    46    16    64
Direct
  0.4059776770907848  0.3649683381104856  0.1185529689840675
  0.6622754908741012  0.2515426218951963  0.5997827451194535
  0.6619317189351628  0.7467660528184910  0.0963017526389411
  0.6632105327122660  0.7509982336966010  0.5988916285966228
  0.1599758289895880  0.4962267705225742  0.1552748049370366
  0.1625771300262404  0.5011965508115485  0.6520729796330892
  0.1653293486337034  0.9956609642499614  0.1515841605830891
  0.1637622857586618  1.0006528761389810  0.6532315973125545
  0.3364430836930828  0.0008358160524641  0.4016533170622695
  0.3383208702707242  0.0010469424330817  0.9061708973583865
  0.3351805001184389  0.4997207263033132  0.4036802323119281
  0.3351330976244154  0.4979145067761864  0.9021148232073593
  0.8327670399873743  0.2483733825051219  0.3431007168011048
  0.8336276043628291  0.2489875093896027  0.8542651545585138
  0.8357222748575200  0.7484060845455446  0.3470233678508579
  0.8361700177368790  0.7484224302003266  0.8479719458221964
  0.3345583171293243  0.2464649111549062  0.4028306035290335
  0.3353915302105310  0.2472281978700507  0.9047093813977147
  0.3365496957016925  0.7483258270053376  0.4015686549252203
  0.3361097347193174  0.7484689657957383  0.9033217712648062
  0.8386299941290895  0.0027593430560516  0.3450509670465681
  0.8363909087020241  0.0020877768745983  0.8473243725308935
  0.8331943569963178  0.4976433485517943  0.3464960732285458
  0.8343875739398060  0.4982769633832765  0.8503375854735692
  0.6591144022088360  0.4872369972778473  0.0944642711055761
  0.6628216720374306  0.5004178413668819  0.5967226241474421
  0.6658669735216439  0.9959716683807355  0.0992863578979732
  0.6638532460542595  0.0004186269529689  0.5970698466746377
  0.1622642061267523  0.2522362600653881  0.6507470998912995
  0.1627587162752429  0.7488956641234705  0.1535440258549734
  0.1634298097516494  0.7516123801823122  0.6517243533468513
  0.9323616549132867  0.3652398898367370  0.1504102336255009
  0.9223030266732160  0.3744090294082211  0.6510224343912845
  0.9236932465688752  0.8757583674622410  0.1483989534680882
  0.9241237691186870  0.8764102195923961  0.6485899588498419
  0.4203326923073104  0.3740716761713105  0.6045645579916116
  0.4254650492306600  0.8743738451034990  0.1019197381259369
  0.4248103258204036  0.8757617501255011  0.6005929656097228
  0.0803717301809838  0.1347231362689698  0.3316109343239593
  0.0777480214248735  0.1285053035938367  0.8629638426030466
  0.0737611604804129  0.6231940074607264  0.3523692692962780
  0.0748379203660708  0.6235248255879130  0.8500750541769869
  0.5767088087488637  0.1274177597954000  0.3872269223077494
  0.5789617883931982  0.1330145730851619  0.9188831218387560
  0.5754839728003582  0.6230932905189235  0.3994624601211975
  0.5746343536071704  0.6208413389199769  0.8988886271607841
  0.9138186719638972  0.1208092792041952  0.0959327361665086
  0.9135513318639357  0.1252170820297881  0.5947647106954532
  0.9093865512567890  0.6234196299717540  0.0961290486180418
  0.9103213535852105  0.6258137115963267  0.5951617304678175
  0.4118957925513688  0.1184206090571719  0.1541578837050619
  0.4131675241669727  0.1230821176023437  0.6554783856657281
  0.4099823381199254  0.6230838904809675  0.1541805637485781
  0.4106304218899096  0.6263301691310504  0.6550819347081508
  0.0878542454494321  0.3754760698486528  0.4095147197186536
  0.0878278649282711  0.3777929094601983  0.9024782561776358
  0.0885789932075230  0.8743431368135692  0.4050351214759919
  0.0886311888492074  0.8731709227438968  0.9043452642934416
  0.5829726572325180  0.3764732291054523  0.3483796116789278
  0.5854796030241638  0.3736267322345221  0.8384176255560087
  0.5895222340171883  0.8726336123524441  0.3456621754003489
  0.5891014069551969  0.8734601636363950  0.8453132993814382
  0.8391704713669769  0.0183326409070280  0.1452190741443282
  0.8426554618460793  0.0219477300715513  0.6448295267527038
  0.8390128886342985  0.5212180613084612  0.1460617389242331
  0.8405921497821962  0.5243861070075322  0.6486914256272993
  0.3500855092066139  0.2195303819882114  0.0946701231021464
  0.3413784364020382  0.2252091095467350  0.6063332789576512
  0.3410167756703299  0.7270815052770494  0.1042295943178414
  0.3415207879363132  0.7296528830311287  0.6039573282408844
  0.1592105009150856  0.2727890912667424  0.3695451610693692
  0.1581063391590676  0.2755751225878580  0.8504845136840656
  0.1574959513973352  0.7702456547126052  0.3553998053772885
  0.1581713840831505  0.7705599122203026  0.8516576534238299
  0.6556103952225867  0.4788148858645794  0.4012638150545874
  0.6556166742463043  0.4758169000570637  0.8941208297308589
  0.6596943475661324  0.9753390468864183  0.3958120067365287
  0.6607074925877738  0.9741105303388201  0.8974440638440967
  0.1572330679744903  0.4787052483934633  0.3564455473395805
  0.1575470906259933  0.4802114228692276  0.8466991558122607
  0.1595693042492818  0.9752657012683793  0.3536342286396868
  0.1592374106788211  0.9755446177594901  0.8545421062724796
  0.6555831236670085  0.2746163114931558  0.3984140810871016
  0.6555420767420677  0.2701137723155966  0.8780812778652212
  0.6587291277396269  0.7702034425869887  0.3993840073676145
  0.6574725216198046  0.7689513368744896  0.8946038814591404
  0.8552312286666180  0.2241465843883211  0.1531978505829309
  0.8425861512212015  0.2272131277563724  0.6452886260275847
  0.8395065904806182  0.7267347415223082  0.1464499837050527
  0.8412889216761770  0.7291673186118042  0.6459432464857043
  0.3389425455478758  0.0142723035415521  0.1069372259982252
  0.3424003031948710  0.0200837490511437  0.6039659686213390
  0.3368462574607651  0.5221690133155626  0.1036670609800003
  0.3398383187508884  0.5250258812022710  0.6023178426726556
  0.5500312072377692  0.1078836993815408  0.1095785368838193
  0.5495506043322448  0.1235507637299917  0.5987587568576593
  0.5472463473394232  0.6223614157673828  0.1000231472279087
  0.5488034614712302  0.6269368976454196  0.6034817306416184
  0.0520284727481645  0.1091669772787153  0.1407007818852099
  0.0503598828060570  0.1246113586682532  0.6512396756469175
  0.0471306658135719  0.6248713006548701  0.1504341922964013
  0.0490121554637445  0.6273031161277326  0.6460024519615876
  0.4463824674172545  0.3748741140600815  0.4074702580534147
  0.4463684319409242  0.3745352804708835  0.8872101694461422
  0.4512329490492878  0.8732314882033162  0.3978063304411179
  0.4509807484392064  0.8729647204924921  0.8976185558957028
  0.9500953271695856  0.3756211235473205  0.3549392601534268
  0.9493417795796278  0.3757938720465566  0.8479797538448761
  0.9502580907200090  0.8735096084672532  0.3523648994094341
  0.9505232863995527  0.8737722411006079  0.8508641470695548
  0.5733967953491994  0.3821321779508005  0.1955317391192679
  0.5864574720683149  0.3804815253556561  0.6816234559531630
  0.5903081622725510  0.8690749994954632  0.1898685383954073
  0.5891788270973318  0.8744966601594536  0.6888120419219907
  0.0865803999654232  0.3841425417066236  0.0557394993365489
  0.0850999701907060  0.3810238797241087  0.5661780799376100
  0.0884262271343709  0.8700282246350366  0.0601689000677822
  0.0887063109325514  0.8748489412727510  0.5614699294757535
  0.4067450570442026  0.1228118746939002  0.3114384077622150
  0.4147370599515347  0.1216877198317143  0.8113953550875066
  0.4108889123017151  0.6239452786860866  0.3106812634624775
  0.4095671340734279  0.6254649279186282  0.8111652101677365
  0.9146965053400384  0.1248307645961535  0.4386707472144660
  0.9078548846637977  0.1231383656476945  0.9386380864331405
  0.9081965404635143  0.6244602458168905  0.4389726416353876
  0.9103017205846657  0.6245088383812030  0.9396119534754461
 
             NaN             NaN             NaN
             NaN             NaN             NaN
             NaN             NaN             NaN
             NaN             NaN             NaN
             NaN             NaN             NaN
             NaN             NaN             NaN
             NaN             NaN             NaN
             NaN             NaN             NaN
             NaN             NaN             NaN
             NaN             NaN             NaN
             NaN             NaN             NaN
             NaN             NaN             NaN
             NaN             NaN             NaN
             NaN             NaN             NaN
             NaN             NaN             NaN
             NaN             NaN             NaN
             NaN             NaN             NaN
             NaN             NaN             NaN
             NaN             NaN             NaN
             NaN             NaN             NaN
             NaN             NaN             NaN
             NaN             NaN             NaN
             NaN             NaN             NaN
             NaN             NaN             NaN
             NaN             NaN             NaN
             NaN             NaN             NaN
             NaN             NaN             NaN
             NaN             NaN             NaN
             NaN             NaN             NaN
             NaN             NaN             NaN
             NaN             NaN             NaN
             NaN             NaN             NaN
             NaN             NaN             NaN
             NaN             NaN             NaN
             NaN             NaN             NaN
             NaN             NaN             NaN
             NaN             NaN             NaN
             NaN             NaN             NaN
             NaN             NaN             NaN
             NaN             NaN             NaN
             NaN             NaN             NaN
             NaN             NaN             NaN
             NaN             NaN             NaN
             NaN             NaN             NaN
             NaN             NaN             NaN
             NaN             NaN             NaN
             NaN             NaN             NaN
             NaN             NaN             NaN
             NaN             NaN             NaN
             NaN             NaN             NaN
             NaN             NaN             NaN
             NaN             NaN             NaN
             NaN             NaN             NaN
             NaN             NaN             NaN
             NaN             NaN             NaN
             NaN             NaN             NaN
             NaN             NaN             NaN
             NaN             NaN             NaN
             NaN             NaN             NaN
             NaN             NaN             NaN
             NaN             NaN             NaN
             NaN             NaN             NaN
             NaN             NaN             NaN
             NaN             NaN             NaN
             NaN             NaN             NaN
             NaN             NaN             NaN
             NaN             NaN             NaN
             NaN             NaN             NaN
             NaN             NaN             NaN
             NaN             NaN             NaN
             NaN             NaN             NaN
             NaN             NaN             NaN
             NaN             NaN             NaN
             NaN             NaN             NaN
             NaN             NaN             NaN
             NaN             NaN             NaN
             NaN             NaN             NaN
             NaN             NaN             NaN
             NaN             NaN             NaN
             NaN             NaN             NaN
             NaN             NaN             NaN
             NaN             NaN             NaN
             NaN             NaN             NaN
             NaN             NaN             NaN
             NaN             NaN             NaN
             NaN             NaN             NaN
             NaN             NaN             NaN
             NaN             NaN             NaN
             NaN             NaN             NaN
             NaN             NaN             NaN
             NaN             NaN             NaN
             NaN             NaN             NaN
             NaN             NaN             NaN
             NaN             NaN             NaN
             NaN             NaN             NaN
             NaN             NaN             NaN
             NaN             NaN             NaN
             NaN             NaN             NaN
             NaN             NaN             NaN
             NaN             NaN             NaN
             NaN             NaN             NaN
             NaN             NaN             NaN
             NaN             NaN             NaN
             NaN             NaN             NaN
             NaN             NaN             NaN
             NaN             NaN             NaN
             NaN             NaN             NaN
             NaN             NaN             NaN
             NaN             NaN             NaN
             NaN             NaN             NaN
             NaN             NaN             NaN
             NaN             NaN             NaN
             NaN             NaN             NaN
             NaN             NaN             NaN
             NaN             NaN             NaN
             NaN             NaN             NaN
             NaN             NaN             NaN
             NaN             NaN             NaN
             NaN             NaN             NaN
             NaN             NaN             NaN
             NaN             NaN             NaN
             NaN             NaN             NaN
             NaN             NaN             NaN
             NaN             NaN             NaN
             NaN             NaN             NaN
             NaN             NaN             NaN
