Li46 P16 O64
1.0
10.491992 -0.003856 -0.015638
-0.004468 12.283140 -0.005637
-0.014634 -0.004535 9.887570
Li P O
46 16 64
direct
0.410126 0.250868 0.124080 Li
0.665200 0.250334 0.599546 Li
0.663169 0.749229 0.097440 Li
0.663977 0.751073 0.598629 Li
0.165617 0.492722 0.152238 Li
0.164561 0.499875 0.652304 Li
0.165237 -0.002001 0.151932 Li
0.165012 -0.000156 0.652820 Li
0.337445 0.001426 0.400935 Li
0.337521 0.002462 0.907097 Li
0.339646 0.497726 0.396502 Li
0.337232 0.495431 0.909223 Li
0.833759 0.248677 0.345338 Li
0.833008 0.249140 0.851690 Li
0.836773 0.748514 0.347420 Li
0.836624 0.748801 0.847783 Li
0.338604 0.252436 0.389912 Li
0.337081 0.255278 0.913772 Li
0.337314 0.749461 0.400584 Li
0.336893 0.749725 0.905485 Li
0.837414 0.002207 0.346320 Li
0.836960 0.001902 0.847822 Li
0.834177 0.499958 0.346753 Li
0.833199 0.500122 0.849650 Li
0.654373 0.492398 0.094979 Li
0.665609 0.502256 0.597456 Li
0.663816 0.999629 0.098170 Li
0.664060 1.000675 0.598797 Li
0.164623 0.252453 0.649970 Li
0.164720 0.750547 0.152329 Li
0.164782 0.751813 0.652648 Li
0.922288 0.370947 0.149109 Li
0.920643 0.375161 0.649111 Li
0.923380 0.875514 0.149080 Li
0.924749 0.875912 0.648819 Li
0.426860 0.374718 0.605681 Li
0.429348 0.876164 0.102194 Li
0.425231 0.876159 0.601008 Li
0.078702 0.129194 0.342630 Li
0.077983 0.128029 0.856462 Li
0.076717 0.622660 0.349865 Li
0.076826 0.623582 0.852066 Li
0.575584 0.128789 0.396227 Li
0.573625 0.131603 0.908724 Li
0.575306 0.622665 0.399637 Li
0.572534 0.622648 0.899379 Li
0.912317 0.122508 0.096153 P
0.913880 0.124340 0.595290 P
0.910692 0.624723 0.095795 P
0.912854 0.626591 0.595362 P
0.409382 0.118848 0.153658 P
0.411489 0.124810 0.655120 P
0.408721 0.629720 0.153168 P
0.410455 0.626506 0.654746 P
0.087249 0.374961 0.407198 P
0.084927 0.376513 0.902407 P
0.088519 0.874759 0.405028 P
0.088358 0.874517 0.904996 P
0.591951 0.376023 0.349235 P
0.586499 0.375142 0.836056 P
0.590744 0.874497 0.347109 P
0.589698 0.874989 0.844846 P
0.840031 0.019493 0.145380 O
0.843548 0.021241 0.645866 O
0.839149 0.523260 0.145997 O
0.842849 0.525402 0.648752 O
0.336527 0.214220 0.096994 O
0.342162 0.226441 0.601551 O
0.344967 0.738054 0.108587 O
0.341716 0.730040 0.602981 O
0.156845 0.271530 0.363507 O
0.155379 0.274394 0.850951 O
0.157495 0.771472 0.354355 O
0.158481 0.771968 0.853624 O
0.660716 0.479725 0.405198 O
0.654035 0.477698 0.894363 O
0.660431 0.977150 0.398755 O
0.660430 0.976752 0.896325 O
0.158084 0.476944 0.354472 O
0.155500 0.478792 0.849680 O
0.158680 0.976676 0.354198 O
0.158646 0.977008 0.854713 O
0.660857 0.273179 0.405031 O
0.654435 0.272218 0.886576 O
0.659904 0.771586 0.399360 O
0.658614 0.771417 0.895577 O
0.847155 0.225024 0.149978 O
0.843808 0.225991 0.647441 O
0.841427 0.728342 0.146378 O
0.843017 0.729803 0.645610 O
0.342096 0.010963 0.109799 O
0.342179 0.021072 0.603325 O
0.330142 0.536150 0.097394 O
0.341187 0.525001 0.600171 O
0.547533 0.114969 0.102850 O
0.549843 0.123816 0.603070 O
0.546831 0.626985 0.099821 O
0.549376 0.627596 0.604644 O
0.050165 0.116489 0.146321 O
0.051634 0.123839 0.649009 O
0.048609 0.625021 0.149115 O
0.051177 0.627608 0.647321 O
0.454057 0.375732 0.403983 O
0.444767 0.375734 0.868224 O
0.452502 0.874615 0.398760 O
0.451540 0.875078 0.896160 O
0.949259 0.375590 0.353413 O
0.946657 0.375755 0.847796 O
0.950034 0.874612 0.352780 O
0.950451 0.874579 0.850983 O
0.598650 0.377429 0.197180 O
0.599554 0.378373 0.680045 O
0.593260 0.873262 0.191199 O
0.590661 0.875058 0.688474 O
0.081842 0.379380 0.056927 O
0.085378 0.378900 0.563586 O
0.087259 0.873108 0.060852 O
0.089150 0.874902 0.561430 O
0.410678 0.122599 0.311036 O
0.409787 0.124486 0.811037 O
0.411300 0.626357 0.310010 O
0.407801 0.626196 0.810737 O
0.913431 0.124370 0.439144 O
0.910108 0.123840 0.939234 O
0.911754 0.625373 0.439144 O
0.910821 0.625524 0.939246 O
