Mg1 Ti16 S32
1.0
9.825313 -0.000599 0.000909
-0.000107 9.825259 -0.000874
0.000749 -0.000818 9.825825
Mg Ti S
1 16 32
direct
0.249940 0.500063 0.749828 Mg
0.249895 0.759150 0.009136 Ti
0.502454 0.000409 0.002907 Ti
0.749558 0.247525 0.002928 Ti
0.990841 0.500065 0.009115 Ti
0.502615 0.247382 0.249834 Ti
0.249964 0.500030 0.250026 Ti
0.249867 0.240702 0.490812 Ti
0.509260 0.500070 0.490800 Ti
0.509137 0.759212 0.750083 Ti
0.749987 0.499971 0.750042 Ti
0.750253 0.752928 0.497563 Ti
0.250029 0.000010 0.750044 Ti
0.749960 0.000033 0.250042 Ti
0.990781 0.240861 0.750085 Ti
0.997219 0.752762 0.250324 Ti
0.997022 0.999697 0.497554 Ti
0.747647 0.002367 0.003052 S
0.002859 0.747155 0.004401 S
0.002792 0.999997 0.747590 S
0.750016 0.747209 0.747576 S
0.252426 0.000131 0.997093 S
0.995591 0.253064 0.997139 S
0.996921 0.997941 0.252332 S
0.252482 0.252992 0.249885 S
0.750161 0.502804 0.502943 S
0.002866 0.245669 0.503026 S
0.002888 0.502700 0.250087 S
0.747716 0.247251 0.247960 S
0.254993 0.495011 0.495413 S
0.996707 0.753305 0.496920 S
0.995433 0.495090 0.754939 S
0.254918 0.754571 0.754935 S
0.247199 0.999843 0.502942 S
0.504351 0.747147 0.503027 S
0.502756 0.002293 0.247968 S
0.247303 0.747123 0.250083 S
0.751929 0.998079 0.497246 S
0.497014 0.252995 0.495652 S
0.496957 0.000184 0.752710 S
0.749834 0.253046 0.752701 S
0.245004 0.505011 0.004428 S
0.503151 0.246879 0.003290 S
0.504459 0.505030 0.745032 S
0.244980 0.245548 0.745018 S
0.749893 0.497586 0.997096 S
0.496953 0.754432 0.997137 S
0.497018 0.497532 0.249897 S
0.752063 0.753075 0.252317 S
