Li16 Co18 O36                           
   1.00000000000000     
     8.0702990000000003    0.0488920000000000    2.3439880000000000
     3.6529379999999998    7.1946599999999998    2.3440949999999998
     0.0559620000000000    0.0095960000000000    9.8867930000000008
   Li   Co   O 
    16    18    36
Direct
  0.7349422000221182  0.5413873868486263  0.4850125305205424
  0.3334923557349896  0.3321230465605112  0.9995135626577323
  0.3333395125590926  0.3332346221641060  0.4991202083008446
  0.3330614991033869  0.6667458644250956  0.0003779127682648
  0.3455370152737913  0.6578805928276381  0.5007249133412515
  0.3335475742784197  0.9996337187265496  0.9991112587280426
  0.3309694186049228  0.0016863555038285  0.4985538857418916
  0.6667475457088585  0.3327576057195429  0.9997508097852048
  0.6650444144454610  0.6677347360133012  0.9991911534418705
  0.6663806496929325  0.9992047302114031  0.9987971595060472
  0.6672745546966254  0.0018610133100978  0.4981394895447835
  0.0012796407478959  0.3311359540660135  0.9993462312850596
  0.9999576343078900  0.6671215432174549  0.9995113280751937
  0.9954670963651893  0.6574728363986608  0.5001296690340880
  0.0004958591007806  0.9990602074301549  0.0001382824320686
  0.9829068598441566  0.0333790019412206  0.4993478965870821
  0.1665089013907988  0.1697610005973402  0.2491588807336456
  0.1660323653209659  0.1647771499649338  0.7485557114921377
  0.1670996536671581  0.5005726246042244  0.2476282974397108
  0.1661505331877464  0.4977060715138677  0.7548655228499044
  0.1659595330420274  0.8347346628686410  0.2498116181989118
  0.1670404938211760  0.8296295577743464  0.7524679369398370
  0.5012498714496019  0.1695822468767929  0.2446299693441958
  0.5010195807004010  0.1645856258638929  0.7488835648575076
  0.5006992650136795  0.5008716982214878  0.2488194421319321
  0.4995820480289410  0.4962767132524775  0.7529811278742145
  0.5005148145603115  0.8365425406138129  0.2485105506326732
  0.5011382015444994  0.8295389120469210  0.7483348802712158
  0.8327418524187280  0.1692868542361694  0.2482784792202679
  0.8347702583088719  0.1619083790820639  0.7521852541969238
  0.8344338786044574  0.5014999040628894  0.2438921125007312
  0.8348975305809674  0.4964230975475274  0.7530999418766129
  0.8324023238212277  0.8362416907039005  0.2466963310678665
  0.8339430700035351  0.8291060992669799  0.7513317084894950
  0.2592716870132534  0.2546808500527860  0.3521550518797909
  0.2542631256211507  0.2490759254646022  0.8597206306254108
  0.2533873070123818  0.5873956429066070  0.3576867547306719
  0.2534661320506260  0.5841387529891406  0.8639104602092971
  0.2531909452864767  0.9230703508438296  0.3577782339954538
  0.2545791983452403  0.9183438706279716  0.8590303910484991
  0.5860606500599630  0.2542436065464742  0.3521784649943456
  0.5864044696812698  0.2489351882039870  0.8613085742488948
  0.5876167117973523  0.5913305122691455  0.3516880495157366
  0.5863196770794445  0.5853074639256377  0.8611363794378519
  0.5863271845678639  0.9273811456326513  0.3526522003792394
  0.5860458890189193  0.9177789315331495  0.8582165781311559
  0.9211890789958161  0.2582096916151215  0.3495520476033391
  0.9221733539220978  0.2490454096139132  0.8615821140284368
  0.9208457341284628  0.5913536425839112  0.3504229370185215
  0.9188461923573499  0.5841800031555877  0.8636924860534378
  0.9186723869235607  0.9227903935943402  0.3569397522159434
  0.9199623720952701  0.9164230932598016  0.8617419680782845
  0.0805941101088763  0.0806295797669137  0.1399521933169652
  0.0803139623187121  0.0722081125249900  0.6456790329331596
  0.0819407343632435  0.4139986291479758  0.1368386210172403
  0.0803667119040199  0.4125337924476113  0.6468373353571124
  0.0805372597015079  0.7481835905967174  0.1389795419481814
  0.0805492203705782  0.7415929128530365  0.6451368992878272
  0.4129541125794987  0.0815900357133259  0.1370799624965358
  0.4137332942055636  0.0773655027010847  0.6395928664698332
  0.4133806713512271  0.4167104009576548  0.1373100003318228
  0.4087592601019168  0.4121029249619355  0.6470097705930229
  0.4126020637976779  0.7484311404078099  0.1401350340144702
  0.4116402309254639  0.7414002343442903  0.6442807323640594
  0.7486721763187205  0.0817286545275806  0.1361465269451472
  0.7487547267624279  0.0724426500233690  0.6458278318702568
  0.7461285286236574  0.4143410488427932  0.1370201201776950
  0.7452277444106556  0.4044569544511987  0.6572291655700297
  0.7459858020296153  0.7498622296668316  0.1365916939073557
  0.7490448880051517  0.7411433624998125  0.6437731822032333
 
  0.00000000E+00  0.00000000E+00  0.00000000E+00
  0.00000000E+00  0.00000000E+00  0.00000000E+00
  0.00000000E+00  0.00000000E+00  0.00000000E+00
  0.00000000E+00  0.00000000E+00  0.00000000E+00
  0.00000000E+00  0.00000000E+00  0.00000000E+00
  0.00000000E+00  0.00000000E+00  0.00000000E+00
  0.00000000E+00  0.00000000E+00  0.00000000E+00
  0.00000000E+00  0.00000000E+00  0.00000000E+00
  0.00000000E+00  0.00000000E+00  0.00000000E+00
  0.00000000E+00  0.00000000E+00  0.00000000E+00
  0.00000000E+00  0.00000000E+00  0.00000000E+00
  0.00000000E+00  0.00000000E+00  0.00000000E+00
  0.00000000E+00  0.00000000E+00  0.00000000E+00
  0.00000000E+00  0.00000000E+00  0.00000000E+00
  0.00000000E+00  0.00000000E+00  0.00000000E+00
  0.00000000E+00  0.00000000E+00  0.00000000E+00
  0.00000000E+00  0.00000000E+00  0.00000000E+00
  0.00000000E+00  0.00000000E+00  0.00000000E+00
  0.00000000E+00  0.00000000E+00  0.00000000E+00
  0.00000000E+00  0.00000000E+00  0.00000000E+00
  0.00000000E+00  0.00000000E+00  0.00000000E+00
  0.00000000E+00  0.00000000E+00  0.00000000E+00
  0.00000000E+00  0.00000000E+00  0.00000000E+00
  0.00000000E+00  0.00000000E+00  0.00000000E+00
  0.00000000E+00  0.00000000E+00  0.00000000E+00
  0.00000000E+00  0.00000000E+00  0.00000000E+00
  0.00000000E+00  0.00000000E+00  0.00000000E+00
  0.00000000E+00  0.00000000E+00  0.00000000E+00
  0.00000000E+00  0.00000000E+00  0.00000000E+00
  0.00000000E+00  0.00000000E+00  0.00000000E+00
  0.00000000E+00  0.00000000E+00  0.00000000E+00
  0.00000000E+00  0.00000000E+00  0.00000000E+00
  0.00000000E+00  0.00000000E+00  0.00000000E+00
  0.00000000E+00  0.00000000E+00  0.00000000E+00
  0.00000000E+00  0.00000000E+00  0.00000000E+00
  0.00000000E+00  0.00000000E+00  0.00000000E+00
  0.00000000E+00  0.00000000E+00  0.00000000E+00
  0.00000000E+00  0.00000000E+00  0.00000000E+00
  0.00000000E+00  0.00000000E+00  0.00000000E+00
  0.00000000E+00  0.00000000E+00  0.00000000E+00
  0.00000000E+00  0.00000000E+00  0.00000000E+00
  0.00000000E+00  0.00000000E+00  0.00000000E+00
  0.00000000E+00  0.00000000E+00  0.00000000E+00
  0.00000000E+00  0.00000000E+00  0.00000000E+00
  0.00000000E+00  0.00000000E+00  0.00000000E+00
  0.00000000E+00  0.00000000E+00  0.00000000E+00
  0.00000000E+00  0.00000000E+00  0.00000000E+00
  0.00000000E+00  0.00000000E+00  0.00000000E+00
  0.00000000E+00  0.00000000E+00  0.00000000E+00
  0.00000000E+00  0.00000000E+00  0.00000000E+00
  0.00000000E+00  0.00000000E+00  0.00000000E+00
  0.00000000E+00  0.00000000E+00  0.00000000E+00
  0.00000000E+00  0.00000000E+00  0.00000000E+00
  0.00000000E+00  0.00000000E+00  0.00000000E+00
  0.00000000E+00  0.00000000E+00  0.00000000E+00
  0.00000000E+00  0.00000000E+00  0.00000000E+00
  0.00000000E+00  0.00000000E+00  0.00000000E+00
  0.00000000E+00  0.00000000E+00  0.00000000E+00
  0.00000000E+00  0.00000000E+00  0.00000000E+00
  0.00000000E+00  0.00000000E+00  0.00000000E+00
  0.00000000E+00  0.00000000E+00  0.00000000E+00
  0.00000000E+00  0.00000000E+00  0.00000000E+00
  0.00000000E+00  0.00000000E+00  0.00000000E+00
  0.00000000E+00  0.00000000E+00  0.00000000E+00
  0.00000000E+00  0.00000000E+00  0.00000000E+00
  0.00000000E+00  0.00000000E+00  0.00000000E+00
  0.00000000E+00  0.00000000E+00  0.00000000E+00
  0.00000000E+00  0.00000000E+00  0.00000000E+00
  0.00000000E+00  0.00000000E+00  0.00000000E+00
  0.00000000E+00  0.00000000E+00  0.00000000E+00
