Li47 P16 O64
1.0
10.554274 -0.000105 -0.005249
-0.000123 12.361585 -0.000064
-0.004967 -0.000051 9.976981
Li P O
47 16 64
direct
0.656883 0.252334 0.097728 Li
0.666850 0.248530 0.599385 Li
0.664217 0.750970 0.098548 Li
0.664757 0.751082 0.599308 Li
0.163177 0.497310 0.150798 Li
0.164270 0.498849 0.651324 Li
0.162553 0.998251 0.151667 Li
0.164217 0.998720 0.651556 Li
0.336477 0.000440 0.400474 Li
0.336374 0.000371 0.900979 Li
0.337899 0.499533 0.397899 Li
0.337464 0.497356 0.906496 Li
0.837359 0.248557 0.348962 Li
0.835515 0.248753 0.849995 Li
0.837094 0.748776 0.349596 Li
0.837036 0.748976 0.849054 Li
0.337896 0.250471 0.397906 Li
0.337465 0.252654 0.906459 Li
0.336482 0.749553 0.400464 Li
0.336376 0.749625 0.901001 Li
0.837093 0.001224 0.349595 Li
0.837035 0.001027 0.849055 Li
0.837359 0.501445 0.348962 Li
0.835514 0.501247 0.849995 Li
0.656874 0.497670 0.097727 Li
0.666851 0.501468 0.599386 Li
0.664225 0.999026 0.098548 Li
0.664758 0.998918 0.599308 Li
0.163137 0.252703 0.150811 Li
0.164270 0.251151 0.651323 Li
0.162572 0.751743 0.151661 Li
0.164216 0.751281 0.651557 Li
0.921679 0.375000 0.148421 Li
0.924693 0.375001 0.649161 Li
0.924055 0.874999 0.149496 Li
0.925717 0.875000 0.648963 Li
0.425560 0.374999 0.609716 Li
0.429612 0.874979 0.100142 Li
0.425976 0.875000 0.600941 Li
0.075596 0.125415 0.351282 Li
0.075579 0.125510 0.852568 Li
0.075597 0.624586 0.351281 Li
0.075583 0.624490 0.852568 Li
0.574899 0.124896 0.399751 Li
0.573130 0.124923 0.897585 Li
0.574896 0.625103 0.399744 Li
0.573132 0.625077 0.897594 Li
0.910197 0.124992 0.097081 P
0.912963 0.124449 0.597253 P
0.910198 0.625008 0.097081 P
0.912963 0.625551 0.597253 P
0.409595 0.120516 0.152534 P
0.411162 0.124800 0.653440 P
0.409568 0.629475 0.152512 P
0.411162 0.625199 0.653442 P
0.088755 0.375001 0.403475 P
0.086620 0.375001 0.903460 P
0.088555 0.875000 0.403897 P
0.088222 0.875000 0.904214 P
0.592606 0.374999 0.349817 P
0.588471 0.375000 0.840641 P
0.589801 0.875000 0.347174 P
0.589444 0.875000 0.845554 P
0.840757 0.021411 0.148289 O
0.842564 0.021298 0.648150 O
0.838759 0.522442 0.147874 O
0.843117 0.522807 0.649664 O
0.331174 0.215361 0.095574 O
0.342211 0.227920 0.600323 O
0.343342 0.736291 0.106038 O
0.341702 0.728471 0.601251 O
0.158917 0.271946 0.352173 O
0.156946 0.272041 0.852265 O
0.158384 0.771840 0.352334 O
0.158724 0.771907 0.853314 O
0.660742 0.478768 0.403023 O
0.655145 0.478033 0.897061 O
0.659447 0.978273 0.398958 O
0.659046 0.978200 0.897500 O
0.158918 0.478054 0.352170 O
0.156947 0.477958 0.852262 O
0.158385 0.978160 0.352333 O
0.158728 0.978095 0.853316 O
0.660739 0.271232 0.403022 O
0.655144 0.271965 0.897061 O
0.659448 0.771726 0.398958 O
0.659046 0.771800 0.897498 O
0.838761 0.227557 0.147873 O
0.843118 0.227193 0.649664 O
0.840757 0.728590 0.148289 O
0.842565 0.728703 0.648149 O
0.343321 0.013727 0.106027 O
0.341700 0.021529 0.601250 O
0.331188 0.534640 0.095597 O
0.342210 0.522078 0.600321 O
0.547907 0.123356 0.099092 O
0.550744 0.124460 0.602809 O
0.547901 0.626648 0.099089 O
0.550744 0.625541 0.602809 O
0.048951 0.125257 0.149698 O
0.051981 0.124276 0.648964 O
0.048949 0.624743 0.149698 O
0.051981 0.625726 0.648964 O
0.453141 0.374999 0.399977 O
0.445326 0.374996 0.872347 O
0.450725 0.874999 0.398446 O
0.450252 0.874999 0.896420 O
0.949697 0.374999 0.351269 O
0.947585 0.374999 0.850990 O
0.949428 0.875000 0.352238 O
0.949653 0.875001 0.851111 O
0.599762 0.374998 0.195308 O
0.600477 0.374999 0.684371 O
0.591971 0.875000 0.190686 O
0.590917 0.874998 0.689127 O
0.085739 0.375000 0.059804 O
0.089293 0.375001 0.560034 O
0.087649 0.875000 0.060603 O
0.089929 0.874999 0.560400 O
0.411122 0.124534 0.308929 O
0.408872 0.124846 0.809714 O
0.411115 0.625469 0.308926 O
0.408873 0.625155 0.809714 O
0.911607 0.124992 0.440755 O
0.910098 0.124869 0.940499 O
0.911607 0.625009 0.440756 O
0.910098 0.625132 0.940500 O
