Li15 Fe16 P16 O64                       
   1.00000000000000     
    10.2415959999999995    0.0013750000000000    0.0235930000000000
     0.0009440000000000   11.9647590000000008   -0.0034670000000000
     0.0112800000000000   -0.0044950000000000    9.3725970000000007
   Li   Fe   P    O 
    15    16    16    64
Direct
  0.5317895669206779  0.4393814621919177  0.7215173200073464
  0.5014669067629488  0.9999714607411326  0.2512578366600191
  0.4992919179286906  0.0091231553532505  0.7534040223518934
  0.4995243658484083  0.5011130767602455  0.2514898931285380
  0.9993712019110328  0.2491011699929190  0.4959322323419725
  0.9968863516664394  0.2462321927024869  0.0006049033571162
  0.9995616191835001  0.7492231214038246  0.5008242475051005
  0.9992539530574071  0.7513943209383469  0.0022061786621913
  0.5000918698685272  0.2466426899095924  0.2523886745659396
  0.5003855045431577  0.7505324703603039  0.2487138261011169
  0.4992790585747295  0.7429515281857090  0.7530549735987043
  0.9996378773713217  0.4998376136182459  0.4963159430498834
  0.9969968752911064  0.5027338942852098  0.0009173131888896
  0.9989839231185830  0.0009923470619616  0.5005854065440144
  0.9987818999982329  0.9991601900345318  0.0018001489775449
  0.7783600757375697  0.1236839839264454  0.2668116797764221
  0.7779764722700994  0.1251304597148813  0.7614608846617684
  0.7800174715254587  0.6260914050323457  0.2667216512928806
  0.7809768620860894  0.6250112290204165  0.7638980538971882
  0.2816883977662702  0.1245192079882468  0.4854297244021685
  0.2817051337272700  0.1242963395783742  0.9852594553922311
  0.2815050457889338  0.6251777289487239  0.4852139941713358
  0.2817440912416699  0.6251919174026124  0.9852370248452882
  0.2165141066790534  0.3749114252974093  0.2310282905328343
  0.2238123433620561  0.3746438022489823  0.7470898453620640
  0.2190748529659867  0.8749660932064298  0.2361132116723954
  0.2193144849357208  0.8750051515864747  0.7358443796415514
  0.7192759977186044  0.3737740373670371  0.0155101636078950
  0.7218017877827385  0.3712773075549073  0.5090933455607131
  0.7185692382656418  0.8750174979580357  0.0145070071026601
  0.7174684861367719  0.8748817513199129  0.5178241555473546
  0.5955575295899164  0.1226207749177862  0.0423344463099953
  0.5913382768956074  0.1275876214112280  0.5432942734115134
  0.5959629014535065  0.6250065775340915  0.0426247019017651
  0.5920771985300965  0.6210301239242952  0.5432209916070401
  0.0926161335800266  0.1241308305113006  0.2080474034360333
  0.0939094184441365  0.1278237932000434  0.7104319803223248
  0.0930706342719421  0.6255136767930468  0.2074471417022357
  0.0940429602716040  0.6218938970326038  0.7102726447073417
  0.3967991816553760  0.3749486819255948  0.4556894057909150
  0.4050969150318940  0.3737322089824154  0.9610271863799263
  0.4057574299197583  0.8742004192031080  0.4572236816505040
  0.4073051811091561  0.8743989324216274  0.9567014670072173
  0.9076337324128447  0.3749657613944170  0.2881167071839389
  0.9094961117283556  0.3747046423403079  0.7881667550924687
  0.9064588716245521  0.8749082748567016  0.2942778097142317
  0.9076628289156442  0.8752116065808857  0.7932761206022719
  0.5943129851601596  0.1273864341914374  0.3798559244255998
  0.6018644575706538  0.1169397721658188  0.8823407150243129
  0.5954276470581766  0.6207430911001105  0.3808009319236235
  0.6014263236504359  0.6277649596031044  0.8816473264609254
  0.0946968115315086  0.1253960842511642  0.3703188780836960
  0.0939992924337263  0.1261650644786862  0.8721980653422029
  0.0950058543741456  0.6240470948726131  0.3696707067576585
  0.0939868886122441  0.6235665804278894  0.8720133852015503
  0.4020760075801441  0.3744261552633740  0.1228431116892027
  0.3834662309343166  0.3773869686836074  0.6178740483833385
  0.4049837378295706  0.8742753135742781  0.1187503639318752
  0.4017163254510689  0.8735921481628414  0.6189322011320005
  0.9073270060630024  0.3754114634686203  0.1259704980272231
  0.9081752916261490  0.3745724816421580  0.6265440314070551
  0.9049617681716100  0.8744888821512452  0.1321343778341118
  0.9061469894249853  0.8745602672024961  0.6311606832582093
  0.9541105873354151  0.1237092600002885  0.1459109900839451
  0.9572658186049738  0.1272973590581982  0.6443586082664918
  0.9544084893368855  0.6256928227048132  0.1456540083276639
  0.9571722235241609  0.6222297773635849  0.6443745553574994
  0.4557906832284123  0.1259077083038304  0.1033757827724315
  0.4526395649837491  0.1240408420684821  0.6009101661339055
  0.4561658795031506  0.6228952032715686  0.1033626192046500
  0.4536321355803398  0.6228453647639715  0.6033552093762856
  0.0452720946068665  0.3754609489791422  0.3522270832708064
  0.0510607281659204  0.3754250861152953  0.8487551295753460
  0.0449592686552472  0.8744067416742691  0.3569686003103208
  0.0464120253871885  0.8747368138226448  0.8554974530736207
  0.5381324259176103  0.3744650702723105  0.4027640208300992
  0.5433604735295033  0.3751006545463961  0.9032008590927472
  0.5448878774642658  0.8738950578653933  0.3955449127490797
  0.5454258964583181  0.8738515764848808  0.8935684295565044
  0.6635762926585270  0.0206945798015784  0.1148524533446188
  0.6638072198668499  0.0242323918143905  0.6076216436247693
  0.6676659490784106  0.5228373051395985  0.1087930760267444
  0.6639986357977654  0.5174959017136685  0.6077425661137085
  0.1634705578822809  0.2259332949679491  0.1400875782010835
  0.1649875330556742  0.2335348710296669  0.6484623561611947
  0.1645517434691144  0.7275350789077049  0.1417091488208968
  0.1680394624132814  0.7220935007231757  0.6431235380257188
  0.3283239113447352  0.2726180153949165  0.3887396988556129
  0.3234463514110008  0.2767670423954426  0.8946790433656125
  0.3346953412897888  0.7722444663878311  0.3894727395134591
  0.3349914235255985  0.7722632095817124  0.8908868334363008
  0.8349692955046769  0.4760721913092225  0.3556504689639844
  0.8400509303509928  0.4766737393186214  0.8563594240782191
  0.8356146185863461  0.9770094381352094  0.3611134252392503
  0.8370562535071964  0.9777274229726980  0.8590614391255041
  0.3295029270651142  0.4775456941868828  0.3867478506218790
  0.3271817525868000  0.4729599631256537  0.8919186131020044
  0.3343506048984085  0.9759534918361407  0.3899080669889616
  0.3350345514395849  0.9764819895663089  0.8912330825046537
  0.8367079441417851  0.2726907082313517  0.3540780135427137
  0.8408474504439031  0.2732118838226802  0.8573475908026121
  0.8347821491968597  0.7730887164318047  0.3614130352009601
  0.8363312797808043  0.7730837289614836  0.8596369091600168
  0.6674035734668324  0.2251953798199189  0.1078953246647896
  0.6695858091723675  0.2274119971109760  0.6047191105333128
  0.6644104494856119  0.7273688244252799  0.1128808631466283
  0.6664814895863150  0.7221203236465785  0.6083688610241242
  0.1645342548754957  0.0222420165193474  0.1420839937049242
  0.1682046545412101  0.0276235742256529  0.6433589651887519
  0.1640975936512726  0.5238674604196147  0.1388822719648426
  0.1651308672728614  0.5163720491265371  0.6480791934909993
 
             NaN             NaN             NaN
             NaN             NaN             NaN
             NaN             NaN             NaN
             NaN             NaN             NaN
             NaN             NaN             NaN
             NaN             NaN             NaN
             NaN             NaN             NaN
             NaN             NaN             NaN
             NaN             NaN             NaN
             NaN             NaN             NaN
             NaN             NaN             NaN
             NaN             NaN             NaN
             NaN             NaN             NaN
             NaN             NaN             NaN
             NaN             NaN             NaN
             NaN             NaN             NaN
             NaN             NaN             NaN
             NaN             NaN             NaN
             NaN             NaN             NaN
             NaN             NaN             NaN
             NaN             NaN             NaN
             NaN             NaN             NaN
             NaN             NaN             NaN
             NaN             NaN             NaN
             NaN             NaN             NaN
             NaN             NaN             NaN
             NaN             NaN             NaN
             NaN             NaN             NaN
             NaN             NaN             NaN
             NaN             NaN             NaN
             NaN             NaN             NaN
             NaN             NaN             NaN
             NaN             NaN             NaN
             NaN             NaN             NaN
             NaN             NaN             NaN
             NaN             NaN             NaN
             NaN             NaN             NaN
             NaN             NaN             NaN
             NaN             NaN             NaN
             NaN             NaN             NaN
             NaN             NaN             NaN
             NaN             NaN             NaN
             NaN             NaN             NaN
             NaN             NaN             NaN
             NaN             NaN             NaN
             NaN             NaN             NaN
             NaN             NaN             NaN
             NaN             NaN             NaN
             NaN             NaN             NaN
             NaN             NaN             NaN
             NaN             NaN             NaN
             NaN             NaN             NaN
             NaN             NaN             NaN
             NaN             NaN             NaN
             NaN             NaN             NaN
             NaN             NaN             NaN
             NaN             NaN             NaN
             NaN             NaN             NaN
             NaN             NaN             NaN
             NaN             NaN             NaN
             NaN             NaN             NaN
             NaN             NaN             NaN
             NaN             NaN             NaN
             NaN             NaN             NaN
             NaN             NaN             NaN
             NaN             NaN             NaN
             NaN             NaN             NaN
             NaN             NaN             NaN
             NaN             NaN             NaN
             NaN             NaN             NaN
             NaN             NaN             NaN
             NaN             NaN             NaN
             NaN             NaN             NaN
             NaN             NaN             NaN
             NaN             NaN             NaN
             NaN             NaN             NaN
             NaN             NaN             NaN
             NaN             NaN             NaN
             NaN             NaN             NaN
             NaN             NaN             NaN
             NaN             NaN             NaN
             NaN             NaN             NaN
             NaN             NaN             NaN
             NaN             NaN             NaN
             NaN             NaN             NaN
             NaN             NaN             NaN
             NaN             NaN             NaN
             NaN             NaN             NaN
             NaN             NaN             NaN
             NaN             NaN             NaN
             NaN             NaN             NaN
             NaN             NaN             NaN
             NaN             NaN             NaN
             NaN             NaN             NaN
             NaN             NaN             NaN
             NaN             NaN             NaN
             NaN             NaN             NaN
             NaN             NaN             NaN
             NaN             NaN             NaN
             NaN             NaN             NaN
             NaN             NaN             NaN
             NaN             NaN             NaN
             NaN             NaN             NaN
             NaN             NaN             NaN
             NaN             NaN             NaN
             NaN             NaN             NaN
             NaN             NaN             NaN
             NaN             NaN             NaN
             NaN             NaN             NaN
             NaN             NaN             NaN
             NaN             NaN             NaN
