Li15 Fe16 P16 O64                       
   1.00000000000000     
    10.2415959999999995    0.0013750000000000    0.0235930000000000
     0.0009440000000000   11.9647590000000008   -0.0034670000000000
     0.0112800000000000   -0.0044950000000000    9.3725970000000007
   Li   Fe   P    O 
    15    16    16    64
Direct
  0.5317968083634014  0.4393846918279458  0.7215171908220793
  0.5014674999866731 -0.0000287410349106  0.2512580219701911
  0.4992938782973236  0.0091227876294029  0.7534032808994794
  0.4995258235031787  0.5011156212399366  0.2514898556895234
  0.9993667610400534  0.2490995123951657  0.4959263259519567
  0.9968835055755702  0.2462274979606131  0.0006115120997603
  0.9995605681893035  0.7492250853719525  0.5008219876056679
  0.9992533271460347  0.7513960092561004  0.0022079350057481
  0.5000938939939920  0.2466392829108744  0.2523887196089533
  0.5003857511377517  0.7505336728480800  0.2487139809072422
  0.4992802039374235  0.7429533608046771  0.7530546400826399
  0.9996338622638133  0.4998385315725261  0.4963099476593070
  0.9969942759796908  0.5027380997599501  0.0009242297369469
  0.9989827116737550  0.0009911487061425  0.5005831882198080
  0.9987809036446067  0.9991591635032298  0.0018017229566484
  0.7783573562641722  0.1236821572969580  0.2668090334178501
  0.7779729972039127  0.1251266008833543  0.7614587651416422
  0.7800136548162701  0.6260929148778955  0.2667176339817960
  0.7809711713451902  0.6250147470282766  0.7638939287956935
  0.2816865937200231  0.1245112856060957  0.4854230093171673
  0.2816988842257072  0.1242813602536057  0.9852723326623656
  0.2815036935610677  0.6251856995625823  0.4852074869804856
  0.2817386302278392  0.6252063026202546  0.9852489585555586
  0.2165108812638208  0.3749108567131046  0.2310313874192068
  0.2238223329150930  0.3746436710460297  0.7471092978127022
  0.2190785328474359  0.8749662559120838  0.2361183560850596
  0.2193188781313265  0.8750060557545285  0.7358494408739614
  0.7192815492386183  0.3737727553533459  0.0155116069570289
  0.7218049667345386  0.3712769493809635  0.5090866213602042
  0.7185732165640263  0.8750192920662686  0.0145032419515060
  0.7174718230884823  0.8748831586309640  0.5178187250060932
  0.5955617939042827  0.1226156751091408  0.0423375473874597
  0.5913419518596733  0.1275825565116138  0.5432986838439574
  0.5959666857193040  0.6250118510259286  0.0426322079945040
  0.5920795111063500  0.6210363706573883  0.5432227841281028
  0.0926126548830782  0.1241240297065942  0.2080416420030490
  0.0938865160143755  0.1277916530981840  0.7104381727544992
  0.0930681424431323  0.6255201988273680  0.2074402496522520
  0.0940226583610686  0.6219247113278893  0.7102792373871409
  0.3968016753166500  0.3749459278340983  0.4556298080506164
  0.4051345110975461  0.3737304641659762  0.9610571744990724
  0.4057586702014240  0.8742022728891774  0.4572144947764673
  0.4073102684072714  0.8744004708969996  0.9567002148816588
  0.9076331440560120  0.3749634036606663  0.2881257976416540
  0.9094477626302457  0.3747018047285737  0.7881596013235693
  0.9064590687720792  0.8749102309924607  0.2942834640881743
  0.9076597257420859  0.8752146337157797  0.7932840706811201
  0.5943089282912453  0.1273882323943630  0.3798596515928618
  0.6018582734393871  0.1169413856840385  0.8823467182013538
  0.5954240328759000  0.6207410703399715  0.3808061195862204
  0.6014229043897229  0.6277626809456893  0.8816495038087062
  0.0946958068649261  0.1253983909868290  0.3703197956997377
  0.0940010276391712  0.1261720439155971  0.8721889129681811
  0.0950053343841575  0.6240449420379596  0.3696719409465776
  0.0939881095599422  0.6235598038884569  0.8720042909221229
  0.4020754939345811  0.3744266215867497  0.1228229969239490
  0.3834358242086287  0.3773862913747410  0.6179144318419100
  0.4049851306334727  0.8742748392795916  0.1187456192648199
  0.4017164696610919  0.8735915067317652  0.6189318401312663
  0.9073296684551099  0.3754121976749857  0.1259682756413220
  0.9081865229548955  0.3745735633545935  0.6265551177021194
  0.9049632258379897  0.8744882370692106  0.1321359147190339
  0.9061494769658081  0.8745592304791437  0.6311624008752377
  0.9541171831857217  0.1237110221716827  0.1459081614457148
  0.9572845281567171  0.1273035766070508  0.6443568653254973
  0.9544146142122928  0.6256911228241909  0.1456512337293355
  0.9571871301113044  0.6222241390391637  0.6443736970117470
  0.4557919858163195  0.1259107078018997  0.1033767801208794
  0.4526430920532382  0.1240440820895779  0.6009142824710024
  0.4561675031695564  0.6228924267503114  0.1033626123102224
  0.4536348404566172  0.6228412624173000  0.6033594154122192
  0.0452684856838404  0.3754615156645048  0.3522317334531008
  0.0511099278545024  0.3754254831976097  0.8487425430331417
  0.0449556010570251  0.8744061245037964  0.3569717950265461
  0.0464106378276994  0.8747359827979172  0.8554974644050773
  0.5381213397074991  0.3744660231146382  0.4027741218528487
  0.5433403518429040  0.3751015627790750  0.9031953932906882
  0.5448842841924479  0.8738942962379861  0.3955442225132643
  0.5454199587075682  0.8738509487540631  0.8935662504382806
  0.6635705102641756  0.0207006832379136  0.1148519248328081
  0.6638009081522338  0.0242376517265092  0.6076198333336154
  0.6676617522340381  0.5228399444343625  0.1087920556977571
  0.6639950265373531  0.5174976653734827  0.6077461348617093
  0.1634689175081950  0.2259304623849664  0.1400824919234520
  0.1650011670527614  0.2335715428848572  0.6484728752624028
  0.1645467267266560  0.7275263275103214  0.1417089292889613
  0.1680340181819360  0.7220774802946319  0.6431255757007951
  0.3283308995540068  0.2726296594420087  0.3887506433943955
  0.3234289731828143  0.2767915282725970  0.8946449912844422
  0.3346991885405857  0.7722486664355250  0.3894734225231269
  0.3349936224929970  0.7722660654651768  0.8908840094910497
  0.8349737183181595  0.4760654878418332  0.3556522724262726
  0.8400665143000389  0.4766616935288838  0.8563593145283860
  0.8356196608145572  0.9770021612992090  0.3611150023957432
  0.8370630523787951  0.9777195074203097  0.8590616006804519
  0.3295096314028639  0.4775363606911344  0.3867587872194971
  0.3271627835510829  0.4729377802841251  0.8918836082066999
  0.3343545451067573  0.9759473398322939  0.3899087649416009
  0.3350369331538723  0.9764777566541939  0.8912309299614027
  0.8367139132961947  0.2726998479278192  0.3540782073523934
  0.8408648555731195  0.2732276396561822  0.8573472504263936
  0.8347860945763308  0.7730935542182017  0.3614152971492878
  0.8363363666024730  0.7730867338613930  0.8596364835323546
  0.6673991831736497  0.2251940932004655  0.1078942350568469
  0.6695802310390819  0.2274104692278978  0.6047187093090224
  0.6644048496753807  0.7273612785553476  0.1128795905466569
  0.6664763155442415  0.7221132839938477  0.6083678204809703
  0.1645291226998516  0.0222502135335118  0.1420844052423561
  0.1681996859069543  0.0276388100847572  0.6433614260374978
  0.1640960497940084  0.5238712248406933  0.1388765368451293
  0.1651431176697456  0.5163390243500068  0.6480886105726006
 
             NaN             NaN             NaN
             NaN             NaN             NaN
             NaN             NaN             NaN
             NaN             NaN             NaN
             NaN             NaN             NaN
             NaN             NaN             NaN
             NaN             NaN             NaN
             NaN             NaN             NaN
             NaN             NaN             NaN
             NaN             NaN             NaN
             NaN             NaN             NaN
             NaN             NaN             NaN
             NaN             NaN             NaN
             NaN             NaN             NaN
             NaN             NaN             NaN
             NaN             NaN             NaN
             NaN             NaN             NaN
             NaN             NaN             NaN
             NaN             NaN             NaN
             NaN             NaN             NaN
             NaN             NaN             NaN
             NaN             NaN             NaN
             NaN             NaN             NaN
             NaN             NaN             NaN
             NaN             NaN             NaN
             NaN             NaN             NaN
             NaN             NaN             NaN
             NaN             NaN             NaN
             NaN             NaN             NaN
             NaN             NaN             NaN
             NaN             NaN             NaN
             NaN             NaN             NaN
             NaN             NaN             NaN
             NaN             NaN             NaN
             NaN             NaN             NaN
             NaN             NaN             NaN
             NaN             NaN             NaN
             NaN             NaN             NaN
             NaN             NaN             NaN
             NaN             NaN             NaN
             NaN             NaN             NaN
             NaN             NaN             NaN
             NaN             NaN             NaN
             NaN             NaN             NaN
             NaN             NaN             NaN
             NaN             NaN             NaN
             NaN             NaN             NaN
             NaN             NaN             NaN
             NaN             NaN             NaN
             NaN             NaN             NaN
             NaN             NaN             NaN
             NaN             NaN             NaN
             NaN             NaN             NaN
             NaN             NaN             NaN
             NaN             NaN             NaN
             NaN             NaN             NaN
             NaN             NaN             NaN
             NaN             NaN             NaN
             NaN             NaN             NaN
             NaN             NaN             NaN
             NaN             NaN             NaN
             NaN             NaN             NaN
             NaN             NaN             NaN
             NaN             NaN             NaN
             NaN             NaN             NaN
             NaN             NaN             NaN
             NaN             NaN             NaN
             NaN             NaN             NaN
             NaN             NaN             NaN
             NaN             NaN             NaN
             NaN             NaN             NaN
             NaN             NaN             NaN
             NaN             NaN             NaN
             NaN             NaN             NaN
             NaN             NaN             NaN
             NaN             NaN             NaN
             NaN             NaN             NaN
             NaN             NaN             NaN
             NaN             NaN             NaN
             NaN             NaN             NaN
             NaN             NaN             NaN
             NaN             NaN             NaN
             NaN             NaN             NaN
             NaN             NaN             NaN
             NaN             NaN             NaN
             NaN             NaN             NaN
             NaN             NaN             NaN
             NaN             NaN             NaN
             NaN             NaN             NaN
             NaN             NaN             NaN
             NaN             NaN             NaN
             NaN             NaN             NaN
             NaN             NaN             NaN
             NaN             NaN             NaN
             NaN             NaN             NaN
             NaN             NaN             NaN
             NaN             NaN             NaN
             NaN             NaN             NaN
             NaN             NaN             NaN
             NaN             NaN             NaN
             NaN             NaN             NaN
             NaN             NaN             NaN
             NaN             NaN             NaN
             NaN             NaN             NaN
             NaN             NaN             NaN
             NaN             NaN             NaN
             NaN             NaN             NaN
             NaN             NaN             NaN
             NaN             NaN             NaN
             NaN             NaN             NaN
             NaN             NaN             NaN
