Li16 Co18 O36                           
   1.00000000000000     
     8.0633520000000001    0.0216390000000000    2.3671690000000001
     3.6626080000000001    7.1811160000000003    2.3717779999999999
     0.0313660000000000    0.0121200000000000    9.8894839999999995
   Li   Co   O 
    16    18    36
Direct
  0.6825890000000001  0.3504160000000027  0.5000009999999975
  0.3335890000000035  0.3342979999999969  0.0000450000000001
  0.3246240000000000  0.3350999999999971  0.4991739999999965
  0.3338549999999998  0.6676989999999989  0.0005390000000034
  0.3426329999999993  0.6670749999999970  0.5013980000000018
  0.3337100000000035  0.0010019999999997  0.0001800000000003
  0.3335819999999998  0.0012079999999983  0.5002989999999983
  0.6674059999999997  0.3345229999999972  0.0003730000000033
  0.6668340000000015  0.6680050000000008  0.0003090000000014
  0.6672349999999980  0.0008729999999986  0.9999510000000029
  0.6677409999999995  0.9920860000000005  0.4990949999999970
  0.0005129999999980  0.3341899999999995  0.0003650000000022
  0.9999690000000001  0.6674069999999972  0.0003809999999973
  0.9848440000000025  0.6516209999999987  0.5001510000000025
  0.0000289999999978  0.0012159999999994  0.0006040000000027
  0.9997100000000003  0.0100410000000011  0.5014740000000018
  0.1664290000000008  0.1674569999999989  0.2517939999999967
  0.1653340000000014  0.1656430000000029  0.7484869999999972
  0.1674700000000016  0.4998780000000025  0.2483939999999976
  0.1658910000000020  0.4983789999999999  0.7507480000000015
  0.1660449999999969  0.8338510000000028  0.2505779999999973
  0.1648730000000000  0.8308370000000025  0.7537189999999967
  0.5013300000000029  0.1681689999999989  0.2462439999999972
  0.5003359999999972  0.1654330000000002  0.7490179999999995
  0.5006789999999981  0.5008260000000035  0.2489550000000023
  0.4990039999999993  0.4994859999999974  0.7510729999999981
  0.5003129999999985  0.8339069999999964  0.2514040000000008
  0.5000789999999995  0.8316870000000023  0.7478780000000000
  0.8339069999999964  0.1668400000000005  0.2494330000000033
  0.8338839999999976  0.1652810000000002  0.7506759999999986
  0.8336449999999971  0.4997510000000034  0.2523979999999995
  0.8324959999999990  0.4994799999999984  0.7471779999999981
  0.8327590000000029  0.8337119999999985  0.2488820000000018
  0.8331710000000001  0.8314299999999974  0.7505820000000014
  0.2593430000000012  0.2538219999999995  0.3537310000000033
  0.2535519999999991  0.2512400000000028  0.8587520000000026
  0.2535639999999972  0.5866720000000001  0.3576339999999973
  0.2523789999999977  0.5838559999999973  0.8628300000000024
  0.2534769999999966  0.9206179999999975  0.3603049999999968
  0.2536050000000003  0.9194249999999968  0.8601600000000005
  0.5870779999999982  0.2541489999999982  0.3561580000000006
  0.5860899999999987  0.2517660000000035  0.8598769999999973
  0.5862309999999979  0.5866660000000010  0.3559690000000018
  0.5865390000000019  0.5867989999999992  0.8592870000000019
  0.5865840000000020  0.9261780000000002  0.3538599999999974
  0.5858599999999967  0.9191459999999978  0.8585939999999965
  0.9194650000000024  0.2528819999999996  0.3564859999999967
  0.9199929999999981  0.2532270000000025  0.8593619999999973
  0.9240550000000027  0.5903780000000012  0.3493799999999965
  0.9188710000000029  0.5849589999999978  0.8597210000000004
  0.9193179999999970  0.9201610000000002  0.3581319999999977
  0.9176950000000019  0.9187870000000018  0.8627269999999996
  0.0809070000000034  0.0802699999999987  0.1412090000000035
  0.0800130000000010  0.0731370000000027  0.6461370000000031
  0.0798550000000020  0.4128639999999990  0.1405680000000018
  0.0799620000000019  0.4130710000000022  0.6439209999999989
  0.0805099999999968  0.7479299999999967  0.1397249999999985
  0.0795549999999992  0.7451530000000020  0.6437030000000021
  0.4127939999999981  0.0802279999999982  0.1397850000000034
  0.4127140000000011  0.0790799999999976  0.6397580000000005
  0.4143180000000015  0.4156300000000002  0.1371070000000003
  0.4129649999999998  0.4129590000000007  0.6419929999999994
  0.4129250000000013  0.7483739999999983  0.1410570000000035
  0.4071349999999967  0.7458219999999969  0.6461630000000014
  0.7486549999999994  0.0807709999999986  0.1374560000000002
  0.7473949999999974  0.0788060000000002  0.6417840000000012
  0.7478049999999996  0.4141040000000018  0.1403589999999966
  0.7425700000000006  0.4091049999999967  0.6504350000000017
  0.7459360000000004  0.7466549999999970  0.1406279999999995
  0.7471260000000015  0.7465070000000011  0.6434550000000030
 
  0.00000000E+00  0.00000000E+00  0.00000000E+00
  0.00000000E+00  0.00000000E+00  0.00000000E+00
  0.00000000E+00  0.00000000E+00  0.00000000E+00
  0.00000000E+00  0.00000000E+00  0.00000000E+00
  0.00000000E+00  0.00000000E+00  0.00000000E+00
  0.00000000E+00  0.00000000E+00  0.00000000E+00
  0.00000000E+00  0.00000000E+00  0.00000000E+00
  0.00000000E+00  0.00000000E+00  0.00000000E+00
  0.00000000E+00  0.00000000E+00  0.00000000E+00
  0.00000000E+00  0.00000000E+00  0.00000000E+00
  0.00000000E+00  0.00000000E+00  0.00000000E+00
  0.00000000E+00  0.00000000E+00  0.00000000E+00
  0.00000000E+00  0.00000000E+00  0.00000000E+00
  0.00000000E+00  0.00000000E+00  0.00000000E+00
  0.00000000E+00  0.00000000E+00  0.00000000E+00
  0.00000000E+00  0.00000000E+00  0.00000000E+00
  0.00000000E+00  0.00000000E+00  0.00000000E+00
  0.00000000E+00  0.00000000E+00  0.00000000E+00
  0.00000000E+00  0.00000000E+00  0.00000000E+00
  0.00000000E+00  0.00000000E+00  0.00000000E+00
  0.00000000E+00  0.00000000E+00  0.00000000E+00
  0.00000000E+00  0.00000000E+00  0.00000000E+00
  0.00000000E+00  0.00000000E+00  0.00000000E+00
  0.00000000E+00  0.00000000E+00  0.00000000E+00
  0.00000000E+00  0.00000000E+00  0.00000000E+00
  0.00000000E+00  0.00000000E+00  0.00000000E+00
  0.00000000E+00  0.00000000E+00  0.00000000E+00
  0.00000000E+00  0.00000000E+00  0.00000000E+00
  0.00000000E+00  0.00000000E+00  0.00000000E+00
  0.00000000E+00  0.00000000E+00  0.00000000E+00
  0.00000000E+00  0.00000000E+00  0.00000000E+00
  0.00000000E+00  0.00000000E+00  0.00000000E+00
  0.00000000E+00  0.00000000E+00  0.00000000E+00
  0.00000000E+00  0.00000000E+00  0.00000000E+00
  0.00000000E+00  0.00000000E+00  0.00000000E+00
  0.00000000E+00  0.00000000E+00  0.00000000E+00
  0.00000000E+00  0.00000000E+00  0.00000000E+00
  0.00000000E+00  0.00000000E+00  0.00000000E+00
  0.00000000E+00  0.00000000E+00  0.00000000E+00
  0.00000000E+00  0.00000000E+00  0.00000000E+00
  0.00000000E+00  0.00000000E+00  0.00000000E+00
  0.00000000E+00  0.00000000E+00  0.00000000E+00
  0.00000000E+00  0.00000000E+00  0.00000000E+00
  0.00000000E+00  0.00000000E+00  0.00000000E+00
  0.00000000E+00  0.00000000E+00  0.00000000E+00
  0.00000000E+00  0.00000000E+00  0.00000000E+00
  0.00000000E+00  0.00000000E+00  0.00000000E+00
  0.00000000E+00  0.00000000E+00  0.00000000E+00
  0.00000000E+00  0.00000000E+00  0.00000000E+00
  0.00000000E+00  0.00000000E+00  0.00000000E+00
  0.00000000E+00  0.00000000E+00  0.00000000E+00
  0.00000000E+00  0.00000000E+00  0.00000000E+00
  0.00000000E+00  0.00000000E+00  0.00000000E+00
  0.00000000E+00  0.00000000E+00  0.00000000E+00
  0.00000000E+00  0.00000000E+00  0.00000000E+00
  0.00000000E+00  0.00000000E+00  0.00000000E+00
  0.00000000E+00  0.00000000E+00  0.00000000E+00
  0.00000000E+00  0.00000000E+00  0.00000000E+00
  0.00000000E+00  0.00000000E+00  0.00000000E+00
  0.00000000E+00  0.00000000E+00  0.00000000E+00
  0.00000000E+00  0.00000000E+00  0.00000000E+00
  0.00000000E+00  0.00000000E+00  0.00000000E+00
  0.00000000E+00  0.00000000E+00  0.00000000E+00
  0.00000000E+00  0.00000000E+00  0.00000000E+00
  0.00000000E+00  0.00000000E+00  0.00000000E+00
  0.00000000E+00  0.00000000E+00  0.00000000E+00
  0.00000000E+00  0.00000000E+00  0.00000000E+00
  0.00000000E+00  0.00000000E+00  0.00000000E+00
  0.00000000E+00  0.00000000E+00  0.00000000E+00
  0.00000000E+00  0.00000000E+00  0.00000000E+00
