Li7 Mn16 O32                            
   1.00000000000000     
     8.6028690000000001    0.0099410000000000   -0.0082240000000000
     0.0084900000000000    8.0918360000000007   -0.0928370000000000
    -0.0087000000000000    0.0023060000000000    8.0681709999999995
   Li   Mn   O 
     7    16    32
Direct
  0.2259037083004813  0.5145418351932795  0.7355666834250300
  0.8673374070686835  0.8755639262341494  0.8772054692022662
  0.1373748833882199  0.1303552329565275  0.1195776186852715
  0.8679222171245974  0.3727462758444695  0.3741989185080505
  0.3627774407721645  0.8694435352956501  0.3806039445099593
  0.6328536041804130  0.1247021100978961  0.6235541048544037
  0.6322357429156223  0.6267676827820833  0.1256673832472375
  0.4997551528431763  0.2491958833376833  0.2492083637159901
  0.2498546467685746  0.4996273393102246  0.2483943397610436
  0.2509643153220430  0.2517817329049776  0.5019407752961138
  0.5071568544394507  0.4981338987717350  0.4991451137422981
  0.5071675287859525  0.7509922201065037  0.7511110699642871
  0.7499264877419449  0.5002984948728723  0.7498520951654037
  0.7574279575390133  0.7478886357085714  0.4997694252300472
  0.2498740887770456  0.0012567429048467  0.7503124915252458
  0.2510919284018327  0.7482869478290428  0.9978655865804639
  0.5000312221837451  0.0007263657869389  0.0007600719724213
  0.7500472300014079  0.9999889838856136  0.2499914236633330
  0.7426821533160335  0.2522573642856733  0.0001961028186435
  0.9929342231472723  0.2487645191777903  0.7488409184259242
  0.9928835283237915  0.5019416414641206  0.0011199958289470
  0.0004312488716759  0.7507064284061367  0.2506961221677373
  0.0001238018538776  0.9993762578579510  0.4993208615038460
  0.7232113349727606  0.0101993920425176  0.0122821620887215
  0.9948001580925691  0.7359202771235229  0.0151052865733301
  0.9996702051293924  0.0161241093237614  0.7373768643842604
  0.7343093131020014  0.7355071150457717  0.7379787475119522
  0.2753261813824149  0.9875235384680305  0.9852550023886290
  0.9934757329126597  0.2667362238210695  0.9848819062799294
  0.0033976352523276  0.9857826029457404  0.2634672654938170
  0.2754099352697417  0.2649531858943999  0.2619341818309736
  0.7330117673537785  0.5070753438772916  0.5144631588645553
  0.9944582306385807  0.2345689086905265  0.5143477122980282
  0.9998888412788711  0.5134586243329955  0.2343357316233769
  0.7234593113391343  0.2400626948224062  0.2371338300611474
  0.2871259229110690  0.4866347913524274  0.4985598604391356
  0.0026715468604796  0.7683717872148300  0.4824728175782402
  0.9756512161975313  0.4876307362144550  0.7614732280303121
  0.2875561595798924  0.7516776652836292  0.7623143702299848
  0.2251252408220080  0.0130128545797420  0.5152550862993989
  0.5064871982624820  0.7331638045476031  0.5152589871067620
  0.4970159846402379  0.0140176394669939  0.2367787497329663
  0.2251062316618549  0.7343668958840313  0.2373993435040898
  0.7770642748377951  0.9895812206582668  0.4878825555777522
  0.5054321616869569  0.2642406491575296  0.4850298131520605
  0.5003133059359921  0.9838538358192558  0.7627943319154810
  0.7658991938842236  0.2650297153223551  0.7621093689702971
  0.2119940935074930  0.5141915914049088  0.9989978813833299
  0.4980337892843087  0.2312834461086188  0.0178405539020242
  0.5273278082837722  0.5127458595774508  0.7382274735995699
  0.2115839868525056  0.2503833287129424  0.7367356939841659
  0.7672742884671830  0.4932452952484726  0.9851286004006944
  0.5056648347813874  0.7652716628809717  0.9855107250984270
  0.5001325611363094  0.4863851743972919  0.2656548372175177
  0.7769099395725052  0.7598652207713095  0.2629029219273628
 
             NaN             NaN             NaN
             NaN             NaN             NaN
             NaN             NaN             NaN
             NaN             NaN             NaN
             NaN             NaN             NaN
             NaN             NaN             NaN
             NaN             NaN             NaN
             NaN             NaN             NaN
             NaN             NaN             NaN
             NaN             NaN             NaN
             NaN             NaN             NaN
             NaN             NaN             NaN
             NaN             NaN             NaN
             NaN             NaN             NaN
             NaN             NaN             NaN
             NaN             NaN             NaN
             NaN             NaN             NaN
             NaN             NaN             NaN
             NaN             NaN             NaN
             NaN             NaN             NaN
             NaN             NaN             NaN
             NaN             NaN             NaN
             NaN             NaN             NaN
             NaN             NaN             NaN
             NaN             NaN             NaN
             NaN             NaN             NaN
             NaN             NaN             NaN
             NaN             NaN             NaN
             NaN             NaN             NaN
             NaN             NaN             NaN
             NaN             NaN             NaN
             NaN             NaN             NaN
             NaN             NaN             NaN
             NaN             NaN             NaN
             NaN             NaN             NaN
             NaN             NaN             NaN
             NaN             NaN             NaN
             NaN             NaN             NaN
             NaN             NaN             NaN
             NaN             NaN             NaN
             NaN             NaN             NaN
             NaN             NaN             NaN
             NaN             NaN             NaN
             NaN             NaN             NaN
             NaN             NaN             NaN
             NaN             NaN             NaN
             NaN             NaN             NaN
             NaN             NaN             NaN
             NaN             NaN             NaN
             NaN             NaN             NaN
             NaN             NaN             NaN
             NaN             NaN             NaN
             NaN             NaN             NaN
             NaN             NaN             NaN
             NaN             NaN             NaN
