Li7 Mn16 O32                            
   1.00000000000000     
     8.6028690000000001    0.0099410000000000   -0.0082240000000000
     0.0084900000000000    8.0918360000000007   -0.0928370000000000
    -0.0087000000000000    0.0023060000000000    8.0681709999999995
   Li   Mn   O 
     7    16    32
Direct
  0.2275797290556516  0.5129946914038412  0.7370547739449663
  0.8673185845524704  0.8756061019270540  0.8771262660847653
  0.1373615136156600  0.1303993962298234  0.1195647114167227
  0.8679455340749812  0.3727610067170362  0.3741953305105707
  0.3626388523564646  0.8694748444686448  0.3805650350539574
  0.6328217641089017  0.1246648628721781  0.6235398585536018
  0.6321615804629034  0.6268231052150950  0.1256270694374891
  0.4997065832141959  0.2491681993838989  0.2492184011570286
  0.2498625368516276  0.4996616051242262  0.2484463124837805
  0.2510740294683316  0.2519238484717015  0.5019273888027693
  0.5071670802012009  0.4981385994353513  0.4991374949815137
  0.5071451061229730  0.7509950615219925  0.7511150570460687
  0.7499574487685504  0.5002591923769089  0.7498267643129105
  0.7574338248211803  0.7479688599104470  0.4997722062342024
  0.2498710797179478  0.0012375645928431  0.7502459988396020
  0.2510259662981888  0.7483316573524937  0.9978194669673102
  0.4999952712292201  0.0006995402308599  0.0007681613737137
  0.7500158548078494  0.9999906584336801  0.2499876935235689
  0.7426752738086781  0.2522184602431506  1.0002455649084818
  0.9928763086426153  0.2487506194450787  0.7488394559039939
  0.9928617092371985  0.5018982173781845  0.0011219567067060
  1.0004449605901065  0.7507306909928175  0.2506494672113387
  1.0001378807183210 -0.0005509756539497  0.4992958336495552
  0.7231606235598569  0.0102163150508036  0.0123153595018259
  0.9949298905155648  0.7359569836547224  0.0150360457495340
  0.9997558846280518  0.0161068811531983  0.7373526262714638
  0.7343450020866827  0.7355278146935850  0.7379176629612647
  0.2752629342369926  0.9875375925361966  0.9852181391433431
  0.9935268627442388  0.2667632736384996  0.9848547155380726
  1.0032759803829285  0.9858110592144029  0.2634094785433023
  0.2753909962118747  0.2649756637379462  0.2619612503900320
  0.7330224604137374  0.5071110455725250  0.5144400790310490
  0.9944869287799535  0.2345913682980392  0.5143256488373840
  0.9999431840857819  0.5134854973392293  0.2343261312226032
  0.7233958254592603  0.2400498275380867  0.2371749010033391
  0.2871970008552924  0.4867145034789631  0.4986984989064576
  1.0026169899132171  0.7684184760491345  0.4824183670950350
  0.9756001755134900  0.4875579133248419  0.7614831728814332
  0.2876120954591381  0.7514713513262029  0.7623085615863481
  0.2251174693452052  0.0131139412413388  0.5152358494867083
  0.5064852807194665  0.7331460562044808  0.5152661850086498
  0.4969356708113372  0.0140147089321112  0.2367706526692825
  0.2251014542160123  0.7343841240375291  0.2373726766460380
  0.7770633291834557  0.9896807437030357  0.4878767431548845
  0.5053873045429911  0.2642041297529846  0.4850779467575574
  0.5002211356689230  0.9838310062480452  0.7627880263233506
  0.7658837268668608  0.2649724775067131  0.7621192790438115
  0.2120512532129310  0.5141429303677941 -0.0010109289917221
  0.4979135859746339  0.2312915361311839  0.0178495434495800
  0.5272825043819837  0.5126927099160786  0.7382587871023426
  0.2116192221696840  0.2505138232605498  0.7367328851298575
  0.7672748420393225  0.4932039997031277  0.9851487503077779
  0.5055945400989403  0.7652636022352231  0.9855408469612016
  0.5001057219095671  0.4863643505802028  0.2656663486642107
  0.7769008872512586  0.7598488693683361  0.2628622009547869
 
             NaN             NaN             NaN
             NaN             NaN             NaN
             NaN             NaN             NaN
             NaN             NaN             NaN
             NaN             NaN             NaN
             NaN             NaN             NaN
             NaN             NaN             NaN
             NaN             NaN             NaN
             NaN             NaN             NaN
             NaN             NaN             NaN
             NaN             NaN             NaN
             NaN             NaN             NaN
             NaN             NaN             NaN
             NaN             NaN             NaN
             NaN             NaN             NaN
             NaN             NaN             NaN
             NaN             NaN             NaN
             NaN             NaN             NaN
             NaN             NaN             NaN
             NaN             NaN             NaN
             NaN             NaN             NaN
             NaN             NaN             NaN
             NaN             NaN             NaN
             NaN             NaN             NaN
             NaN             NaN             NaN
             NaN             NaN             NaN
             NaN             NaN             NaN
             NaN             NaN             NaN
             NaN             NaN             NaN
             NaN             NaN             NaN
             NaN             NaN             NaN
             NaN             NaN             NaN
             NaN             NaN             NaN
             NaN             NaN             NaN
             NaN             NaN             NaN
             NaN             NaN             NaN
             NaN             NaN             NaN
             NaN             NaN             NaN
             NaN             NaN             NaN
             NaN             NaN             NaN
             NaN             NaN             NaN
             NaN             NaN             NaN
             NaN             NaN             NaN
             NaN             NaN             NaN
             NaN             NaN             NaN
             NaN             NaN             NaN
             NaN             NaN             NaN
             NaN             NaN             NaN
             NaN             NaN             NaN
             NaN             NaN             NaN
             NaN             NaN             NaN
             NaN             NaN             NaN
             NaN             NaN             NaN
             NaN             NaN             NaN
             NaN             NaN             NaN
