Mg15 Mn32 O64                           
   1.00000000000000     
    11.6326129999999992    0.0000020000000000    0.0000010000000000
     0.0000020000000000   11.6328019999999999    0.0000000000000000
     0.0000010000000000    0.0000000000000000    9.3715200000000003
   Mg   Mn   O 
    15    32    64
Direct
  0.5000045736091481  0.6300909562052507  0.6362225225310855
  0.5000006209909488  0.2521435503352415  0.7515441544414642
 -0.0000036390567400  0.2515970051242560  0.7478137869334729
  0.0000022304163020  0.7505440702922728  0.7515519905937466
  0.0000052340418714  0.4999504828617101  0.4998284580961182
  0.0000010636322717  0.9987286466806903  0.5017848384120633
  0.5000001988169728  0.9991286883408120  0.4974497266551567
  0.2478522153338158  0.0003619679334823  0.2530641483334319
  0.2522245547502605  0.5002515997017045  0.2517324068830897
  0.7521521648917467  0.0003665123401926  0.2530560110512641
  0.7477658045873534  0.5002557789997412  0.2517326175128424
  0.2471778461596046  0.2493958379970680 -0.0018578373852242
  0.2507742618533820  0.7513841894531953  0.9976835696845158
  0.7528181497923716  0.2493993571247161 -0.0018606975886000
  0.7492227636713148  0.7513828569572314  0.9976779387577621
  0.1251705394127648  0.2503223573895580  0.3770253650473148
  0.1247709557977817  0.7499174390509002  0.3746303740035835
  0.6244405211609693  0.2521641821566444  0.3716616932776266
  0.6256330882131519  0.7506546176171188  0.3741949689096712
  0.3755562489579338  0.2521639543559571  0.3716660386088719
  0.3743736193502456  0.7506494177896005  0.3742009434857785
  0.8748291222335323  0.2503232431940334  0.3770225126904554
  0.8752385347582839  0.7499217252720684  0.3746282046807565
  0.1243363924092948  0.5000316993326445  0.8771888935476415
  0.1248925830149071  0.0009075644203007  0.8733911454478033
  0.6265662929986610  0.4988708260732196  0.8775629394308474
  0.6246038623166261  0.9997563172809442  0.8771445393296387
  0.3734287500021227  0.4988706406172838  0.8775703907538571
  0.3753969760515091  0.9997557774047778  0.8771453440884721
  0.8756553327309992  0.5000306537935166  0.8771818141528301
  0.8751096233125909  0.0009086268782408  0.8733914299006912
  0.4999986609753491  0.1251760645231659  0.1248381394105691
  0.4999984214208433  0.6257008994261126  0.1221413944827930
  0.0000020485906587  0.1250927239697233  0.1260733447435130
 -0.0000046024384935  0.6251788678727818  0.1257722105047242
  0.4999977357955566  0.3731741700811109  0.1220056672426274
  0.4999995674869192  0.8770393345310470  0.1254852623232690
 -0.0000052411998577  0.3752064237994233  0.1270562685814874
  0.0000021611557469  0.8751884664105569  0.1245932351784421
  0.2531169880972734  0.3776481357112821  0.6253505001655018
  0.2526881684648162  0.8731313922353746  0.6260068327582405
  0.7468824185651264  0.3776585714307014  0.6253348512376340
  0.7473180953416090  0.8731398989836121  0.6260006755374157
  0.2519437802314344  0.1254038191889018  0.6244406231474120
  0.2463513342865130  0.6252114452288997  0.6267801819640416
  0.7480541086435358  0.1254121871500277  0.6244382455934748
  0.7536553269545871  0.6252178297798697  0.6267671300264052
  0.1391853400599171  0.2509480837458598  0.6211034571719229
  0.1358187745074910  0.7521352316249624  0.6217338347547268
  0.6347984666028664  0.2519479915554381  0.6197193078587010
  0.6373010221504781  0.7447689178506591  0.6117515663699350
  0.3651982510868363  0.2519396966986656  0.6197274578719408
  0.3627068618254816  0.7447602034943798  0.6117584974948207
  0.8608115344687934  0.2509544013187340  0.6210958678943812
  0.8641900483134353  0.7521457619919676  0.6217253102194226
  0.1361282703183242  0.4981181568257069  0.6294617884535585
  0.1390985231238843 -0.0001667745277117  0.6284760598920210
  0.6369365867367807  0.5063898759109502  0.6462871734623304
  0.6348154200253520  0.9990711280353116  0.6297256131132782
  0.3630665577303676  0.5063793446316589  0.6462985042190605
  0.3651857491036472  0.9990651700541814  0.6297268291414274
  0.8638750921396710  0.4981239790981112  0.6294464657013833
  0.8609018256483831 -0.0001560073324596  0.6284747020239572
  0.5000010003506412  0.1128528083372144  0.8786087542238371
  0.4999984126006968  0.6051789263505954  0.8675098116063168
  0.0000007321949802  0.1141508686128227  0.8771826600449381
 -0.0000050246746109  0.6131551875239406  0.8795363481777186
  0.4999997134515253  0.3802717180723166  0.9023289289626931
  0.5000012968697917  0.8904215497627908  0.9171277402911031
 -0.0000050147806458  0.3862131257233400  0.8803853558546474
  0.0000009555841320  0.8881325477644240  0.8787347932994743
 -0.0000000505985279  0.3626980038422071  0.3722282288813236
  0.0000055035831232  0.8635333360374468  0.3703267250177266
  0.4999982896048476  0.3616346012444705  0.3300038781316044
  0.5000018539742286  0.8693424045836498  0.3475915218002808
 -0.0000002584731409  0.1368728985212773  0.3735502024462538
  0.0000028662903453  0.6369938493875632  0.3714531083986384
  0.4999987135303093  0.1389035219207714  0.3708533788656860
  0.5000057992446300  0.6450273145304022  0.3833198897714772
  0.3876148363530218  1.0002710711676472  0.1268880750025490
  0.3887625257856716  0.4988348805016466  0.1179138882259873
  0.8866402784091095  0.0007163589064772  0.1211475483642736
  0.8867020116649477  0.4997289189689355  0.1236063323894451
  0.1133661463455454  0.0007161141053675  0.1211490394590126
  0.1132847516598005  0.4997286618226696  0.1236094003257782
  0.6123873289484922  1.0002719013337507  0.1268872069320614
  0.6112322839808597  0.4988357150852487  0.1179088966884709
  0.3876404208843914  0.2501257257544797  0.1223931833195781
  0.3890256142621784  0.7519365396388135  0.1275337189454350
  0.8867746369117133  0.2496227174854083  0.1303744849234509
  0.8867121013804110  0.7506367725497968  0.1276881605402757
  0.1132208137139689  0.2496266562362533  0.1303765068089016
  0.1132849077046260  0.7506328928025610  0.1276908029286425
  0.6123573639713399  0.2501274991847515  0.1223926853443724
  0.6109732966274916  0.7519337457595677  0.1275305036886053
  0.2506919567508141  0.3633877031239486  0.3786818150947935
  0.2497827841232779  0.8630672527744456  0.3778827151663237
  0.7493049398701054  0.3633891780443357  0.3786749334437328
  0.7502259951533599  0.8630730535028537  0.3778756187299483
  0.2511122757948656  0.1379349866346691  0.3799195479350447
  0.2477838944580043  0.6364523514306923  0.3773059413739486
  0.7488868963337437  0.1379367460266205  0.3799153014948677
  0.7522228123863807  0.6364578387951262  0.3773021185830536
  0.2506278128168087  0.1133918769543210  0.8693783848704482
  0.2465332663907151  0.6136925802639090  0.8755659037035267
  0.7493727259780648  0.1133937466639220  0.8693784592691498
  0.7534568833207133  0.6136908266814008  0.8755562626021455
  0.2494481923779612  0.3868842701742570  0.8740968672464883
  0.2503035436454019  0.8883827011549733  0.8713536480556150
  0.7505449235511596  0.3868851655390449  0.8740815731832189
  0.7496984336967545  0.8883840036501832  0.8713516575498842
 
             NaN             NaN             NaN
             NaN             NaN             NaN
             NaN             NaN             NaN
             NaN             NaN             NaN
             NaN             NaN             NaN
             NaN             NaN             NaN
             NaN             NaN             NaN
             NaN             NaN             NaN
             NaN             NaN             NaN
             NaN             NaN             NaN
             NaN             NaN             NaN
             NaN             NaN             NaN
             NaN             NaN             NaN
             NaN             NaN             NaN
             NaN             NaN             NaN
             NaN             NaN             NaN
             NaN             NaN             NaN
             NaN             NaN             NaN
             NaN             NaN             NaN
             NaN             NaN             NaN
             NaN             NaN             NaN
             NaN             NaN             NaN
             NaN             NaN             NaN
             NaN             NaN             NaN
             NaN             NaN             NaN
             NaN             NaN             NaN
             NaN             NaN             NaN
             NaN             NaN             NaN
             NaN             NaN             NaN
             NaN             NaN             NaN
             NaN             NaN             NaN
             NaN             NaN             NaN
             NaN             NaN             NaN
             NaN             NaN             NaN
             NaN             NaN             NaN
             NaN             NaN             NaN
             NaN             NaN             NaN
             NaN             NaN             NaN
             NaN             NaN             NaN
             NaN             NaN             NaN
             NaN             NaN             NaN
             NaN             NaN             NaN
             NaN             NaN             NaN
             NaN             NaN             NaN
             NaN             NaN             NaN
             NaN             NaN             NaN
             NaN             NaN             NaN
             NaN             NaN             NaN
             NaN             NaN             NaN
             NaN             NaN             NaN
             NaN             NaN             NaN
             NaN             NaN             NaN
             NaN             NaN             NaN
             NaN             NaN             NaN
             NaN             NaN             NaN
             NaN             NaN             NaN
             NaN             NaN             NaN
             NaN             NaN             NaN
             NaN             NaN             NaN
             NaN             NaN             NaN
             NaN             NaN             NaN
             NaN             NaN             NaN
             NaN             NaN             NaN
             NaN             NaN             NaN
             NaN             NaN             NaN
             NaN             NaN             NaN
             NaN             NaN             NaN
             NaN             NaN             NaN
             NaN             NaN             NaN
             NaN             NaN             NaN
             NaN             NaN             NaN
             NaN             NaN             NaN
             NaN             NaN             NaN
             NaN             NaN             NaN
             NaN             NaN             NaN
             NaN             NaN             NaN
             NaN             NaN             NaN
             NaN             NaN             NaN
             NaN             NaN             NaN
             NaN             NaN             NaN
             NaN             NaN             NaN
             NaN             NaN             NaN
             NaN             NaN             NaN
             NaN             NaN             NaN
             NaN             NaN             NaN
             NaN             NaN             NaN
             NaN             NaN             NaN
             NaN             NaN             NaN
             NaN             NaN             NaN
             NaN             NaN             NaN
             NaN             NaN             NaN
             NaN             NaN             NaN
             NaN             NaN             NaN
             NaN             NaN             NaN
             NaN             NaN             NaN
             NaN             NaN             NaN
             NaN             NaN             NaN
             NaN             NaN             NaN
             NaN             NaN             NaN
             NaN             NaN             NaN
             NaN             NaN             NaN
             NaN             NaN             NaN
             NaN             NaN             NaN
             NaN             NaN             NaN
             NaN             NaN             NaN
             NaN             NaN             NaN
             NaN             NaN             NaN
             NaN             NaN             NaN
             NaN             NaN             NaN
             NaN             NaN             NaN
             NaN             NaN             NaN
