Mg15 Mn32 O64
1.0
11.632613 0.000002 0.000001
0.000002 11.632802 0.000000
0.000001 -0.000000 9.371520
Mg Mn O
15 32 64
direct
0.500000 0.626021 0.622803 Mg
0.500000 0.251243 0.748606 Mg
1.000000 0.249886 0.748990 Mg
1.000000 0.750114 0.748926 Mg
1.000000 0.500220 0.501727 Mg
0.000000 -0.000220 0.500021 Mg
0.500000 0.997736 0.499081 Mg
0.248718 0.000812 0.251295 Mg
0.250740 0.499189 0.250379 Mg
0.751282 1.000811 0.251295 Mg
0.749260 0.499189 0.250378 Mg
0.249031 0.248452 0.000214 Mg
0.250343 0.751548 -0.001844 Mg
0.750969 0.248451 0.000214 Mg
0.749657 0.751548 -0.001844 Mg
0.125231 0.250554 0.376472 Mn
0.124861 0.749447 0.374720 Mn
0.623976 0.250798 0.375855 Mn
0.625411 0.749202 0.371976 Mn
0.376024 0.250798 0.375855 Mn
0.374588 0.749202 0.371976 Mn
0.874770 0.250554 0.376472 Mn
0.875139 0.749447 0.374720 Mn
0.124747 0.499883 0.876048 Mn
0.124905 1.000116 0.873490 Mn
0.625692 0.500488 0.876868 Mn
0.624702 0.999511 0.874871 Mn
0.374308 0.500489 0.876869 Mn
0.375298 0.999511 0.874871 Mn
0.875253 0.499883 0.876049 Mn
0.875095 1.000116 0.873490 Mn
0.500000 0.124808 0.126129 Mn
0.500000 0.625471 0.123222 Mn
-0.000000 0.125011 0.125464 Mn
0.000000 0.625004 0.125310 Mn
0.500000 0.373385 0.125035 Mn
0.500000 0.876338 0.124316 Mn
0.000000 0.374984 0.126452 Mn
1.000000 0.875001 0.124323 Mn
0.251043 0.375553 0.627108 Mn
0.250672 0.874036 0.622943 Mn
0.748958 0.375553 0.627108 Mn
0.749328 0.874036 0.622943 Mn
0.250435 0.124704 0.624501 Mn
0.251280 0.625707 0.625551 Mn
0.749566 0.124704 0.624500 Mn
0.748720 0.625707 0.625552 Mn
0.137424 0.250471 0.621463 O
0.136422 0.749529 0.620314 O
0.637062 0.250256 0.622020 O
0.639485 0.749744 0.610875 O
0.362939 0.250256 0.622021 O
0.360515 0.749744 0.610875 O
0.862576 0.250471 0.621461 O
0.863577 0.749528 0.620314 O
0.137794 0.499891 0.630274 O
0.137256 0.000109 0.628277 O
0.637280 0.500307 0.650639 O
0.636140 -0.000307 0.628812 O
0.362720 0.500307 0.650638 O
0.363861 -0.000307 0.628812 O
0.862206 0.499892 0.630274 O
0.862745 0.000109 0.628277 O
0.500000 0.112898 0.878025 O
0.500000 0.610303 0.898938 O
-0.000000 0.113362 0.878293 O
1.000000 0.612892 0.878405 O
0.500000 0.388777 0.879522 O
0.500000 0.888022 0.897441 O
1.000000 0.386781 0.878784 O
0.000000 0.886963 0.877914 O
0.000000 0.363476 0.372282 O
1.000000 0.862861 0.370535 O
0.500000 0.361167 0.361967 O
0.500000 0.864374 0.358510 O
0.000000 0.137266 0.371684 O
0.000000 0.636397 0.371136 O
0.500001 0.136183 0.371557 O
0.500000 0.638276 0.348921 O
0.387254 -0.000414 0.124263 O
0.386682 0.500416 0.113343 O
0.886922 0.000246 0.120762 O
0.886817 0.499754 0.121754 O
0.113077 0.000246 0.120762 O
0.113183 0.499754 0.121754 O
0.612746 0.999584 0.124263 O
0.613317 0.500416 0.113343 O
0.386919 0.249348 0.126286 O
0.388394 0.750653 0.125057 O
0.886908 0.250053 0.129495 O
0.886849 0.749947 0.127330 O
0.113092 0.250053 0.129495 O
0.113151 0.749947 0.127330 O
0.613081 0.249347 0.126286 O
0.611605 0.750653 0.125057 O
0.250369 0.363951 0.380370 O
0.249250 0.862581 0.375891 O
0.749631 0.363951 0.380369 O
0.750750 0.862581 0.375891 O
0.249950 0.137540 0.379461 O
0.249668 0.635930 0.376798 O
0.750050 0.137540 0.379461 O
0.750331 0.635929 0.376799 O
0.250204 0.112924 0.870475 O
0.250614 0.612089 0.875231 O
0.749796 0.112924 0.870474 O
0.749386 0.612089 0.875231 O
0.250840 0.387513 0.875230 O
0.249978 0.887473 0.870475 O
0.749160 0.387513 0.875230 O
0.750022 0.887473 0.870475 O
