Mg15 Mn32 O64
1.0
11.434059 -0.000734 0.002146
-0.000490 11.418198 0.000117
-0.000084 0.000189 9.239164
Mg Mn O
15 32 64
direct
0.499823 0.654543 0.656591 Mg
0.999753 0.250337 0.747047 Mg
1.000106 0.749909 0.748189 Mg
0.499699 0.253839 0.751911 Mg
0.999420 0.500191 0.500851 Mg
0.000164 -0.000041 0.502849 Mg
0.500101 -0.002371 0.498169 Mg
0.249710 0.000654 0.250547 Mg
0.249479 0.499392 0.252522 Mg
0.752121 0.000530 0.250469 Mg
0.749037 0.499516 0.253345 Mg
0.247794 0.249171 0.999447 Mg
0.249747 0.750888 0.997761 Mg
0.751356 0.248947 0.999166 Mg
0.751589 0.751051 0.998170 Mg
0.124151 0.248889 0.376535 Mn
0.124951 0.751205 0.375558 Mn
0.623726 0.251427 0.375730 Mn
0.625827 0.748485 0.372767 Mn
0.374644 0.251313 0.374966 Mn
0.374202 0.748470 0.371994 Mn
0.873986 0.248792 0.375921 Mn
0.875750 0.751347 0.375297 Mn
0.126368 0.000811 0.873634 Mn
0.123519 0.499320 0.874895 Mn
0.625665 0.998790 0.873844 Mn
0.626436 0.500908 0.878773 Mn
0.376618 0.999084 0.873585 Mn
0.373098 0.500851 0.878673 Mn
0.876273 1.000688 0.873116 Mn
0.874973 0.499413 0.874690 Mn
0.000442 0.124951 0.124902 Mn
0.999514 0.624972 0.125507 Mn
0.500488 0.124810 0.124443 Mn
0.500132 0.625171 0.125404 Mn
0.998543 0.375116 0.126329 Mn
0.001978 0.875125 0.124127 Mn
0.499459 0.373750 0.126991 Mn
0.501276 0.875567 0.123176 Mn
0.251770 0.376365 0.625349 Mn
0.252334 0.873964 0.624396 Mn
0.747550 0.376314 0.625718 Mn
0.747812 0.874189 0.624589 Mn
0.252301 0.125130 0.624929 Mn
0.251411 0.623935 0.625090 Mn
0.747653 0.125162 0.624937 Mn
0.748028 0.625153 0.625231 Mn
0.138626 0.249443 0.621101 O
0.137830 0.750414 0.620680 O
0.634786 0.250453 0.620243 O
0.636951 0.749811 0.611929 O
0.364610 0.250584 0.620238 O
0.362600 0.749103 0.612099 O
0.860790 0.249613 0.621218 O
0.862209 0.750881 0.620853 O
0.139136 0.000259 0.628598 O
0.136621 0.499459 0.629082 O
0.635426 0.999752 0.629190 O
0.638535 0.500633 0.642697 O
0.364787 0.999740 0.629126 O
0.360998 0.500108 0.642689 O
0.861191 0.000449 0.628541 O
0.862349 0.499901 0.629203 O
0.001003 0.113563 0.877428 O
0.999360 0.612573 0.878338 O
0.501001 0.112322 0.877843 O
0.499792 0.613118 0.911483 O
0.999190 0.386362 0.878686 O
0.001205 0.887847 0.877148 O
0.499693 0.387085 0.895892 O
0.500907 0.887095 0.893356 O
0.999047 0.361825 0.372615 O
0.000454 0.864156 0.371365 O
0.499265 0.362108 0.345469 O
0.500079 0.861949 0.360678 O
0.999259 0.136179 0.372092 O
1.000140 0.638178 0.371941 O
0.499344 0.138177 0.371453 O
0.500105 0.637461 0.334634 O
0.388866 -0.000902 0.124388 O
0.389273 0.500559 0.126136 O
0.888340 0.999874 0.120625 O
0.886068 0.500114 0.123271 O
0.114123 0.000665 0.120387 O
0.111813 0.499619 0.123180 O
0.613062 -0.000465 0.124342 O
0.610100 0.500229 0.126089 O
0.387800 0.250479 0.123893 O
0.389716 0.749268 0.122839 O
0.886612 0.249251 0.129486 O
0.888031 0.750976 0.127955 O
0.112064 0.250167 0.129349 O
0.113459 0.749877 0.127808 O
0.611586 0.251140 0.123938 O
0.611397 0.748636 0.122963 O
0.249238 0.362002 0.378584 O
0.250868 0.862798 0.376288 O
0.749124 0.362025 0.378946 O
0.749565 0.862772 0.376383 O
0.250520 0.137373 0.378760 O
0.249435 0.637821 0.376103 O
0.748064 0.137251 0.378837 O
0.750760 0.638067 0.376494 O
0.251921 0.112729 0.870901 O
0.248692 0.612209 0.874911 O
0.749965 0.112405 0.870867 O
0.750449 0.612544 0.874952 O
0.249308 0.387422 0.875039 O
0.251195 0.887803 0.870858 O
0.749617 0.387229 0.874805 O
0.750900 0.887682 0.870845 O
