Li47 P16 O64                            
   1.00000000000000     
    10.4208940000000005    0.0004680000000000   -0.0066470000000000
     0.0005390000000000   12.1766660000000009   -0.0023920000000000
    -0.0062810000000000   -0.0019200000000000    9.7945480000000007
   Li   P    O 
    47    16    64
Direct
  0.4961991023630136  0.3008325913401878  0.0723282610392259
  0.6644326730876029  0.2507818861795392  0.6033168130377338
  0.6648763070429641  0.7520437638889338  0.0973296357999089
  0.6647091268933852  0.7525959270524775  0.5988285610543636
  0.1652722013933981  0.4978015599609174  0.1516140057043963
  0.1646116397576092  0.4995725441898997  0.6527148024044204
  0.1649255782803710  0.9940912950853648  0.1550365562706926
  0.1642048892587033  0.9980903964095407  0.6521023649778891
  0.3356191612594278  0.9992831150642517  0.4037860363978612
  0.3365975352974701  0.0000649927233133  0.9020039678070891
  0.3362249486297021  0.5015606266426910  0.3994012154378001
  0.3392666280656081  0.4961682289310359  0.9095684546716846
  0.8340024475215914  0.2495579339307194  0.3467442504104151
  0.8364010352604873  0.2499413746350358  0.8519563199929283
  0.8361817680737968  0.7490136041042885  0.3479669901755558
  0.8363435060421300  0.7491527806594658  0.8477915584602547
  0.3355402952218698  0.2491905756895094  0.4003073149970030
  0.3305779890719179  0.2486607478309293  0.8994238126650216
  0.3362087210576750  0.7497846886768655  0.4027741750815109
  0.3364201724251396  0.7489943845698799  0.9022508228305994
  0.8361660642236034  0.0013110213897005  0.3491350828463952
  0.8356184016241328  0.0010709350385970  0.8476268640841229
  0.8345841870357653  0.5022955482890117  0.3478718017300257
  0.8357517631184511  0.5018270298451870  0.8479779099136284
  0.6623644010126656  0.4979102070512587  0.0950762631470868
  0.6644038859474533  0.5033063807730860  0.6001911843507306
  0.6635421424892443  0.0044982683646690  0.1004200045484791
  0.6639844344295048  0.0006924222589040  0.5972848665005798
  0.1652748421004976  0.2527969463919313  0.1511452135547248
  0.1626284702056399  0.2507639002065815  0.6516165450164909
  0.1641757747189145  0.7504644453840531  0.1518682997292915
  0.1638361032073162  0.7508410013769475  0.6532939201719522
  0.9204131200442970  0.3772546657078390  0.1463742928934918
  0.9229253879698359  0.3755243930495178  0.6494865836433922
  0.9225355771878349  0.8746853770709953  0.1491924815908939
  0.9229829502764219  0.8754046532504939  0.6487923396962400
  0.4197142196088041  0.3762698819157692  0.6023324491769384
  0.4271173339551960  0.8747913932588031  0.0995550093989287
  0.4246858046271207  0.8752962580018927  0.6024760398845515
  0.0774218881968697  0.1242203180945947  0.3527119695867711
  0.0772459615734692  0.1243818855271004  0.8502481806861312
  0.0764178910858619  0.6246132367635393  0.3505005007737417
  0.0776061149094178  0.6242149163376240  0.8525687913843217
  0.5756908284426521  0.1267323822998570  0.3953614932107579
  0.5805520650308390  0.1274384538884291  0.9040079901865696
  0.5769840872034269  0.6271160525893333  0.4012273370746914
  0.5759747994101005  0.6255838810708594  0.8979401245937472
  0.9150917870684879  0.1240149172745113  0.0956597820857803
  0.9123540159894038  0.1252724052905279  0.5952619212085434
  0.9115793187097301  0.6255704183927636  0.0953271354685118
  0.9125636061672402  0.6254603594305771  0.5955080595298140
  0.4068507184292762  0.1188209509077343  0.1545431406308140
  0.4118023844748621  0.1250387021166789  0.6549505825485775
  0.4125743437823835  0.6279022258907855  0.1546441038973999
  0.4110420258875386  0.6258993072191623  0.6553508534154181
  0.0872961263499609  0.3754833512627358  0.4046558209936494
  0.0871991004234886  0.3754038711628449  0.9046615029631370
  0.0876626233795465  0.8741586836816283  0.4053633255951098
  0.0878003240611364  0.8747248688679446  0.9048918457929683
  0.5884188269289259  0.3780284943609921  0.3508751483416236
  0.5889479574256045  0.3752414971627798  0.8386823760177967
  0.5889530424086211  0.8759369185682792  0.3455245314863694
  0.5893716457307040  0.8758889886454996  0.8453846114440168
  0.8429534494701059  0.0223982126657365  0.1483861360677986
  0.8416391125970436  0.0220784283555795  0.6468338694802894
  0.8399927095331134  0.5229774936599974  0.1469203598282338
  0.8421964618958983  0.5224481130510810  0.6475581637026505
  0.3359033146621739  0.2204120335742363  0.0988844717914765
  0.3404524670288186  0.2281640566221754  0.6033654313460247
  0.3439585231752712  0.7335853249382229  0.1061210407116918
  0.3411009133214300  0.7299040066656159  0.6047761472120521
  0.1564792866497240  0.2716054438992139  0.3526486076633189
  0.1555561046054880  0.2713672637597828  0.8519490981670492
  0.1580168146540746  0.7710486209879025  0.3532203218631624
  0.1581990939200891  0.7711635912084828  0.8541346192818281
  0.6584769484243169  0.4808270956005545  0.4041688629811253
  0.6576070038749685  0.4785649951542554  0.8931371407161670
  0.6584710611707263  0.9798442204679385  0.3969640255398026
  0.6592490095066985  0.9788021434202047  0.8988550435229922
  0.1581265662380035  0.4782435641527343  0.3527920057121955
  0.1593445315296539  0.4777549275285066  0.8531516943569772
  0.1580956103585160  0.9776036370127126  0.3546273556721300
  0.1585740395222020  0.9777624516921540  0.8532910866520210
  0.6581775272493924  0.2739457342241648  0.4008997795991286
  0.6591560092037321  0.2710049475017871  0.8837634197688355
  0.6598056703835411  0.7729230727158982  0.3976467693324783
  0.6592353182963939  0.7719853043805446  0.8962225208651740
  0.8547794722265362  0.2295766705566233  0.1510648846634592
  0.8432959305556733  0.2286922148325728  0.6479351885284322
  0.8419331999042455  0.7292735683937488  0.1469108905826882
  0.8422137171654749  0.7289068146048630  0.6468526959477378
  0.3392387500087142  0.0137481107380434  0.1054795407226497
  0.3416929476919617  0.0213355313830157  0.6037751857362066
  0.3363491451384478  0.5300166107090417  0.1007537967761531
  0.3410590429392820  0.5233767285258681  0.6008212271618746
  0.5444976971060497  0.1253215590610542  0.1012626732566588
  0.5501998118502560  0.1259262245622794  0.6010724552751506
  0.5510987839026213  0.6266014854812343  0.1012196434948858
  0.5504785685577822  0.6276175989304232  0.6043723303307835
  0.0552178666211412  0.1216611830225111  0.1462411899122232
  0.0518009104790441  0.1241016589523927  0.6466060092104861
  0.0506096316180044  0.6246706517194492  0.1476385534521692
  0.0515428636183722  0.6252431622006578  0.6479527121527913
  0.4492370654056216  0.3755620032876579  0.4021562969028696
  0.4511935405885539  0.3704831250586357  0.8944937995614679
  0.4501064755673804  0.8749754056468135  0.3980610703719366
  0.4499452187969888  0.8749056164707094  0.8960990965318877
  0.9478700642840722  0.3760945409190154  0.3532375940041978
  0.9481228389218553  0.3766008885721553  0.8524675505342263
  0.9486465331085818  0.8748310928419460  0.3529171148881661
  0.9489232613363883  0.8751689831723950  0.8519221730541221
  0.5902570828116630  0.3808560795417696  0.1949659701234238
  0.5868280696753740  0.3792534222788406  0.6816136468798847
  0.5906201982169839  0.8762334376316616  0.1881479549264785
  0.5908475552933841  0.8768665206829968  0.6879549999057444
  0.0874765335662006  0.3751297438389382  0.0618244998710028
  0.0887422088850106  0.3753667453904792  0.5620484618382603
  0.0873641939705875  0.8743275728831337  0.0622512902809109
  0.0884319766055139  0.8739912846558904  0.5626931873820682
  0.4066481974883264  0.1224606752576861  0.3120699522155678
  0.4119357100007551  0.1250021381356379  0.8122770206154915
  0.4132493388423388  0.6262881240142337  0.3122517346709585
  0.4094680948894657  0.6235712788775628  0.8126782910000416
  0.9109915312423083  0.1256276575178050  0.4378185902113242
  0.9123678849670932  0.1242086815633454  0.9386198522816086
  0.9116648544336011  0.6252602804075551  0.4380753016481670
  0.9110917511325987  0.6254858628300654  0.9378902443483906
 
             NaN             NaN             NaN
             NaN             NaN             NaN
             NaN             NaN             NaN
             NaN             NaN             NaN
             NaN             NaN             NaN
             NaN             NaN             NaN
             NaN             NaN             NaN
             NaN             NaN             NaN
             NaN             NaN             NaN
             NaN             NaN             NaN
             NaN             NaN             NaN
             NaN             NaN             NaN
             NaN             NaN             NaN
             NaN             NaN             NaN
             NaN             NaN             NaN
             NaN             NaN             NaN
             NaN             NaN             NaN
             NaN             NaN             NaN
             NaN             NaN             NaN
             NaN             NaN             NaN
             NaN             NaN             NaN
             NaN             NaN             NaN
             NaN             NaN             NaN
             NaN             NaN             NaN
             NaN             NaN             NaN
             NaN             NaN             NaN
             NaN             NaN             NaN
             NaN             NaN             NaN
             NaN             NaN             NaN
             NaN             NaN             NaN
             NaN             NaN             NaN
             NaN             NaN             NaN
             NaN             NaN             NaN
             NaN             NaN             NaN
             NaN             NaN             NaN
             NaN             NaN             NaN
             NaN             NaN             NaN
             NaN             NaN             NaN
             NaN             NaN             NaN
             NaN             NaN             NaN
             NaN             NaN             NaN
             NaN             NaN             NaN
             NaN             NaN             NaN
             NaN             NaN             NaN
             NaN             NaN             NaN
             NaN             NaN             NaN
             NaN             NaN             NaN
             NaN             NaN             NaN
             NaN             NaN             NaN
             NaN             NaN             NaN
             NaN             NaN             NaN
             NaN             NaN             NaN
             NaN             NaN             NaN
             NaN             NaN             NaN
             NaN             NaN             NaN
             NaN             NaN             NaN
             NaN             NaN             NaN
             NaN             NaN             NaN
             NaN             NaN             NaN
             NaN             NaN             NaN
             NaN             NaN             NaN
             NaN             NaN             NaN
             NaN             NaN             NaN
             NaN             NaN             NaN
             NaN             NaN             NaN
             NaN             NaN             NaN
             NaN             NaN             NaN
             NaN             NaN             NaN
             NaN             NaN             NaN
             NaN             NaN             NaN
             NaN             NaN             NaN
             NaN             NaN             NaN
             NaN             NaN             NaN
             NaN             NaN             NaN
             NaN             NaN             NaN
             NaN             NaN             NaN
             NaN             NaN             NaN
             NaN             NaN             NaN
             NaN             NaN             NaN
             NaN             NaN             NaN
             NaN             NaN             NaN
             NaN             NaN             NaN
             NaN             NaN             NaN
             NaN             NaN             NaN
             NaN             NaN             NaN
             NaN             NaN             NaN
             NaN             NaN             NaN
             NaN             NaN             NaN
             NaN             NaN             NaN
             NaN             NaN             NaN
             NaN             NaN             NaN
             NaN             NaN             NaN
             NaN             NaN             NaN
             NaN             NaN             NaN
             NaN             NaN             NaN
             NaN             NaN             NaN
             NaN             NaN             NaN
             NaN             NaN             NaN
             NaN             NaN             NaN
             NaN             NaN             NaN
             NaN             NaN             NaN
             NaN             NaN             NaN
             NaN             NaN             NaN
             NaN             NaN             NaN
             NaN             NaN             NaN
             NaN             NaN             NaN
             NaN             NaN             NaN
             NaN             NaN             NaN
             NaN             NaN             NaN
             NaN             NaN             NaN
             NaN             NaN             NaN
             NaN             NaN             NaN
             NaN             NaN             NaN
             NaN             NaN             NaN
             NaN             NaN             NaN
             NaN             NaN             NaN
             NaN             NaN             NaN
             NaN             NaN             NaN
             NaN             NaN             NaN
             NaN             NaN             NaN
             NaN             NaN             NaN
             NaN             NaN             NaN
             NaN             NaN             NaN
             NaN             NaN             NaN
             NaN             NaN             NaN
             NaN             NaN             NaN
             NaN             NaN             NaN
