Li7 Mn16 O32                            
   1.00000000000000     
     8.7306699999999999    0.0263140000000000   -0.0275630000000000
     0.0244940000000000    8.2138159999999996   -0.0338410000000000
    -0.0233530000000000   -0.0303960000000000    8.2138109999999998
   Li   Mn   O 
     7    16    32
Direct
  0.3344081750429184  0.4127297026838434  0.8372724095035697
  0.3595391976650295  0.8696416806909751  0.3803589507005896
  0.8657445470073339  0.8757649949649452  0.8744366936859557
  0.1366668575052722  0.1299980821519439  0.1200018364170099
  0.8657425183544943  0.3755631443285422  0.3742354192395051
  0.6343468581271325  0.1240311299349938  0.6216764126453379
  0.6343477076745121  0.6283219751433387  0.1259687943438024
  0.4981411574879494  0.2497348613059208  0.2483667826095544
  0.2486557550587717  0.5016286051756940  0.2499136321787168
  0.2480493936727090  0.2534661062541217  0.4990381280223048
  0.5043019965296177  0.4985447822060276  0.4968079791226381
  0.5043011807543833  0.7531911638504819  0.7514557929080802
  0.7485215833385794  0.4996815211254872  0.7503196500740732
  0.7559500778554167  0.7493974852579033  0.5006026773512694
  0.2486552488267910  1.0000873802858183  0.7483725394876118
  0.2480481742915745  0.7509621988579362  0.9965365706149043
  0.4981411503209130  0.0016342040446150  0.0002663307121770
  0.7485139128683719  1.0000504726025787  0.2499507784602298
  0.7445315322408531  0.2500258050883732 -0.0000267782889700
  0.9925901567878244  0.2503187477480210  0.7464203729109046
  0.9925878581032754  0.5035790277626345 -0.0003172270856814
 -0.0001408872434083  0.7528194093442846  0.2493985354657204
 -0.0001399188385716  0.0006042786947498  0.4971784360087180
  0.7224148741628446  0.0128318039852054  0.0117980553139595
  0.9941419187062850  0.7370950839876488  0.0132877147932809
  0.9966071240106590  0.0176011676675908  0.7341526719406328
  0.7314221137419030  0.7347367396666046  0.7391324901425261
  0.2742317749051559  0.9893883269593983  0.9845613859184636
  0.9958928621319222  0.2677434448359216  0.9822555624247751
  0.0017091834107661  0.9879553776886344  0.2620431629380470
  0.2742338480163468  0.2654408041152418  0.2606123726451186
  0.7314228018275042  0.5108670580040601  0.5152642897118355
  0.9941446636806778  0.2367135062317017  0.5129045753671760
  0.9966027969461834  0.5158453607851982  0.2323995644387144
  0.7224164615685916  0.2382015971949935  0.2371675223017072
  0.2854922208134604  0.4866936470948495  0.4893700814931540
  0.0021916914540745  0.7704320960661096  0.4795720766057808
  0.9699380303417322  0.4881672437442481  0.7618320869506998
  0.2854927487039959  0.7606277602899968  0.7633073238760476
  0.2238970508125262  0.0146976143805143  0.5123308558926521
  0.5036280167825127  0.7341641563058913  0.5158384701769119
  0.4952727900301671  0.0152024334815150  0.2347980495538873
  0.2238963476568121  0.7376688596139926  0.2353033021655248
  0.7754684756521267  0.9881030913803340  0.4874100340448184
  0.5041528304465730  0.2640194371376016  0.4836171587027076
  0.5032079697267767  0.9853621267364316  0.7638697873158233
  0.7665761140188362  0.2640706013466575  0.7607687036226030
  0.2154591740840744  0.5141364568589575  0.0064874422075814
  0.4946191324609965  0.2351029887840365  0.0148980976592719
  0.5210005364131779  0.5119813240769897  0.7380156149493129
  0.2154588719353462  0.2435173572545225  0.7358635644583895
  0.7665759908337242  0.4892317613136262  0.9859290381650543
  0.5041530860501374  0.7663822909533454  0.9859795627640960
  0.5032091636284757  0.4861298144694600  0.2646365502094387
  0.7754683693424723  0.7625926546417295  0.2618957339555786
 
             NaN             NaN             NaN
             NaN             NaN             NaN
             NaN             NaN             NaN
             NaN             NaN             NaN
             NaN             NaN             NaN
             NaN             NaN             NaN
             NaN             NaN             NaN
             NaN             NaN             NaN
             NaN             NaN             NaN
             NaN             NaN             NaN
             NaN             NaN             NaN
             NaN             NaN             NaN
             NaN             NaN             NaN
             NaN             NaN             NaN
             NaN             NaN             NaN
             NaN             NaN             NaN
             NaN             NaN             NaN
             NaN             NaN             NaN
             NaN             NaN             NaN
             NaN             NaN             NaN
             NaN             NaN             NaN
             NaN             NaN             NaN
             NaN             NaN             NaN
             NaN             NaN             NaN
             NaN             NaN             NaN
             NaN             NaN             NaN
             NaN             NaN             NaN
             NaN             NaN             NaN
             NaN             NaN             NaN
             NaN             NaN             NaN
             NaN             NaN             NaN
             NaN             NaN             NaN
             NaN             NaN             NaN
             NaN             NaN             NaN
             NaN             NaN             NaN
             NaN             NaN             NaN
             NaN             NaN             NaN
             NaN             NaN             NaN
             NaN             NaN             NaN
             NaN             NaN             NaN
             NaN             NaN             NaN
             NaN             NaN             NaN
             NaN             NaN             NaN
             NaN             NaN             NaN
             NaN             NaN             NaN
             NaN             NaN             NaN
             NaN             NaN             NaN
             NaN             NaN             NaN
             NaN             NaN             NaN
             NaN             NaN             NaN
             NaN             NaN             NaN
             NaN             NaN             NaN
             NaN             NaN             NaN
             NaN             NaN             NaN
             NaN             NaN             NaN
