Li7 Mn16 O32                            
   1.00000000000000     
     8.7306699999999999    0.0263140000000000   -0.0275630000000000
     0.0244940000000000    8.2138159999999996   -0.0338410000000000
    -0.0233530000000000   -0.0303960000000000    8.2138109999999998
   Li   Mn   O 
     7    16    32
Direct
  0.3336560928086600  0.4134822821644167  0.8365189825948006
  0.3599419284709485  0.8694808255757138  0.3805198715137970
  0.8660464399294848  0.8752733897624350  0.8747480025111783
  0.1370190109495174  0.1295503636998237  0.1204499106728383
  0.8660459341071179  0.3752529038902494  0.3747278316186070
  0.6346721996428938  0.1237568887558273  0.6220360096546913
  0.6346732521832741  0.6279640183624207  0.1262427718284466
  0.4985664505368819  0.2494750049463468  0.2487170303440124
  0.2490331942565863  0.5011952854934328  0.2502621100447639
  0.2483766328676049  0.2529751806150541  0.4992259575392858
  0.5045083291921226  0.4981294173468478  0.4971058638206589
  0.5045080037206215  0.7528930180114907  0.7518712301887553
  0.7488219094274132  0.4992936463676705  0.7507062670178334
  0.7561532738862576  0.7490951031530956  0.5009054527156244
  0.2490325314633214  0.9997376700344572  0.7488043852597074
  0.2483774407075404  0.7507740082594245  0.9970263225477295
  0.4985657315320282  1.0012837133929648  0.0005245481768313
  0.7489758222957665  0.9996597400512138  0.2503406585038035
  0.7449946531967356  0.2497163166639039  0.0002847200415277
  0.9928286964387769  0.2499992395237366  0.7468325867381316
  0.9928279089371226  0.5031671258677182  0.0000007599775446
  0.0001442142651360  0.7524584360265777  0.2498792154402001
  0.0001448668994539  0.0001208497187815  0.4975417435952549
  0.7228681461794385  0.0124690465405707  0.0121317362708764
  0.9944263068997778  0.7367543006008457  0.0137099938455827
  0.9969176360418865  0.0172007134849460  0.7345463299251596
  0.7316114924135433  0.7343993278846201  0.7394676456796503
  0.2746329610068587  0.9891474328653302  0.9849619702232586
  0.9962640404066465  0.2674090745881960  0.9825914778164562
  0.0021220775577954  0.9875330886525374  0.2624675811277483
  0.2746336927273232  0.2650388886610932  0.2608525071361373
  0.7316118881198388  0.5105319968566975  0.5156009012303927
  0.9944268843776104  0.2362900712273142  0.5132472903954094
  0.9969145320161827  0.5154543991312807  0.2327998814123053
  0.7228683881146784  0.2378681618350665  0.2375323670270545
  0.2857754831363858  0.4862119893139401  0.4897158158548132
  0.0023964826323395  0.7700217290427976  0.4799801869726460
  0.9701669273205826  0.4877918340054297  0.7622082190695386
  0.2857757175832203  0.7602815262719081  0.7637885337588314
  0.2242172893113096  0.0142780672784168  0.5126911456147329
  0.5037847354778957  0.7338399089162582  0.5161610698690727
  0.4957241245271767  0.0148447329354965  0.2351557427863792
  0.2242177251458280  0.7373091176104511  0.2357223772723512
  0.7757735393709417  0.9877022882215881  0.4877691598239947
  0.5044821055175868  0.2637055147828571  0.4839041148322680
  0.5035248571181437  0.9850197866800572  0.7641694815761637
  0.7668723485611495  0.2637458406256702  0.7611024082236088
  0.2157482718734367  0.5138789870618289  0.0068519558418235
  0.4951606977532383  0.2347302329245587  0.0152708291784291
  0.5212132137003864  0.5116475275361181  0.7383513085497482
  0.2157483317643774  0.2431513364375457  0.7361209682606034
  0.7668720677872413  0.4888982284427865  0.9862541260372952
  0.5044826294195447  0.7660961282465794  0.9862942983395053
  0.5035273792528170  0.4858302099372397  0.2649796066747859
  0.7757736178514855  0.7622329450859325  0.2622968259726147
 
             NaN             NaN             NaN
             NaN             NaN             NaN
             NaN             NaN             NaN
             NaN             NaN             NaN
             NaN             NaN             NaN
             NaN             NaN             NaN
             NaN             NaN             NaN
             NaN             NaN             NaN
             NaN             NaN             NaN
             NaN             NaN             NaN
             NaN             NaN             NaN
             NaN             NaN             NaN
             NaN             NaN             NaN
             NaN             NaN             NaN
             NaN             NaN             NaN
             NaN             NaN             NaN
             NaN             NaN             NaN
             NaN             NaN             NaN
             NaN             NaN             NaN
             NaN             NaN             NaN
             NaN             NaN             NaN
             NaN             NaN             NaN
             NaN             NaN             NaN
             NaN             NaN             NaN
             NaN             NaN             NaN
             NaN             NaN             NaN
             NaN             NaN             NaN
             NaN             NaN             NaN
             NaN             NaN             NaN
             NaN             NaN             NaN
             NaN             NaN             NaN
             NaN             NaN             NaN
             NaN             NaN             NaN
             NaN             NaN             NaN
             NaN             NaN             NaN
             NaN             NaN             NaN
             NaN             NaN             NaN
             NaN             NaN             NaN
             NaN             NaN             NaN
             NaN             NaN             NaN
             NaN             NaN             NaN
             NaN             NaN             NaN
             NaN             NaN             NaN
             NaN             NaN             NaN
             NaN             NaN             NaN
             NaN             NaN             NaN
             NaN             NaN             NaN
             NaN             NaN             NaN
             NaN             NaN             NaN
             NaN             NaN             NaN
             NaN             NaN             NaN
             NaN             NaN             NaN
             NaN             NaN             NaN
             NaN             NaN             NaN
             NaN             NaN             NaN
