Li16 Co18 O36                           
   1.00000000000000     
     8.0737719999999999    0.0625180000000000    2.3323980000000000
     3.6481029999999999    7.2014319999999996    2.3302529999999999
     0.0682600000000000    0.0083340000000000    9.8854480000000002
   Li   Co   O 
    16    18    36
Direct
  0.7084703891419508  0.5873002421224029  0.4935885418618184
  0.3338165194931833  0.3317703222736483  0.9995282489147357
  0.3338938818493986  0.3323589411314387  0.4992742889850916
  0.3333822653412852  0.6658169265417015  0.0004141081366953
  0.3435259487131219  0.6568927362675865  0.5008571387325560
  0.3340360188730784  0.9989499216437920  0.9989098105389189
  0.3291206659640977  0.0033268918375242  0.4983936087070404
  0.6671087996349598  0.3319577624879457  0.9995548493074722
  0.6657909623576401  0.6667748876753095  0.9993105861167706
  0.6669176174456624  0.9986674155333546  0.9986232418989260
  0.6676874850296741  0.0034558633980168  0.4981239004362976
  0.0013329323947531  0.3309676088471178  0.9993180366055086
  0.0000883731430008  0.6661412635880239  0.9997937341897725
  0.9981219834895398  0.6563452367708749  0.5002713547902005
  0.0007615380419352  0.9985833428883453  0.9997031324378653
  0.9824991650974866  0.0342825504663509  0.4993124062764949
  0.1678643489473615  0.1689800251393834  0.2485694715086240
  0.1673209716125967  0.1640765579297039  0.7480634450027424
  0.1656981880508752  0.5004754157850329  0.2487571209743180
  0.1664994890488387  0.4974755994534519  0.7548749038524178
  0.1659962237563732  0.8345577982305130  0.2498327601199364
  0.1674598759846617  0.8295256923586223  0.7521422532685591
  0.5013930540823068  0.1688388638914162  0.2450665960915970
  0.5013275576088390  0.1642908547204485  0.7488637575324901
  0.5004738356500908  0.5006175292991060  0.2492212226473356
  0.5002907333659294  0.4960334389165411  0.7524710987711956
  0.5005961513698907  0.8360346807733947  0.2486120562307548
  0.5013132661675499  0.8293391130642718  0.7484123471787143
  0.8329581172857132  0.1687671330479148  0.2482945835075085
  0.8349229372318661  0.1631112213958872  0.7507805291561880
  0.8331625149447177  0.4999956368769247  0.2468135654208581
  0.8356186959955139  0.4961182788615304  0.7524575007810199
  0.8327141952053125  0.8354463260422094  0.2469147895827177
  0.8342947090056470  0.8289751088283879  0.7510287533406697
  0.2590347309130507  0.2541738741875008  0.3525487553206119
  0.2546774283779101  0.2488224215796606  0.8598097122871593
  0.2530018755665253  0.5873706453128307  0.3581219131665065
  0.2538906293555172  0.5840562617939327  0.8638463738246642
  0.2533024071399907  0.9230409224199292  0.3575359681519217
  0.2550485007996954  0.9179523984533162  0.8588975006255382
  0.5863128291897581  0.2539305861050707  0.3524134171959545
  0.5871539464754818  0.2491853134812914  0.8606405402915414
  0.5867072460118337  0.5915151616775489  0.3530349134661037
  0.5870081327258205  0.5848490157831421  0.8607934326771201
  0.5867500810358237  0.9257697857483365  0.3537472881306059
  0.5864940404139034  0.9174404708070583  0.8581890370884793
  0.9227259194409001  0.2560914624573059  0.3484635514135377
  0.9228046731127009  0.2491066571788139  0.8606560823109604
  0.9191088155570739  0.5914287601721639  0.3520672582015152
  0.9191676391730752  0.5840574859340890  0.8635873771578062
  0.9188041760778134  0.9226859194778996  0.3568624488894372
  0.9202392946786588  0.9168756400713463  0.8609628501162518
  0.0809679046415752  0.0800374524059535  0.1396466862402832
  0.0812854024177980  0.0717451178697672  0.6450948334097788
  0.0807071983135401  0.4138446895261083  0.1379869185734250
  0.0815606859851314  0.4118067614221346  0.6467540389571838
  0.0805354065015251  0.7473171273713319  0.1393699622198241
  0.0811755902808500  0.7410198565502668  0.6448308121334989
  0.4138074163684422  0.0809733280932150  0.1366600100645599
  0.4146430702905235  0.0766751715571417  0.6393831128795355
  0.4127932387375424  0.4160026820610270  0.1381842265940136
  0.4089800835491317  0.4115409729953967  0.6470812441713036
  0.4127958703949872  0.7477304742071595  0.1402626645813783
  0.4134205004290976  0.7406788241930897  0.6429754133175720
  0.7488507186052615  0.0811104446989575  0.1360616285697205
  0.7490209551525453  0.0721201095896191  0.6453985497339474
  0.7459510316755740  0.4138776492088496  0.1378154817511046
  0.7456751045929622  0.4064897211502867  0.6539876926212145
  0.7463884346884910  0.7479112999623112  0.1376220955884975
  0.7492101194630365  0.7404890122010386  0.6425786862670506
 
  0.00000000E+00  0.00000000E+00  0.00000000E+00
  0.00000000E+00  0.00000000E+00  0.00000000E+00
  0.00000000E+00  0.00000000E+00  0.00000000E+00
  0.00000000E+00  0.00000000E+00  0.00000000E+00
  0.00000000E+00  0.00000000E+00  0.00000000E+00
  0.00000000E+00  0.00000000E+00  0.00000000E+00
  0.00000000E+00  0.00000000E+00  0.00000000E+00
  0.00000000E+00  0.00000000E+00  0.00000000E+00
  0.00000000E+00  0.00000000E+00  0.00000000E+00
  0.00000000E+00  0.00000000E+00  0.00000000E+00
  0.00000000E+00  0.00000000E+00  0.00000000E+00
  0.00000000E+00  0.00000000E+00  0.00000000E+00
  0.00000000E+00  0.00000000E+00  0.00000000E+00
  0.00000000E+00  0.00000000E+00  0.00000000E+00
  0.00000000E+00  0.00000000E+00  0.00000000E+00
  0.00000000E+00  0.00000000E+00  0.00000000E+00
  0.00000000E+00  0.00000000E+00  0.00000000E+00
  0.00000000E+00  0.00000000E+00  0.00000000E+00
  0.00000000E+00  0.00000000E+00  0.00000000E+00
  0.00000000E+00  0.00000000E+00  0.00000000E+00
  0.00000000E+00  0.00000000E+00  0.00000000E+00
  0.00000000E+00  0.00000000E+00  0.00000000E+00
  0.00000000E+00  0.00000000E+00  0.00000000E+00
  0.00000000E+00  0.00000000E+00  0.00000000E+00
  0.00000000E+00  0.00000000E+00  0.00000000E+00
  0.00000000E+00  0.00000000E+00  0.00000000E+00
  0.00000000E+00  0.00000000E+00  0.00000000E+00
  0.00000000E+00  0.00000000E+00  0.00000000E+00
  0.00000000E+00  0.00000000E+00  0.00000000E+00
  0.00000000E+00  0.00000000E+00  0.00000000E+00
  0.00000000E+00  0.00000000E+00  0.00000000E+00
  0.00000000E+00  0.00000000E+00  0.00000000E+00
  0.00000000E+00  0.00000000E+00  0.00000000E+00
  0.00000000E+00  0.00000000E+00  0.00000000E+00
  0.00000000E+00  0.00000000E+00  0.00000000E+00
  0.00000000E+00  0.00000000E+00  0.00000000E+00
  0.00000000E+00  0.00000000E+00  0.00000000E+00
  0.00000000E+00  0.00000000E+00  0.00000000E+00
  0.00000000E+00  0.00000000E+00  0.00000000E+00
  0.00000000E+00  0.00000000E+00  0.00000000E+00
  0.00000000E+00  0.00000000E+00  0.00000000E+00
  0.00000000E+00  0.00000000E+00  0.00000000E+00
  0.00000000E+00  0.00000000E+00  0.00000000E+00
  0.00000000E+00  0.00000000E+00  0.00000000E+00
  0.00000000E+00  0.00000000E+00  0.00000000E+00
  0.00000000E+00  0.00000000E+00  0.00000000E+00
  0.00000000E+00  0.00000000E+00  0.00000000E+00
  0.00000000E+00  0.00000000E+00  0.00000000E+00
  0.00000000E+00  0.00000000E+00  0.00000000E+00
  0.00000000E+00  0.00000000E+00  0.00000000E+00
  0.00000000E+00  0.00000000E+00  0.00000000E+00
  0.00000000E+00  0.00000000E+00  0.00000000E+00
  0.00000000E+00  0.00000000E+00  0.00000000E+00
  0.00000000E+00  0.00000000E+00  0.00000000E+00
  0.00000000E+00  0.00000000E+00  0.00000000E+00
  0.00000000E+00  0.00000000E+00  0.00000000E+00
  0.00000000E+00  0.00000000E+00  0.00000000E+00
  0.00000000E+00  0.00000000E+00  0.00000000E+00
  0.00000000E+00  0.00000000E+00  0.00000000E+00
  0.00000000E+00  0.00000000E+00  0.00000000E+00
  0.00000000E+00  0.00000000E+00  0.00000000E+00
  0.00000000E+00  0.00000000E+00  0.00000000E+00
  0.00000000E+00  0.00000000E+00  0.00000000E+00
  0.00000000E+00  0.00000000E+00  0.00000000E+00
  0.00000000E+00  0.00000000E+00  0.00000000E+00
  0.00000000E+00  0.00000000E+00  0.00000000E+00
  0.00000000E+00  0.00000000E+00  0.00000000E+00
  0.00000000E+00  0.00000000E+00  0.00000000E+00
  0.00000000E+00  0.00000000E+00  0.00000000E+00
  0.00000000E+00  0.00000000E+00  0.00000000E+00
