Li48 P16 O64                            
   1.00000000000000     
    10.6314391025433377   -0.0033911280619967   -0.0085831449788754
    -0.0039199367777657   12.3358843544186634   -0.0050592924623580
    -0.0080491874809183   -0.0040449504703185   10.0331234178018338
   Li   P    O 
    47    16    64
Direct
  0.4350376701755889  0.3666944650211935  0.0974429944522068
  0.6617174083079014  0.2533277604353246  0.6028383121922281
  0.6633871246574418  0.7504958136845227  0.0985282261306410
  0.6631369226806849  0.7520238254645415  0.5996264254270242
  0.1646766477406690  0.4979649682916396  0.1509315010569027
  0.1632762682350462  0.4994374719176082  0.6509595657550479
  0.1631272867006129  0.9958211992852771  0.1520867950964652
  0.1637526139065411  0.9989521765933377  0.6506724411630228
  0.3368142711355731  0.0011483020457513  0.4009808504738663
  0.3377171202140571  0.0014581409045915  0.9031632081220260
  0.3370481598530859  0.5006433436037755  0.3998337776883893
  0.3380926232966956  0.4993527452553090  0.9013768330913660
  0.8313198598642638  0.2492145945350571  0.3433084795065877
  0.8347411283559824  0.2488193962569561  0.8554847792339656
  0.8362582043494784  0.7489788262629756  0.3490061669987050
  0.8362697930843869  0.7490947931219003  0.8494040368186806
  0.3366002703780638  0.2496189412042104  0.4003981954757950
  0.3375408139748609  0.2480073216411605  0.9004472840675738
  0.3371111567037144  0.7491159828541378  0.4005063408804381
  0.3374461343273445  0.7495621524791168  0.9017002500561679
  0.8366882427413082  0.0021146839851518  0.3480638299428774
  0.8369954773369841  0.0024196869488142  0.8503168035129884
  0.8335978518158332  0.5002574764104455  0.3500039487906433
  0.8355546163916596  0.4996412333933952  0.8496341854857246
  0.6633430838451143  0.4922789966999539  0.0966269106984027
  0.6622081058207722  0.5014339192137359  0.5983818566428013
  0.6655390890225307  0.0037717158086412  0.1015579452543989
  0.6627715425486864  0.0015695332221123  0.5994546678231021
  0.1637414775118881  0.2490629153262587  0.1493229664896049
  0.1631613267306211  0.2504230333229689  0.6507197488634290
  0.1640761017997545  0.7500596450802529  0.1507965436865013
  0.1632969097755673  0.7508650858089881  0.6515871659913163
  0.9239812598383328  0.3731139054917298  0.1480294572075146
  0.9255171508804034  0.3739991140099916  0.6487653611499187
  0.9259477239616873  0.8760682669285271  0.1488841059298202
  0.9253222782595744  0.8759146816795533  0.6494291960056233
  0.4233209355472561  0.3760236248098927  0.5996133454632833
  0.4273653178064913  0.8763944002406865  0.1014807426379750
  0.4267766760622722  0.8761436467932572  0.6013910752681400
  0.0734033360277038  0.1253039007016389  0.3482833086486614
  0.0745024238601070  0.1247976066790081  0.8523448513900120
  0.0731061016660544  0.6240022460081417  0.3506731499850857
  0.0738733093363164  0.6242635171384217  0.8514072603271317
  0.5740312206777992  0.1295736514237565  0.3929360046748697
  0.5771857381741050  0.1327745385395423  0.9111739963694516
  0.5738620039031933  0.6245390607077053  0.3989446419393666
  0.5742869210783248  0.6231980722268351  0.8990822983398957
  0.9158650476075113  0.1252385426568818  0.0982397171907621
  0.9114358656646098  0.1254732056180016  0.5963629343839841
  0.9109585712680562  0.6247224980145848  0.0969873018558689
  0.9108495399010034  0.6251710521372675  0.5972304542764140
  0.4086178659430613  0.1214113618765224  0.1526783240522803
  0.4110002738183507  0.1246703708983403  0.6533112845057421
  0.4116371331594816  0.6244655465997400  0.1519764977863024
  0.4101722380726735  0.6267516527160911  0.6534160094148214
  0.0879954863440935  0.3755479416952541  0.4033932786106055
  0.0894173318283878  0.3750690713826940  0.9028826486628481
  0.0884488670603037  0.8741782910708664  0.4042188366688746
  0.0890205446888239  0.8741266657815252  0.9028862712714497
  0.5867993211277701  0.3778520039061419  0.3492776096700551
  0.5884588774955075  0.3743027351864776  0.8407749320643564
  0.5897826245620374  0.8752493898527491  0.3469646961432873
  0.5901327202078538  0.8756794239988924  0.8476312272371829
  0.8445519942842549  0.0218489739310477  0.1491565315327354
  0.8413644359523786  0.0221027755580983  0.6477487207753163
  0.8410064701519926  0.5218490626676439  0.1480286248156383
  0.8412980116593253  0.5221084226400611  0.6487114846055420
  0.3393993232420329  0.2248980600680229  0.0996245918103423
  0.3393651920337394  0.2273338032285736  0.6027108318866446
  0.3416495065214664  0.7284621140865757  0.1018876085860333
  0.3405088632840212  0.7305955954241322  0.6031578629846447
  0.1572745858483683  0.2723048715327166  0.3513837406830774
  0.1591285645574957  0.2719192589230719  0.8512549722917887
  0.1583198283812035  0.7708509500837668  0.3527546683355245
  0.1588241712121155  0.7707103948920385  0.8517740272472969
  0.6578431038208680  0.4806814670471347  0.4037674959214064
  0.6587814443821797  0.4768289258952484  0.8959558496363382
  0.6591901929966039  0.9787794249981405  0.3980503410209413
  0.6612540969057202  0.9777166054306963  0.8991803181531198
  0.1585402363583260  0.4787616458225405  0.3522917499943985
  0.1593369562874196  0.4784887800301499  0.8516019963217747
  0.1586058895706417  0.9772598001716050  0.3541207610327922
  0.1593631454906425  0.9770788281736767  0.8519290766655593
  0.6573559082698393  0.2747878651674157  0.4008249530624152
  0.6588789956053382  0.2695333590961614  0.8768935443341882
  0.6595702531746190  0.7720143928089924  0.3989420202282433
  0.6589694425398287  0.7711067061630574  0.8972890340094984
  0.8551871211310372  0.2290365971809214  0.1522742970380592
  0.8426557491850202  0.2287524311720812  0.6476197614517550
  0.8417014291677720  0.7284387691548810  0.1479782989492277
  0.8410938705948312  0.7285977162478621  0.6482548772530746
  0.3351292786198657  0.0179502028576166  0.1048349350204367
  0.3410490839134910  0.0208655044968890  0.6021872417295036
  0.3410444750300091  0.5217450399931751  0.1006300521633416
  0.3391036652571137  0.5245279421957945  0.6011766546901389
  0.5437272234167571  0.1164392980149237  0.1005869875313598
  0.5477244476214391  0.1255303019981142  0.5987158943321174
  0.5492125737412294  0.6249979514606422  0.0993482075583976
  0.5477489140510575  0.6278040342194728  0.6011375165215513
  0.0559037885613864  0.1196071318201834  0.1462019950203134
  0.0495873710319442  0.1243659096300889  0.6488425222094730
  0.0491505615808296  0.6246261993765678  0.1489639115018380
  0.0488645586933271  0.6253177065079115  0.6494469053526478
  0.4492581443409195  0.3760390159856268  0.4051287182037571
  0.4514075070444600  0.3736242691067098  0.8968774815656123
  0.4517531116759038  0.8747879959653947  0.3989883686296544
  0.4521909080693038  0.8753828982984614  0.8998530377041033
  0.9498336291168396  0.3768911599140188  0.3531689821136361
  0.9515639077397128  0.3753623346329460  0.8506481681665329
  0.9506575440375536  0.8743062991441866  0.3515945529783103
  0.9512061839750864  0.8745311527640794  0.8501332365226859
  0.5833394808617886  0.3833617579937020  0.1966070155057066
  0.5833814633172055  0.3823151350264833  0.6851087960321403
  0.5908122421664704  0.8744191995278744  0.1914270877954571
  0.5897662916168507  0.8760595578598588  0.6916248864615920
  0.0902295320900894  0.3751191949324377  0.0584479395685540
  0.0901341817166746  0.3753072510719815  0.5593580191759582
  0.0886853004549316  0.8728626435541548  0.0584772674528142
  0.0884260943158700  0.8738663632001797  0.5599781608644178
  0.4070190579925785  0.1245858467914841  0.3090336272327749
  0.4114743552001921  0.1241359719017558  0.8088589531048700
  0.4111648893392204  0.6250776145661087  0.3079535383038985
  0.4101703722545687  0.6255264928835071  0.8091514475551608
  0.9110052793790686  0.1251153257606948  0.4406616183933365
  0.9132821299226973  0.1242913303424076  0.9419019230844159
  0.9103997311304205  0.6252304890094091  0.4414895731910372
  0.9105539290022748  0.6248757467489839  0.9411028801346668
 
  0.00000000E+00  0.00000000E+00  0.00000000E+00
  0.00000000E+00  0.00000000E+00  0.00000000E+00
  0.00000000E+00  0.00000000E+00  0.00000000E+00
  0.00000000E+00  0.00000000E+00  0.00000000E+00
  0.00000000E+00  0.00000000E+00  0.00000000E+00
  0.00000000E+00  0.00000000E+00  0.00000000E+00
  0.00000000E+00  0.00000000E+00  0.00000000E+00
  0.00000000E+00  0.00000000E+00  0.00000000E+00
  0.00000000E+00  0.00000000E+00  0.00000000E+00
  0.00000000E+00  0.00000000E+00  0.00000000E+00
  0.00000000E+00  0.00000000E+00  0.00000000E+00
  0.00000000E+00  0.00000000E+00  0.00000000E+00
  0.00000000E+00  0.00000000E+00  0.00000000E+00
  0.00000000E+00  0.00000000E+00  0.00000000E+00
  0.00000000E+00  0.00000000E+00  0.00000000E+00
  0.00000000E+00  0.00000000E+00  0.00000000E+00
  0.00000000E+00  0.00000000E+00  0.00000000E+00
  0.00000000E+00  0.00000000E+00  0.00000000E+00
  0.00000000E+00  0.00000000E+00  0.00000000E+00
  0.00000000E+00  0.00000000E+00  0.00000000E+00
  0.00000000E+00  0.00000000E+00  0.00000000E+00
  0.00000000E+00  0.00000000E+00  0.00000000E+00
  0.00000000E+00  0.00000000E+00  0.00000000E+00
  0.00000000E+00  0.00000000E+00  0.00000000E+00
  0.00000000E+00  0.00000000E+00  0.00000000E+00
  0.00000000E+00  0.00000000E+00  0.00000000E+00
  0.00000000E+00  0.00000000E+00  0.00000000E+00
  0.00000000E+00  0.00000000E+00  0.00000000E+00
  0.00000000E+00  0.00000000E+00  0.00000000E+00
  0.00000000E+00  0.00000000E+00  0.00000000E+00
  0.00000000E+00  0.00000000E+00  0.00000000E+00
  0.00000000E+00  0.00000000E+00  0.00000000E+00
  0.00000000E+00  0.00000000E+00  0.00000000E+00
  0.00000000E+00  0.00000000E+00  0.00000000E+00
  0.00000000E+00  0.00000000E+00  0.00000000E+00
  0.00000000E+00  0.00000000E+00  0.00000000E+00
  0.00000000E+00  0.00000000E+00  0.00000000E+00
  0.00000000E+00  0.00000000E+00  0.00000000E+00
  0.00000000E+00  0.00000000E+00  0.00000000E+00
  0.00000000E+00  0.00000000E+00  0.00000000E+00
  0.00000000E+00  0.00000000E+00  0.00000000E+00
  0.00000000E+00  0.00000000E+00  0.00000000E+00
  0.00000000E+00  0.00000000E+00  0.00000000E+00
  0.00000000E+00  0.00000000E+00  0.00000000E+00
  0.00000000E+00  0.00000000E+00  0.00000000E+00
  0.00000000E+00  0.00000000E+00  0.00000000E+00
  0.00000000E+00  0.00000000E+00  0.00000000E+00
  0.00000000E+00  0.00000000E+00  0.00000000E+00
  0.00000000E+00  0.00000000E+00  0.00000000E+00
  0.00000000E+00  0.00000000E+00  0.00000000E+00
  0.00000000E+00  0.00000000E+00  0.00000000E+00
  0.00000000E+00  0.00000000E+00  0.00000000E+00
  0.00000000E+00  0.00000000E+00  0.00000000E+00
  0.00000000E+00  0.00000000E+00  0.00000000E+00
  0.00000000E+00  0.00000000E+00  0.00000000E+00
  0.00000000E+00  0.00000000E+00  0.00000000E+00
  0.00000000E+00  0.00000000E+00  0.00000000E+00
  0.00000000E+00  0.00000000E+00  0.00000000E+00
  0.00000000E+00  0.00000000E+00  0.00000000E+00
  0.00000000E+00  0.00000000E+00  0.00000000E+00
  0.00000000E+00  0.00000000E+00  0.00000000E+00
  0.00000000E+00  0.00000000E+00  0.00000000E+00
  0.00000000E+00  0.00000000E+00  0.00000000E+00
  0.00000000E+00  0.00000000E+00  0.00000000E+00
  0.00000000E+00  0.00000000E+00  0.00000000E+00
  0.00000000E+00  0.00000000E+00  0.00000000E+00
  0.00000000E+00  0.00000000E+00  0.00000000E+00
  0.00000000E+00  0.00000000E+00  0.00000000E+00
  0.00000000E+00  0.00000000E+00  0.00000000E+00
  0.00000000E+00  0.00000000E+00  0.00000000E+00
  0.00000000E+00  0.00000000E+00  0.00000000E+00
  0.00000000E+00  0.00000000E+00  0.00000000E+00
  0.00000000E+00  0.00000000E+00  0.00000000E+00
  0.00000000E+00  0.00000000E+00  0.00000000E+00
  0.00000000E+00  0.00000000E+00  0.00000000E+00
  0.00000000E+00  0.00000000E+00  0.00000000E+00
  0.00000000E+00  0.00000000E+00  0.00000000E+00
  0.00000000E+00  0.00000000E+00  0.00000000E+00
  0.00000000E+00  0.00000000E+00  0.00000000E+00
  0.00000000E+00  0.00000000E+00  0.00000000E+00
  0.00000000E+00  0.00000000E+00  0.00000000E+00
  0.00000000E+00  0.00000000E+00  0.00000000E+00
  0.00000000E+00  0.00000000E+00  0.00000000E+00
  0.00000000E+00  0.00000000E+00  0.00000000E+00
  0.00000000E+00  0.00000000E+00  0.00000000E+00
  0.00000000E+00  0.00000000E+00  0.00000000E+00
  0.00000000E+00  0.00000000E+00  0.00000000E+00
  0.00000000E+00  0.00000000E+00  0.00000000E+00
  0.00000000E+00  0.00000000E+00  0.00000000E+00
  0.00000000E+00  0.00000000E+00  0.00000000E+00
  0.00000000E+00  0.00000000E+00  0.00000000E+00
  0.00000000E+00  0.00000000E+00  0.00000000E+00
  0.00000000E+00  0.00000000E+00  0.00000000E+00
  0.00000000E+00  0.00000000E+00  0.00000000E+00
  0.00000000E+00  0.00000000E+00  0.00000000E+00
  0.00000000E+00  0.00000000E+00  0.00000000E+00
  0.00000000E+00  0.00000000E+00  0.00000000E+00
  0.00000000E+00  0.00000000E+00  0.00000000E+00
  0.00000000E+00  0.00000000E+00  0.00000000E+00
  0.00000000E+00  0.00000000E+00  0.00000000E+00
  0.00000000E+00  0.00000000E+00  0.00000000E+00
  0.00000000E+00  0.00000000E+00  0.00000000E+00
  0.00000000E+00  0.00000000E+00  0.00000000E+00
  0.00000000E+00  0.00000000E+00  0.00000000E+00
  0.00000000E+00  0.00000000E+00  0.00000000E+00
  0.00000000E+00  0.00000000E+00  0.00000000E+00
  0.00000000E+00  0.00000000E+00  0.00000000E+00
  0.00000000E+00  0.00000000E+00  0.00000000E+00
  0.00000000E+00  0.00000000E+00  0.00000000E+00
  0.00000000E+00  0.00000000E+00  0.00000000E+00
  0.00000000E+00  0.00000000E+00  0.00000000E+00
  0.00000000E+00  0.00000000E+00  0.00000000E+00
  0.00000000E+00  0.00000000E+00  0.00000000E+00
  0.00000000E+00  0.00000000E+00  0.00000000E+00
  0.00000000E+00  0.00000000E+00  0.00000000E+00
  0.00000000E+00  0.00000000E+00  0.00000000E+00
  0.00000000E+00  0.00000000E+00  0.00000000E+00
  0.00000000E+00  0.00000000E+00  0.00000000E+00
  0.00000000E+00  0.00000000E+00  0.00000000E+00
  0.00000000E+00  0.00000000E+00  0.00000000E+00
  0.00000000E+00  0.00000000E+00  0.00000000E+00
  0.00000000E+00  0.00000000E+00  0.00000000E+00
  0.00000000E+00  0.00000000E+00  0.00000000E+00
  0.00000000E+00  0.00000000E+00  0.00000000E+00
  0.00000000E+00  0.00000000E+00  0.00000000E+00
  0.00000000E+00  0.00000000E+00  0.00000000E+00
  0.00000000E+00  0.00000000E+00  0.00000000E+00
