Li46 P16 O64
1.0
10.583648 -0.001918 -0.008857
-0.002241 12.344238 -0.005042
-0.008338 -0.004085 9.983909
Li P O
46 16 64
direct
0.225780 0.253205 0.143582 Li
0.665778 0.248316 0.605509 Li
0.663972 0.749846 0.099006 Li
0.664435 0.752034 0.599875 Li
0.164282 0.496682 0.151215 Li
0.163987 0.500009 0.651932 Li
0.162734 0.994106 0.154034 Li
0.164153 0.998490 0.651836 Li
0.336565 0.000281 0.401448 Li
0.336871 0.000786 0.900600 Li
0.336346 0.501657 0.399448 Li
0.337868 0.497248 0.907732 Li
0.836972 0.248869 0.347845 Li
0.835977 0.249422 0.853516 Li
0.836788 0.748872 0.349589 Li
0.836749 0.749004 0.849353 Li
0.336427 0.250222 0.397402 Li
0.337893 0.252466 0.905571 Li
0.336645 0.749927 0.400431 Li
0.336669 0.749728 0.901749 Li
0.837527 0.001225 0.350138 Li
0.837375 0.001525 0.849196 Li
0.836120 0.501946 0.347772 Li
0.835269 0.500790 0.849684 Li
0.656439 0.492017 0.094596 Li
0.666785 0.504390 0.596960 Li
0.667107 1.000387 0.099749 Li
0.664323 1.000000 0.599109 Li
0.163625 0.250940 0.651311 Li
0.163102 0.749932 0.151163 Li
0.164094 0.751136 0.651953 Li
0.922945 0.375428 0.147055 Li
0.924741 0.375271 0.649574 Li
0.924509 0.873934 0.149600 Li
0.925699 0.875063 0.649293 Li
0.421012 0.376410 0.610909 Li
0.430370 0.874156 0.101039 Li
0.426537 0.875507 0.601248 Li
0.076401 0.125161 0.350712 Li
0.076515 0.125474 0.853256 Li
0.074428 0.624343 0.351052 Li
0.074867 0.624355 0.852712 Li
0.574547 0.125445 0.395926 Li
0.575152 0.129841 0.904725 Li
0.574210 0.626712 0.399151 Li
0.573232 0.624624 0.898510 Li
0.914393 0.124245 0.097988 P
0.913064 0.124706 0.597127 P
0.909468 0.624301 0.097064 P
0.912305 0.625705 0.597153 P
0.407687 0.119050 0.152854 P
0.411214 0.125041 0.653150 P
0.410024 0.628538 0.152617 P
0.410811 0.626354 0.653703 P
0.088328 0.375480 0.404482 P
0.087438 0.375529 0.902994 P
0.088593 0.874272 0.404524 P
0.088497 0.874474 0.904147 P
0.589381 0.376390 0.351511 P
0.587605 0.375570 0.835227 P
0.590364 0.875399 0.347107 P
0.589966 0.875631 0.846688 P
0.842907 0.021863 0.149498 O
0.842221 0.021728 0.648079 O
0.837748 0.521568 0.147087 O
0.842537 0.522791 0.649202 O
0.332948 0.215221 0.094142 O
0.341310 0.228131 0.600649 O
0.344177 0.735669 0.105979 O
0.341479 0.729994 0.602348 O
0.157443 0.271636 0.354300 O
0.157473 0.272249 0.852072 O
0.158269 0.771054 0.352742 O
0.158776 0.771275 0.853158 O
0.659417 0.479805 0.401833 O
0.655602 0.476483 0.895266 O
0.659778 0.979018 0.398532 O
0.660229 0.978499 0.898683 O
0.158895 0.478086 0.352766 O
0.157744 0.478430 0.851432 O
0.158855 0.977420 0.353650 O
0.159128 0.977634 0.853674 O
0.659305 0.272784 0.401148 O
0.655714 0.269811 0.877322 O
0.659904 0.772252 0.399462 O
0.658957 0.771771 0.897688 O
0.852929 0.228865 0.152880 O
0.843491 0.227904 0.648704 O
0.840464 0.728088 0.148551 O
0.841994 0.728936 0.648112 O
0.339633 0.012851 0.106476 O
0.341471 0.021565 0.601502 O
0.331901 0.533144 0.096939 O
0.340832 0.523675 0.600472 O
0.543852 0.116230 0.097635 O
0.549503 0.125356 0.599902 O
0.548188 0.625104 0.099543 O
0.549584 0.627010 0.602023 O
0.053812 0.120531 0.148102 O
0.051497 0.124194 0.649603 O
0.047785 0.623730 0.150105 O
0.050888 0.625964 0.648976 O
0.451020 0.376017 0.403106 O
0.445688 0.374484 0.870558 O
0.451609 0.875321 0.398334 O
0.451284 0.875774 0.898095 O
0.949555 0.376067 0.352898 O
0.948746 0.375339 0.850505 O
0.950048 0.874690 0.352164 O
0.950257 0.874939 0.850956 O
0.588227 0.374033 0.196527 O
0.595545 0.380400 0.678601 O
0.592773 0.874891 0.190794 O
0.590720 0.876081 0.690279 O
0.086561 0.376197 0.058954 O
0.089344 0.375790 0.560886 O
0.087522 0.873476 0.060457 O
0.089342 0.874412 0.560854 O
0.409018 0.124336 0.308860 O
0.410465 0.124994 0.809117 O
0.411401 0.625694 0.309200 O
0.409577 0.625495 0.809899 O
0.912275 0.125008 0.440770 O
0.911667 0.124722 0.941698 O
0.910949 0.625116 0.440728 O
0.909706 0.624890 0.940561 O
