Li7 Mn16 O32                            
   1.00000000000000     
     8.7307190000000006    0.0174300000000000   -0.0186920000000000
     0.0161980000000000    8.2138279999999995   -0.0339260000000000
    -0.0150380000000000   -0.0304840000000000    8.2138120000000008
   Li   Mn   O 
     7    16    32
Direct
  0.3061688693858847  0.4495280559633223  0.8004759840553572
  0.3606499700801561  0.8687774924691173  0.3812223479820639
  0.8663195765583992  0.8751558542483019  0.8753519504261021
  0.1374672253881921  0.1309358572259260  0.1190646057746173
  0.8663179464944333  0.3746478946716993  0.3748445543745303
  0.6338151321775327  0.1241998370587531  0.6224514818168677
  0.6338173573486284  0.6275470200579261  0.1257988949271852
  0.4988909492298814  0.2487584519816639  0.2489653398894350
  0.2494553861515912  0.5007578749284277  0.2503261723891838
  0.2487086014367715  0.2520884851979810  0.4994984169788740
  0.5055165942462825  0.4978620366207301  0.4972422694125055
  0.5055176091357230  0.7527579752765389  0.7521392949115039
  0.7487966680187772  0.4992457017873134  0.7507533579926556
  0.7562104663846889  0.7490371268121042  0.5009646858654561
  0.2494551243943595  0.9996752733894441  0.7492418102097683
  0.2487096518672216  0.7505015412396424  0.9979150184583800
  0.4988892962000117  0.0010375922879924  0.0012422812556524
  0.7492961430083915  0.9995736741732382  0.2504247086212738
  0.7444010131839220  0.2497153896490775  0.0002831263581857
  0.9925508955072705  0.2496705347736688  0.7466752237886294
  0.9925498555785461  0.5033233972352660  0.0003316612366721
  0.0003516872790078  0.7520641967993000  0.2502945381294525
  0.0003531482150281  0.9997052214677666  0.4979353195495484
  0.7231563088535842  0.0120204042464980  0.0123746923230443
  0.9943614239175983  0.7369293528975275  0.0143750059896141
  0.9979211399234205  0.0169386281218957  0.7350291219555086
  0.7321818360208745  0.7346017189876394  0.7395896552283495
  0.2743840884465033  0.9886641722457815  0.9845447903125789
  0.9955659247564946  0.2674841923385429  0.9825149935153201
  0.0029461087159334  0.9871610599180627  0.2628386477388070
  0.2743860160460292  0.2654544328638141  0.2613358839124648
  0.7321831177223380  0.5104141966910892  0.5153964346628775
  0.9943610546952532  0.2356236221344680  0.5130682126150482
  0.9979145108809371  0.5149716287572503  0.2330603055569434
  0.7231578599516557  0.2376230062582952  0.2379826848858168
  0.2866351109120758  0.4853975956568413  0.4939276147124768
  0.0024434553027318  0.7696324148132505  0.4803667790347734
  0.9707534468200025  0.4878018810845059  0.7621976894419099
  0.2866343896502855  0.7560640751430328  0.7646057030774824
  0.2247346810847973  0.0134230788977949  0.5139412851639623
  0.5045071330552522  0.7337490308554283  0.5162526336790872
  0.4956487271383953  0.0140247664572308  0.2359758825303148
  0.2247330764941771  0.7360598970981486  0.2365773961471979
  0.7761186697694393  0.9876143591396603  0.4880021149597562
  0.5047167090435034  0.2635418891706515  0.4843353287789420
  0.5023597055723167  0.9847595894006511  0.7642424604338371
  0.7664969499452579  0.2637756123840406  0.7610734461853198
  0.2145380456400216  0.5145427351703982  0.0047415506815052
  0.4968029681100431  0.2324663794935616  0.0175354490121271
  0.5214698179553711  0.5121687986274710  0.7378310733446194
  0.2145376623587046  0.2452705698117073  0.7354555212336322
  0.7664966879247702  0.4889233660065357  0.9862226583536298
  0.5047164721017720  0.7656670238790777  0.9864611995875393
  0.5023666301076448  0.4857576470865639  0.2652400457634965
  0.7761169884284664  0.7620020610012327  0.2623833402301882
 
             NaN             NaN             NaN
             NaN             NaN             NaN
             NaN             NaN             NaN
             NaN             NaN             NaN
             NaN             NaN             NaN
             NaN             NaN             NaN
             NaN             NaN             NaN
             NaN             NaN             NaN
             NaN             NaN             NaN
             NaN             NaN             NaN
             NaN             NaN             NaN
             NaN             NaN             NaN
             NaN             NaN             NaN
             NaN             NaN             NaN
             NaN             NaN             NaN
             NaN             NaN             NaN
             NaN             NaN             NaN
             NaN             NaN             NaN
             NaN             NaN             NaN
             NaN             NaN             NaN
             NaN             NaN             NaN
             NaN             NaN             NaN
             NaN             NaN             NaN
             NaN             NaN             NaN
             NaN             NaN             NaN
             NaN             NaN             NaN
             NaN             NaN             NaN
             NaN             NaN             NaN
             NaN             NaN             NaN
             NaN             NaN             NaN
             NaN             NaN             NaN
             NaN             NaN             NaN
             NaN             NaN             NaN
             NaN             NaN             NaN
             NaN             NaN             NaN
             NaN             NaN             NaN
             NaN             NaN             NaN
             NaN             NaN             NaN
             NaN             NaN             NaN
             NaN             NaN             NaN
             NaN             NaN             NaN
             NaN             NaN             NaN
             NaN             NaN             NaN
             NaN             NaN             NaN
             NaN             NaN             NaN
             NaN             NaN             NaN
             NaN             NaN             NaN
             NaN             NaN             NaN
             NaN             NaN             NaN
             NaN             NaN             NaN
             NaN             NaN             NaN
             NaN             NaN             NaN
             NaN             NaN             NaN
             NaN             NaN             NaN
             NaN             NaN             NaN
