Li7 Mn16 O32                            
   1.00000000000000     
     8.7307190000000006    0.0174300000000000   -0.0186920000000000
     0.0161980000000000    8.2138279999999995   -0.0339260000000000
    -0.0150380000000000   -0.0304840000000000    8.2138120000000008
   Li   Mn   O 
     7    16    32
Direct
  0.3047354113873769  0.4509180376022836  0.7990859360035207
  0.3607366597164380  0.8688575274217089  0.3811432198825043
  0.8663617663747485  0.8749849920539572  0.8753766867730906
  0.1375251315703085  0.1308087024271282  0.1191921123295919
  0.8663608876304649  0.3746237710754987  0.3750165853829858
  0.6338619520312687  0.1242085986481675  0.6225153577275551
  0.6338646363693843  0.6274839649203696  0.1257895183379843
  0.4990778266766144  0.2486952979069868  0.2489668851617527
  0.2495380292496243  0.5006785072796651  0.2502899268707097
  0.2487691435795035  0.2519008170445026  0.4994838302249178
  0.5055211706307655  0.4977738360403879  0.4974154911913867
  0.5055192271234459  0.7525837943339014  0.7522285753539928
  0.7486985418481042  0.4992304924614323  0.7507697032104612
  0.7562014470944981  0.7490058368023087  0.5009941398396618
  0.2495375136201901  0.9997100404849135  0.7493224151218050
  0.2487706172798787  0.7505149303015325  0.9981011947619192
  0.4990759008773671  1.0010356228530450  0.0013037586364842
  0.7494537844595874  0.9995450516786716  0.2504559025071152
  0.7445089159155416  0.2496045048355174  0.0003934710916744
  0.9925968868775352  0.2495834457294563  0.7466834821564277
  0.9925949880685628  0.5033140568522667  0.0004176484172267
  0.0003991167038542  0.7520365437274974  0.2503346900408030
  0.0004000381765197 -0.0003369774827174  0.4979628308952655
  0.7233239711259088  0.0119319520533214  0.0123862361224714
  0.9943506606403676  0.7368853380674405  0.0145145466687111
  0.9979963518879673  0.0168407631395783  0.7351294564669856
  0.7322143098032544  0.7345442455538134  0.7396551428351535
  0.2745289806018446  0.9886893545024691  0.9846037586579702
  0.9955929242402384  0.2674225361319434  0.9825766375023905
  0.0030459446153473  0.9870379648465040  0.2629625560725853
  0.2745310903878064  0.2653952023024161  0.2613112792203635
  0.7322140195732595  0.5103488574873025  0.5154542834125501
  0.9943521957464000  0.2354852556414176  0.5131152375989686
  0.9979893054717508  0.5148720112677079  0.2331605867741501
  0.7233253088723823  0.2376100806326085  0.2380725681609795
  0.2866726275764456  0.4852419045876024  0.4940507701904346
  0.0024449398268935  0.7695051316406787  0.4804936754487471
  0.9707144536549850  0.4877528367408543  0.7622468774365677
  0.2866738748838243  0.7559419063111087  0.7647612886091071
  0.2248218041478306  0.0133186602377666  0.5140472926253925
  0.5044839191278322  0.7337172252976952  0.5162824125716698
  0.4958505254279356  0.0139618064009273  0.2360383007069357
  0.2248212551287445  0.7359545759621702  0.2366831359153893
  0.7761719270462765  0.9875574339944249  0.4880680282665032
  0.5047943185659091  0.2634932973932427  0.4843702421556414
  0.5024018607127786  0.9847186510556851  0.7642488557821637
  0.7664570430226517  0.2636832306489563  0.7611325656333882
  0.2144722032931358  0.5146132624292762  0.0047000220521480
  0.4970976868734047  0.2323790906280219  0.0176210028316754
  0.5214378632397118  0.5121268048156271  0.7378788018808040
  0.2144719708176645  0.2453057512219061  0.7353843148852507
  0.7664544690912443  0.4888603269412256  0.9863178209314302
  0.5047944993007547  0.7656322323769815  0.9865096797144750
  0.5024083099149467  0.4857499667270057  0.2652842063591481
  0.7761714018679101  0.7619343838882205  0.2624399485096430
 
             NaN             NaN             NaN
             NaN             NaN             NaN
             NaN             NaN             NaN
             NaN             NaN             NaN
             NaN             NaN             NaN
             NaN             NaN             NaN
             NaN             NaN             NaN
             NaN             NaN             NaN
             NaN             NaN             NaN
             NaN             NaN             NaN
             NaN             NaN             NaN
             NaN             NaN             NaN
             NaN             NaN             NaN
             NaN             NaN             NaN
             NaN             NaN             NaN
             NaN             NaN             NaN
             NaN             NaN             NaN
             NaN             NaN             NaN
             NaN             NaN             NaN
             NaN             NaN             NaN
             NaN             NaN             NaN
             NaN             NaN             NaN
             NaN             NaN             NaN
             NaN             NaN             NaN
             NaN             NaN             NaN
             NaN             NaN             NaN
             NaN             NaN             NaN
             NaN             NaN             NaN
             NaN             NaN             NaN
             NaN             NaN             NaN
             NaN             NaN             NaN
             NaN             NaN             NaN
             NaN             NaN             NaN
             NaN             NaN             NaN
             NaN             NaN             NaN
             NaN             NaN             NaN
             NaN             NaN             NaN
             NaN             NaN             NaN
             NaN             NaN             NaN
             NaN             NaN             NaN
             NaN             NaN             NaN
             NaN             NaN             NaN
             NaN             NaN             NaN
             NaN             NaN             NaN
             NaN             NaN             NaN
             NaN             NaN             NaN
             NaN             NaN             NaN
             NaN             NaN             NaN
             NaN             NaN             NaN
             NaN             NaN             NaN
             NaN             NaN             NaN
             NaN             NaN             NaN
             NaN             NaN             NaN
             NaN             NaN             NaN
             NaN             NaN             NaN
