Mg1 Ti16 S32                            
   1.00000000000000     
     9.8252710000000008   -0.0006050000000000    0.0007020000000000
    -0.0001050000000000    9.8252059999999997   -0.0006690000000000
     0.0005680000000000   -0.0006280000000000    9.8256479999999993
   Mg   Ti   S 
     1    16    32
Direct
  0.2773016614783511  0.4727213478846622  0.7750967932068632
  0.2524478999161488  0.7565016267842206  0.0100560228569627
  0.5024831142330262  0.9996112907337968  0.0015912679316176
  0.7503300912947032  0.2474634116694268  0.0016258031264579
  0.9934794619120594  0.4975106915808649  0.0099975963761191
  0.5029049293856367  0.2471047292104583  0.2491394943798559
  0.2491683572832405  0.5007796847433824  0.2626837211563948
  0.2518307181141767  0.2368108736688383  0.4906641700838418
  0.5131521648205705  0.4981001545656253  0.4906653369436527
  0.5127807400955977  0.7585809482117285  0.7481540676198679
  0.7636100484048630  0.5014233706388951  0.7470380720743722
  0.7524879998252787  0.7522071978665601  0.4948171562751072
  0.2485775451329318  0.9863877974086650  0.7470285526311936
  0.7510521701036718  0.9989170413485478  0.2476607131091756
  0.9914167825826992  0.2371702075036394  0.7482041842593847
  0.9979545982862581  0.7520452822494705  0.2490030505963907
  0.9977587200644669  0.9974605262199867  0.4947747392770874
  0.7474839822112909  0.0025273991245051  0.0003695246739678
  0.0054142965957044  0.7446226170469724  0.0035228386379669
  0.0019689957761453 -0.0047510192589109  0.7446659598819683
  0.7547478934540931  0.7480456796692347  0.7446565315877288
  0.2523050403900879  0.9965370442787792  0.9942831418134279
  0.9962080953907992  0.2505070781198656  0.9964643948132414
  0.9971722929001766  0.9973652676637884  0.2496200816653789
  0.2526502130352027  0.2535174579127082  0.2510701025586329
  0.7546951425646489  0.5024692501695160  0.5000802724821677
  0.0047402665857943  0.2436286057877028  0.5020483478613967
  0.0024664922259145  0.5023730912938165  0.2520674854556419
  0.7478388449563032  0.2470872554628038  0.2458661084960468
  0.2587979149779410  0.4912164293995686  0.5056115729186522
  0.9980954581711180  0.7519293630337668  0.4950693844711542
  1.0072830916186786  0.4909452973612454  0.7561567323772630
  0.2590598140756428  0.7427271520816195  0.7561459661050102
  0.2475461990917137 -0.0046645881325340  0.5000658187765504
  0.5063942930154226  0.7452567203529602  0.5020397633186642
  0.5029184382809258  0.0021777063266371  0.2458733329692328
  0.2476377128184687  0.7475252679541222  0.2520684047325809
  0.7526898437333869  0.9973362293840081  0.4942764352873069
  0.4991425702382679  0.2508515537534548  0.4947752444388534
  0.4961410479702309  0.9977259181588364  0.7506213282456715
  0.7522917784875283  0.2538658899565870  0.7506180614261122
  0.2465515399106658  0.5034797953913902  0.0156750437001264
  0.5031903472168562  0.2468414871384896  0.0018371293513551
  0.5177428304531155  0.5047538026610530  0.7438854774561794
  0.2452462973818308  0.2322771775205033  0.7438636172895546
  0.7535098185161541  0.4977159352889223  0.9942965144736321
  0.4995160435226041  0.7538159680348485  0.9964517236580702
  0.4964805440327159  0.4973491999326734  0.2510979763222638
  0.7526499468097879  0.7528283446315619  0.2496164207952398
 
             NaN             NaN             NaN
             NaN             NaN             NaN
             NaN             NaN             NaN
             NaN             NaN             NaN
             NaN             NaN             NaN
             NaN             NaN             NaN
             NaN             NaN             NaN
             NaN             NaN             NaN
             NaN             NaN             NaN
             NaN             NaN             NaN
             NaN             NaN             NaN
             NaN             NaN             NaN
             NaN             NaN             NaN
             NaN             NaN             NaN
             NaN             NaN             NaN
             NaN             NaN             NaN
             NaN             NaN             NaN
             NaN             NaN             NaN
             NaN             NaN             NaN
             NaN             NaN             NaN
             NaN             NaN             NaN
             NaN             NaN             NaN
             NaN             NaN             NaN
             NaN             NaN             NaN
             NaN             NaN             NaN
             NaN             NaN             NaN
             NaN             NaN             NaN
             NaN             NaN             NaN
             NaN             NaN             NaN
             NaN             NaN             NaN
             NaN             NaN             NaN
             NaN             NaN             NaN
             NaN             NaN             NaN
             NaN             NaN             NaN
             NaN             NaN             NaN
             NaN             NaN             NaN
             NaN             NaN             NaN
             NaN             NaN             NaN
             NaN             NaN             NaN
             NaN             NaN             NaN
             NaN             NaN             NaN
             NaN             NaN             NaN
             NaN             NaN             NaN
             NaN             NaN             NaN
             NaN             NaN             NaN
             NaN             NaN             NaN
             NaN             NaN             NaN
             NaN             NaN             NaN
             NaN             NaN             NaN
