Mg1 Ti16 S32
1.0
9.825271 -0.000605 0.000702
-0.000105 9.825206 -0.000669
0.000568 -0.000628 9.825648
Mg Ti S
1 16 32
direct
0.281209 0.468795 0.749829 Mg
0.249597 0.757960 0.008360 Ti
0.502153 -0.000785 0.003684 Ti
0.750754 0.247824 0.003706 Ti
0.992027 0.500364 0.008339 Ti
0.502291 0.247705 0.249855 Ti
0.249638 0.500354 0.249992 Ti
0.248733 0.241852 0.490822 Ti
0.508107 0.501207 0.490809 Ti
0.507995 0.758061 0.750078 Ti
0.751132 0.501116 0.750041 Ti
0.750581 0.752595 0.497553 Ti
0.248884 -0.001135 0.750044 Ti
0.750303 -0.000310 0.250072 Ti
0.991933 0.242004 0.750080 Ti
0.997568 0.752414 0.250287 Ti
0.997355 0.999369 0.497545 Ti
0.747589 0.002425 0.003219 S
0.002794 0.747221 0.004230 S
0.002448 1.000343 0.747585 S
0.749668 0.747555 0.747571 S
0.252511 -0.000428 0.997101 S
0.996154 0.252983 0.997137 S
0.997047 0.997816 0.252325 S
0.252551 0.252926 0.249890 S
0.749784 0.502994 0.502955 S
0.002502 0.245862 0.503016 S
0.002817 0.502705 0.249825 S
0.747644 0.247258 0.248228 S
0.254746 0.495259 0.495446 S
0.996872 0.753139 0.496954 S
0.996022 0.495318 0.754666 S
0.254689 0.753982 0.754661 S
0.247011 1.000221 0.502954 S
0.504156 0.747511 0.503018 S
0.502750 0.002366 0.248236 S
0.247296 0.747194 0.249820 S
0.752100 0.997910 0.497199 S
0.496775 0.253233 0.495626 S
0.496730 -0.000411 0.752991 S
0.750427 0.253273 0.752982 S
0.245231 0.504785 0.004288 S
0.503382 0.246647 0.003435 S
0.504527 0.504954 0.745037 S
0.245054 0.245479 0.745022 S
0.750453 0.497503 0.997103 S
0.497034 0.753868 0.997135 S
0.497083 0.497462 0.249902 S
0.752188 0.752949 0.252310 S
