Li17 Co18 O36                           
   1.00000000000000     
     8.0557280000000002   -0.0035030000000000    2.3736009999999998
     3.6800970000000000    7.1672200000000004    2.3705020000000001
    -0.0129210000000000   -0.0041040000000000    9.8886179999999992
   Li   Co   O 
    17    18    36
Direct
  0.2960037653687498  0.5697257950817185  0.5118969834179888
  0.3354380003449648  0.3346792018286372  0.9944189232354257
  0.3340453990652543  0.6741000090729907  0.9952936130420086
  0.3298974532684963 -0.0019229240561588  0.5017373946286802
  0.3362839731735824 -0.0001305953264434  0.9927485491296155
  0.6546436813890232  0.3368504725003942  0.5107291583119176
  0.6642862432554250  0.3367785345320818  0.9945117467081914
  0.6554280440659274  0.6523220541161290  0.5055168500727827
  0.6688974492355265  0.6666599886689607  1.0000674567019445
  0.6437369971515507  0.0191874883389927  0.5078854657140052
  0.6672467744487186  0.9977001844231748  0.9955014666426872
  0.0030809640218982  0.3327134627164821  0.5067375177208103
  0.0024375717280588  0.3336153507008409  0.9964648901814936
  0.9686623357556862  0.6690985501319736  0.5097673199582866
  1.0018641630931289  0.6656184976199723  0.9940433312823522
  0.0136294764480745  0.9848094751485821  0.5063994315677538
  1.0109199516769214 -0.0039313393565472  0.9877570038268426
  0.1692276921665188  0.1636551642518249  0.2475014574360400
  0.1687136266726594  0.1648721593649165  0.7513192736229982
  0.1617710002332432  0.5007601305931527  0.2497098781334609
  0.1678961701387369  0.4954236374056676  0.7564239792986015
  0.1654402760166698  0.8461542719457993  0.2431007233873460
  0.1690645966147847  0.8291247677061676  0.7511804885964578
  0.4938499504328183  0.1716934718906756  0.2477003384572545
  0.4998710428685038  0.1634843932148326  0.7554130147288177
  0.5003278734137316  0.5011570096609765  0.2439635301179387
  0.4999659817339213  0.4984559739142992  0.7562675256924231
  0.5013542293748806  0.8346484859159163  0.2452694867971753
  0.4997653580791231  0.8307607396710941  0.7546032271559924
  0.8266316530161147  0.1696977199318952  0.2579709847943462
  0.8330418500498287  0.1645951499810232  0.7516021741132652
  0.8285387442871774  0.4994474383741283  0.2549435740948546
  0.8338331850292476  0.4972184046675097  0.7537178731966806
  0.8333266095731450  0.8319963747890541  0.2496800409155797
  0.8343148807749969  0.8293310537416956  0.7510718425002878
  0.2633385035936874  0.2396676204969072  0.3549327953402636
  0.2523426034541317  0.2515436530180991  0.8643671792916882
  0.2519075869825088  0.5907084064774571  0.3412310709551903
  0.2526415425485595  0.5843802868516536  0.8654770526265452
  0.2605173952320730  0.9205407577535799  0.3573059376195494
  0.2530260709582974  0.9182147214997151  0.8623352796272875
  0.5667016615430516  0.2639929674151815  0.3603382594364167
  0.5883127416709871  0.2500500136780465  0.8642377414316469
  0.5778905578914966  0.5904846819353832  0.3564629164957848
  0.5880635881717204  0.5841097304245483  0.8655184271390124
  0.5726477794331603  0.9352750939877352  0.3535982011523353
  0.5898369675134617  0.9164215727272056  0.8634598054610952
  0.9273379933893283  0.2533051857262862  0.3680536830399931
  0.9206956253749663  0.2502502811412629  0.8619215599870674
  0.8993634434244580  0.5891149185817848  0.3752381322703182
  0.9239298443379358  0.5824833014983067  0.8618270306446579
  0.9092917862097303  0.9241852813925073  0.3770316130180277
  0.9207476260641654  0.9173850325528972  0.8599605442591088
  0.0832539867664212  0.0876965036684614  0.1271966080685406
  0.0813654496979786  0.0764165086849323  0.6418603857609390
  0.0776721436403176  0.4145733655608601  0.1449611569892172
  0.0790915893637109  0.4131983463752669  0.6454248415525867
  0.0702903906430533  0.7575000162203858  0.1261539303058088
  0.0841143625933939  0.7365614410178297  0.6433502531159023
  0.4153139490238192  0.0813248572833298  0.1372446894053820
  0.4145187646097677  0.0731033974706263  0.6476181913286099
  0.4321492979418277  0.4022979594592518  0.1329250275575841
  0.4154501636476272  0.4069435457290078  0.6535028696251485
  0.4236459050661566  0.7472374723977446  0.1314236507172665
  0.4150558017116511  0.7438830517818544  0.6462802363420839
  0.7273694130824107  0.0924407512061003  0.1391127096357568
  0.7448462286340918  0.0778960273362041  0.6433519635064519
  0.7458017314127565  0.4170019219373799  0.1402981532759021
  0.7441890728971341  0.4114174808037778  0.6445711024847549
  0.7455286659830104  0.7401295659774559  0.1363754771964845
  0.7436920506064147  0.7438402573302674  0.6445891744135933
 
             NaN             NaN             NaN
             NaN             NaN             NaN
             NaN             NaN             NaN
             NaN             NaN             NaN
             NaN             NaN             NaN
             NaN             NaN             NaN
             NaN             NaN             NaN
             NaN             NaN             NaN
             NaN             NaN             NaN
             NaN             NaN             NaN
             NaN             NaN             NaN
             NaN             NaN             NaN
             NaN             NaN             NaN
             NaN             NaN             NaN
             NaN             NaN             NaN
             NaN             NaN             NaN
             NaN             NaN             NaN
             NaN             NaN             NaN
             NaN             NaN             NaN
             NaN             NaN             NaN
             NaN             NaN             NaN
             NaN             NaN             NaN
             NaN             NaN             NaN
             NaN             NaN             NaN
             NaN             NaN             NaN
             NaN             NaN             NaN
             NaN             NaN             NaN
             NaN             NaN             NaN
             NaN             NaN             NaN
             NaN             NaN             NaN
             NaN             NaN             NaN
             NaN             NaN             NaN
             NaN             NaN             NaN
             NaN             NaN             NaN
             NaN             NaN             NaN
             NaN             NaN             NaN
             NaN             NaN             NaN
             NaN             NaN             NaN
             NaN             NaN             NaN
             NaN             NaN             NaN
             NaN             NaN             NaN
             NaN             NaN             NaN
             NaN             NaN             NaN
             NaN             NaN             NaN
             NaN             NaN             NaN
             NaN             NaN             NaN
             NaN             NaN             NaN
             NaN             NaN             NaN
             NaN             NaN             NaN
             NaN             NaN             NaN
             NaN             NaN             NaN
             NaN             NaN             NaN
             NaN             NaN             NaN
             NaN             NaN             NaN
             NaN             NaN             NaN
             NaN             NaN             NaN
             NaN             NaN             NaN
             NaN             NaN             NaN
             NaN             NaN             NaN
             NaN             NaN             NaN
             NaN             NaN             NaN
             NaN             NaN             NaN
             NaN             NaN             NaN
             NaN             NaN             NaN
             NaN             NaN             NaN
             NaN             NaN             NaN
             NaN             NaN             NaN
             NaN             NaN             NaN
             NaN             NaN             NaN
             NaN             NaN             NaN
             NaN             NaN             NaN
