Li17 Co18 O36                           
   1.00000000000000     
     8.0557280000000002   -0.0035030000000000    2.3736009999999998
     3.6800970000000000    7.1672200000000004    2.3705020000000001
    -0.0129210000000000   -0.0041040000000000    9.8886179999999992
   Li   Co   O 
    17    18    36
Direct
  0.2818554152536293  0.5157078405389063  0.5203377905139853
  0.3342777533628715  0.3335389845310306  0.9989640719168639
  0.3372209037420515  0.6648470167280128  0.9956994847539519
  0.3320762957306416  1.0008087797153498  0.5068848242329652
  0.3394738170854370  1.0000967512953580  0.9959223557151611
  0.6613551587561827  0.3361425052186768  0.5040800181686522
  0.6683964905533510  0.3326358658863973  0.9986174963862630
  0.6453752434981943  0.6667672793403808  0.5038756258172999
  0.6683612210710578  0.6678998139228773  0.9976299664990305
  0.6497303615505134  0.0153768892188834  0.5072498218363195
  0.6676243869041772  0.0002971854584037  0.9994220976915689
  0.0079734740467160  0.3335315548534274  0.5021361330016257
  0.9974210034775957  0.3385935142643009 -0.0032997508448481
  0.9643017247983436  0.6809410322801517  0.5032190886186709
  0.9978987194437060  0.6687250545181858  0.9972645360896607
  0.0053297968528049  0.9936067353612585  0.5056227037884122
  0.9965736280067371  0.0023241997613559  0.9946066309971453
  0.1642817725295007  0.1689756798956737  0.2473122301330367
  0.1686101807035825  0.1667973757071308  0.7502361731847037
  0.1627636336310915  0.5012414224001089  0.2454620502261367
  0.1658418216706794  0.4973417241417118  0.7581723535526345
  0.1655943620040235  0.8367723571749537  0.2474090654969327
  0.1683850264738914  0.8311892630183777  0.7501283980479433
  0.4960125373213994  0.1699650289444314  0.2533303119800107
  0.5008320509748039  0.1636408679814175  0.7555052027601187
  0.5026786943333083  0.5008477721383747  0.2467819125531646
  0.5007677144210825  0.4994668391795977  0.7554699102852909
  0.4991576355850693  0.8335305377657741  0.2501748974871025
  0.4991998975379013  0.8315497330636380  0.7546735343857964
  0.8325970444284790  0.1672745186475165  0.2501776492759549
  0.8344761856626139  0.1651977361937215  0.7507376095799503
  0.8323436743739645  0.5004597849435192  0.2496257745805808
  0.8331817357614705  0.5002659572583694  0.7517415985120136
  0.8309061289340504  0.8346969652480970  0.2499000420225637
  0.8329415898096514  0.8315413542614102  0.7509358490379900
  0.2397213748158711  0.2589508806509677  0.3583568710398233
  0.2525630867129214  0.2504024881215898  0.8654776802742520
  0.2493910423829502  0.5974598161839013  0.3433658886722707
  0.2524296174665444  0.5872003860990259  0.8651464250744586
  0.2504726852928714  0.9241488599344450  0.3566027069363318
  0.2511555969688364  0.9205592631814761  0.8622672009322045
  0.5914037882901296  0.2569913279602162  0.3610379230191333
  0.5899811131048910  0.2505267997721559  0.8643915299848021
  0.5883746561471592  0.5861367671369689  0.3562724425554004
  0.5891524927205734  0.5843820128442903  0.8647212356734937
  0.5877775149634170  0.9137222902374982  0.3643840741774760
  0.5889672051963394  0.9173667719657856  0.8641995711033487
  0.9198778218365686  0.2534473228680693  0.3584901327795234
  0.9216411791626781  0.2530328762465492  0.8603320381766377
  0.9189458600806590  0.5886797217166960  0.3584626119490393
  0.9180647281203531  0.5866802602416643  0.8635067913217537
  0.9134907283398904  0.9217979430304684  0.3637004856804142
  0.9209480547026998  0.9183667880895686  0.8598164645678257
  0.0806187162573342  0.0749750016590933  0.1392295452908256
  0.0814692112710114  0.0788853375381179  0.6400602884093188
  0.0773290904888964  0.4144533386903975  0.1367148501990373
  0.0805425832875486  0.4172452125587478  0.6422965167236112
  0.0764383973009647  0.7511379587934045  0.1365025461504371
  0.0803549783352811  0.7398902311672010  0.6423301219699732
  0.4106305845695716  0.0795931168471693  0.1369821828764845
  0.4150635240948454  0.0746744269640343  0.6466121519542020
  0.4100464728625655  0.4200980175289348  0.1345025208478385
  0.4172762880597434  0.4067525161188901  0.6542403532449955
  0.4204101247638689  0.7462119925092764  0.1344763022121371
  0.4144520130970488  0.7456417114038549  0.6466349482690359
  0.7529818287344013  0.0779085299373042  0.1372191702343330
  0.7463620358776339  0.0786289065312319  0.6421585883784224
  0.7486111109471680  0.4115321518575479  0.1389823729496798
  0.7464869977688657  0.4129117316484122  0.6423138062907415
  0.7448036836301074  0.7486527562064906  0.1406303244111710
  0.7431909361528484  0.7464630029516195  0.6429986738360570
 
             NaN             NaN             NaN
             NaN             NaN             NaN
             NaN             NaN             NaN
             NaN             NaN             NaN
             NaN             NaN             NaN
             NaN             NaN             NaN
             NaN             NaN             NaN
             NaN             NaN             NaN
             NaN             NaN             NaN
             NaN             NaN             NaN
             NaN             NaN             NaN
             NaN             NaN             NaN
             NaN             NaN             NaN
             NaN             NaN             NaN
             NaN             NaN             NaN
             NaN             NaN             NaN
             NaN             NaN             NaN
             NaN             NaN             NaN
             NaN             NaN             NaN
             NaN             NaN             NaN
             NaN             NaN             NaN
             NaN             NaN             NaN
             NaN             NaN             NaN
             NaN             NaN             NaN
             NaN             NaN             NaN
             NaN             NaN             NaN
             NaN             NaN             NaN
             NaN             NaN             NaN
             NaN             NaN             NaN
             NaN             NaN             NaN
             NaN             NaN             NaN
             NaN             NaN             NaN
             NaN             NaN             NaN
             NaN             NaN             NaN
             NaN             NaN             NaN
             NaN             NaN             NaN
             NaN             NaN             NaN
             NaN             NaN             NaN
             NaN             NaN             NaN
             NaN             NaN             NaN
             NaN             NaN             NaN
             NaN             NaN             NaN
             NaN             NaN             NaN
             NaN             NaN             NaN
             NaN             NaN             NaN
             NaN             NaN             NaN
             NaN             NaN             NaN
             NaN             NaN             NaN
             NaN             NaN             NaN
             NaN             NaN             NaN
             NaN             NaN             NaN
             NaN             NaN             NaN
             NaN             NaN             NaN
             NaN             NaN             NaN
             NaN             NaN             NaN
             NaN             NaN             NaN
             NaN             NaN             NaN
             NaN             NaN             NaN
             NaN             NaN             NaN
             NaN             NaN             NaN
             NaN             NaN             NaN
             NaN             NaN             NaN
             NaN             NaN             NaN
             NaN             NaN             NaN
             NaN             NaN             NaN
             NaN             NaN             NaN
             NaN             NaN             NaN
             NaN             NaN             NaN
             NaN             NaN             NaN
             NaN             NaN             NaN
             NaN             NaN             NaN
