Li17 Co18 O36                           
   1.00000000000000     
     8.0557280000000002   -0.0035030000000000    2.3736009999999998
     3.6800970000000000    7.1672200000000004    2.3705020000000001
    -0.0129210000000000   -0.0041040000000000    9.8886179999999992
   Li   Co   O 
    17    18    36
Direct
  0.2763295050482942  0.5259277303073930  0.5229553299807607
  0.3343665957647649  0.3315163123184415  0.9989505291401385
  0.3306003395210481  0.6685640486054165  0.9967205473483700
  0.3309231739489268  0.0009284445170212  0.5022062417661014
  0.3330703773652675  0.0038259142006006  0.9977260935121088
  0.6643245516169904  0.3347032627982345  0.5063993470248143
  0.6685658198453062  0.3305774717393273  0.9964008183799824
  0.6469407052845335  0.6674125310824142  0.5057394494117949
  0.6690789965009591  0.6704671039211327  0.9967515203184750
  0.6472970127947382  0.0138884912183232  0.5062606542174110
  0.6673313134334765  0.9998149728626718  0.9998733510635258
  0.0139665219119648  0.3317037675296474  0.5009736115716931
  0.0047297589277970  0.3310145530773561  0.9977935492650254
  0.9629743054387837  0.6841998975753861  0.5018233626827348
  0.9987504989150899  0.6688104523316653  0.9998562165354847
  0.0129012231547053  0.9891465345861297  0.5012626373669784
 -0.0002076877121464  1.0001692073706239  0.9980391571687403
  0.1647529371663729  0.1688377318281357  0.2463262000433054
  0.1691010787566954  0.1651966970125390  0.7509991607847170
  0.1645799630887574  0.5007098799954095  0.2445938769607791
  0.1659084995630686  0.4961431112470306  0.7588145472710287
  0.1645423778967364  0.8380821093202993  0.2468408514290756
  0.1688292838441391  0.8301039121978787  0.7505333757324578
  0.4966405571105885  0.1686293391072873  0.2501081130194934
  0.5013031999196250  0.1632153181661641  0.7552932792258364
  0.4988225523808268  0.5017559735908109  0.2480629362820543
  0.5008797908650989  0.4991681540285104  0.7554695883491793
  0.4978660087719510  0.8349005376727312  0.2516330574703852
  0.4992700899524068  0.8312279083699549  0.7548375248143373
  0.8317302301445606  0.1686762860915970  0.2494824249538610
  0.8351192314413642  0.1644595721867194  0.7505296258985760
  0.8322390358141590  0.5015421868508920  0.2501990599858452
  0.8338081846359681  0.4984948016173323  0.7527687773118038
  0.8311294270633506  0.8352927354570754  0.2490582710913876
  0.8333364938649510  0.8301955343197154  0.7515337692664961
  0.2496089798365202  0.2554693455949461  0.3536301875537605
  0.2536992405884103  0.2494094282223374  0.8657028708162525
  0.2552780197425664  0.5899702601019544  0.3436292504278784
  0.2530293934811292  0.5857679187929297  0.8653817692644131
  0.2501487528505342  0.9263205664765026  0.3550464334403648
  0.2518117281290239  0.9192522851568227  0.8628085385479057
  0.5829426116505657  0.2632833359921556  0.3552039777994619
  0.5902075046660675  0.2501091031735857  0.8642720793554930
  0.5864956766763263  0.5851684067080759  0.3572496744514528
  0.5886824596847278  0.5839391653578951  0.8655437128590906
  0.5843769243595240  0.9225148368447372  0.3609337913129078
  0.5885829762398718  0.9169688927233217  0.8648052878405950
  0.9189201832049846  0.2550715350729129  0.3583164092961480
  0.9215578436097903  0.2517229086709332  0.8610865428288090
  0.9202243628432212  0.5881283672510778  0.3583926126018873
  0.9186049226789491  0.5850657637005889  0.8642414005855772
  0.9192062957136268  0.9222127872959338  0.3584507201004504
  0.9211772819176423  0.9178777091662057  0.8598975891286532
  0.0757042956549577  0.0823943410974920  0.1373590851534569
  0.0821675884943607  0.0780236002342365  0.6403873263981974
  0.0759766357409234  0.4162481430711585  0.1363176693545064
  0.0805634896249025  0.4158036962535965  0.6433813232179069
  0.0766771812780711  0.7499865543291634  0.1372057033798595
  0.0805980008325650  0.7386294276848543  0.6425942734728802
  0.4136730495566897  0.0796412303428229  0.1390146181076654
  0.4152239503495655  0.0740750988742799  0.6468784547048129
  0.4141336186886540  0.4142661228235337  0.1378756531202415
  0.4171973453393235  0.4063759136903538  0.6538482326315934
  0.4162354540339877  0.7431829398164570  0.1401486022708284
  0.4148638297433099  0.7451550672757287  0.6466068261297335
  0.7442843907304748  0.0818027178855298  0.1404481706766870
  0.7466635345644695  0.0775833584728534  0.6416414658875973
  0.7393931291345723  0.4185657536237971  0.1413359003238469
  0.7468478934798445  0.4124747299881976  0.6424563224188140
  0.7445068044589713  0.7480305372112771  0.1408570134183386
  0.7436075324777290  0.7453255880891554  0.6430766238655643
 
             NaN             NaN             NaN
             NaN             NaN             NaN
             NaN             NaN             NaN
             NaN             NaN             NaN
             NaN             NaN             NaN
             NaN             NaN             NaN
             NaN             NaN             NaN
             NaN             NaN             NaN
             NaN             NaN             NaN
             NaN             NaN             NaN
             NaN             NaN             NaN
             NaN             NaN             NaN
             NaN             NaN             NaN
             NaN             NaN             NaN
             NaN             NaN             NaN
             NaN             NaN             NaN
             NaN             NaN             NaN
             NaN             NaN             NaN
             NaN             NaN             NaN
             NaN             NaN             NaN
             NaN             NaN             NaN
             NaN             NaN             NaN
             NaN             NaN             NaN
             NaN             NaN             NaN
             NaN             NaN             NaN
             NaN             NaN             NaN
             NaN             NaN             NaN
             NaN             NaN             NaN
             NaN             NaN             NaN
             NaN             NaN             NaN
             NaN             NaN             NaN
             NaN             NaN             NaN
             NaN             NaN             NaN
             NaN             NaN             NaN
             NaN             NaN             NaN
             NaN             NaN             NaN
             NaN             NaN             NaN
             NaN             NaN             NaN
             NaN             NaN             NaN
             NaN             NaN             NaN
             NaN             NaN             NaN
             NaN             NaN             NaN
             NaN             NaN             NaN
             NaN             NaN             NaN
             NaN             NaN             NaN
             NaN             NaN             NaN
             NaN             NaN             NaN
             NaN             NaN             NaN
             NaN             NaN             NaN
             NaN             NaN             NaN
             NaN             NaN             NaN
             NaN             NaN             NaN
             NaN             NaN             NaN
             NaN             NaN             NaN
             NaN             NaN             NaN
             NaN             NaN             NaN
             NaN             NaN             NaN
             NaN             NaN             NaN
             NaN             NaN             NaN
             NaN             NaN             NaN
             NaN             NaN             NaN
             NaN             NaN             NaN
             NaN             NaN             NaN
             NaN             NaN             NaN
             NaN             NaN             NaN
             NaN             NaN             NaN
             NaN             NaN             NaN
             NaN             NaN             NaN
             NaN             NaN             NaN
             NaN             NaN             NaN
             NaN             NaN             NaN
