Li17 Co18 O36                           
   1.00000000000000     
     8.0557280000000002   -0.0035030000000000    2.3736009999999998
     3.6800970000000000    7.1672200000000004    2.3705020000000001
    -0.0129210000000000   -0.0041040000000000    9.8886179999999992
   Li   Co   O 
    17    18    36
Direct
  0.2791447135187066  0.5301655298825393  0.5228855872591474
  0.3341246018058420  0.3297649039684535  0.9982088637579649
  0.3303568962380861  0.6697470159565965  0.9964522566766988
  0.3288799717656474  0.0014510191507118  0.5046267393600756
  0.3307810394985798  0.0045026436715870  0.9955918988195033
  0.6651801885524873  0.3341111150271363  0.5065382685591208
  0.6700311094393735  0.3306669082159998  0.9953658224937225
  0.6505808640458655  0.6653137676853490  0.5078066625125580
  0.6696585287092262  0.6705866760706064  0.9962946992445388
  0.6491865053075657  0.0132878791732736  0.5069159146794963
  0.6685648349208239 -0.0013321177712226  0.9980071988043140
  0.0114475244246953  0.3318620349882645  0.5015389145606791
  1.0059467921352920  0.3303672427128224  0.9972150788343264
  0.9656874286062366  0.6826989787968095  0.5020648900831096
  0.9989746645470040  0.6690773379291177  0.9998504587541338
  0.0111612260140833  0.9897133787471566  0.5018787701261929
  1.0012012641454180 -0.0002752131394863  0.9979556324443909
  0.1636678835119395  0.1690050114626343  0.2461109920947902
  0.1687456841667302  0.1666180430895332  0.7500929455007759
  0.1641702356200606  0.5003280925448115  0.2448584324930523
  0.1658754623740545  0.4965228202059777  0.7585236436947215
  0.1630569603280498  0.8368764521125526  0.2471397388355679
  0.1686909149392353  0.8307349944152002  0.7502291497098607
  0.4962971226222040  0.1692663825470654  0.2526256150020060
  0.5013342350618554  0.1632081997894571  0.7552545576351145
  0.4995543596789959  0.4999039271244660  0.2494747308463389
  0.5008892141650976  0.4992238381650622  0.7555042672874269
  0.4941829125669026  0.8382753274655093  0.2520058898933643
  0.4992204500924186  0.8315201884425535  0.7546495364546801
  0.8317027893436888  0.1688354122899649  0.2503564281255139
  0.8351753849418027  0.1645126716030543  0.7504932618392048
  0.8330785398666269  0.5020518173516246  0.2489596976862678
  0.8338250662072928  0.4990680800853719  0.7522594377238830
  0.8318596260358437  0.8352176718846780  0.2487931175150933
  0.8336404025153795  0.8300781226360910  0.7514347640723563
  0.2480914993618123  0.2549779731840128  0.3544431083654017
  0.2529952295588286  0.2504391575192054  0.8646919338694105
  0.2549788861069059  0.5882229943108834  0.3447579320120098
  0.2530973528126880  0.5860815806096672  0.8652984317756488
  0.2400527036614443  0.9282859212823765  0.3598035132851451
  0.2514094545696613  0.9202965629017568  0.8622239503635861
  0.5878441288326375  0.2671587081162305  0.3616299189735064
  0.5904950589768124  0.2500907320570493  0.8642941630429810
  0.5877173432881853  0.5831701473231611  0.3582820109388987
  0.5889902183647302  0.5840793358989569  0.8651013053146792
  0.5871692925730305  0.9258513955464910  0.3646447050274585
  0.5889912545362893  0.9166819255375817  0.8641763537604469
  0.9193896838957796  0.2563572795909531  0.3574406814327765
  0.9215907806511597  0.2523306708024962  0.8607694275621557
  0.9200979233103518  0.5884444684311619  0.3579680159991045
  0.9189786036030512  0.5849080228077631  0.8636876736843282
  0.9182820380581340  0.9221527595902053  0.3585721285064833
  0.9215123267071039  0.9181971345445223  0.8596411349597453
  0.0746121627886514  0.0821744933006085  0.1376954075113141
  0.0817719145214103  0.0787481587885032  0.6402089322036881
  0.0767955121566841  0.4153841676118306  0.1360504729830345
  0.0803965458503234  0.4168872932322830  0.6426817445294104
  0.0769835084255253  0.7487013452595059  0.1374932243674183
  0.0811570636025182  0.7385212982273971  0.6426303886118372
  0.4084889924396839  0.0791944843854223  0.1299320788215338
  0.4151887492039938  0.0745155715399528  0.6467502131096596
  0.4155079118372256  0.4118243540726383  0.1400283883258097
  0.4172199225962830  0.4063180302447827  0.6545265219142367
  0.4128100738135422  0.7369758154739615  0.1366342762301407
  0.4149905757954818  0.7452944658558265  0.6462784126152590
  0.7448570812951338  0.0820867532583033  0.1403995414144086
  0.7470666487191620  0.0773900596342538  0.6420199124315362
  0.7392482451142230  0.4184911767180052  0.1413258461542190
  0.7469854085086574  0.4125320936573318  0.6421960637171515
  0.7526100779994902  0.7470446211056152  0.1360619008562614
  0.7438485366876388  0.7456859245193753  0.6426499268846363
 
             NaN             NaN             NaN
             NaN             NaN             NaN
             NaN             NaN             NaN
             NaN             NaN             NaN
             NaN             NaN             NaN
             NaN             NaN             NaN
             NaN             NaN             NaN
             NaN             NaN             NaN
             NaN             NaN             NaN
             NaN             NaN             NaN
             NaN             NaN             NaN
             NaN             NaN             NaN
             NaN             NaN             NaN
             NaN             NaN             NaN
             NaN             NaN             NaN
             NaN             NaN             NaN
             NaN             NaN             NaN
             NaN             NaN             NaN
             NaN             NaN             NaN
             NaN             NaN             NaN
             NaN             NaN             NaN
             NaN             NaN             NaN
             NaN             NaN             NaN
             NaN             NaN             NaN
             NaN             NaN             NaN
             NaN             NaN             NaN
             NaN             NaN             NaN
             NaN             NaN             NaN
             NaN             NaN             NaN
             NaN             NaN             NaN
             NaN             NaN             NaN
             NaN             NaN             NaN
             NaN             NaN             NaN
             NaN             NaN             NaN
             NaN             NaN             NaN
             NaN             NaN             NaN
             NaN             NaN             NaN
             NaN             NaN             NaN
             NaN             NaN             NaN
             NaN             NaN             NaN
             NaN             NaN             NaN
             NaN             NaN             NaN
             NaN             NaN             NaN
             NaN             NaN             NaN
             NaN             NaN             NaN
             NaN             NaN             NaN
             NaN             NaN             NaN
             NaN             NaN             NaN
             NaN             NaN             NaN
             NaN             NaN             NaN
             NaN             NaN             NaN
             NaN             NaN             NaN
             NaN             NaN             NaN
             NaN             NaN             NaN
             NaN             NaN             NaN
             NaN             NaN             NaN
             NaN             NaN             NaN
             NaN             NaN             NaN
             NaN             NaN             NaN
             NaN             NaN             NaN
             NaN             NaN             NaN
             NaN             NaN             NaN
             NaN             NaN             NaN
             NaN             NaN             NaN
             NaN             NaN             NaN
             NaN             NaN             NaN
             NaN             NaN             NaN
             NaN             NaN             NaN
             NaN             NaN             NaN
             NaN             NaN             NaN
             NaN             NaN             NaN
