Li17 Co18 O36                           
   1.00000000000000     
     8.0557280000000002   -0.0035030000000000    2.3736009999999998
     3.6800970000000000    7.1672200000000004    2.3705020000000001
    -0.0129210000000000   -0.0041040000000000    9.8886179999999992
   Li   Co   O 
    17    18    36
Direct
  0.2743169773436131  0.5125642268224553  0.5254809786730623
  0.3396215924349112  0.3319620409640653 -0.0016696688521862
  0.3364402608682885  0.6673364681199042 -0.0034003127594312
  0.3321738682740805 -0.0006450965475450  0.5063740576456738
  0.3365057925516120  0.9984409056051834  0.9956506516996303
  0.6564902789648938  0.3337925381547006  0.5074117851774725
  0.6679830682148440  0.3344179993250634 -0.0037896835238956
  0.6539993561713126  0.6666323616003411  0.5065031007410936
  0.6643414492566190  0.6689391394110328 -0.0039305877319094
  0.6544551686209809  0.0122631220956461  0.5056732388403150
  0.6687550334740920  0.0017445788181540  0.9941007183130289
  0.0063545402832819  0.3298704903499659  0.5047229690049548
  0.9968897641581485  0.3294525947321684  1.0008802806738275
 -0.0376156061072316  0.6856729456529614  0.5019002187974351
 -0.0029276680571750  0.6737376325772682  0.9978969089755669
  1.0021383065732619  0.9953642172324284  0.5050888388664121
  0.9986152905022776  1.0010389730914606  0.9950579619711768
  0.1666567801757375  0.1660219912084208  0.2471950701726181
  0.1679372586712123  0.1662807508577171  0.7497485608194244
  0.1653522288575413  0.5004388200443637  0.2468827148384787
  0.1651330818692906  0.4974076001897758  0.7607047651823542
  0.1637064324110343  0.8369827372009048  0.2479957267039880
  0.1682573637802366  0.8324390712091907  0.7496167619860937
  0.4986655320362582  0.1711980083012144  0.2538138065757734
  0.5016271498460589  0.1626864247715151  0.7537566998450242
  0.5033476366210791  0.5014703669153058  0.2461143336640071
  0.5020689742512782  0.4998604419649790  0.7546108104774768
  0.5001543991101985  0.8335611991647973  0.2508451348952277
  0.4982214035510898  0.8329505824507760  0.7535296456433925
  0.8327289921255526  0.1668678119625091  0.2507045470303459
  0.8345031091224835  0.1663492626108562  0.7492931373551701
  0.8344096796952827  0.4974434709820200  0.2492880144079997
  0.8323696459293951  0.5002674313087665  0.7518867431599856
  0.8285425540926056  0.8353305885676429  0.2505571336608927
  0.8311432020262327  0.8327581352958033  0.7512250294073306
  0.2479823495093399  0.2506464102114687  0.3614175619194563
  0.2554636880213127  0.2447918568195874  0.8664711962200777
  0.2564830626603496  0.5921447349248704  0.3493207439757237
  0.2555809620189033  0.5893256490989379  0.8676617020056441
  0.2609955817152503  0.9230815318519962  0.3585357387671718
  0.2510972305772533  0.9208345001876264  0.8613425395992326
  0.5903743054045547  0.2615829139283469  0.3613574259457814
  0.5899540217357970  0.2499849120043040  0.8636541820403121
  0.5873893155652610  0.5893621861059640  0.3551803898591173
  0.5886005853491919  0.5860030232515193  0.8638752323898041
  0.5864560360392115  0.9132196408446266  0.3648326054548205
  0.5872606105526786  0.9180235923666393  0.8631043718852051
  0.9268039478958444  0.2423215377485335  0.3619568636273829
  0.9204443224392247  0.2530163016650195  0.8600736108880070
  0.9103771410451812  0.5902562658905371  0.3635383776827629
  0.9107745587993747  0.5893390894977162  0.8667630435551971
  0.9089591078444889  0.9226636361402190  0.3639583465751712
  0.9198574064480691  0.9200962558059059  0.8592208953190574
  0.0774813019557924  0.0832945061950424  0.1349342701740930
  0.0810146427632443  0.0795524704102420  0.6398739586156180
  0.0765541943391128  0.4107932769938891  0.1342742641160830
  0.0774566993313607  0.4152035826158660  0.6402012537579492
  0.0692093696372477  0.7530029955550119  0.1321641118144791
  0.0770268218068869  0.7467122922906539  0.6403033646340249
  0.4155344006020402  0.0744705751157361  0.1371522561232796
  0.4144281702094623  0.0754238584224023  0.6447197258167067
  0.4204827912953482  0.4185796595495346  0.1315942784736635
  0.4229278599979460  0.4057737984541905  0.6511260802629513
  0.4236650788799398  0.7463010172379906  0.1343453892059662
  0.4146541222751500  0.7457454414251862  0.6454337702588473
  0.7481423404789106  0.0795950069102822  0.1385347107641106
  0.7461351415646942  0.0781554689303036  0.6415269590552911
  0.7493832961764725  0.4110601404007579  0.1384874942802420
  0.7467798967328975  0.4138042233194920  0.6414260297580334
  0.7373141938690294  0.7589167929255857  0.1373902098470978
  0.7425638534902441  0.7470696883059436  0.6429987328046014
 
             NaN             NaN             NaN
             NaN             NaN             NaN
             NaN             NaN             NaN
             NaN             NaN             NaN
             NaN             NaN             NaN
             NaN             NaN             NaN
             NaN             NaN             NaN
             NaN             NaN             NaN
             NaN             NaN             NaN
             NaN             NaN             NaN
             NaN             NaN             NaN
             NaN             NaN             NaN
             NaN             NaN             NaN
             NaN             NaN             NaN
             NaN             NaN             NaN
             NaN             NaN             NaN
             NaN             NaN             NaN
             NaN             NaN             NaN
             NaN             NaN             NaN
             NaN             NaN             NaN
             NaN             NaN             NaN
             NaN             NaN             NaN
             NaN             NaN             NaN
             NaN             NaN             NaN
             NaN             NaN             NaN
             NaN             NaN             NaN
             NaN             NaN             NaN
             NaN             NaN             NaN
             NaN             NaN             NaN
             NaN             NaN             NaN
             NaN             NaN             NaN
             NaN             NaN             NaN
             NaN             NaN             NaN
             NaN             NaN             NaN
             NaN             NaN             NaN
             NaN             NaN             NaN
             NaN             NaN             NaN
             NaN             NaN             NaN
             NaN             NaN             NaN
             NaN             NaN             NaN
             NaN             NaN             NaN
             NaN             NaN             NaN
             NaN             NaN             NaN
             NaN             NaN             NaN
             NaN             NaN             NaN
             NaN             NaN             NaN
             NaN             NaN             NaN
             NaN             NaN             NaN
             NaN             NaN             NaN
             NaN             NaN             NaN
             NaN             NaN             NaN
             NaN             NaN             NaN
             NaN             NaN             NaN
             NaN             NaN             NaN
             NaN             NaN             NaN
             NaN             NaN             NaN
             NaN             NaN             NaN
             NaN             NaN             NaN
             NaN             NaN             NaN
             NaN             NaN             NaN
             NaN             NaN             NaN
             NaN             NaN             NaN
             NaN             NaN             NaN
             NaN             NaN             NaN
             NaN             NaN             NaN
             NaN             NaN             NaN
             NaN             NaN             NaN
             NaN             NaN             NaN
             NaN             NaN             NaN
             NaN             NaN             NaN
             NaN             NaN             NaN
