Li46 P16 O64
1.0
10.649759 -0.005464 -0.012435
-0.006388 12.448082 -0.005999
-0.011731 -0.004862 10.081801
Li P O
46 16 64
direct
0.409537 0.250469 0.123753 Li
0.664921 0.250951 0.599883 Li
0.662484 0.749086 0.098536 Li
0.663506 0.751176 0.599534 Li
0.165300 0.493075 0.150697 Li
0.164143 0.499910 0.651522 Li
0.164891 -0.001956 0.150826 Li
0.164733 0.000054 0.651402 Li
0.338217 0.001725 0.399141 Li
0.338432 0.002106 0.905722 Li
0.340265 0.497790 0.394921 Li
0.337638 0.495682 0.907846 Li
0.833952 0.248669 0.346943 Li
0.833031 0.249175 0.853668 Li
0.837443 0.748505 0.349204 Li
0.837157 0.748824 0.849510 Li
0.339197 0.252681 0.387033 Li
0.337397 0.255281 0.912800 Li
0.337943 0.749383 0.399026 Li
0.337607 0.750012 0.903734 Li
0.838095 0.002053 0.348128 Li
0.837625 0.001859 0.849721 Li
0.834505 0.499822 0.348393 Li
0.833481 0.500120 0.851465 Li
0.652686 0.491581 0.095419 Li
0.665164 0.501774 0.598131 Li
0.663295 0.999808 0.099193 Li
0.663644 1.000751 0.599840 Li
0.164547 0.252480 0.649377 Li
0.164073 0.750867 0.151209 Li
0.164365 0.751766 0.651470 Li
0.925695 0.369736 0.149962 Li
0.923604 0.375142 0.650154 Li
0.925222 0.875664 0.149367 Li
0.926707 0.875914 0.649235 Li
0.429057 0.374521 0.604168 Li
0.430446 0.875986 0.103051 Li
0.427202 0.876317 0.600741 Li
0.076735 0.129716 0.343243 Li
0.075597 0.128508 0.856580 Li
0.074585 0.622539 0.350099 Li
0.074620 0.623450 0.852636 Li
0.573123 0.129416 0.396047 Li
0.571505 0.132628 0.908357 Li
0.573294 0.622390 0.399165 Li
0.570569 0.622390 0.898746 Li
0.911881 0.122158 0.098706 P
0.913258 0.124329 0.597492 P
0.909810 0.624932 0.098167 P
0.912269 0.626638 0.597622 P
0.408764 0.117952 0.151053 P
0.411112 0.124607 0.653399 P
0.407611 0.630157 0.150877 P
0.409970 0.626849 0.652657 P
0.088180 0.375006 0.405862 P
0.085163 0.376724 0.901232 P
0.089314 0.874660 0.403918 P
0.089108 0.874519 0.903429 P
0.592797 0.376323 0.350378 P
0.586653 0.375237 0.836893 P
0.591561 0.874417 0.348403 P
0.590587 0.874748 0.845965 P
0.839342 0.019437 0.147242 O
0.843199 0.021378 0.647827 O
0.838729 0.523527 0.148095 O
0.842548 0.525399 0.650437 O
0.335850 0.212697 0.093942 O
0.341917 0.226368 0.601064 O
0.344246 0.738530 0.107322 O
0.341250 0.730127 0.601332 O
0.157553 0.271689 0.362293 O
0.155196 0.274572 0.850253 O
0.158065 0.771509 0.353556 O
0.159103 0.772130 0.852470 O
0.661007 0.479723 0.406747 O
0.654230 0.477556 0.894867 O
0.661001 0.976976 0.399699 O
0.661456 0.976137 0.897226 O
0.158747 0.476810 0.353155 O
0.155398 0.478793 0.848419 O
0.159409 0.976422 0.353507 O
0.159207 0.976971 0.853647 O
0.661042 0.273420 0.405873 O
0.654524 0.272452 0.886977 O
0.660523 0.771706 0.400339 O
0.659144 0.771190 0.896127 O
0.847474 0.224766 0.152307 O
0.843480 0.225988 0.649091 O
0.840632 0.728434 0.148163 O
0.842514 0.729669 0.647356 O
0.341750 0.009936 0.108785 O
0.341845 0.021221 0.601554 O
0.328820 0.537063 0.095112 O
0.340767 0.525303 0.599001 O
0.546313 0.114356 0.099949 O
0.548885 0.123867 0.600932 O
0.545126 0.627059 0.097289 O
0.548251 0.627813 0.602142 O
0.049119 0.115832 0.149045 O
0.050643 0.123933 0.650895 O
0.047261 0.625534 0.151345 O
0.050063 0.627717 0.649620 O
0.454866 0.375775 0.404101 O
0.445626 0.375786 0.870226 O
0.453733 0.874561 0.400007 O
0.452917 0.874908 0.897279 O
0.950626 0.375502 0.352439 O
0.947215 0.375746 0.847217 O
0.951348 0.874536 0.351643 O
0.951722 0.874509 0.849494 O
0.600021 0.377972 0.199595 O
0.599176 0.378439 0.681890 O
0.593576 0.873123 0.193580 O
0.591090 0.875044 0.690577 O
0.082455 0.379854 0.054654 O
0.086258 0.378939 0.561200 O
0.087405 0.873096 0.058243 O
0.089430 0.874815 0.559269 O
0.410463 0.122856 0.307381 O
0.409957 0.123736 0.808200 O
0.410821 0.626243 0.306654 O
0.407935 0.626739 0.807592 O
0.912947 0.124264 0.442418 O
0.909934 0.123843 0.942809 O
0.911633 0.625405 0.442459 O
0.910345 0.625596 0.942627 O
