Li16 Co18 O36                           
   1.00000000000000     
     8.0633520000000001    0.0216390000000000    2.3671690000000001
     3.6626080000000001    7.1811160000000003    2.3717779999999999
     0.0313660000000000    0.0121200000000000    9.8894839999999995
   Li   Co   O 
    16    18    36
Direct
  0.7323893581000861  0.3993548392187902  0.4847479908973065
  0.3340152145540082  0.3335003161819676 -0.0009729841675478
  0.3317965177434762  0.3343334357622734  0.4988000090716603
  0.3336902440603278  0.6673148256225838  0.0005509171388820
  0.3456412104359090  0.6622835899515230  0.5005059340230837
  0.3339263597119280  0.0001529547996385 -0.0007454430214267
  0.3335264562601627  0.0006842565014845  0.4990616627618624
  0.6672129950817133  0.3340529031116827 -0.0001297019832523
  0.6654389521373574  0.6681543464440377 -0.0006125434130929
  0.6667067455473058  0.0005381171385760  0.9996208108996149
  0.6682494526465742  0.9980106714114534  0.4988647502611582
  0.0018716465530072  0.3320677901654994 -0.0008748641855840
  1.0010598104131827  0.6670565362544318 -0.0002340430553921
  0.9839328883815938  0.6502668053462943  0.5001029626447678
  0.0006348505428714  0.0001243710814256  0.0007289556865691
  0.9955051798819928  0.0127352579808184  0.5003951072047428
  0.1684568211880939  0.1689340283328927  0.2484107383984910
  0.1655070823559742  0.1655616385161225  0.7483752461914810
  0.1673147603019187  0.5004675904778392  0.2476725762438687
  0.1666114239249329  0.4990427761944157  0.7520832682319942
  0.1661274237481214  0.8342988701626085  0.2501315338382127
  0.1650774622046507  0.8311542907011188  0.7533990569492762
  0.5016354602232518  0.1696751712963502  0.2445946420599907
  0.5006715760310929  0.1656090291757472  0.7486057985536916
  0.5008283629312622  0.5011263774126141  0.2483457447234224
  0.4985078109780632  0.4992917241527364  0.7520231660336439
  0.5009448199678119  0.8358684229019512  0.2491579873834394
  0.5003863406222135  0.8315626743322454  0.7478928817736847
  0.8335938625360185  0.1686004432031061  0.2478267080099437
  0.8331319818277050  0.1641130913962254  0.7526616197252946
  0.8349400896039147  0.5024768611140371  0.2438745700472724
  0.8343816878670266  0.4992124452831347  0.7515428371233256
  0.8324576332133226  0.8351519461025029  0.2476618093579042
  0.8334579820697623  0.8322681305616172  0.7536258276124885
  0.2600391026626603  0.2543323469767511  0.3520083815298594
  0.2540616809898811  0.2508710563798862  0.8584446117263361
  0.2536924475474646  0.5869232993774418  0.3574976749951110
  0.2529705757272763  0.5845167135680098  0.8630719274327322
  0.2540411839532047  0.9221415022792445  0.3583536469332221
  0.2540270078492878  0.9193810422645746  0.8594269388616474
  0.5869407714589696  0.2542521846178588  0.3529935138239614
  0.5851896506308542  0.2513885202665857  0.8608249869011321
  0.5881482322821762  0.5893561625471997  0.3518542107624242
  0.5858408012068348  0.5873456908859017  0.8605537607633681
  0.5865236967774906  0.9278705506113747  0.3521998300109777
  0.5849903988889084  0.9196222569245345  0.8590923329287902
  0.9220831992152282  0.2556043260119089  0.3514275522905648
  0.9213793458792807  0.2514027336074676  0.8610037725714531
  0.9221488437894154  0.5897804681844195  0.3483387100994840
  0.9200978302121695  0.5850018398659668  0.8626195628544533
  0.9190898538429790  0.9216686313777914  0.3572721578111859
  0.9188306207177185  0.9187223756669731  0.8640642298092029
  0.0814030194961336  0.0804761406851180  0.1398058308437320
  0.0787537736419155  0.0738320239795667  0.6460865305041051
  0.0825820656191638  0.4139700203179469  0.1367085034693298
  0.0799744259967926  0.4136226777284155  0.6456326467460340
  0.0805367092757154  0.7483196869749266  0.1394468509650590
  0.0788798820919141  0.7453558150231395  0.6451089805758906
  0.4138473671152267  0.0810978488022608  0.1374738992801740
  0.4131507182157146  0.0789711877562885  0.6393223782006502
  0.4140099749422028  0.4169805403835676  0.1366219650340652
  0.4112044238102685  0.4136465628085658  0.6439460709190921
  0.4126957703329254  0.7488930384938697  0.1403079992233351
  0.4079126542824884  0.7451524009741491  0.6457087148953100
  0.7490454084185791  0.0817429930617917  0.1365516550970589
  0.7482978226229533  0.0763401534404326  0.6445495796200900
  0.7468303105359071  0.4146646133317706  0.1368106713502961
  0.7441159149242433  0.4096154990192394  0.6567894829627866
  0.7460246234722938  0.7500355542872745  0.1370489957228942
  0.7486619491166006  0.7457063239504829  0.6462848362429554
 
             NaN             NaN             NaN
             NaN             NaN             NaN
             NaN             NaN             NaN
             NaN             NaN             NaN
             NaN             NaN             NaN
             NaN             NaN             NaN
             NaN             NaN             NaN
             NaN             NaN             NaN
             NaN             NaN             NaN
             NaN             NaN             NaN
             NaN             NaN             NaN
             NaN             NaN             NaN
             NaN             NaN             NaN
             NaN             NaN             NaN
             NaN             NaN             NaN
             NaN             NaN             NaN
             NaN             NaN             NaN
             NaN             NaN             NaN
             NaN             NaN             NaN
             NaN             NaN             NaN
             NaN             NaN             NaN
             NaN             NaN             NaN
             NaN             NaN             NaN
             NaN             NaN             NaN
             NaN             NaN             NaN
             NaN             NaN             NaN
             NaN             NaN             NaN
             NaN             NaN             NaN
             NaN             NaN             NaN
             NaN             NaN             NaN
             NaN             NaN             NaN
             NaN             NaN             NaN
             NaN             NaN             NaN
             NaN             NaN             NaN
             NaN             NaN             NaN
             NaN             NaN             NaN
             NaN             NaN             NaN
             NaN             NaN             NaN
             NaN             NaN             NaN
             NaN             NaN             NaN
             NaN             NaN             NaN
             NaN             NaN             NaN
             NaN             NaN             NaN
             NaN             NaN             NaN
             NaN             NaN             NaN
             NaN             NaN             NaN
             NaN             NaN             NaN
             NaN             NaN             NaN
             NaN             NaN             NaN
             NaN             NaN             NaN
             NaN             NaN             NaN
             NaN             NaN             NaN
             NaN             NaN             NaN
             NaN             NaN             NaN
             NaN             NaN             NaN
             NaN             NaN             NaN
             NaN             NaN             NaN
             NaN             NaN             NaN
             NaN             NaN             NaN
             NaN             NaN             NaN
             NaN             NaN             NaN
             NaN             NaN             NaN
             NaN             NaN             NaN
             NaN             NaN             NaN
             NaN             NaN             NaN
             NaN             NaN             NaN
             NaN             NaN             NaN
             NaN             NaN             NaN
             NaN             NaN             NaN
             NaN             NaN             NaN
