Li16 Co18 O36
1.0
8.063352 0.021639 2.367169
3.662608 7.181116 2.371778
0.031366 0.012120 9.889484
Li Co O
16 18 36
direct
0.738004 0.405246 0.464921 Li
0.333589 0.334298 0.000045 Li
0.324624 0.335100 0.499174 Li
0.333855 0.667699 0.000539 Li
0.342633 0.667075 0.501398 Li
0.333710 0.001002 0.000180 Li
0.333582 0.001208 0.500299 Li
0.667406 0.334523 0.000373 Li
0.666834 0.668005 0.000309 Li
0.667235 0.000873 0.999951 Li
0.667741 0.992086 0.499095 Li
0.000513 0.334190 0.000365 Li
0.999969 0.667407 0.000381 Li
0.984844 0.651621 0.500151 Li
0.000029 0.001216 0.000604 Li
0.999710 0.010041 0.501474 Li
0.166429 0.167457 0.251794 Co
0.165334 0.165643 0.748487 Co
0.167470 0.499878 0.248394 Co
0.165891 0.498379 0.750748 Co
0.166045 0.833851 0.250578 Co
0.164873 0.830837 0.753719 Co
0.501330 0.168169 0.246244 Co
0.500336 0.165433 0.749018 Co
0.500679 0.500826 0.248955 Co
0.499004 0.499486 0.751073 Co
0.500313 0.833907 0.251404 Co
0.500079 0.831687 0.747878 Co
0.833907 0.166840 0.249433 Co
0.833884 0.165281 0.750676 Co
0.833645 0.499751 0.252398 Co
0.832496 0.499480 0.747178 Co
0.832759 0.833712 0.248882 Co
0.833171 0.831430 0.750582 Co
0.259343 0.253822 0.353731 O
0.253552 0.251240 0.858752 O
0.253564 0.586672 0.357634 O
0.252379 0.583856 0.862830 O
0.253477 0.920618 0.360305 O
0.253605 0.919425 0.860160 O
0.587078 0.254149 0.356158 O
0.586090 0.251766 0.859877 O
0.586231 0.586666 0.355969 O
0.586539 0.586799 0.859287 O
0.586584 0.926178 0.353860 O
0.585860 0.919146 0.858594 O
0.919465 0.252882 0.356486 O
0.919993 0.253227 0.859362 O
0.924055 0.590378 0.349380 O
0.918871 0.584959 0.859721 O
0.919318 0.920161 0.358132 O
0.917695 0.918787 0.862727 O
0.080907 0.080270 0.141209 O
0.080013 0.073137 0.646137 O
0.079855 0.412864 0.140568 O
0.079962 0.413071 0.643921 O
0.080510 0.747930 0.139725 O
0.079555 0.745153 0.643703 O
0.412794 0.080228 0.139785 O
0.412714 0.079080 0.639758 O
0.414318 0.415630 0.137107 O
0.412965 0.412959 0.641993 O
0.412925 0.748374 0.141057 O
0.407135 0.745822 0.646163 O
0.748655 0.080771 0.137456 O
0.747395 0.078806 0.641784 O
0.747805 0.414104 0.140359 O
0.742570 0.409105 0.650435 O
0.745936 0.746655 0.140628 O
0.747126 0.746507 0.643455 O
