Li7 Mn16 O32                            
   1.00000000000000     
     8.3767770000000006    0.0666860000000000    0.0125950000000000
     0.0205160000000000    8.1941989999999993    0.0273940000000000
    -0.0171270000000000    0.0049620000000000    8.2525429999999993
   Li   Mn   O 
     7    16    32
Direct
  0.3490618624725477  0.4031325265353983  0.8430147920168664
  0.8789614631775214  0.8743593646324476  0.8785931298564830
  0.1153151064529262  0.1308932359617622  0.1210642590233906
  0.8823015479565317  0.3754194908080269  0.3786738028700724
  0.3767625369863803  0.8770515997836071  0.3786806408484575
  0.6137822952686620  0.1298781763328390  0.6227218532886708
  0.6179492765524760  0.6296009200692251  0.1142380865901319
  0.5024613528223596  0.2532741361359725  0.2454519570048804
  0.2595683693796997  0.5030182198258482  0.2391463260619958
  0.2528553061537520  0.2509681439602670  0.4974300976321892
  0.5026708940166640  0.4974763351022059  0.4900753153092313
  0.4946555347903709  0.7523600769692474  0.7492060861854556
  0.7466982487126487  0.4953962439143620  0.7392987916427516
  0.7394129077617291  0.7541938024325544  0.4948416552550998
  0.2451205308049418  0.0056886604729192  0.7563842557400533
  0.2507290546998125  0.7547195328080458  1.0027196937489637
  0.4948825934077472  0.0085665213568885  0.0002534790873903
  0.7439753655106494  0.0038385848913073  0.2540250536072633
  0.7471234155807170  0.2512557905780937  0.9969320349241920
  0.9952629640420769  0.2536773785948213  0.7457409042351276
  0.9986220316159838  0.5008803922365913  0.9954678686168844
  0.9970359848837780  0.7490011673029375  0.2538376268840544
  0.9954149376681738  0.0004327721046385  0.5032286501453168
  0.7516531377915133  0.0154280105067234  0.0253127169250143
  0.0194974238142958  0.7366643966268136  0.0170374210004114
  0.0120148463166885  0.0157144452611012  0.7378243494242747
  0.7287244303623410  0.7336684756910024  0.7310671769622018
  0.2380680665894475  0.9842455238690971  0.9873072149396251
  0.9793671874784503  0.2663509256868809  0.9789269066313225
  0.9725157231706917  0.9952257462158368  0.2694088638867241
  0.2752531391212695  0.2702255334091112  0.2377184660732646
  0.7338592788415318  0.5168339759392849  0.5030508194791836
  0.0161583745520333  0.2401248668154196  0.5161005555224542
  0.0309413343553693  0.5048457435334572  0.2348820889666267
  0.7294613789261838  0.2358556585273114  0.2576283875851503
  0.2756228640175217  0.4867292732989632  0.4719955043908208
  0.9649376486764424  0.7629121425873652  0.4834807722618374
  0.9741319509105473  0.4851114809440228  0.7564515084643375
  0.2650728253999348  0.7716710576891306  0.7691477223222398
  0.2520736580155854  0.0185363280672161  0.5250525236223760
  0.5100757569752885  0.7304961611651570  0.5073159255044869
  0.5133006585928029  0.0206839971252470  0.2383548196596690
  0.2527644510352273  0.7358173423007554  0.2330210967514659
  0.7349195474581096  0.9817057867643698  0.4858519097251537
  0.4898328389616129  0.2658427071535635  0.4761781233129995
  0.4703067743097225  0.0132258370424734  0.7693805023157847
  0.7685997107822728  0.2657934220821682  0.7351614107427448
  0.2566498427189565  0.5243774338990060  0.0115686340490485
  0.5165095948649782  0.2434697705090550  0.0170260616450864
  0.5178257965797886  0.4916700450537591  0.7168307082763239
  0.2205267301008925  0.2379478621631781  0.7559731007737756
  0.7415969957803127  0.4880422022073284  0.9669708577111368
  0.4790066224692172  0.7711189784366012  0.9878236133651784
  0.4917677374379940  0.4882329932059379  0.2565783772207666
  0.7419109767032465  0.7696682621943911  0.2645193892080009
 
             NaN             NaN             NaN
             NaN             NaN             NaN
             NaN             NaN             NaN
             NaN             NaN             NaN
             NaN             NaN             NaN
             NaN             NaN             NaN
             NaN             NaN             NaN
             NaN             NaN             NaN
             NaN             NaN             NaN
             NaN             NaN             NaN
             NaN             NaN             NaN
             NaN             NaN             NaN
             NaN             NaN             NaN
             NaN             NaN             NaN
             NaN             NaN             NaN
             NaN             NaN             NaN
             NaN             NaN             NaN
             NaN             NaN             NaN
             NaN             NaN             NaN
             NaN             NaN             NaN
             NaN             NaN             NaN
             NaN             NaN             NaN
             NaN             NaN             NaN
             NaN             NaN             NaN
             NaN             NaN             NaN
             NaN             NaN             NaN
             NaN             NaN             NaN
             NaN             NaN             NaN
             NaN             NaN             NaN
             NaN             NaN             NaN
             NaN             NaN             NaN
             NaN             NaN             NaN
             NaN             NaN             NaN
             NaN             NaN             NaN
             NaN             NaN             NaN
             NaN             NaN             NaN
             NaN             NaN             NaN
             NaN             NaN             NaN
             NaN             NaN             NaN
             NaN             NaN             NaN
             NaN             NaN             NaN
             NaN             NaN             NaN
             NaN             NaN             NaN
             NaN             NaN             NaN
             NaN             NaN             NaN
             NaN             NaN             NaN
             NaN             NaN             NaN
             NaN             NaN             NaN
             NaN             NaN             NaN
             NaN             NaN             NaN
             NaN             NaN             NaN
             NaN             NaN             NaN
             NaN             NaN             NaN
             NaN             NaN             NaN
             NaN             NaN             NaN
