Li7 Mn16 O32                            
   1.00000000000000     
     8.3767770000000006    0.0666860000000000    0.0125950000000000
     0.0205160000000000    8.1941989999999993    0.0273940000000000
    -0.0171270000000000    0.0049620000000000    8.2525429999999993
   Li   Mn   O 
     7    16    32
Direct
  0.3310348442766095  0.4215593811841183  0.8244673557392276
  0.8792534611537665  0.8741057993169908  0.8788827190629570
  0.1159613289387590  0.1307996864241632  0.1206809529163788
  0.8822523061404315  0.3752408529366350  0.3787917817918104
  0.3770632150259318  0.8768754214992920  0.3788701219997805
  0.6133198903742058  0.1300982614317716  0.6231569306964794
  0.6179656825971691  0.6290658061474339  0.1140850904583677
  0.5026946687458997  0.2520640210971474  0.2450766906156708
  0.2589705427484971  0.5002829531940527  0.2383724095433547
  0.2518696918381156  0.2498159484523516  0.4971281479336820
  0.5039145609706103  0.4970001082094402  0.4913230939011812
  0.4931631985768350  0.7525247855817488  0.7497447503016876
  0.7453146430848330  0.4955451841578714  0.7392679889188375
  0.7388557704435943  0.7549475328238265  0.4948479983293814
  0.2454191289018593  0.0050550888253755  0.7567480704340850
  0.2519683168624637  0.7546105867215145 -0.0004527742276974
  0.4954608743532015  0.0086004867113527  0.0004332241045377
  0.7440228671733317  0.0039401920066699  0.2549071126741203
  0.7476792803462695  0.2510030572408081  0.9974718225052199
  0.9958712313692858  0.2528250342362198  0.7460435089595869
 -0.0013518156041305  0.5006930649664694  0.9958947877811027
  0.9968137512872188  0.7499608205740612  0.2538165937076434
  0.9952442795750482  1.0010473464735334  0.5045099943462155
  0.7522281008744939  0.0146229444973719  0.0254839458560574
  0.0198780108663594  0.7364989494237877  0.0176089580526615
  0.0115981666580676  0.0153511274086096  0.7379614813677107
  0.7296109442757368  0.7336740356683833  0.7310882377788238
  0.2383835467236489  0.9843756490792104  0.9873937498172045
  0.9792759187921966  0.2664115668794937  0.9790875890529631
  0.9726542893989162  0.9944988180458685  0.2698815670562402
  0.2754292106701250  0.2711273881355334  0.2377743462310349
  0.7340350098636815  0.5168599009346421  0.5030311768711564
  0.0156948051778413  0.2398162021317523  0.5160896377441444
  0.0314222738174551  0.5048059958163731  0.2356236583565928
  0.7297919944182079  0.2356596564892452  0.2581871586302840
  0.2754395809536352  0.4868540650584740  0.4721993529526392
  0.9651309998454057  0.7620521459684512  0.4837177495648287
  0.9749153265872466  0.4848514559288932  0.7562714950646970
  0.2659348744693860  0.7712626725370086  0.7698786170101301
  0.2515174079884198  0.0182936329243859  0.5246884221235775
  0.5106703765555317  0.7304743325877960  0.5068989531656923
  0.5137017161578077  0.0204246376959192  0.2392243928530141
  0.2534731681671954  0.7361871683727276  0.2343844928105331
  0.7348131541042083  0.9813177193896639  0.4860058054100430
  0.4897008481110249  0.2659671152709325  0.4763426064760638
  0.4703839199335210  0.0127614268205476  0.7693905918787916
  0.7683834297016195  0.2657496268704706  0.7353262994718579
  0.2563032050941915  0.5253773036207398  0.0121503080582903
  0.5181723008437524  0.2424005173838338  0.0181136121770162
  0.5182127640294396  0.4922443243785014  0.7162739871389038
  0.2196083864836211  0.2380904286299208  0.7550186844435981
  0.7423012056564420  0.4882768166115279  0.9667817475380733
  0.4796869253902999  0.7716457264703005  0.9884842481476208
  0.4918310994918183  0.4884427946040751  0.2564445538937352
  0.7420952459249174  0.7693946097943376  0.2645857638532942
 
             NaN             NaN             NaN
             NaN             NaN             NaN
             NaN             NaN             NaN
             NaN             NaN             NaN
             NaN             NaN             NaN
             NaN             NaN             NaN
             NaN             NaN             NaN
             NaN             NaN             NaN
             NaN             NaN             NaN
             NaN             NaN             NaN
             NaN             NaN             NaN
             NaN             NaN             NaN
             NaN             NaN             NaN
             NaN             NaN             NaN
             NaN             NaN             NaN
             NaN             NaN             NaN
             NaN             NaN             NaN
             NaN             NaN             NaN
             NaN             NaN             NaN
             NaN             NaN             NaN
             NaN             NaN             NaN
             NaN             NaN             NaN
             NaN             NaN             NaN
             NaN             NaN             NaN
             NaN             NaN             NaN
             NaN             NaN             NaN
             NaN             NaN             NaN
             NaN             NaN             NaN
             NaN             NaN             NaN
             NaN             NaN             NaN
             NaN             NaN             NaN
             NaN             NaN             NaN
             NaN             NaN             NaN
             NaN             NaN             NaN
             NaN             NaN             NaN
             NaN             NaN             NaN
             NaN             NaN             NaN
             NaN             NaN             NaN
             NaN             NaN             NaN
             NaN             NaN             NaN
             NaN             NaN             NaN
             NaN             NaN             NaN
             NaN             NaN             NaN
             NaN             NaN             NaN
             NaN             NaN             NaN
             NaN             NaN             NaN
             NaN             NaN             NaN
             NaN             NaN             NaN
             NaN             NaN             NaN
             NaN             NaN             NaN
             NaN             NaN             NaN
             NaN             NaN             NaN
             NaN             NaN             NaN
             NaN             NaN             NaN
             NaN             NaN             NaN
