Li47 P16 O64                            
   1.00000000000000     
    10.4524179999999998   -0.0015840000000000   -0.0133070000000000
    -0.0018230000000000   12.2190840000000005   -0.0029440000000000
    -0.0125660000000000   -0.0023670000000000    9.8355270000000008
   Li   P    O 
    47    16    64
Direct
  0.5322386509000240  0.2849238284481169  0.0683985940118790
  0.6647703091553665  0.2513816812408942  0.5986844981713829
  0.6635407925825589  0.7511372005051591  0.0977906202775411
  0.6644367628309896  0.7514983206900432  0.5984830498017540
  0.1649290978511234  0.4976387233685957  0.1523610554445359
  0.1650587362285528  0.4987058693979451  0.6521530431317408
  0.1633989116732832  0.9950283244005554  0.1532939298215735
  0.1640484223972083  0.9987854921285719  0.6525944881355993
  0.3357370055857364  0.0000108302071510  0.4032310928521925
  0.3364006986101170  0.0004698915047423  0.9031359279430071
  0.3386148286457312  0.4997867640520010  0.3965571563341147
  0.3383579562507268  0.4967596919272705  0.9121326439468911
  0.8326486876315731  0.2494232629921047  0.3426073252326401
  0.8332108115621755  0.2495497326678137  0.8566571024652627
  0.8362658110758835  0.7487441354345693  0.3477099717483739
  0.8365328978002807  0.7487304165851840  0.8477828386832772
  0.3373309733932480  0.2508931021203982  0.3985766224938448
  0.3330826931433339  0.2514079182254985  0.9031624090825119
  0.3369587884777545  0.7498261396091330  0.4013175951396737
  0.3367517473014940  0.7490648944954239  0.9050711242672749
  0.8369683902209895  0.0025779483016905  0.3476731534419290
  0.8376457175929004  0.0014598628527654  0.8483947238732280
  0.8340789700648992  0.5008230233471598  0.3478723629379060
  0.8352000472998762  0.5012393586859684  0.8488147464179184
  0.6585930038109877  0.4972420937954275  0.0971589745197532
  0.6646792811078718  0.5017274764559247  0.5987085176548520
  0.6668749310685222  0.0043836915865901  0.1002105952783132
  0.6643179751828657  0.0005996362045246  0.5977606408365492
  0.1659998780469673  0.2518683803086546  0.1501599207838710
  0.1634772915433977  0.2507923101920336  0.6520602437893993
  0.1650620323697057  0.7504846837457351  0.1523079528513919
  0.1645928910762693  0.7509078002779143  0.6528977057694452
  0.9193021877060582  0.3741806930939216  0.1475540692262439
  0.9229025903833435  0.3743346846622772  0.6496616978160803
  0.9230538582866269  0.8756043674084145  0.1494304209985799
  0.9236139930433673  0.8752756135923218  0.6487972384124910
  0.4235410606106548  0.3757721584608620  0.6006589289458983
  0.4284816478511749  0.8756678322541177  0.1007723330146403
  0.4251618990248026  0.8752924407143585  0.6015986254212851
  0.0759301833959104  0.1258077086635090  0.3480521846690580
  0.0765325055614164  0.1249329459214111  0.8529292302484135
  0.0765746797841499  0.6239600985223562  0.3508027776427227
  0.0777263230684603  0.6237786360720498  0.8523041890350413
  0.5764146775272895  0.1283186491110162  0.3965560850187809
  0.5798660048213538  0.1246706598037508  0.9000692583871830
  0.5760319067666940  0.6248637805854883  0.4000363905742579
  0.5740597235189520  0.6245741960959461  0.8993305179787532
  0.9160338292264087  0.1252783273776260  0.0960701735680053
  0.9123680511963277  0.1252769580644462  0.5959254102589631
  0.9110883677524197  0.6254395402198212  0.0955732143235896
  0.9127759074628257  0.6252782853267765  0.5954685270134155
  0.4073274351482168  0.1183669522411409  0.1543397961527228
  0.4115097821076081  0.1248670324446482  0.6551683480231176
  0.4098557730653247  0.6296077233985434  0.1543824591283329
  0.4109901696670732  0.6259200672919997  0.6551454354611034
  0.0872731511170380  0.3753677860348039  0.4047834233490167
  0.0867447121835952  0.3753203402775563  0.9047835763957199
  0.0876810983284017  0.8744462889532327  0.4054958268510358
  0.0880426398618194  0.8740395697734816  0.9048638004059445
  0.5895237713983478  0.3768550028233181  0.3494369751927300
  0.5875294110487799  0.3759714271150585  0.8387504375808897
  0.5899082455267444  0.8761668888397696  0.3458005089935624
  0.5898508812356298  0.8753581456071776  0.8451131223447241
  0.8451971341788261  0.0219753687675887  0.1480865798808772
  0.8424163284353481  0.0215755358252611  0.6464557231390248
  0.8395492064805717  0.5232810654243318  0.1463593804062596
  0.8429958068596369  0.5227175811874271  0.6480127377592483
  0.3390008468542129  0.2197667783537167  0.0983135781218076
  0.3406934457264432  0.2272308994579211  0.6028327167709243
  0.3447189047527716  0.7374450413796990  0.1080605672279660
  0.3417119848584790  0.7297573448067757  0.6036303500173824
  0.1570158652289305  0.2723083567830762  0.3526213486427973
  0.1558775020817817  0.2718882740560595  0.8527212457416739
  0.1576388970599299  0.7714678653963010  0.3539309702454170
  0.1586464405558066  0.7711228808178451  0.8537248548025674
  0.6591506008430615  0.4801866767874677  0.4041231725668292
  0.6568250713435811  0.4790192789938623  0.8928992025233772
  0.6593629859196670  0.9795063048960305  0.3978503208047673
  0.6604923284791103  0.9777989302292452  0.8975950156532553
  0.1580497950247506  0.4783261265464125  0.3541310039688067
  0.1578395689478769  0.4775487125230043  0.8525503320967348
  0.1576598840279692  0.9774922150442348  0.3545794268236412
  0.1585728981245154  0.9769456761121718  0.8537288521274230
  0.6592457759202678  0.2735726815983021  0.4028138787160845
  0.6541053835846298  0.2721446423932934  0.8914719496805712
  0.6597160405093261  0.7729861285381894  0.3978910974314794
  0.6590705396376800  0.7716677340297018  0.8960884464769118
  0.8532097476329892  0.2284138897889457  0.1497302392309271
  0.8426195604644175  0.2273864190856789  0.6498044897511616
  0.8414514067324732  0.7291236210135608  0.1464326156730132
  0.8425576678013305  0.7284844341753390  0.6467048772393822
  0.3391905416983039  0.0133154887908356  0.1064917513024138
  0.3417979535501011  0.0210690102604787  0.6038927091716335
  0.3320681158356578  0.5341568085398876  0.1002440097153291
  0.3413644168156929  0.5237070082427502  0.6008765425927893
  0.5449024144050327  0.1217542090508669  0.1002880264230221
  0.5500463457029254  0.1249458285584832  0.6029741343179305
  0.5484241500573738  0.6274927264380584  0.1006970961546536
  0.5502892703176299  0.6272774969101037  0.6048184424643519
  0.0569723363263554  0.1206916515661334  0.1437955630738876
  0.0513543106748360  0.1241750123085796  0.6479731747823649
  0.0495032930299214  0.6251178050081833  0.1486603698900760
  0.0516053590914785  0.6255205030961822  0.6475594168785318
  0.4511607867775998  0.3753202272640078  0.4035532332531850
  0.4492174203865925  0.3731007513236770  0.8895904220745947
  0.4512230557079634  0.8756655708231156  0.3976998317743385
  0.4510230174139136  0.8754814841076131  0.8961159265371331
  0.9484115296773002  0.3765691350100790  0.3537123660938727
  0.9478634922106860  0.3758395501124466  0.8525048167649212
  0.9488124274790217  0.8746884707340655  0.3535955367602082
  0.9497150551132519  0.8743637923465598  0.8511886905297985
  0.5927404208504751  0.3800523846751844  0.1955388633820764
  0.5907642180769946  0.3776038067076466  0.6822780384764326
  0.5924418182431896  0.8766159448717133  0.1890414870881259
  0.5910009020586307  0.8759942596709180  0.6881659944743230
  0.0871647396812362  0.3754196919061802  0.0613076088583934
  0.0888775477514757  0.3747448873243155  0.5619448870243482
  0.0872679971284227  0.8731146045380076  0.0614905933558220
  0.0888217227099978  0.8743692928630249  0.5624169781601794
  0.4081878360087889  0.1221540555627236  0.3114195055799772
  0.4107407837578513  0.1248665954449748  0.8120638508919067
  0.4123456488283947  0.6272745436173797  0.3118050958528375
  0.4087464786729766  0.6247172065366933  0.8119232919476802
  0.9113543624367961  0.1261730246080231  0.4390753888157443
  0.9123514141336806  0.1238101586379206  0.9385953620434829
  0.9114705932113285  0.6251833815081629  0.4386222605293499
  0.9114161203037864  0.6255714221584848  0.9384926525721173
 
             NaN             NaN             NaN
             NaN             NaN             NaN
             NaN             NaN             NaN
             NaN             NaN             NaN
             NaN             NaN             NaN
             NaN             NaN             NaN
             NaN             NaN             NaN
             NaN             NaN             NaN
             NaN             NaN             NaN
             NaN             NaN             NaN
             NaN             NaN             NaN
             NaN             NaN             NaN
             NaN             NaN             NaN
             NaN             NaN             NaN
             NaN             NaN             NaN
             NaN             NaN             NaN
             NaN             NaN             NaN
             NaN             NaN             NaN
             NaN             NaN             NaN
             NaN             NaN             NaN
             NaN             NaN             NaN
             NaN             NaN             NaN
             NaN             NaN             NaN
             NaN             NaN             NaN
             NaN             NaN             NaN
             NaN             NaN             NaN
             NaN             NaN             NaN
             NaN             NaN             NaN
             NaN             NaN             NaN
             NaN             NaN             NaN
             NaN             NaN             NaN
             NaN             NaN             NaN
             NaN             NaN             NaN
             NaN             NaN             NaN
             NaN             NaN             NaN
             NaN             NaN             NaN
             NaN             NaN             NaN
             NaN             NaN             NaN
             NaN             NaN             NaN
             NaN             NaN             NaN
             NaN             NaN             NaN
             NaN             NaN             NaN
             NaN             NaN             NaN
             NaN             NaN             NaN
             NaN             NaN             NaN
             NaN             NaN             NaN
             NaN             NaN             NaN
             NaN             NaN             NaN
             NaN             NaN             NaN
             NaN             NaN             NaN
             NaN             NaN             NaN
             NaN             NaN             NaN
             NaN             NaN             NaN
             NaN             NaN             NaN
             NaN             NaN             NaN
             NaN             NaN             NaN
             NaN             NaN             NaN
             NaN             NaN             NaN
             NaN             NaN             NaN
             NaN             NaN             NaN
             NaN             NaN             NaN
             NaN             NaN             NaN
             NaN             NaN             NaN
             NaN             NaN             NaN
             NaN             NaN             NaN
             NaN             NaN             NaN
             NaN             NaN             NaN
             NaN             NaN             NaN
             NaN             NaN             NaN
             NaN             NaN             NaN
             NaN             NaN             NaN
             NaN             NaN             NaN
             NaN             NaN             NaN
             NaN             NaN             NaN
             NaN             NaN             NaN
             NaN             NaN             NaN
             NaN             NaN             NaN
             NaN             NaN             NaN
             NaN             NaN             NaN
             NaN             NaN             NaN
             NaN             NaN             NaN
             NaN             NaN             NaN
             NaN             NaN             NaN
             NaN             NaN             NaN
             NaN             NaN             NaN
             NaN             NaN             NaN
             NaN             NaN             NaN
             NaN             NaN             NaN
             NaN             NaN             NaN
             NaN             NaN             NaN
             NaN             NaN             NaN
             NaN             NaN             NaN
             NaN             NaN             NaN
             NaN             NaN             NaN
             NaN             NaN             NaN
             NaN             NaN             NaN
             NaN             NaN             NaN
             NaN             NaN             NaN
             NaN             NaN             NaN
             NaN             NaN             NaN
             NaN             NaN             NaN
             NaN             NaN             NaN
             NaN             NaN             NaN
             NaN             NaN             NaN
             NaN             NaN             NaN
             NaN             NaN             NaN
             NaN             NaN             NaN
             NaN             NaN             NaN
             NaN             NaN             NaN
             NaN             NaN             NaN
             NaN             NaN             NaN
             NaN             NaN             NaN
             NaN             NaN             NaN
             NaN             NaN             NaN
             NaN             NaN             NaN
             NaN             NaN             NaN
             NaN             NaN             NaN
             NaN             NaN             NaN
             NaN             NaN             NaN
             NaN             NaN             NaN
             NaN             NaN             NaN
             NaN             NaN             NaN
             NaN             NaN             NaN
             NaN             NaN             NaN
             NaN             NaN             NaN
             NaN             NaN             NaN
             NaN             NaN             NaN
