Li47 P16 O64                            
   1.00000000000000     
    10.5703929999999993    0.0004740000000000   -0.0047370000000000
     0.0005530000000000   12.3346689999999999   -0.0014290000000000
    -0.0044630000000000   -0.0011370000000000    9.9822649999999999
   Li   P    O 
    47    16    64
Direct
  0.5553227587397487  0.2760617629190446  0.0708332885550933
  0.6650924059576442  0.2499782590342585  0.6001212215860232
  0.6642716749619526  0.7516934187038461  0.0983326705169763
  0.6645338672998701  0.7515861285590991  0.5996229429597565
  0.1634712790035127  0.4977425358608301  0.1511035542238889
  0.1644439034649128  0.4991116837996365  0.6516465246011467
  0.1638404268408577  0.9944304259592013  0.1540085975016303
  0.1636422893908610  0.9986476211551443  0.6516878141902364
  0.3361320451487200  0.9996180312772651  0.4019334328594652
  0.3359174873084895  0.0005569441180014  0.9014764857341836
  0.3373164852221185  0.5009128397693566  0.3983669165790885
  0.3378518935245656  0.4974761633318194  0.9080484180436960
  0.8349819589985312  0.2493740398841390  0.3476568611155984
  0.8333074233864595  0.2500840237086471  0.8553201585566140
  0.8367771379449848  0.7489245164866564  0.3495967845321015
  0.8369504569215096  0.7488993739815019  0.8489231564591386
  0.3373601569022566  0.2496086646378697  0.3970473946189421
  0.3343129321759994  0.2518452947153388  0.9040027763852411
  0.3365555231810657  0.7500243421710364  0.4014104051572617
  0.3368540822160603  0.7501671439664458  0.9013834516036429
  0.8369338779410254  0.0017074701617494  0.3508659197441422
  0.8374442847474461  0.0011949044194530  0.8488241923734440
  0.8356751317187605  0.5021342857010717  0.3486933735267501
  0.8360129726654316  0.5017626743062026  0.8493387630512367
  0.6597691055130765  0.4984357364308699  0.0964635096611416
  0.6655062261461621  0.5020669948370025  0.5997886095066730
  0.6651907545737141  0.0024683145426287  0.1003698852257568
  0.6642696614509579  0.9996684638706574  0.5985204493360887
  0.1669045655590508  0.2527329589482671  0.1491453078650679
  0.1634740402040950  0.2508212808048271  0.6513471911619177
  0.1629744729656061  0.7513850782865233  0.1518546509638785
  0.1640160083946252  0.7510444880968673  0.6522179647384531
  0.9221808263189690  0.3764818566711156  0.1466305479458554
  0.9247055057216081  0.3746236496493999  0.6501998548540430
  0.9240839153578055  0.8749027159079100  0.1500277949047751
  0.9250913858916207  0.8751206570432664  0.6490497014012028
  0.4239332961844535  0.3758204568439477  0.6043348371196529
  0.4299732326466207  0.8762710554011470  0.1003438211306881
  0.4264038364672288  0.8752206046848888  0.6017587270754303
  0.0754453161767296  0.1247667685525413  0.3523486507856524
  0.0752941821468248  0.1254096158829238  0.8518037138411211
  0.0750594551465295  0.6246423250357753  0.3513896283044381
  0.0757591351540085  0.6243706663022992  0.8526532939744945
  0.5741488867306204  0.1256109900288862  0.3966254145152540
  0.5769355266235775  0.1222321881364409  0.8963787484695110
  0.5748125197109730  0.6261973693305311  0.4007263761858232
  0.5731525798700278  0.6253241669595315  0.8970319480703257
  0.9142723576747258  0.1247261930025238  0.0980568759701922
  0.9118013940893717  0.1252132840443256  0.5976949137817129
  0.9105008932804828  0.6255878975134025  0.0970515287684587
  0.9125428653256551  0.6253126182945986  0.5971542141052825
  0.4064116388771645  0.1179894376721652  0.1524521981077432
  0.4109063535973397  0.1249910839427605  0.6533478329212892
  0.4102871614403726  0.6300520976111020  0.1530326259441844
  0.4107167307574080  0.6258917781500046  0.6539981183941103
  0.0884243203755173  0.3752990542446389  0.4034547817239963
  0.0872191433175581  0.3752174757700073  0.9035252680607035
  0.0881814739023665  0.8745068823707208  0.4050095316425926
  0.0881378677736144  0.8747914373556545  0.9041055954377726
  0.5903659848198632  0.3770849813523067  0.3507248750332977
  0.5874373428795200  0.3763229404384746  0.8388687729587988
  0.5900113826624879  0.8755012953903202  0.3472618211755674
  0.5901788741885624  0.8751481782347672  0.8459267346661471
  0.8428158244142839  0.0226369729812236  0.1503144571981426
  0.8416991826363032  0.0215963813616251  0.6481900564474751
  0.8389767208260466  0.5229373264722066  0.1477895921653558
  0.8427387152585359  0.5222780954154760  0.6490887862113059
  0.3372001196895572  0.2187951685065156  0.0968455021003246
  0.3410508112942096  0.2280521779126680  0.6006365913269631
  0.3438257683830435  0.7369496073634160  0.1065167900434339
  0.3411484363677995  0.7295138481581593  0.6024536423971776
  0.1575495475890355  0.2716539389552305  0.3514892048890570
  0.1566557224891633  0.2717798024236117  0.8516437128076026
  0.1582764130033812  0.7714407768100860  0.3530628976965119
  0.1588250525315431  0.7714937079186046  0.8536352998405080
  0.6597295466230586  0.4800378140280523  0.4042235899191770
  0.6567366894830501  0.4789978103048425  0.8937501453881640
  0.6594834119395485  0.9790890654145622  0.3988618633364782
  0.6609011484528202  0.9778484078851376  0.8980946903390357
  0.1590854781124162  0.4781667127551616  0.3522639576157597
  0.1577984400129033  0.4780450059099170  0.8518717235309881
  0.1581565801020381  0.9779030696136591  0.3542032097246166
  0.1585023521900029  0.9779658062103933  0.8530642513195063
  0.6588294020494021  0.2727222358177197  0.4014337785133157
  0.6532776512945362  0.2721509616681849  0.8938040134529311
  0.6599957708173302  0.7722104293626387  0.3990287718241011
  0.6592882431687198  0.7713407108964782  0.8970863030733580
  0.8527118751218373  0.2296623643271314  0.1525062396445383
  0.8418533079972429  0.2279284079722919  0.6505849432818926
  0.8408584773363652  0.7292627832691549  0.1481351161964524
  0.8421449536345530  0.7286036961691140  0.6481425755948728
  0.3387164285227727  0.0124619323111338  0.1054618325809643
  0.3412322780475232  0.0213498531696368  0.6021342665922590
  0.3312231185175890  0.5351669807842170  0.0969450978644885
  0.3413834541602752  0.5229343544965681  0.6004582888970007
  0.5444073737428191  0.1206185269236237  0.0980780773564819
  0.5497860418975671  0.1250822933159000  0.6014333782405974
  0.5480804530356699  0.6269663933707353  0.0988276416850350
  0.5499054786563078  0.6266901004607043  0.6031679297423558
  0.0541942271228210  0.1220087875276062  0.1477897960835475
  0.0507253329504301  0.1245533889581022  0.6492893655097174
  0.0488919859035556  0.6250445953272576  0.1500660334495272
  0.0512394705885835  0.6254778980110499  0.6491859509391175
  0.4512967137463849  0.3757337762914311  0.4016297864048007
  0.4480101995186443  0.3745412993844039  0.8853116131454863
  0.4513290863826297  0.8750148270167601  0.3990914840211048
  0.4513673409244637  0.8756613167061843  0.8972135011722647
  0.9494509625772594  0.3760805418048068  0.3519914826899795
  0.9481715311925143  0.3755628162079561  0.8519942241528738
  0.9494861323983472  0.8748940937563665  0.3527545882735851
  0.9498606155118920  0.8748795148703207  0.8507235264181834
  0.5937262852432849  0.3797075984170077  0.1962137765465221
  0.5933837048312086  0.3767535532052629  0.6829225890699220
  0.5921668273563276  0.8758107867279724  0.1909054912580373
  0.5910724894709698  0.8757329072393845  0.6895781997595923
  0.0876795608280057  0.3751931951432434  0.0597205502844711
  0.0893286665605365  0.3749005535954485  0.5598546558907743
  0.0869285995800976  0.8743246789340348  0.0604134907321467
  0.0890070300443517  0.8743561875817064  0.5613237353329464
  0.4085184561201234  0.1221280872724554  0.3090064490507949
  0.4099378796614141  0.1251956798718826  0.8096327032166901
  0.4119788368654362  0.6263105280909169  0.3093815562219586
  0.4087270222053880  0.6251190810105244  0.8102272867112279
  0.9108876474668824  0.1260247488278712  0.4412579495413569
  0.9111176974155127  0.1247609481594159  0.9418043361444942
  0.9115368746849609  0.6250745417562927  0.4407264304018737
  0.9107736499754546  0.6255414673329626  0.9406093057499724
 
             NaN             NaN             NaN
             NaN             NaN             NaN
             NaN             NaN             NaN
             NaN             NaN             NaN
             NaN             NaN             NaN
             NaN             NaN             NaN
             NaN             NaN             NaN
             NaN             NaN             NaN
             NaN             NaN             NaN
             NaN             NaN             NaN
             NaN             NaN             NaN
             NaN             NaN             NaN
             NaN             NaN             NaN
             NaN             NaN             NaN
             NaN             NaN             NaN
             NaN             NaN             NaN
             NaN             NaN             NaN
             NaN             NaN             NaN
             NaN             NaN             NaN
             NaN             NaN             NaN
             NaN             NaN             NaN
             NaN             NaN             NaN
             NaN             NaN             NaN
             NaN             NaN             NaN
             NaN             NaN             NaN
             NaN             NaN             NaN
             NaN             NaN             NaN
             NaN             NaN             NaN
             NaN             NaN             NaN
             NaN             NaN             NaN
             NaN             NaN             NaN
             NaN             NaN             NaN
             NaN             NaN             NaN
             NaN             NaN             NaN
             NaN             NaN             NaN
             NaN             NaN             NaN
             NaN             NaN             NaN
             NaN             NaN             NaN
             NaN             NaN             NaN
             NaN             NaN             NaN
             NaN             NaN             NaN
             NaN             NaN             NaN
             NaN             NaN             NaN
             NaN             NaN             NaN
             NaN             NaN             NaN
             NaN             NaN             NaN
             NaN             NaN             NaN
             NaN             NaN             NaN
             NaN             NaN             NaN
             NaN             NaN             NaN
             NaN             NaN             NaN
             NaN             NaN             NaN
             NaN             NaN             NaN
             NaN             NaN             NaN
             NaN             NaN             NaN
             NaN             NaN             NaN
             NaN             NaN             NaN
             NaN             NaN             NaN
             NaN             NaN             NaN
             NaN             NaN             NaN
             NaN             NaN             NaN
             NaN             NaN             NaN
             NaN             NaN             NaN
             NaN             NaN             NaN
             NaN             NaN             NaN
             NaN             NaN             NaN
             NaN             NaN             NaN
             NaN             NaN             NaN
             NaN             NaN             NaN
             NaN             NaN             NaN
             NaN             NaN             NaN
             NaN             NaN             NaN
             NaN             NaN             NaN
             NaN             NaN             NaN
             NaN             NaN             NaN
             NaN             NaN             NaN
             NaN             NaN             NaN
             NaN             NaN             NaN
             NaN             NaN             NaN
             NaN             NaN             NaN
             NaN             NaN             NaN
             NaN             NaN             NaN
             NaN             NaN             NaN
             NaN             NaN             NaN
             NaN             NaN             NaN
             NaN             NaN             NaN
             NaN             NaN             NaN
             NaN             NaN             NaN
             NaN             NaN             NaN
             NaN             NaN             NaN
             NaN             NaN             NaN
             NaN             NaN             NaN
             NaN             NaN             NaN
             NaN             NaN             NaN
             NaN             NaN             NaN
             NaN             NaN             NaN
             NaN             NaN             NaN
             NaN             NaN             NaN
             NaN             NaN             NaN
             NaN             NaN             NaN
             NaN             NaN             NaN
             NaN             NaN             NaN
             NaN             NaN             NaN
             NaN             NaN             NaN
             NaN             NaN             NaN
             NaN             NaN             NaN
             NaN             NaN             NaN
             NaN             NaN             NaN
             NaN             NaN             NaN
             NaN             NaN             NaN
             NaN             NaN             NaN
             NaN             NaN             NaN
             NaN             NaN             NaN
             NaN             NaN             NaN
             NaN             NaN             NaN
             NaN             NaN             NaN
             NaN             NaN             NaN
             NaN             NaN             NaN
             NaN             NaN             NaN
             NaN             NaN             NaN
             NaN             NaN             NaN
             NaN             NaN             NaN
             NaN             NaN             NaN
             NaN             NaN             NaN
             NaN             NaN             NaN
             NaN             NaN             NaN
             NaN             NaN             NaN
