Li47 P16 O64                            
   1.00000000000000     
    10.5703929999999993    0.0004740000000000   -0.0047370000000000
     0.0005530000000000   12.3346689999999999   -0.0014290000000000
    -0.0044630000000000   -0.0011370000000000    9.9822649999999999
   Li   P    O 
    47    16    64
Direct
  0.5591148740323394  0.2760121311501071  0.0718508387844060
  0.6654576215707546  0.2498942204167438  0.6001401456828306
  0.6644187614946867  0.7518458355333127  0.0985508077608656
  0.6643075949557242  0.7519201409960088  0.5995018944423530
  0.1640465410464057  0.4971926138255154  0.1506431779853260
  0.1641612643736262  0.4991785096986408  0.6516890457779686
  0.1638951340035161  0.9952990928063538  0.1531700642726578
  0.1639176941144195  0.9986802497042381  0.6513072049738510
  0.3361185791676946 -0.0002158388513767  0.4016678376778591
  0.3362040561434992  0.0005356089834402  0.9017425341002182
  0.3370218047182648  0.5007430732971713  0.3989482016980163
  0.3381656880372511  0.4969248068217365  0.9076524348996314
  0.8348233089428142  0.2489386553201455  0.3474214311158511
  0.8333756348318093  0.2498078210786258  0.8542531466950630
  0.8367379420457211  0.7488663522273256  0.3495157765438511
  0.8368268698051528  0.7489272654007983  0.8490830036531661
  0.3377844307470886  0.2501914960568629  0.3979331041694376
  0.3347292564011875  0.2518769957768917  0.9046439807998949
  0.3365384590766652  0.7494599913763971  0.4009499331051147
  0.3365126796393423  0.7496399620254155  0.9010390455300351
  0.8367305497707435  0.0013657310322074  0.3500246976616810
  0.8369543624403888  0.0010728502513381  0.8489189567830076
  0.8360898118908203  0.5018364218606829  0.3493407245704628
  0.8365563597023971  0.5013910518503004  0.8494807467962115
  0.6605460144620705  0.4987522871207203  0.0969900615253943
  0.6657689565575302  0.5029452741930830  0.6017426992355208
  0.6641253161223031  0.0026772201169302  0.1005212141537483
  0.6641392302146670  0.9994961514977713  0.5985428345638677
  0.1666119672116509  0.2529850183718397  0.1493316340303601
  0.1635201121317666  0.2508587799430229  0.6513698873227850
  0.1631780488044570  0.7511689218357078  0.1513849872126048
  0.1638925967012549  0.7512543401413073  0.6516849646657269
  0.9216346519140936  0.3758873738369635  0.1465562239740702
  0.9245530008996461  0.3745995243769240  0.6495227097592702
  0.9243699784189442  0.8747877003714121  0.1493536932797327
  0.9254136916336764  0.8752386056345236  0.6489039586105512
  0.4241528240392854  0.3759374866563614  0.6060092334113870
  0.4287816621690065  0.8755062769744792  0.1007748189651249
  0.4261134081631747  0.8751540681317893  0.6013438228116705
  0.0753387865486878  0.1247821651668972  0.3520597847837915
  0.0752542627513352  0.1253857756053387  0.8515222219540591
  0.0750016180132386  0.6245672070542071  0.3509390877756384
  0.0756021072802650  0.6243954898080215  0.8524247173149250
  0.5743897233399324  0.1259389103192532  0.3967346317020541
  0.5768320872704702  0.1223786639942728  0.8968358351600059
  0.5748307102278047  0.6259798730342020  0.4011683811146295
  0.5732189369441192  0.6254774154468501  0.8972656078556495
  0.9134127553940234  0.1246837911688807  0.0976075280471979
  0.9117713169322095  0.1249403072227450  0.5973000769549952
  0.9108651305726850  0.6253628327183880  0.0970316073720028
  0.9125974123085369  0.6255727672959642  0.5972694248693935
  0.4065248378960528  0.1188003492051890  0.1529659294686283
  0.4111789661809118  0.1249840549046382  0.6535561403025016
  0.4107243571408458  0.6289604184688540  0.1528244216016634
  0.4105531650622602  0.6259473002578778  0.6541537528949108
  0.0883601418978145  0.3751001584119668  0.4033259424867066
  0.0871259845419799  0.3750273196094502  0.9032963898164668
  0.0883170562500934  0.8745659957899949  0.4041919020083087
  0.0882783078560974  0.8748757854502326  0.9038781737497508
  0.5909867740617726  0.3776619071270577  0.3521096949548525
  0.5879056595408307  0.3763324338484259  0.8388819629654116
  0.5896615438087107  0.8753860723876929  0.3469515096453373
  0.5897095222381824  0.8750892622683607  0.8461980525034891
  0.8422127748003324  0.0223031263567824  0.1494397909968420
  0.8417221136927356  0.0214519509010589  0.6481509233348445
  0.8396210305765200  0.5227140733446226  0.1481367009781196
  0.8431323517750616  0.5225993170846056  0.6496862470487512
  0.3367528271255077  0.2192421257424613  0.0973534443314791
  0.3412362846143240  0.2281377915476469  0.6012074961201180
  0.3435041485346998  0.7354328065945812  0.1059008659075457
  0.3408317842161342  0.7294694773498132  0.6024806175240836
  0.1578353212279467  0.2715487649726659  0.3516210555745234
  0.1569686051239068  0.2716740195859184  0.8516534883133192
  0.1584900540978803  0.7714315921506150  0.3524836859827704
  0.1587422420245320  0.7715351672276203  0.8531835428718559
  0.6605937418942271  0.4804659214719836  0.4053288203836123
  0.6569648871741866  0.4791361451830926  0.8936921392669719
  0.6591311216364318  0.9789425020440421  0.3985990062920445
  0.6600515638380616  0.9779802526198011  0.8982795176350876
  0.1588393653134001  0.4780362569795786  0.3519600625337925
  0.1577466458519596  0.4779662887574424  0.8519086921080097
  0.1583238621198162  0.9779609558765984  0.3533481057812087
  0.1587152969597005  0.9780570695476781  0.8527397171299027
  0.6589322056303328  0.2729902906883602  0.4021962137790331
  0.6538462933613425  0.2723991256064091  0.8943578360139821
  0.6597280913198948  0.7721332389481963  0.3986101850345368
  0.6592279569968031  0.7715153326611197  0.8973646276933487
  0.8511088065907944  0.2293595348693576  0.1520109894780433
  0.8420167475343366  0.2277359063810544  0.6501051927045838
  0.8413133958385212  0.7290348081445567  0.1481736846145081
  0.8421141808339805  0.7288573593893153  0.6480636782437178
  0.3392769161040444  0.0130548215888324  0.1057792679525530
  0.3414606641099650  0.0213945176251476  0.6020891548272793
  0.3326182026107085  0.5333845251960081  0.0968536973063581
  0.3412020089389662  0.5229018610671009  0.6007840568036829
  0.5446449215008771  0.1216723917896542  0.0989122131503413
  0.5499614585978979  0.1251208975170457  0.6015257324956769
  0.5485783418290380  0.6267662575790508  0.0988966394157751
  0.5496526859591672  0.6268963443133632  0.6032804425281530
  0.0532250095654771  0.1223979525149721  0.1478082687135836
  0.0508515551730727  0.1244345078973706  0.6487789337643525
  0.0494982063100771  0.6248713024735891  0.1495198763187948
  0.0514467717981804  0.6258775182165713  0.6491248861730413
  0.4520171378814543  0.3759650312932812  0.4030981322467950
  0.4482360649334670  0.3744397503935062  0.8843891217740050
  0.4508920320149566  0.8747763557925886  0.3988017576747305
  0.4508535979363999  0.8752029499674123  0.8976168026816267
  0.9494172824793814  0.3754528420583862  0.3519304807311497
  0.9483343512408565  0.3751841328155177  0.8512128715457958
  0.9496991634317996  0.8748374915807293  0.3519737759907602
  0.9499357770760736  0.8750033597210988  0.8508585779044329
  0.5941780451917749  0.3810216910950174  0.1973985607151690
  0.5943311857998728  0.3766382054429626  0.6830059024834164
  0.5914557280584775  0.8757926410034605  0.1906122843009720
  0.5904903887742932  0.8756554243299537  0.6898352850890681
  0.0870758421261929  0.3749962906988378  0.0594831551911971
  0.0893196836781867  0.3749725513513948  0.5597616248985595
  0.0875730894280941  0.8744786929315124  0.0601695249729164
  0.0891611576609889  0.8745377118652905  0.5605785028750454
  0.4086483223559295  0.1226400043067531  0.3095383196660501
  0.4102828028634815  0.1250242751617864  0.8098299944072215
  0.4120859940424364  0.6256167238020165  0.3092000363081074
  0.4087599536082946  0.6250686806908332  0.8103377210133618
  0.9107208038541689  0.1255293301859081  0.4408815271706235
  0.9108645718737050  0.1248148571255948  0.9413005349149792
  0.9116168587556256  0.6250588037349908  0.4408736933138774
  0.9106956350688201  0.6252808137685930  0.9405909370865108
 
             NaN             NaN             NaN
             NaN             NaN             NaN
             NaN             NaN             NaN
             NaN             NaN             NaN
             NaN             NaN             NaN
             NaN             NaN             NaN
             NaN             NaN             NaN
             NaN             NaN             NaN
             NaN             NaN             NaN
             NaN             NaN             NaN
             NaN             NaN             NaN
             NaN             NaN             NaN
             NaN             NaN             NaN
             NaN             NaN             NaN
             NaN             NaN             NaN
             NaN             NaN             NaN
             NaN             NaN             NaN
             NaN             NaN             NaN
             NaN             NaN             NaN
             NaN             NaN             NaN
             NaN             NaN             NaN
             NaN             NaN             NaN
             NaN             NaN             NaN
             NaN             NaN             NaN
             NaN             NaN             NaN
             NaN             NaN             NaN
             NaN             NaN             NaN
             NaN             NaN             NaN
             NaN             NaN             NaN
             NaN             NaN             NaN
             NaN             NaN             NaN
             NaN             NaN             NaN
             NaN             NaN             NaN
             NaN             NaN             NaN
             NaN             NaN             NaN
             NaN             NaN             NaN
             NaN             NaN             NaN
             NaN             NaN             NaN
             NaN             NaN             NaN
             NaN             NaN             NaN
             NaN             NaN             NaN
             NaN             NaN             NaN
             NaN             NaN             NaN
             NaN             NaN             NaN
             NaN             NaN             NaN
             NaN             NaN             NaN
             NaN             NaN             NaN
             NaN             NaN             NaN
             NaN             NaN             NaN
             NaN             NaN             NaN
             NaN             NaN             NaN
             NaN             NaN             NaN
             NaN             NaN             NaN
             NaN             NaN             NaN
             NaN             NaN             NaN
             NaN             NaN             NaN
             NaN             NaN             NaN
             NaN             NaN             NaN
             NaN             NaN             NaN
             NaN             NaN             NaN
             NaN             NaN             NaN
             NaN             NaN             NaN
             NaN             NaN             NaN
             NaN             NaN             NaN
             NaN             NaN             NaN
             NaN             NaN             NaN
             NaN             NaN             NaN
             NaN             NaN             NaN
             NaN             NaN             NaN
             NaN             NaN             NaN
             NaN             NaN             NaN
             NaN             NaN             NaN
             NaN             NaN             NaN
             NaN             NaN             NaN
             NaN             NaN             NaN
             NaN             NaN             NaN
             NaN             NaN             NaN
             NaN             NaN             NaN
             NaN             NaN             NaN
             NaN             NaN             NaN
             NaN             NaN             NaN
             NaN             NaN             NaN
             NaN             NaN             NaN
             NaN             NaN             NaN
             NaN             NaN             NaN
             NaN             NaN             NaN
             NaN             NaN             NaN
             NaN             NaN             NaN
             NaN             NaN             NaN
             NaN             NaN             NaN
             NaN             NaN             NaN
             NaN             NaN             NaN
             NaN             NaN             NaN
             NaN             NaN             NaN
             NaN             NaN             NaN
             NaN             NaN             NaN
             NaN             NaN             NaN
             NaN             NaN             NaN
             NaN             NaN             NaN
             NaN             NaN             NaN
             NaN             NaN             NaN
             NaN             NaN             NaN
             NaN             NaN             NaN
             NaN             NaN             NaN
             NaN             NaN             NaN
             NaN             NaN             NaN
             NaN             NaN             NaN
             NaN             NaN             NaN
             NaN             NaN             NaN
             NaN             NaN             NaN
             NaN             NaN             NaN
             NaN             NaN             NaN
             NaN             NaN             NaN
             NaN             NaN             NaN
             NaN             NaN             NaN
             NaN             NaN             NaN
             NaN             NaN             NaN
             NaN             NaN             NaN
             NaN             NaN             NaN
             NaN             NaN             NaN
             NaN             NaN             NaN
             NaN             NaN             NaN
             NaN             NaN             NaN
             NaN             NaN             NaN
             NaN             NaN             NaN
             NaN             NaN             NaN
             NaN             NaN             NaN
