Li46 P16 O64
1.0
10.492918 -0.005640 -0.022406
-0.006544 12.286307 -0.010248
-0.020990 -0.008249 9.885195
Li P O
46 16 64
direct
0.287302 0.250488 0.136658 Li
0.664911 0.251199 0.600228 Li
0.662932 0.749166 0.097102 Li
0.664019 0.751333 0.598893 Li
0.164962 0.494943 0.151925 Li
0.164914 0.499309 0.652398 Li
0.164490 -0.003935 0.152997 Li
0.165187 -0.000796 0.652833 Li
0.337311 0.000996 0.401098 Li
0.337892 0.002313 0.907440 Li
0.339913 0.498055 0.396405 Li
0.338411 0.495438 0.909362 Li
0.832217 0.249134 0.344069 Li
0.832682 0.248937 0.853194 Li
0.836380 0.748263 0.347530 Li
0.836461 0.748729 0.847690 Li
0.339083 0.252216 0.393168 Li
0.339351 0.254521 0.912587 Li
0.337451 0.749617 0.400507 Li
0.337238 0.750090 0.905429 Li
0.837257 0.002402 0.346658 Li
0.837191 0.002219 0.848038 Li
0.832868 0.500030 0.346781 Li
0.832956 0.499800 0.849663 Li
0.653380 0.490708 0.093946 Li
0.665473 0.502859 0.597126 Li
0.664678 1.001165 0.099006 Li
0.663864 1.001436 0.598697 Li
0.165048 0.251837 0.651449 Li
0.164872 0.750559 0.152094 Li
0.164757 0.751533 0.652889 Li
0.919844 0.372138 0.148016 Li
0.921516 0.374684 0.649098 Li
0.922928 0.875371 0.149108 Li
0.924248 0.875790 0.648854 Li
0.426511 0.375322 0.605186 Li
0.429905 0.876187 0.102137 Li
0.425714 0.876255 0.601079 Li
0.077924 0.127577 0.345158 Li
0.078340 0.126935 0.855469 Li
0.076350 0.622975 0.350044 Li
0.076893 0.623492 0.852243 Li
0.575342 0.129990 0.394610 Li
0.574499 0.133959 0.911704 Li
0.575230 0.622711 0.399587 Li
0.572848 0.622495 0.899060 Li
0.914433 0.123335 0.096473 P
0.914028 0.124605 0.595339 P
0.910396 0.624757 0.095558 P
0.913068 0.626078 0.595436 P
0.407525 0.117416 0.153906 P
0.411475 0.124631 0.655099 P
0.408733 0.629877 0.152899 P
0.410311 0.626939 0.654780 P
0.087166 0.375285 0.405879 P
0.085765 0.375880 0.903389 P
0.087989 0.874393 0.405328 P
0.088149 0.874263 0.904933 P
0.590927 0.376529 0.349068 P
0.586614 0.375068 0.834527 P
0.590991 0.874732 0.346989 P
0.590261 0.875387 0.845068 P
0.842551 0.020427 0.146364 O
0.843708 0.021585 0.645839 O
0.839154 0.523180 0.145493 O
0.843548 0.524655 0.648659 O
0.332671 0.212062 0.096484 O
0.341288 0.226006 0.601607 O
0.345003 0.738234 0.108411 O
0.341580 0.730508 0.603149 O
0.156470 0.272347 0.357927 O
0.156013 0.273773 0.851918 O
0.157275 0.771480 0.354217 O
0.158282 0.771691 0.853814 O
0.659999 0.480255 0.405694 O
0.654214 0.477522 0.893545 O
0.660434 0.977586 0.398576 O
0.661381 0.976783 0.897044 O
0.157897 0.477520 0.354246 O
0.155849 0.478316 0.851246 O
0.157890 0.976583 0.355030 O
0.158727 0.976586 0.854775 O
0.660263 0.273922 0.405267 O
0.655017 0.271833 0.881401 O
0.660073 0.771951 0.399651 O
0.658760 0.771462 0.895351 O
0.851589 0.225983 0.150685 O
0.844688 0.226359 0.647783 O
0.841232 0.728227 0.146325 O
0.843220 0.729132 0.645936 O
0.339755 0.009418 0.111186 O
0.342126 0.020755 0.603482 O
0.329637 0.536435 0.097234 O
0.340708 0.525575 0.600091 O
0.544458 0.113253 0.102464 O
0.549349 0.124152 0.602295 O
0.546595 0.626957 0.099310 O
0.549114 0.628222 0.604728 O
0.053406 0.117330 0.145706 O
0.052153 0.123644 0.648544 O
0.048438 0.625061 0.148902 O
0.051532 0.626931 0.647344 O
0.453193 0.375851 0.405091 O
0.445018 0.375498 0.868086 O
0.452696 0.874735 0.398371 O
0.452077 0.875453 0.896239 O
0.948875 0.376368 0.353580 O
0.947376 0.375534 0.849698 O
0.949543 0.874296 0.352949 O
0.950335 0.874506 0.850585 O
0.596030 0.378650 0.197528 O
0.597884 0.380024 0.678342 O
0.593943 0.873381 0.191067 O
0.591147 0.875633 0.688596 O
0.083925 0.377433 0.058665 O
0.087233 0.377037 0.562399 O
0.086588 0.872752 0.060830 O
0.088680 0.874325 0.561708 O
0.408675 0.122843 0.311235 O
0.410133 0.124449 0.811032 O
0.411316 0.626630 0.309778 O
0.407712 0.626430 0.810806 O
0.913293 0.124747 0.439126 O
0.911857 0.123746 0.939524 O
0.911701 0.625200 0.439180 O
0.910746 0.625510 0.939001 O
