Na47 P16 S64
1.0
13.753027 -0.014918 -0.000041
-0.015024 13.779265 -0.000242
-0.000020 -0.000035 14.146443
Na P S
47 16 64
direct
0.671755 0.750789 0.745673 Na
0.999970 0.250116 0.205515 Na
0.999856 0.250058 0.704433 Na
0.999856 0.750111 0.209952 Na
0.996568 0.750496 0.713291 Na
0.500034 0.249887 0.207080 Na
0.500146 0.249941 0.706464 Na
0.500156 0.749896 0.207845 Na
0.249590 0.999115 0.291018 Na
0.247694 0.998358 0.788812 Na
0.251460 0.500880 0.296458 Na
0.250814 0.503081 0.793981 Na
0.748542 0.999005 0.295852 Na
0.748745 0.993631 0.792367 Na
0.750403 0.500997 0.290417 Na
0.752747 0.504925 0.787195 Na
0.252389 0.998721 0.038985 Na
0.244899 1.001216 0.540165 Na
0.248057 0.499432 0.046207 Na
0.254458 0.503816 0.546788 Na
0.751993 1.000558 0.045303 Na
0.745459 0.996403 0.545737 Na
0.747565 0.501299 0.038077 Na
0.755177 0.498557 0.539111 Na
0.500027 0.250343 0.457823 Na
0.500301 0.249356 0.955124 Na
0.500041 0.750394 0.473569 Na
0.500077 0.749273 0.945947 Na
0.999964 0.249660 0.454714 Na
0.999704 0.250642 0.954297 Na
0.999957 0.749612 0.462244 Na
0.999927 0.750723 0.958160 Na
0.992834 1.000454 0.500547 Na
0.000366 0.005145 -0.000410 Na
0.007740 0.498132 0.500116 Na
0.999678 0.496883 0.999157 Na
0.494988 -0.002424 0.501032 Na
0.506237 0.998893 1.000332 Na
0.504431 0.503855 0.501454 Na
0.493711 0.499072 0.000768 Na
0.249020 0.251561 0.249951 Na
0.248985 0.252729 0.750199 Na
0.251767 0.748550 0.249756 Na
0.300425 0.748715 0.749639 Na
0.750992 0.248437 0.249822 Na
0.751017 0.247270 0.750324 Na
0.748252 0.751451 0.249633 Na
0.499972 0.499919 0.250693 P
0.500985 0.499366 0.750813 P
0.499855 0.000016 0.250721 P
0.498698 1.000230 0.750031 P
0.000904 0.499570 0.249638 P
0.001910 0.497783 0.749470 P
-0.000731 0.000503 0.249605 P
0.998411 0.002609 0.750251 P
0.249707 0.250596 1.000218 P
0.249417 0.251229 0.499605 P
0.250649 0.747678 0.000269 P
0.249252 0.752851 0.498754 P
0.750300 0.249405 1.000182 P
0.750583 0.248763 0.499430 P
0.749348 0.752329 0.000564 P
0.750754 0.747148 0.498248 P
0.154071 0.173912 0.082686 S
0.152879 0.175413 0.581447 S
0.152997 0.674664 0.083528 S
0.155760 0.677330 0.583727 S
0.653994 0.174272 0.083294 S
0.654169 0.174364 0.582259 S
0.653881 0.675240 0.082592 S
0.655460 0.667561 0.576869 S
0.346166 0.325552 0.083250 S
0.345790 0.325735 0.582394 S
0.346370 0.824462 0.082198 S
0.344567 0.832020 0.577709 S
0.845777 0.326269 0.082731 S
0.847147 0.324485 0.581309 S
0.846754 0.825643 0.083923 S
0.844208 0.823087 0.582898 S
0.174111 0.347882 0.417566 S
0.174085 0.347570 0.919149 S
0.171287 0.844633 0.413424 S
0.177498 0.840632 0.913640 S
0.675757 0.344503 0.416097 S
0.675583 0.344547 0.916881 S
0.673414 0.843682 0.417111 S
0.672318 0.851924 0.923156 S
0.324364 0.155562 0.416291 S
0.324409 0.155348 0.916951 S
0.326593 0.656304 0.417643 S
0.327148 0.647915 0.922526 S
0.825767 0.152018 0.417395 S
0.825927 0.152528 0.919081 S
0.828714 0.655376 0.412898 S
0.823028 0.659542 0.914268 S
0.097327 0.423351 0.168214 S
0.101009 0.422640 0.669663 S
0.094259 0.925566 0.165478 S
0.091441 0.926858 0.665596 S
0.594873 0.424756 0.166503 S
0.596532 0.424080 0.667029 S
0.597081 0.925051 0.169247 S
0.591989 0.922906 0.667350 S
0.404890 0.075134 0.166547 S
0.402899 0.076323 0.667175 S
0.402635 0.574914 0.169252 S
0.407449 0.577702 0.669119 S
0.902894 0.076761 0.168173 S
0.899558 0.076950 0.669526 S
0.906023 0.574485 0.165487 S
0.909121 0.572528 0.663836 S
0.075701 0.095845 0.332349 S
0.076658 0.099685 0.829980 S
0.076134 0.595613 0.332386 S
0.074006 0.593247 0.834778 S
0.574432 0.096415 0.334017 S
0.576793 0.097149 0.830437 S
0.575772 0.595860 0.332497 S
0.578139 0.588356 0.838770 S
0.425429 0.403582 0.334079 S
0.423238 0.401609 0.830635 S
0.424023 0.904082 0.332596 S
0.421687 0.910410 0.837343 S
0.924434 0.404164 0.332293 S
0.923313 0.401551 0.829784 S
0.924070 0.904455 0.332288 S
0.926160 0.907986 0.836200 S
