Na15 V32 O64
1.0
9.103496 0.012171 0.002844
0.011701 11.562452 -0.033303
0.005590 -0.022067 10.637091
Na V O
15 32 64
direct
0.742235 0.546347 0.154235 Na
0.743981 0.081297 0.155993 Na
0.743385 0.811964 0.151008 Na
0.242316 0.063884 0.348389 Na
0.247834 0.312538 0.347201 Na
0.241686 0.562410 0.347918 Na
0.247105 0.812615 0.349674 Na
0.256367 0.186806 0.851644 Na
0.256331 0.436769 0.844876 Na
0.254996 0.686946 0.851314 Na
0.257168 0.936122 0.847064 Na
0.753306 0.188623 0.649614 Na
0.758192 0.437463 0.650976 Na
0.751265 0.687990 0.651058 Na
0.758310 0.937512 0.652138 Na
0.582086 0.060074 0.897872 V
0.585377 0.312938 0.893883 V
0.581087 0.559421 0.896318 V
0.580205 0.811813 0.894612 V
0.081765 0.061604 0.605968 V
0.083758 0.313821 0.601495 V
0.081687 0.561628 0.606064 V
0.081487 0.813304 0.603032 V
0.419914 0.189827 0.104967 V
0.416379 0.434755 0.100266 V
0.421182 0.686803 0.105103 V
0.421454 0.937241 0.104931 V
0.918286 0.187121 0.396345 V
0.918344 0.438768 0.393539 V
0.917125 0.686309 0.397847 V
0.918629 0.938771 0.394139 V
0.563043 0.059585 0.387295 V
0.570489 0.313885 0.382533 V
0.561943 0.560442 0.386537 V
0.566264 0.814245 0.388920 V
0.064692 0.059170 0.112150 V
0.056805 0.312439 0.114091 V
0.063819 0.567660 0.112017 V
0.065586 0.811540 0.114522 V
0.435686 0.186560 0.612312 V
0.437959 0.440350 0.612065 V
0.430678 0.686677 0.612438 V
0.436412 0.941474 0.613428 V
0.934617 0.187791 0.884838 V
0.936818 0.435825 0.886998 V
0.932076 0.688348 0.886078 V
0.936409 0.935780 0.887395 V
0.791385 0.058131 0.848632 O
0.793529 0.315795 0.846050 O
0.790299 0.556875 0.848611 O
0.790483 0.815752 0.848635 O
0.291338 0.057895 0.653127 O
0.292596 0.316121 0.648402 O
0.290171 0.557409 0.652515 O
0.289635 0.816287 0.650303 O
0.204645 0.189879 0.147060 O
0.204859 0.435469 0.149030 O
0.208809 0.684733 0.151734 O
0.209727 0.942729 0.152808 O
0.710611 0.181939 0.356172 O
0.709317 0.445336 0.353034 O
0.708416 0.684502 0.351528 O
0.709145 0.942572 0.349502 O
0.887987 0.065815 0.520867 O
0.886326 0.310093 0.519452 O
0.886704 0.565754 0.521132 O
0.884653 0.809541 0.520022 O
0.385230 0.058451 0.981395 O
0.386272 0.316004 0.975969 O
0.383915 0.558424 0.979249 O
0.385078 0.814942 0.980898 O
0.116023 0.190896 0.480010 O
0.114248 0.435247 0.478753 O
0.114859 0.690746 0.480103 O
0.113830 0.934629 0.479423 O
0.611443 0.181892 0.016355 O
0.611643 0.439854 0.018210 O
0.614337 0.682912 0.020020 O
0.614656 0.939128 0.022028 O
0.981880 0.067991 0.280573 O
0.981223 0.309754 0.284577 O
0.981312 0.567928 0.280729 O
0.976981 0.809962 0.282757 O
0.479188 0.058935 0.219611 O
0.470850 0.316211 0.218999 O
0.477545 0.558046 0.217390 O
0.480122 0.818496 0.219444 O
0.025480 0.190296 0.717386 O
0.020736 0.432056 0.719491 O
0.022064 0.690352 0.717694 O
0.018420 0.931734 0.719571 O
0.523440 0.184521 0.781797 O
0.522223 0.441669 0.778273 O
0.518695 0.683431 0.783343 O
0.519775 0.942581 0.781705 O
0.581019 0.058827 0.571111 O
0.575763 0.316681 0.569874 O
0.578878 0.560475 0.570235 O
0.573849 0.816432 0.574359 O
0.077348 0.057439 0.927064 O
0.077629 0.315404 0.929833 O
0.076229 0.560751 0.927146 O
0.077003 0.815235 0.931020 O
0.426673 0.183746 0.426731 O
0.421131 0.441614 0.428172 O
0.423587 0.684616 0.426736 O
0.419268 0.941368 0.430300 O
0.929714 0.186404 0.070146 O
0.927978 0.438240 0.072712 O
0.920359 0.684290 0.070933 O
0.921147 0.941000 0.073693 O
