Na47 P16 S64
1.0
13.684425 -0.010337 0.000027
-0.010388 13.702095 -0.000181
-0.000022 0.000177 14.058217
Na P S
47 16 64
direct
0.633675 0.749527 0.738585 Na
0.999918 0.250273 0.206740 Na
0.999523 0.250209 0.705820 Na
0.999683 0.750286 0.211634 Na
0.989803 0.751313 0.716520 Na
0.500087 0.249729 0.208362 Na
0.500470 0.249792 0.707753 Na
0.500333 0.749719 0.209674 Na
0.249699 0.999731 0.290376 Na
0.248285 0.998824 0.789056 Na
0.251126 0.500691 0.294520 Na
0.250671 0.502575 0.792891 Na
0.748861 0.999067 0.292723 Na
0.748220 0.987704 0.787947 Na
0.750306 0.500516 0.288576 Na
0.752821 0.510908 0.784109 Na
0.252510 0.998915 0.039107 Na
0.245296 1.000523 0.540096 Na
0.247801 0.499589 0.044701 Na
0.254001 0.503107 0.545035 Na
0.752286 1.000405 0.041912 Na
0.745794 0.997620 0.542108 Na
0.747407 0.501085 0.036321 Na
0.754892 0.498749 0.537175 Na
0.500095 0.250920 0.458865 Na
0.500771 0.248254 0.956607 Na
0.500100 0.751000 0.471836 Na
0.500044 0.748048 0.950769 Na
0.999900 0.249094 0.455910 Na
0.999229 0.251749 0.955722 Na
0.999903 0.749007 0.464204 Na
0.999955 0.751947 0.961037 Na
0.994337 0.999881 0.501041 Na
0.002137 0.006543 0.000334 Na
0.007691 0.496403 0.499662 Na
0.998699 0.499026 0.998961 Na
0.494285 0.000251 0.500074 Na
0.505657 0.997757 0.999563 Na
0.503679 0.503493 0.501448 Na
0.493518 0.496681 0.000936 Na
0.249266 0.251476 0.249899 Na
0.249028 0.252023 0.750032 Na
0.251509 0.749331 0.250199 Na
0.282790 0.749155 0.749992 Na
0.750744 0.248527 0.249534 Na
0.750969 0.247981 0.750167 Na
0.748510 0.750667 0.249839 Na
0.499889 0.499786 0.250473 P
0.500703 0.499129 0.751251 P
0.499816 -0.000014 0.250364 P
0.498354 0.999739 0.748863 P
0.000699 0.499752 0.249834 P
0.002066 0.498753 0.748823 P
-0.000406 0.000461 0.249940 P
0.998860 0.002370 0.751210 P
0.250063 0.250383 -0.000029 P
0.249535 0.251014 0.499595 P
0.250594 0.748265 0.000645 P
0.249568 0.752114 0.499615 P
0.749940 0.249619 0.999732 P
0.750459 0.248989 0.499082 P
0.749405 0.751736 0.001136 P
0.750434 0.747883 0.498377 P
0.154020 0.173571 0.082975 S
0.152746 0.174766 0.581955 S
0.152781 0.674721 0.084374 S
0.155501 0.676374 0.584836 S
0.653588 0.173692 0.083332 S
0.653663 0.174174 0.582422 S
0.653588 0.674237 0.083716 S
0.654903 0.668134 0.577782 S
0.346806 0.325873 0.083355 S
0.346213 0.326167 0.582808 S
0.347182 0.824843 0.082939 S
0.345347 0.830594 0.579934 S
0.845594 0.326862 0.082960 S
0.847370 0.324891 0.581576 S
0.846447 0.826197 0.085153 S
0.844261 0.824901 0.582683 S
0.173750 0.348019 0.417162 S
0.173912 0.347539 0.918320 S
0.171510 0.845129 0.414463 S
0.176696 0.842645 0.914604 S
0.675199 0.345207 0.415369 S
0.674638 0.345094 0.915969 S
0.672938 0.844306 0.416112 S
0.671735 0.850434 0.922502 S
0.325188 0.155035 0.415916 S
0.325364 0.154600 0.916331 S
0.326971 0.655550 0.417444 S
0.326658 0.648896 0.921099 S
0.825864 0.151733 0.416624 S
0.826089 0.152754 0.917953 S
0.828585 0.654993 0.413135 S
0.824922 0.658011 0.916019 S
0.097300 0.423397 0.167473 S
0.101295 0.422182 0.669276 S
0.095307 0.924830 0.165967 S
0.092129 0.924633 0.666976 S
0.595216 0.424180 0.166007 S
0.597023 0.424205 0.666948 S
0.597025 0.924294 0.168370 S
0.591176 0.923065 0.663854 S
0.404416 0.075523 0.165949 S
0.401419 0.077132 0.667300 S
0.402408 0.575499 0.168572 S
0.407223 0.578880 0.669196 S
0.903069 0.076896 0.167536 S
0.900247 0.076489 0.668937 S
0.905265 0.575376 0.165772 S
0.909460 0.573425 0.661645 S
0.076163 0.096374 0.333048 S
0.077445 0.100350 0.830640 S
0.076477 0.595924 0.333252 S
0.074734 0.595209 0.834074 S
0.574970 0.096790 0.333828 S
0.577636 0.095633 0.830197 S
0.576178 0.595902 0.333041 S
0.577301 0.588808 0.839956 S
0.424797 0.403183 0.334144 S
0.422423 0.400629 0.830679 S
0.423509 0.903859 0.333093 S
0.422162 0.907404 0.835433 S
0.924069 0.403656 0.332733 S
0.922477 0.403389 0.830162 S
0.923839 0.904314 0.333199 S
0.925798 0.908582 0.838594 S
