Li7 Mn16 O32                            
   1.00000000000000     
     8.0358619999999998   -0.0000230000000000   -0.0000450000000000
    -0.0000160000000000    8.0358689999999999   -0.0000460000000000
    -0.0000520000000000    0.0000160000000000    8.0328099999999996
   Li   Mn   O 
     7    16    32
Direct
  0.3113891774200079  0.4386392109395703  0.8113140930964771
  0.8770880438879874  0.8729475996627575  0.8731674260472865
  0.1256845574519049  0.1260801225311877  0.1239022622869058
  0.8770971172717239  0.3768447191877149  0.3770683220604622
  0.3731185135129892  0.8728767196029160  0.3771092664962732
  0.6238891071118948  0.1261286871044657  0.6257420502397403
  0.6239056994594080  0.6242610396562374  0.1238789224069176
  0.4999522663499931  0.2499981210499167  0.2481041022077310
  0.2497924367869742  0.5001732789496358  0.2519157555398958
  0.2495585607151817  0.2500102000368749  0.4983215110365334
  0.4999104810424040  0.5004040895033389  0.4982955952435946
  0.4998974946275995  0.7517179446044810  0.7495976037289628
  0.7519086639889593  0.5001509772621837  0.7498044804530962
  0.7521075081275059  0.7499375612302149  0.5001166073938340
  0.2498131320063979  0.9980822044419374  0.7498122354888763
  0.2495442344254538  0.7516939936486026  0.9999154375529309
  0.4999785126193032  0.0019029312927824  0.9999908530739205
  0.7497098952426976 -0.0000251156390200  0.2501102040980591
  0.7480696463796505  0.2499440506129356  1.0000482012975125
 -0.0017223791664499  0.2500626902978387  0.7496023690751373
 -0.0017241718312463  0.5004078501199711  0.9998813684885958
  0.0000146802473598  0.7499553484148312  0.2521264037355250
  0.0000128106829742  0.9978636152458399  0.5000495169437272
  0.7377963750138226  0.0121942169963711  0.0123701764921521
  0.0121606039614613  0.7378740035085642  0.0133742165632995
  0.0123045375346728  0.0116403431079747  0.7371506155503842
  0.7384168812737031  0.7377405791490266  0.7371470590378547
  0.2625127019312153  0.9884896729089292  0.9875939867271629
  0.9864618128375190  0.2623947677448176  0.9876284151783097
  0.9875321084502898  0.9877849264538293  0.2622034992722082
  0.2625062407427024  0.2624275161137148  0.2614890382768958
  0.7384128053061577  0.5128933265720090  0.5122276485740832
  0.0121898581706201  0.2365767775705900  0.5120962822889958
  0.0122844246796777  0.5129014750361073  0.2383658948957904
  0.7377735245163694  0.2376517716407417  0.2378368253520372
  0.2650916399608564  0.4849604799592072  0.4875493877774694
  0.9859401355836594  0.7641242336475033  0.4859224029444413
  0.9875467895838715  0.4849381466320106  0.7649833557716724
  0.2650866954834986  0.7624805644380296  0.7649648732421227
  0.2371560553530309  0.0116494041090620  0.5122151116598469
  0.5134746086249949  0.7378555716604598  0.5120994463480101
  0.5122326279969023  0.0122177492506595  0.2378382015398557
  0.2371305749477872  0.7377530722449627  0.2383397962385679
  0.7622104639330570  0.9877933135462550  0.4877340639655272
  0.4876624587539383  0.2623877063940552  0.4864190013301944
  0.4876281465750690  0.9884835139871120  0.7624526765120452
  0.7615676387548607  0.2624061838960349  0.7624531305062396
  0.2352537137520513  0.5148124396929660  0.0141067399038468
  0.5130193792759189  0.2370464193308195  0.0129235176612154
  0.5141960353312496  0.5148044989294653  0.7352611206138535
  0.2352643886175806  0.2358372464133426  0.7352498822199812
  0.7615709277874988  0.4874862755224986  0.9876126822771004
  0.4876556287962237  0.7636167710351993  0.9876228736715098
  0.4876095305102067  0.4875149376393890  0.2615052235210770
  0.7622140401242711  0.7623700309251025  0.2622087845544612
 
             NaN             NaN             NaN
             NaN             NaN             NaN
             NaN             NaN             NaN
             NaN             NaN             NaN
             NaN             NaN             NaN
             NaN             NaN             NaN
             NaN             NaN             NaN
             NaN             NaN             NaN
             NaN             NaN             NaN
             NaN             NaN             NaN
             NaN             NaN             NaN
             NaN             NaN             NaN
             NaN             NaN             NaN
             NaN             NaN             NaN
             NaN             NaN             NaN
             NaN             NaN             NaN
             NaN             NaN             NaN
             NaN             NaN             NaN
             NaN             NaN             NaN
             NaN             NaN             NaN
             NaN             NaN             NaN
             NaN             NaN             NaN
             NaN             NaN             NaN
             NaN             NaN             NaN
             NaN             NaN             NaN
             NaN             NaN             NaN
             NaN             NaN             NaN
             NaN             NaN             NaN
             NaN             NaN             NaN
             NaN             NaN             NaN
             NaN             NaN             NaN
             NaN             NaN             NaN
             NaN             NaN             NaN
             NaN             NaN             NaN
             NaN             NaN             NaN
             NaN             NaN             NaN
             NaN             NaN             NaN
             NaN             NaN             NaN
             NaN             NaN             NaN
             NaN             NaN             NaN
             NaN             NaN             NaN
             NaN             NaN             NaN
             NaN             NaN             NaN
             NaN             NaN             NaN
             NaN             NaN             NaN
             NaN             NaN             NaN
             NaN             NaN             NaN
             NaN             NaN             NaN
             NaN             NaN             NaN
             NaN             NaN             NaN
             NaN             NaN             NaN
             NaN             NaN             NaN
             NaN             NaN             NaN
             NaN             NaN             NaN
             NaN             NaN             NaN
