Li7 Mn16 O32
1.0
8.035862 -0.000023 -0.000045
-0.000016 8.035869 -0.000046
-0.000052 0.000016 8.032810
Li Mn O
7 16 32
direct
0.311361 0.438682 0.811321 Li
0.876731 0.873304 0.873296 Li
0.125525 0.125545 0.124435 Li
0.876732 0.376705 0.376698 Li
0.373275 0.873256 0.376730 Li
0.624443 0.125567 0.625569 Li
0.624455 0.624433 0.124427 Li
0.499852 0.249960 0.249512 Mn
0.249886 0.500096 0.250935 Mn
0.249887 0.251438 0.500623 Mn
0.498530 0.500080 0.500580 Mn
0.498533 0.749413 0.749932 Mn
0.750929 0.500083 0.749878 Mn
0.751360 0.749904 0.500154 Mn
0.249893 -0.000934 0.749879 Mn
0.249884 0.749390 0.998553 Mn
0.499879 0.000534 0.999980 Mn
0.749757 1.000042 0.250015 Mn
0.749353 0.250004 0.999994 Mn
0.000573 0.251455 0.749929 Mn
0.000576 0.500079 0.998529 Mn
1.000056 0.749885 0.251424 Mn
1.000043 0.998586 0.500106 Mn
0.737758 0.012232 0.012296 O
0.012661 0.737393 0.012603 O
0.012674 0.012564 0.737349 O
0.737499 0.737381 0.737338 O
0.262571 0.987651 0.987652 O
0.987460 0.262377 0.987654 O
0.987517 0.987759 0.262216 O
0.262558 0.262372 0.262312 O
0.737492 0.512702 0.512578 O
0.012671 0.237357 0.512572 O
0.012658 0.512684 0.237456 O
0.737744 0.237695 0.237802 O
0.264005 0.486070 0.486131 O
0.986224 0.763829 0.486218 O
0.986152 0.486031 0.763902 O
0.264012 0.763893 0.763887 O
0.237355 0.012587 0.512574 O
0.512694 0.737386 0.512576 O
0.512237 0.012198 0.237831 O
0.237345 0.737387 0.237434 O
0.762240 0.987787 0.487650 O
0.487676 0.262371 0.487479 O
0.487683 0.987653 0.762543 O
0.762387 0.262361 0.762514 O
0.236928 0.513138 0.013081 O
0.512725 0.237278 0.012699 O
0.513169 0.513129 0.736905 O
0.236936 0.236881 0.736901 O
0.762395 0.487437 0.987653 O
0.487672 0.762564 0.987656 O
0.487666 0.487410 0.262318 O
0.762251 0.762433 0.262209 O
