Li17 Co18 O36                           
   1.00000000000000     
     8.2794699999999999    0.6362880000000000    1.3377230000000000
     3.4778910000000001    7.5384700000000002    1.3447600000000000
     1.2050419999999999    0.8420760000000000    9.7550220000000003
   Li   Co   O 
    17    18    36
Direct
  0.2981848135729643  0.5161572076010642  0.5141467670341843
  0.3340310605817233  0.3324522920603679  0.0019818118640526
  0.3328851040777406  0.6675630972319135  0.0004051585787074
  0.3331885038808373  1.0003149921072463  1.0011931436481587
  0.3329727629083906  1.0013256128934844  0.5011097086987002
  0.6677726152826692  0.3326736195603832  1.0010303810894570
  0.6668308696870321  0.3339197024001638  0.5017540118014961
  0.6663110421029903  0.6676002378416591  1.0012271416305936
  0.6496670252667682  0.6666028015518218  0.5010630240118190
  0.6669575106769002  1.0000711692716315  0.0022626393863534
  0.6505604634412859  1.0170518859075179  0.5022751125165341
 -0.0006590388896873  0.3329208277848609  1.0011606115377523
  0.0123295863471199  0.3346136951327657  0.5001144217032474
 -0.0013534978055722  0.6683292672892520  0.0011147467623379
 -0.0243367755770310  0.6801923268560427  0.4986460611994102
 -0.0004909240800903  0.0017096293961071  0.9994091753081545
  0.0127073865959655  0.9883898636673645  0.5002368447268526
  0.1624564584015915  0.1691468119469883  0.2473656930687937
  0.1700738965809169  0.1656677696015359  0.7501516350807030
  0.1618665310435876  0.5016155999204545  0.2450655911689369
  0.1674696352209285  0.4959139014530347  0.7577489091504268
  0.1617876396487663  0.8375154283057794  0.2451424546699191
  0.1701224450192215  0.8300993504254754  0.7500668512881712
  0.4947104363404947  0.1680630666388372  0.2515987587727604
  0.5022875017503231  0.1619351925192856  0.7559773095990137
  0.4957473828788716  0.5010664737618887  0.2472358547973259
  0.5022263367920178  0.4982425512214064  0.7557030074414808
  0.4941336275021375  0.8339444034477272  0.2506259332971888
  0.5012453673137864  0.8301654882143955  0.7542951680647295
  0.8294595051046677  0.1693231804818600  0.2502217700606277
  0.8360518623244124  0.1652466236476891  0.7498892882477952
  0.8289419674228449  0.5011443491457439  0.2489400406864674
  0.8351114754114003  0.4990800644802141  0.7516377114235688
  0.8281436968424634  0.8351804675690722  0.2504763823092581
  0.8355533122893253  0.8314897204359182  0.7528641172043836
  0.2477397964687530  0.2555834462808706  0.3540261651381055
  0.2548139345590134  0.2488693477131975  0.8644660675250430
  0.2447292485104644  0.5947434217210108  0.3444818287948616
  0.2545694422786400  0.5857731680701147  0.8642042578451192
  0.2476857202627465  0.9256117914356826  0.3536511069694143
  0.2535070949573586  0.9191548260137246  0.8607824014173355
  0.5843533386264123  0.2565364397712935  0.3572724871374385
  0.5918506000180151  0.2494071127998873  0.8637135245045571
  0.5839082659495075  0.5858217716151404  0.3565115178179469
  0.5900782105569354  0.5836943200799715  0.8642136363984608
  0.5815936817402513  0.9208578276185619  0.3607799534886797
  0.5899463367925050  0.9162544953367346  0.8642640335094820
  0.9175556038289633  0.2551297047767981  0.3584760078279172
  0.9229466786652785  0.2519263600312191  0.8592427041200579
  0.9168050221067385  0.5877313375779305  0.3579750744088017
  0.9203897374866350  0.5853129447149686  0.8629478855578498
  0.9170645602104770  0.9219663910650626  0.3584916339436207
  0.9232972821921134  0.9190399011040886  0.8599006942788957
  0.0748977833733070  0.0837783790401948  0.1374654067606653
  0.0832978154242336  0.0783026149910708  0.6403460348461949
  0.0749181372978698  0.4155387735660586  0.1368769509965627
  0.0819355411246621  0.4152627156895368  0.6435932842403207
  0.0727632801747862  0.7508211723057751  0.1371328852351936
  0.0821747130220453  0.7397694194752999  0.6438982831386044
  0.4104753131956154  0.0806278824819853  0.1405994663274940
  0.4168587265483392  0.0734982487768601  0.6478095203106000
  0.4103686374430741  0.4128421550101449  0.1382894115360845
  0.4196171135823998  0.4046647101439950  0.6558487306820806
  0.4098646323137093  0.7489867647634053  0.1380038978820994
  0.4166103567998923  0.7441559665589279  0.6472646164072576
  0.7419622044325523  0.0816808135097394  0.1420065863464605
  0.7475156281515922  0.0780328073948657  0.6431220278878914
  0.7431634426820676  0.4143710095319880  0.1397659527217853
  0.7472575683929916  0.4130721797271137  0.6426908250881336
  0.7415282401629790  0.7486978805461232  0.1412521629950113
  0.7464224265240389  0.7462714513531321  0.6440554720220931
 
             NaN             NaN             NaN
             NaN             NaN             NaN
             NaN             NaN             NaN
             NaN             NaN             NaN
             NaN             NaN             NaN
             NaN             NaN             NaN
             NaN             NaN             NaN
             NaN             NaN             NaN
             NaN             NaN             NaN
             NaN             NaN             NaN
             NaN             NaN             NaN
             NaN             NaN             NaN
             NaN             NaN             NaN
             NaN             NaN             NaN
             NaN             NaN             NaN
             NaN             NaN             NaN
             NaN             NaN             NaN
             NaN             NaN             NaN
             NaN             NaN             NaN
             NaN             NaN             NaN
             NaN             NaN             NaN
             NaN             NaN             NaN
             NaN             NaN             NaN
             NaN             NaN             NaN
             NaN             NaN             NaN
             NaN             NaN             NaN
             NaN             NaN             NaN
             NaN             NaN             NaN
             NaN             NaN             NaN
             NaN             NaN             NaN
             NaN             NaN             NaN
             NaN             NaN             NaN
             NaN             NaN             NaN
             NaN             NaN             NaN
             NaN             NaN             NaN
             NaN             NaN             NaN
             NaN             NaN             NaN
             NaN             NaN             NaN
             NaN             NaN             NaN
             NaN             NaN             NaN
             NaN             NaN             NaN
             NaN             NaN             NaN
             NaN             NaN             NaN
             NaN             NaN             NaN
             NaN             NaN             NaN
             NaN             NaN             NaN
             NaN             NaN             NaN
             NaN             NaN             NaN
             NaN             NaN             NaN
             NaN             NaN             NaN
             NaN             NaN             NaN
             NaN             NaN             NaN
             NaN             NaN             NaN
             NaN             NaN             NaN
             NaN             NaN             NaN
             NaN             NaN             NaN
             NaN             NaN             NaN
             NaN             NaN             NaN
             NaN             NaN             NaN
             NaN             NaN             NaN
             NaN             NaN             NaN
             NaN             NaN             NaN
             NaN             NaN             NaN
             NaN             NaN             NaN
             NaN             NaN             NaN
             NaN             NaN             NaN
             NaN             NaN             NaN
             NaN             NaN             NaN
             NaN             NaN             NaN
             NaN             NaN             NaN
             NaN             NaN             NaN
