Li46 P16 O64
1.0
10.583063 0.000008 -0.007282
0.000006 12.342586 -0.003782
-0.006862 -0.003070 9.986456
Li P O
46 16 64
direct
0.287782 0.253302 0.137105 Li
0.665756 0.248365 0.604562 Li
0.663987 0.749863 0.099057 Li
0.664356 0.751880 0.599671 Li
0.164764 0.495719 0.151596 Li
0.164074 0.500285 0.651841 Li
0.162892 0.994864 0.153529 Li
0.164075 0.998652 0.651803 Li
0.336536 0.000438 0.401477 Li
0.336721 0.000817 0.900438 Li
0.336744 0.501252 0.399206 Li
0.337694 0.497292 0.907668 Li
0.836981 0.248689 0.348219 Li
0.835830 0.249296 0.852859 Li
0.836853 0.748874 0.349543 Li
0.836780 0.748991 0.849336 Li
0.336721 0.250552 0.396627 Li
0.337322 0.252694 0.905565 Li
0.336625 0.749853 0.400422 Li
0.336633 0.749675 0.901743 Li
0.837478 0.001212 0.350063 Li
0.837311 0.001392 0.849041 Li
0.836223 0.501812 0.347835 Li
0.835081 0.500983 0.849710 Li
0.656541 0.492722 0.095199 Li
0.666651 0.503998 0.597192 Li
0.666772 0.999597 0.099078 Li
0.664351 0.999746 0.599165 Li
0.163536 0.250931 0.650422 Li
0.163093 0.749963 0.151229 Li
0.164109 0.751260 0.651810 Li
0.923519 0.374746 0.147780 Li
0.924066 0.375441 0.649500 Li
0.924663 0.873937 0.149521 Li
0.925802 0.875097 0.649226 Li
0.421836 0.376218 0.610214 Li
0.430090 0.874363 0.100965 Li
0.426392 0.875443 0.601147 Li
0.076552 0.125776 0.349635 Li
0.076284 0.125605 0.853605 Li
0.074605 0.624212 0.350989 Li
0.074892 0.624485 0.852592 Li
0.574748 0.125404 0.396730 Li
0.574917 0.129124 0.903365 Li
0.574239 0.626372 0.399136 Li
0.573061 0.624629 0.898536 Li
0.913519 0.124023 0.097864 P
0.912991 0.124631 0.597141 P
0.909692 0.624196 0.097158 P
0.912247 0.625850 0.597127 P
0.408595 0.119440 0.152845 P
0.411167 0.125068 0.653252 P
0.409925 0.628694 0.152613 P
0.410833 0.626227 0.653634 P
0.088279 0.375364 0.405105 P
0.087008 0.375731 0.902653 P
0.088700 0.874399 0.404285 P
0.088540 0.874521 0.904141 P
0.589944 0.376157 0.351276 P
0.587673 0.375495 0.836116 P
0.590240 0.875348 0.347099 P
0.589809 0.875472 0.846509 P
0.841994 0.021483 0.149068 O
0.842211 0.021607 0.648086 O
0.837967 0.521520 0.147271 O
0.842334 0.523066 0.649329 O
0.335190 0.216426 0.094119 O
0.341488 0.228236 0.600743 O
0.344092 0.735881 0.106043 O
0.341454 0.729861 0.602207 O
0.157621 0.271160 0.357158 O
0.157110 0.272345 0.852098 O
0.158279 0.771036 0.352701 O
0.158860 0.771337 0.853072 O
0.659722 0.479633 0.402047 O
0.655482 0.476684 0.895633 O
0.659732 0.978877 0.398595 O
0.660030 0.978424 0.898320 O
0.159059 0.477699 0.352937 O
0.157581 0.478460 0.850924 O
0.159022 0.977458 0.353257 O
0.159050 0.977732 0.853623 O
0.659583 0.272474 0.401538 O
0.655572 0.270049 0.880218 O
0.659790 0.772110 0.399248 O
0.658937 0.771713 0.897684 O
0.850936 0.228441 0.152434 O
0.843224 0.227791 0.648709 O
0.840623 0.728061 0.148523 O
0.841949 0.729173 0.647926 O
0.340137 0.013743 0.105933 O
0.341421 0.021635 0.601530 O
0.331812 0.533413 0.096722 O
0.341011 0.523491 0.600433 O
0.545076 0.117086 0.097972 O
0.549614 0.125164 0.600420 O
0.548103 0.625324 0.099538 O
0.549646 0.626842 0.602034 O
0.052480 0.120053 0.148548 O
0.051326 0.124279 0.649850 O
0.047998 0.623635 0.150186 O
0.050799 0.626173 0.649001 O
0.451515 0.375894 0.402809 O
0.445631 0.374498 0.871024 O
0.451490 0.875336 0.398379 O
0.451156 0.875715 0.898033 O
0.949741 0.375699 0.352876 O
0.948415 0.375361 0.849851 O
0.950139 0.874800 0.351960 O
0.950279 0.874904 0.851036 O
0.590093 0.374105 0.196467 O
0.596160 0.379658 0.679612 O
0.592476 0.874924 0.190796 O
0.590540 0.875834 0.690163 O
0.085658 0.376937 0.058347 O
0.088541 0.376538 0.561471 O
0.087725 0.873590 0.060406 O
0.089417 0.874626 0.560596 O
0.409625 0.124289 0.308753 O
0.410190 0.125009 0.809218 O
0.411306 0.625656 0.309128 O
0.409492 0.625450 0.809799 O
0.912341 0.124889 0.440850 O
0.911130 0.124711 0.941585 O
0.911048 0.625086 0.440742 O
0.909877 0.624830 0.940676 O
