Li46 P16 O64                            
   1.00000000000000     
    10.5807260000000003    0.0077120000000000   -0.0009840000000000
     0.0089980000000000   12.3359790000000000    0.0012570000000000
    -0.0009560000000000    0.0009910000000000    9.9966480000000004
   Li   P    O 
    46    16    64
Direct
  0.5046402315312154  0.3034796035756943  0.0727794190288733
  0.6624577879652015  0.2501941276837321  0.6020848943014014
  0.6642808979490283  0.7501620566561139  0.0990103770038407
  0.6636906283794480  0.7513875338428035  0.5991575461431979
  0.1680238411258521  0.4905926770628747  0.1537042538386258
  0.1642515469267543  0.5017970248422103  0.6511003463873751
  0.1672703295425548  0.9934799755042475  0.1538908786273818
  0.1627576340083910  0.9988856877355752  0.6519714791856962
  0.3359345065885000  0.9996668824955653  0.4038473829663708
  0.3364358818333325 -0.0001123510868809  0.8999105373158012
  0.3378345086936627  0.4999995545279150  0.3971812352668465
  0.3376966138486961  0.4965836988194597  0.9090522137265411
  0.8348734319386237  0.2481037629564907  0.3503304448343614
  0.8346435052974903  0.2493318367074130  0.8534893419650177
  0.8368956784565744  0.7485201342975817  0.3494643048574105
  0.8369262627516733  0.7484488710068491  0.8493412982543728
  0.3359656154278296  0.2502452356563521  0.3917043669011396
  0.3285109551150637  0.2497804393355718  0.9026126916298873
  0.3366593755141157  0.7490083023218821  0.4014841861937376
  0.3367156663754838  0.7485099337339146  0.9014441304121369
  0.8365064926277698  0.0007647971613393  0.3515263925675772
  0.8362180717826223  0.0004605984249279  0.8480131495906281
  0.8349254028806681  0.5014551600643282  0.3488659677157362
  0.8353123585814336  0.5021427728218077  0.8486697964889818
  0.6625054327582403  0.4969841355215133  0.0967689424309271
  0.6632985100197153  0.5022474752559318  0.6000392248602735
  0.6639268174498443  0.9982209671817791  0.0973187043161566
  0.6631835318214606  0.9994144800801947  0.5989949242957879
  0.1612328041608217  0.2501859524689370  0.6455107155390633
  0.1640430174144755  0.7491966036689948  0.1517202413148928
  0.1633427641615803  0.7512410773046868  0.6518356366329336
  0.9266104916885696  0.3739670784769721  0.1502382346259895
  0.9200660542055686  0.3757778814643521  0.6493671422957711
  0.9252065046005554  0.8730461317715265  0.1499668487806319
  0.9249572030214154  0.8750961614211522  0.6492433480467514
  0.4224627181245397  0.3753658397929714  0.5994116995298723
  0.4287076751401171  0.8741793067801489  0.0999487469797631
  0.4257289149297113  0.8748401683677203  0.6024173194092355
  0.0773923231899851  0.1269693036841066  0.3459209488954360
  0.0749783458063619  0.1256187581307516  0.8548219853904915
  0.0751546350873308  0.6228868721189063  0.3508094029073329
  0.0754762335163261  0.6245819236144491  0.8520946143567086
  0.5748540619690441  0.1260939429612563  0.3968853283161146
  0.5780632535810410  0.1254381431316810  0.9001204812346189
  0.5744311832230516  0.6253332546753837  0.4002025448276082
  0.5729809045094019  0.6242806124599429  0.8979440055475532
  0.9120777111411422  0.1210377039305324  0.0980952550291153
  0.9111630143612970  0.1244345676530086  0.5974946756243235
  0.9117660537538029  0.6239921046797575  0.0977343189140025
  0.9112635098219833  0.6260381259085817  0.5969140578952594
  0.4094522066662453  0.1172026092741601  0.1523745717386475
  0.4104122935173813  0.1250529088636355  0.6540008782153216
  0.4107432841207407  0.6283277914690988  0.1527509534910835
  0.4102665413229308  0.6254110349287944  0.6537194370924974
  0.0871688506039499  0.3744808915533069  0.4084537695594150
  0.0849981588965261  0.3769382631696857  0.9005238047024399
  0.0886192673665186  0.8738824658903245  0.4044064230697546
  0.0883972870838992  0.8743309211545314  0.9041604015074640
  0.5904519017682882  0.3766423898700455  0.3507970586765550
  0.5885237646434279  0.3750077121545465  0.8395533316004985
  0.5894614911534880  0.8750119601316531  0.3474914640982847
  0.5895691149638663  0.8743500003684388  0.8457916083282004
  0.8371134242784657  0.0205914974887941  0.1491871428060541
  0.8407748069647674  0.0211718963450567  0.6485063374939553
  0.8401289914607376  0.5217817806803365  0.1488915260515976
  0.8402935905071075  0.5238385863340970  0.6491023304594018
  0.3492442347699665  0.2214121571200731  0.0945148545734071
  0.3403528843647454  0.2282477645434203  0.6021566911859783
  0.3439024353769936  0.7350290443177703  0.1056272330285911
  0.3404259139890812  0.7294450048660989  0.6036101374197796
  0.1561235252922593  0.2675564291013804  0.3726105323155982
  0.1540901181862065  0.2725430481957075  0.8511930434146594
  0.1580147658489838  0.7700465806454085  0.3535844692720384
  0.1588222442636111  0.7710897582750084  0.8531338706321187
  0.6596597367496558  0.4794186275479562  0.4049778776685465
  0.6577810086454480  0.4776684016423133  0.8937477270603782
  0.6589732300627662  0.9783619638082205  0.3989835895165440
  0.6597826271925649  0.9771885809153622  0.8976755067736570
  0.1594359948703501  0.4749364791241085  0.3535909332982249
  0.1583724571879700  0.4781051606455831  0.8476851289493813
  0.1597465433039603  0.9764192863123650  0.3534445474894841
  0.1583794569504639  0.9775950642246412  0.8533102965083307
  0.6590502581212293  0.2724335136753331  0.4021979644003163
  0.6567173001762695  0.2701973180357205  0.8862002663821920
  0.6597157993521375  0.7715830511392593  0.3984067817471454
  0.6592202752212011  0.7707613965754545  0.8971180379000840
  0.8565974463013579  0.2273466191677510  0.1557583860143842
  0.8405913202752180  0.2275891734375335  0.6485468429552247
  0.8420883791015622  0.7280710634819486  0.1483401697346390
  0.8412832068052548  0.7298135459951430  0.6471112170743604
  0.3398685880160540  0.0138119623893188  0.1032394419568634
  0.3404228181222782  0.0214577724145169  0.6031980875793373
  0.3338916544290398  0.5318507059655670  0.0981489849326839
  0.3407955744805564  0.5230699266878489  0.5992900885024902
  0.5476366807021752  0.1188655896610668  0.0997391343925813
  0.5487319189651598  0.1247998911821005  0.6009709823168194
  0.5488967747508455  0.6258984344935890  0.0992157891837201
  0.5490989188965459  0.6269370239718804  0.6024267738491226
  0.0491990203506528  0.1118955620785086  0.1505984785668193
  0.0490553925194340  0.1244019402150431  0.6515214003497799
  0.0500261962287149  0.6232559248020171  0.1505760091034558
  0.0495361827195079  0.6264278765667550  0.6495253842127019
  0.4513517462926596  0.3747598558058611  0.4014000728766601
  0.4513568270890120  0.3715217140151255  0.8953051861816104
  0.4510339412954641  0.8746127519073376  0.3998730548000562
  0.4508960862061627  0.8744774960219448  0.8972513642207158
  0.9495137953384883  0.3742755010883620  0.3537099601838607
  0.9471231327424815  0.3761684309189300  0.8458846165532911
  0.9502437717106795  0.8747804472407534  0.3513958508878119
  0.9499807211327669  0.8745299287352164  0.8515773796498766
  0.5945790438257517  0.3799172543965697  0.1967789996834770
  0.5871885569895695  0.3784427187446911  0.6838033532790387
  0.5907317396100356  0.8750240576585936  0.1912339338241902
  0.5902681246818757  0.8750768975612671  0.6896918751121346
  0.0816603627131582  0.3817038051923362  0.0546044387357239
  0.0839677546203756  0.3803218859386886  0.5646609873220857
  0.0880683875158056  0.8733424310294422  0.0603597730734537
  0.0884502204907657  0.8745252666023757  0.5605521058657084
  0.4086534346266683  0.1209722475017941  0.3082937520343094
  0.4100501576594845  0.1250872598303941  0.8101100209179137
  0.4119954307993416  0.6257428340112192  0.3091602387529507
  0.4088483043361212  0.6232687890762594  0.8098388673626807
  0.9116600969904776  0.1241640512390149  0.4414920849499509
  0.9091610252283474  0.1235460063367926  0.9425234557925317
  0.9113295679841321  0.6247320716634509  0.4406723739463774
  0.9114805686610803  0.6244454136392703  0.9413772250609055
 
             NaN             NaN             NaN
             NaN             NaN             NaN
             NaN             NaN             NaN
             NaN             NaN             NaN
             NaN             NaN             NaN
             NaN             NaN             NaN
             NaN             NaN             NaN
             NaN             NaN             NaN
             NaN             NaN             NaN
             NaN             NaN             NaN
             NaN             NaN             NaN
             NaN             NaN             NaN
             NaN             NaN             NaN
             NaN             NaN             NaN
             NaN             NaN             NaN
             NaN             NaN             NaN
             NaN             NaN             NaN
             NaN             NaN             NaN
             NaN             NaN             NaN
             NaN             NaN             NaN
             NaN             NaN             NaN
             NaN             NaN             NaN
             NaN             NaN             NaN
             NaN             NaN             NaN
             NaN             NaN             NaN
             NaN             NaN             NaN
             NaN             NaN             NaN
             NaN             NaN             NaN
             NaN             NaN             NaN
             NaN             NaN             NaN
             NaN             NaN             NaN
             NaN             NaN             NaN
             NaN             NaN             NaN
             NaN             NaN             NaN
             NaN             NaN             NaN
             NaN             NaN             NaN
             NaN             NaN             NaN
             NaN             NaN             NaN
             NaN             NaN             NaN
             NaN             NaN             NaN
             NaN             NaN             NaN
             NaN             NaN             NaN
             NaN             NaN             NaN
             NaN             NaN             NaN
             NaN             NaN             NaN
             NaN             NaN             NaN
             NaN             NaN             NaN
             NaN             NaN             NaN
             NaN             NaN             NaN
             NaN             NaN             NaN
             NaN             NaN             NaN
             NaN             NaN             NaN
             NaN             NaN             NaN
             NaN             NaN             NaN
             NaN             NaN             NaN
             NaN             NaN             NaN
             NaN             NaN             NaN
             NaN             NaN             NaN
             NaN             NaN             NaN
             NaN             NaN             NaN
             NaN             NaN             NaN
             NaN             NaN             NaN
             NaN             NaN             NaN
             NaN             NaN             NaN
             NaN             NaN             NaN
             NaN             NaN             NaN
             NaN             NaN             NaN
             NaN             NaN             NaN
             NaN             NaN             NaN
             NaN             NaN             NaN
             NaN             NaN             NaN
             NaN             NaN             NaN
             NaN             NaN             NaN
             NaN             NaN             NaN
             NaN             NaN             NaN
             NaN             NaN             NaN
             NaN             NaN             NaN
             NaN             NaN             NaN
             NaN             NaN             NaN
             NaN             NaN             NaN
             NaN             NaN             NaN
             NaN             NaN             NaN
             NaN             NaN             NaN
             NaN             NaN             NaN
             NaN             NaN             NaN
             NaN             NaN             NaN
             NaN             NaN             NaN
             NaN             NaN             NaN
             NaN             NaN             NaN
             NaN             NaN             NaN
             NaN             NaN             NaN
             NaN             NaN             NaN
             NaN             NaN             NaN
             NaN             NaN             NaN
             NaN             NaN             NaN
             NaN             NaN             NaN
             NaN             NaN             NaN
             NaN             NaN             NaN
             NaN             NaN             NaN
             NaN             NaN             NaN
             NaN             NaN             NaN
             NaN             NaN             NaN
             NaN             NaN             NaN
             NaN             NaN             NaN
             NaN             NaN             NaN
             NaN             NaN             NaN
             NaN             NaN             NaN
             NaN             NaN             NaN
             NaN             NaN             NaN
             NaN             NaN             NaN
             NaN             NaN             NaN
             NaN             NaN             NaN
             NaN             NaN             NaN
             NaN             NaN             NaN
             NaN             NaN             NaN
             NaN             NaN             NaN
             NaN             NaN             NaN
             NaN             NaN             NaN
             NaN             NaN             NaN
             NaN             NaN             NaN
             NaN             NaN             NaN
             NaN             NaN             NaN
             NaN             NaN             NaN
             NaN             NaN             NaN
             NaN             NaN             NaN
             NaN             NaN             NaN
