Li46 P16 O64                            
   1.00000000000000     
    10.5807260000000003    0.0077120000000000   -0.0009840000000000
     0.0089980000000000   12.3359790000000000    0.0012570000000000
    -0.0009560000000000    0.0009910000000000    9.9966480000000004
   Li   P    O 
    46    16    64
Direct
  0.5166043240919396  0.2937951703351495  0.0695736471002316
  0.6625937623217093  0.2497454705663824  0.6012786462518099
  0.6642153026930563  0.7499980044210951  0.0987960719165762
  0.6635547127754889  0.7510996062133879  0.5991765257925301
  0.1680362593801727  0.4902252997680923  0.1542159009713159
  0.1641112145365779  0.5019352586525363  0.6511568573135710
  0.1678332701513385  0.9942686961822931  0.1534698748930078
  0.1628868362042629  0.9991771808776133  0.6519740812148529
  0.3362041914458487 -0.0000288752021035  0.4031423613074473
  0.3363935082450085  0.0003830831441726  0.9005183239555042
  0.3377404916085242  0.4998862747590082  0.3978795454990317
  0.3374474022061941  0.4966740762250831  0.9088761220360525
  0.8350729732513739  0.2481514992009608  0.3503680422535596
  0.8332139699503569  0.2495012254922610  0.8542835287966962
  0.8367887792893554  0.7485974897521557  0.3495745470802863
  0.8367988966756605  0.7485280957318966  0.8491868871051710
  0.3360936183677852  0.2503155970405898  0.3896305868560405
  0.3289332596348877  0.2508274424901558  0.9050555773502864
  0.3364828539181859  0.7491547116965225  0.4013111447892602
  0.3367673705901416  0.7489359518917182  0.9016014600219280
  0.8364735590911102  0.0008674733299816  0.3517563273603861
  0.8362041611390233  0.0004114231245561  0.8479247906774289
  0.8349423707010281  0.5016021950082763  0.3487252523528823
  0.8348764215236429  0.5024285408639690  0.8485447764197538
  0.6616040418741831  0.4968585281014347  0.0964633656172392
  0.6636092343334585  0.5019517967072463  0.5995905328290280
  0.6637112570342024  0.9980618975490839  0.0978644858210437
  0.6631579512568692  0.9991556480760618  0.5988409707805925
  0.1614869829250093  0.2502538445987469  0.6452298291003679
  0.1637935179332633  0.7495069101984181  0.1516896519075839
  0.1635148825051942  0.7514511090327098  0.6517813076486636
  0.9262014594984823  0.3741383322258860  0.1504027172806467
  0.9196600035071972  0.3757384967341863  0.6496943201565037
  0.9252199468511841  0.8732104887219456  0.1501078358135729
  0.9250229736702709  0.8751753084705179  0.6490596765420874
  0.4228654502404430  0.3750910054898252  0.6007843782531984
  0.4289852461963488  0.8751119616414844  0.1001284386870488
  0.4256048940908960  0.8749008676680680  0.6020369829901114
  0.0774294584740503  0.1270542724675734  0.3460098506481755
  0.0747325501502812  0.1258706303679258  0.8549548381273666
  0.0751981028968719  0.6229838649781110  0.3508263259070553
  0.0753212595855688  0.6249307622067823  0.8520682583947500
  0.5747673212155788  0.1254898097129308  0.3959130191284854
  0.5780350884333494  0.1242983820465199  0.9004582259415698
  0.5743117015680421  0.6251366160710841  0.4000993961876141
  0.5726977600215020  0.6242550736537177  0.8977677778428156
  0.9117621210567358  0.1211948734079847  0.0981931895677213
  0.9110221561418644  0.1245366266483679  0.5977334060107744
  0.9115518507047838  0.6239702518172126  0.0977337860611117
  0.9113320969924650  0.6261685058532825  0.5968146823995006
  0.4102982762345516  0.1178367237255474  0.1520278124580509
  0.4105471915974246  0.1251129813175322  0.6539745664431069
  0.4104334099091217  0.6288031271812123  0.1528563629337233
  0.4102200580220977  0.6253458933453179  0.6537154769387654
  0.0870553966441250  0.3745578869512239  0.4088122814847132
  0.0844833372841957  0.3770891745650306  0.9006961870363045
  0.0886377484305250  0.8740933365819328  0.4042914981728274
  0.0883836047980226  0.8745783754193428  0.9042003073579172
  0.5904196714283663  0.3764573699770951  0.3504600521091456
  0.5880416989215780  0.3754873003655946  0.8395061841734406
  0.5894861812097473  0.8746167478135745  0.3474730909073414
  0.5895217993898669  0.8741530483847230  0.8456454833785526
  0.8372112707156718  0.0206201756841734  0.1494655166031063
  0.8408108586514401  0.0211129116938773  0.6484777615477358
  0.8397120831351030  0.5217973130222464  0.1487287746495169
  0.8404090723679043  0.5239688517751204  0.6490158256298320
  0.3508702863186357  0.2221659895851364  0.0947363428272802
  0.3406446233752260  0.2283888193706900  0.6021379236723025
  0.3440011877731958  0.7357581289043131  0.1060854039226195
  0.3404525371004071  0.7292471145964002  0.6030857226965419
  0.1559045928140801  0.2675552323081539  0.3732646577215635
  0.1538760981533291  0.2727416027226340  0.8517719258276956
  0.1579042650026436  0.7702098129929613  0.3534063353280018
  0.1589119483908485  0.7713323438405504  0.8532723885299692
  0.6597087460841019  0.4792210200526149  0.4044748806311048
  0.6573836085034722  0.4782362411912763  0.8934512324170657
  0.6591152240920117  0.9779008209325245  0.3990089801607496
  0.6600913834080048  0.9768082521587677  0.8974699296553762
  0.1594871889635383  0.4749421416502947  0.3539334867175447
  0.1576562957582298  0.4783059154061418  0.8478290054797106
  0.1596607758457611  0.9766157387153264  0.3532126203438141
  0.1582542780239765  0.9778670675954642  0.8533117914133110
  0.6590034689563167  0.2722191112952738  0.4017321294775508
  0.6549850610666712  0.2709395986370320  0.8897760184502824
  0.6595388917979188  0.7711527985795092  0.3986568559260854
  0.6589928175866470  0.7704357055400959  0.8969075366235747
  0.8561618262277503  0.2275043406395845  0.1557901380988284
  0.8401918820439648  0.2274866324987958  0.6490586432426766
  0.8420140810104793  0.7280868145490175  0.1483993829045911
  0.8412997973131835  0.7299259628906590  0.6469609453983728
  0.3403284495758168  0.0143567746911139  0.1028926212852563
  0.3404535841053254  0.0216103254412645  0.6030459778519417
  0.3327145571318821  0.5331498554278939  0.0974982323825034
  0.3408071306982803  0.5228058052093744  0.5997034974978177
  0.5490572751314047  0.1183753214225399  0.1003953990805654
  0.5488761933698190  0.1246878702456841  0.6008742234682550
  0.5484934324954379  0.6258728743898971  0.0992632718018297
  0.5490593816476731  0.6265290447952707  0.6024318969690400
  0.0489484653228828  0.1123490078191894  0.1506762883729619
  0.0489307326546978  0.1246700058172630  0.6517254839026265
  0.0497960556717083  0.6231495910292942  0.1506813726032907
  0.0496073816469732  0.6266806158775297  0.6494460713561253
  0.4514820958019596  0.3748411687716228  0.4014395977705081
  0.4503095176788234  0.3725949984562025  0.8928453553693447
  0.4509903992573803  0.8744583547340948  0.3996674059916545
  0.4509263315714482  0.8745948079165805  0.8972406154515582
  0.9494908560757326  0.3744112061088815  0.3537443939939370
  0.9465620759927976  0.3760640543738384  0.8461797137927086
  0.9501645495630244  0.8749139296207110  0.3515420997907616
  0.9499847907407101  0.8745724946826221  0.8515390983823112
  0.5941141521733877  0.3792864046367582  0.1963516375810815
  0.5890933083904283  0.3776387890953524  0.6836874686908696
  0.5909859646387801  0.8744065076430403  0.1912766499463741
  0.5900970618160188  0.8748465559909386  0.6895383998877306
  0.0811276578446706  0.3819885080611675  0.0547930615606663
  0.0835885841953544  0.3805275397025560  0.5649979460227631
  0.0880327671460114  0.8736952439792378  0.0603991621223158
  0.0886641497726263  0.8747513332666087  0.5604576666252545
  0.4091310743458920  0.1208893730015111  0.3082408309351627
  0.4102343671145702  0.1252142481452714  0.8100671689343122
  0.4116859499457917  0.6255955832947170  0.3091814598365139
  0.4086052268636916  0.6237162651590006  0.8098010192161162
  0.9115374397801562  0.1244315496376920  0.4417244866533135
  0.9087068690680818  0.1236817822636636  0.9426108391698717
  0.9114007670252594  0.6247994116956275  0.4405759591397654
  0.9113827462875381  0.6245376583904295  0.9413751645952396
 
             NaN             NaN             NaN
             NaN             NaN             NaN
             NaN             NaN             NaN
             NaN             NaN             NaN
             NaN             NaN             NaN
             NaN             NaN             NaN
             NaN             NaN             NaN
             NaN             NaN             NaN
             NaN             NaN             NaN
             NaN             NaN             NaN
             NaN             NaN             NaN
             NaN             NaN             NaN
             NaN             NaN             NaN
             NaN             NaN             NaN
             NaN             NaN             NaN
             NaN             NaN             NaN
             NaN             NaN             NaN
             NaN             NaN             NaN
             NaN             NaN             NaN
             NaN             NaN             NaN
             NaN             NaN             NaN
             NaN             NaN             NaN
             NaN             NaN             NaN
             NaN             NaN             NaN
             NaN             NaN             NaN
             NaN             NaN             NaN
             NaN             NaN             NaN
             NaN             NaN             NaN
             NaN             NaN             NaN
             NaN             NaN             NaN
             NaN             NaN             NaN
             NaN             NaN             NaN
             NaN             NaN             NaN
             NaN             NaN             NaN
             NaN             NaN             NaN
             NaN             NaN             NaN
             NaN             NaN             NaN
             NaN             NaN             NaN
             NaN             NaN             NaN
             NaN             NaN             NaN
             NaN             NaN             NaN
             NaN             NaN             NaN
             NaN             NaN             NaN
             NaN             NaN             NaN
             NaN             NaN             NaN
             NaN             NaN             NaN
             NaN             NaN             NaN
             NaN             NaN             NaN
             NaN             NaN             NaN
             NaN             NaN             NaN
             NaN             NaN             NaN
             NaN             NaN             NaN
             NaN             NaN             NaN
             NaN             NaN             NaN
             NaN             NaN             NaN
             NaN             NaN             NaN
             NaN             NaN             NaN
             NaN             NaN             NaN
             NaN             NaN             NaN
             NaN             NaN             NaN
             NaN             NaN             NaN
             NaN             NaN             NaN
             NaN             NaN             NaN
             NaN             NaN             NaN
             NaN             NaN             NaN
             NaN             NaN             NaN
             NaN             NaN             NaN
             NaN             NaN             NaN
             NaN             NaN             NaN
             NaN             NaN             NaN
             NaN             NaN             NaN
             NaN             NaN             NaN
             NaN             NaN             NaN
             NaN             NaN             NaN
             NaN             NaN             NaN
             NaN             NaN             NaN
             NaN             NaN             NaN
             NaN             NaN             NaN
             NaN             NaN             NaN
             NaN             NaN             NaN
             NaN             NaN             NaN
             NaN             NaN             NaN
             NaN             NaN             NaN
             NaN             NaN             NaN
             NaN             NaN             NaN
             NaN             NaN             NaN
             NaN             NaN             NaN
             NaN             NaN             NaN
             NaN             NaN             NaN
             NaN             NaN             NaN
             NaN             NaN             NaN
             NaN             NaN             NaN
             NaN             NaN             NaN
             NaN             NaN             NaN
             NaN             NaN             NaN
             NaN             NaN             NaN
             NaN             NaN             NaN
             NaN             NaN             NaN
             NaN             NaN             NaN
             NaN             NaN             NaN
             NaN             NaN             NaN
             NaN             NaN             NaN
             NaN             NaN             NaN
             NaN             NaN             NaN
             NaN             NaN             NaN
             NaN             NaN             NaN
             NaN             NaN             NaN
             NaN             NaN             NaN
             NaN             NaN             NaN
             NaN             NaN             NaN
             NaN             NaN             NaN
             NaN             NaN             NaN
             NaN             NaN             NaN
             NaN             NaN             NaN
             NaN             NaN             NaN
             NaN             NaN             NaN
             NaN             NaN             NaN
             NaN             NaN             NaN
             NaN             NaN             NaN
             NaN             NaN             NaN
             NaN             NaN             NaN
             NaN             NaN             NaN
             NaN             NaN             NaN
             NaN             NaN             NaN
             NaN             NaN             NaN
             NaN             NaN             NaN
