Na47 P16 S64
1.0
13.937509 -0.008049 0.000010
-0.008088 13.948344 0.000130
0.000035 0.000095 14.285034
Na P S
47 16 64
direct
0.590295 0.747922 0.731641 Na
0.999852 0.250740 0.206722 Na
0.999177 0.250296 0.706028 Na
0.999244 0.750716 0.212119 Na
0.980965 0.752487 0.718836 Na
0.500146 0.249260 0.207529 Na
0.500826 0.249700 0.707063 Na
0.500754 0.749287 0.211536 Na
0.249173 0.999501 0.290940 Na
0.248663 0.998571 0.790484 Na
0.251467 0.500478 0.294510 Na
0.250471 0.502417 0.793932 Na
0.748560 0.998912 0.291136 Na
0.747341 0.979368 0.784761 Na
0.750801 0.501112 0.287570 Na
0.753527 0.519641 0.781320 Na
0.253087 0.999068 0.040510 Na
0.243793 0.999356 0.541584 Na
0.247237 0.499816 0.044824 Na
0.255498 0.503099 0.545632 Na
0.752930 1.000340 0.039241 Na
0.744029 0.998402 0.539733 Na
0.746735 0.500790 0.034939 Na
0.756682 0.499134 0.535687 Na
0.999799 0.248244 0.456100 Na
0.998453 0.253677 0.955296 Na
0.999941 0.748072 0.465051 Na
0.999952 0.754149 0.963013 Na
0.500212 0.251756 0.457192 Na
0.501550 0.246320 0.955733 Na
0.500058 0.751927 0.470924 Na
0.500038 0.745849 0.957430 Na
0.993084 0.998005 0.501513 Na
0.003842 0.009318 0.000922 Na
0.010473 0.495426 0.498964 Na
0.997155 0.501664 0.998375 Na
0.491086 0.002886 0.499170 Na
0.505788 0.995847 0.998806 Na
0.505344 0.503680 0.501720 Na
0.493216 0.493160 0.001354 Na
0.249197 0.250905 0.249882 Na
0.249391 0.251690 0.750021 Na
0.250876 0.749097 0.250552 Na
0.272490 0.749591 0.749717 Na
0.750809 0.249095 0.249257 Na
0.750609 0.248314 0.750425 Na
0.749119 0.750902 0.249932 Na
0.999519 0.000918 0.250013 P
0.999050 0.002815 0.751930 P
0.001046 0.499912 0.249730 P
0.002492 0.499273 0.748002 P
0.499338 0.999846 0.250049 P
0.497785 0.999720 0.748149 P
0.500100 0.499328 0.250332 P
0.500679 0.498193 0.752078 P
0.249873 0.250155 0.000185 P
0.249732 0.250727 0.499522 P
0.250365 0.748892 0.001100 P
0.249691 0.751203 0.499588 P
0.750130 0.249852 0.999838 P
0.750302 0.249269 0.498800 P
0.749616 0.751122 0.002216 P
0.750310 0.748796 0.497410 P
0.154725 0.173715 0.082673 S
0.154136 0.175107 0.581819 S
0.153694 0.675248 0.084130 S
0.156094 0.675682 0.583480 S
0.655395 0.173458 0.083109 S
0.654116 0.174889 0.581360 S
0.655456 0.673664 0.084991 S
0.656383 0.668721 0.576692 S
0.345457 0.325469 0.083172 S
0.345633 0.325659 0.581946 S
0.346107 0.824365 0.083505 S
0.344067 0.828901 0.580513 S
0.844420 0.327370 0.082616 S
0.846152 0.324337 0.581228 S
0.844718 0.826740 0.085623 S
0.843452 0.826697 0.579665 S
0.174065 0.346548 0.417366 S
0.174218 0.346205 0.918651 S
0.171981 0.843718 0.415270 S
0.176577 0.843177 0.916565 S
0.675926 0.345001 0.415559 S
0.674843 0.344121 0.916619 S
0.672468 0.843356 0.415275 S
0.671111 0.847320 0.923567 S
0.324905 0.155488 0.416336 S
0.325023 0.155271 0.917137 S
0.327445 0.656414 0.417606 S
0.325819 0.651353 0.920857 S
0.825129 0.152951 0.416588 S
0.825910 0.154415 0.918125 S
0.828099 0.656507 0.412939 S
0.826472 0.658161 0.919280 S
0.096098 0.423795 0.167301 S
0.101195 0.422032 0.670377 S
0.094291 0.925508 0.166581 S
0.090428 0.923476 0.668785 S
0.594423 0.423718 0.166582 S
0.596732 0.424962 0.668214 S
0.595316 0.924304 0.168444 S
0.588387 0.924660 0.660988 S
0.405164 0.075206 0.166009 S
0.400731 0.077372 0.669008 S
0.403992 0.574894 0.168498 S
0.409002 0.578694 0.670343 S
0.904315 0.077278 0.167870 S
0.901340 0.075625 0.669581 S
0.906395 0.575288 0.166528 S
0.912179 0.573164 0.659430 S
0.075745 0.095434 0.333094 S
0.077803 0.100516 0.829527 S
0.076881 0.595040 0.332501 S
0.074154 0.595475 0.832619 S
0.574361 0.095468 0.333119 S
0.578204 0.092845 0.829245 S
0.575990 0.594430 0.332513 S
0.575655 0.586920 0.841576 S
0.425029 0.404154 0.333705 S
0.422150 0.400318 0.829833 S
0.423112 0.904914 0.332474 S
0.423674 0.906174 0.833608 S
0.924872 0.404943 0.332503 S
0.921843 0.406317 0.828936 S
0.924014 0.905615 0.332534 S
0.926517 0.911423 0.840583 S
