Na15 V32 O64                            
   1.00000000000000     
     9.1032499999999992    0.0017850000000000   -0.0014340000000000
     0.0032500000000000   11.4403380000000006   -0.0001750000000000
     0.0002210000000000    0.0003140000000000   10.6084370000000003
   Na   V    O 
    15    32    64
Direct
  0.7397708077728709  0.3801757039080371  0.1661263792640639
  0.7420485264450960  0.0722385392497387  0.1524214357562812
  0.7421898288811164  0.7979833284494333  0.1529380942150951
  0.2423469601503427  0.0624443268311126  0.3473775959986156
  0.2419388089565189  0.3137581433356260  0.3464417771861221
  0.2432612585963625  0.5622377162923797  0.3468517576960153
  0.2419655473355604  0.8130139242461425  0.3471733146380700
  0.2577556798817753  0.1877309227666046  0.8497720189738160
  0.2595569367966704  0.4381970978132159  0.8484079938620326
  0.2579445778049205  0.6886326525736663  0.8495285625179108
  0.2576080806693071  0.9381470480346650  0.8492512427370258
  0.7583872835982817  0.1878551622725695  0.6503710943771210
  0.7568037629847737  0.4378668066807307  0.6507119710623996
  0.7582877409887914  0.6878208054069574  0.6502295209618723
  0.7570326990926191  0.9377806122876180  0.6492780710059378
  0.5850923643087640  0.0620592034892127  0.8965187430497679
  0.5870031156826414  0.3122230707586482  0.8964664849443693
  0.5892550546406881  0.5648592283515086  0.8980655934174848
  0.5849012837183309  0.8135485074451836  0.8961333861361069
  0.0853620940855464  0.0618603361106622  0.6023170494987014
  0.0888028254891822  0.3112287058138818  0.6033864838670411
  0.0883014463332401  0.5640111641737278  0.6034992015288196
  0.0852556793761536  0.8122670849360745  0.6022362793359832
  0.4163062782635265  0.1891756044355191  0.1043148630619299
  0.4101066437693959  0.4393498654402990  0.1038278302812188
  0.4141885107068646  0.6865053118565712  0.1046586087365711
  0.4174245510763654  0.9384210853921147  0.1046706475755954
  0.9146733859626934  0.1880605692908119  0.3955403054588587
  0.9164231776646332  0.4385835937707370  0.3993216466711331
  0.9146509477184068  0.6868026359393724  0.3946480710282643
  0.9111008800633442  0.9375732073374508  0.3942696409980684
  0.5607461273524237  0.0655962885893615  0.3876526629912789
  0.5607911023792482  0.3111455949140804  0.3876391462916828
  0.5645842580649401  0.5645868724769016  0.3828160716796702
  0.5604108376879893  0.8108719865146767  0.3873520258725662
  0.0609890090908607  0.0605110320090247  0.1132782794099683
  0.0600450240789101  0.3087991576330325  0.1123937318206245
  0.0562661922979046  0.5651615260122753  0.1135132834205876
  0.0617576073263706  0.8172449746022039  0.1128446101632221
  0.4378639073163413  0.1882515122602868  0.6171227940906405
  0.4392660494339964  0.4389786694137712  0.6147114125771296
  0.4387264597316758  0.6879428810817600  0.6155692302210554
  0.4365509021714757  0.9384567321183894  0.6154512912340451
  0.9381700437242202  0.1873519958062602  0.8827024545488342
  0.9411888588522643  0.4379900822643776  0.8819511440878145
  0.9384884090825025  0.6890534651340801  0.8834211678565183
  0.9367182098314899  0.9384960925730326  0.8831414866056733
  0.7910045847789888  0.0633089732898995  0.8488527777342512
  0.7938277794352970  0.3141416028053499  0.8490532156226465
  0.7946202577623467  0.5626787970455638  0.8489606634776123
  0.7911560230490977  0.8127081834244265  0.8494041098390284
  0.2914831054238860  0.0629813122054301  0.6497556002556593
  0.2936229990167050  0.3121533047930285  0.6503385044556325
  0.2939893729806116  0.5640353267418305  0.6498391244334982
  0.2917885100894608  0.8127979177862485  0.6490952431665491
  0.2068228718968541  0.1908400258031122  0.1490972416515959
  0.2052462365074064  0.4385702936887341  0.1477443996712751
  0.2058762206628799  0.6857227779036918  0.1479762392777886
  0.2084160459020623  0.9374930448495675  0.1501758169426779
  0.7073619588432720  0.1875207229872373  0.3557174766462623
  0.7064222294761606  0.4374233764615312  0.3642140775417815
  0.7084110330257758  0.6905210926636158  0.3566127587021484
  0.7051899827343817  0.9382149847767494  0.3544521447876789
  0.8868938754792666  0.0631109712709446  0.5195577903654609
  0.8896932355243479  0.3130061633222283  0.5213096829882957
  0.8893079560968218  0.5627165882784055  0.5217014944324774
  0.8873902665122984  0.8120738453789755  0.5192914393052916
  0.3867620355474131  0.0630235687755132  0.9811423466300937
  0.3857044213371879  0.3128811117999106  0.9805142472221888
  0.3852456699912068  0.5637908962043738  0.9796026259919657
  0.3866348350621465  0.8136908731181904  0.9811949193322107
  0.1142992118203026  0.1872368152638018  0.4783059068815732
  0.1160464401116599  0.4376687258557013  0.4804838186449487
  0.1143962289665907  0.6877765530888595  0.4782126526543635
  0.1123099335417947  0.9374468952128936  0.4779073735061914
  0.6125754525196285  0.1888749949397095  0.0187775457542969
  0.6071338891534523  0.4392645234074095  0.0143366846865973
  0.6105855251554146  0.6881764633772747  0.0178360206721990
  0.6144412684120297  0.9378801519018936  0.0209929325949645
  0.9780227762925406  0.0630691780624559  0.2810809763587301
  0.9755970153337685  0.3143616446431992  0.2830675985340108
  0.9789617295623003  0.5613546156423226  0.2850400205366412
  0.9785250808957286  0.8127393921127961  0.2812906693408195
  0.4793885002321261  0.0643749994835403  0.2185844042534555
  0.4809045661009037  0.3148706309491160  0.2177142108690688
  0.4764205133643884  0.5622821790691646  0.2188309414260416
  0.4795766126297494  0.8121103906894618  0.2177721832723805
  0.0215160872012206  0.1871741809570437  0.7160555188469218
  0.0239030796057378  0.4375770525454712  0.7150079260770497
  0.0214137194822399  0.6883210466774443  0.7162802431544009
  0.0193633648297151  0.9378146815228661  0.7153184961960761
  0.5192185486813088  0.1881337508325132  0.7843403882759290
  0.5221635460672260  0.4382354038245708  0.7818765213856125
  0.5204527047248035  0.6875820093470040  0.7835603624796761
  0.5178068376676137  0.9380309394158814  0.7832835848022057
  0.5778878692469149  0.0637490030731769  0.5734370661660080
  0.5788960290294796  0.3111778202532633  0.5728445291909736
  0.5791516486959978  0.5648639391674095  0.5706419541616299
  0.5780765150898546  0.8128583836135306  0.5732553473091500
  0.0788049113762739  0.0623520080209872  0.9275138048864093
  0.0794631115178532  0.3119872506708248  0.9254501242615518
  0.0787662847344137  0.5637178597589738  0.9253894846843238
  0.0790751434782351  0.8145803975968349  0.9268370947369249
  0.4182473036335708  0.1883099113920466  0.4305030392685509
  0.4229228584232274  0.4377392311350761  0.4297237132459344
  0.4197525149020152  0.6885018163855960  0.4296417305736995
  0.4220712631645540  0.9380966752998887  0.4295761432111433
  0.9224036868876766  0.1890995150159753  0.0686269390332939
  0.9313535661115964  0.4380651321472016  0.0674736959556625
  0.9263673160799399  0.6888243125906186  0.0687443920991484
  0.9178081103645965  0.9376259778261513  0.0691789680067956
 
  0.00000000E+00  0.00000000E+00  0.00000000E+00
  0.00000000E+00  0.00000000E+00  0.00000000E+00
  0.00000000E+00  0.00000000E+00  0.00000000E+00
  0.00000000E+00  0.00000000E+00  0.00000000E+00
  0.00000000E+00  0.00000000E+00  0.00000000E+00
  0.00000000E+00  0.00000000E+00  0.00000000E+00
  0.00000000E+00  0.00000000E+00  0.00000000E+00
  0.00000000E+00  0.00000000E+00  0.00000000E+00
  0.00000000E+00  0.00000000E+00  0.00000000E+00
  0.00000000E+00  0.00000000E+00  0.00000000E+00
  0.00000000E+00  0.00000000E+00  0.00000000E+00
  0.00000000E+00  0.00000000E+00  0.00000000E+00
  0.00000000E+00  0.00000000E+00  0.00000000E+00
  0.00000000E+00  0.00000000E+00  0.00000000E+00
  0.00000000E+00  0.00000000E+00  0.00000000E+00
  0.00000000E+00  0.00000000E+00  0.00000000E+00
  0.00000000E+00  0.00000000E+00  0.00000000E+00
  0.00000000E+00  0.00000000E+00  0.00000000E+00
  0.00000000E+00  0.00000000E+00  0.00000000E+00
  0.00000000E+00  0.00000000E+00  0.00000000E+00
  0.00000000E+00  0.00000000E+00  0.00000000E+00
  0.00000000E+00  0.00000000E+00  0.00000000E+00
  0.00000000E+00  0.00000000E+00  0.00000000E+00
  0.00000000E+00  0.00000000E+00  0.00000000E+00
  0.00000000E+00  0.00000000E+00  0.00000000E+00
  0.00000000E+00  0.00000000E+00  0.00000000E+00
  0.00000000E+00  0.00000000E+00  0.00000000E+00
  0.00000000E+00  0.00000000E+00  0.00000000E+00
  0.00000000E+00  0.00000000E+00  0.00000000E+00
  0.00000000E+00  0.00000000E+00  0.00000000E+00
  0.00000000E+00  0.00000000E+00  0.00000000E+00
  0.00000000E+00  0.00000000E+00  0.00000000E+00
  0.00000000E+00  0.00000000E+00  0.00000000E+00
  0.00000000E+00  0.00000000E+00  0.00000000E+00
  0.00000000E+00  0.00000000E+00  0.00000000E+00
  0.00000000E+00  0.00000000E+00  0.00000000E+00
  0.00000000E+00  0.00000000E+00  0.00000000E+00
  0.00000000E+00  0.00000000E+00  0.00000000E+00
  0.00000000E+00  0.00000000E+00  0.00000000E+00
  0.00000000E+00  0.00000000E+00  0.00000000E+00
  0.00000000E+00  0.00000000E+00  0.00000000E+00
  0.00000000E+00  0.00000000E+00  0.00000000E+00
  0.00000000E+00  0.00000000E+00  0.00000000E+00
  0.00000000E+00  0.00000000E+00  0.00000000E+00
  0.00000000E+00  0.00000000E+00  0.00000000E+00
  0.00000000E+00  0.00000000E+00  0.00000000E+00
  0.00000000E+00  0.00000000E+00  0.00000000E+00
  0.00000000E+00  0.00000000E+00  0.00000000E+00
  0.00000000E+00  0.00000000E+00  0.00000000E+00
  0.00000000E+00  0.00000000E+00  0.00000000E+00
  0.00000000E+00  0.00000000E+00  0.00000000E+00
  0.00000000E+00  0.00000000E+00  0.00000000E+00
  0.00000000E+00  0.00000000E+00  0.00000000E+00
  0.00000000E+00  0.00000000E+00  0.00000000E+00
  0.00000000E+00  0.00000000E+00  0.00000000E+00
  0.00000000E+00  0.00000000E+00  0.00000000E+00
  0.00000000E+00  0.00000000E+00  0.00000000E+00
  0.00000000E+00  0.00000000E+00  0.00000000E+00
  0.00000000E+00  0.00000000E+00  0.00000000E+00
  0.00000000E+00  0.00000000E+00  0.00000000E+00
  0.00000000E+00  0.00000000E+00  0.00000000E+00
  0.00000000E+00  0.00000000E+00  0.00000000E+00
  0.00000000E+00  0.00000000E+00  0.00000000E+00
  0.00000000E+00  0.00000000E+00  0.00000000E+00
  0.00000000E+00  0.00000000E+00  0.00000000E+00
  0.00000000E+00  0.00000000E+00  0.00000000E+00
  0.00000000E+00  0.00000000E+00  0.00000000E+00
  0.00000000E+00  0.00000000E+00  0.00000000E+00
  0.00000000E+00  0.00000000E+00  0.00000000E+00
  0.00000000E+00  0.00000000E+00  0.00000000E+00
  0.00000000E+00  0.00000000E+00  0.00000000E+00
  0.00000000E+00  0.00000000E+00  0.00000000E+00
  0.00000000E+00  0.00000000E+00  0.00000000E+00
  0.00000000E+00  0.00000000E+00  0.00000000E+00
  0.00000000E+00  0.00000000E+00  0.00000000E+00
  0.00000000E+00  0.00000000E+00  0.00000000E+00
  0.00000000E+00  0.00000000E+00  0.00000000E+00
  0.00000000E+00  0.00000000E+00  0.00000000E+00
  0.00000000E+00  0.00000000E+00  0.00000000E+00
  0.00000000E+00  0.00000000E+00  0.00000000E+00
  0.00000000E+00  0.00000000E+00  0.00000000E+00
  0.00000000E+00  0.00000000E+00  0.00000000E+00
  0.00000000E+00  0.00000000E+00  0.00000000E+00
  0.00000000E+00  0.00000000E+00  0.00000000E+00
  0.00000000E+00  0.00000000E+00  0.00000000E+00
  0.00000000E+00  0.00000000E+00  0.00000000E+00
  0.00000000E+00  0.00000000E+00  0.00000000E+00
  0.00000000E+00  0.00000000E+00  0.00000000E+00
  0.00000000E+00  0.00000000E+00  0.00000000E+00
  0.00000000E+00  0.00000000E+00  0.00000000E+00
  0.00000000E+00  0.00000000E+00  0.00000000E+00
  0.00000000E+00  0.00000000E+00  0.00000000E+00
  0.00000000E+00  0.00000000E+00  0.00000000E+00
  0.00000000E+00  0.00000000E+00  0.00000000E+00
  0.00000000E+00  0.00000000E+00  0.00000000E+00
  0.00000000E+00  0.00000000E+00  0.00000000E+00
  0.00000000E+00  0.00000000E+00  0.00000000E+00
  0.00000000E+00  0.00000000E+00  0.00000000E+00
  0.00000000E+00  0.00000000E+00  0.00000000E+00
  0.00000000E+00  0.00000000E+00  0.00000000E+00
  0.00000000E+00  0.00000000E+00  0.00000000E+00
  0.00000000E+00  0.00000000E+00  0.00000000E+00
  0.00000000E+00  0.00000000E+00  0.00000000E+00
  0.00000000E+00  0.00000000E+00  0.00000000E+00
  0.00000000E+00  0.00000000E+00  0.00000000E+00
  0.00000000E+00  0.00000000E+00  0.00000000E+00
  0.00000000E+00  0.00000000E+00  0.00000000E+00
  0.00000000E+00  0.00000000E+00  0.00000000E+00
  0.00000000E+00  0.00000000E+00  0.00000000E+00
  0.00000000E+00  0.00000000E+00  0.00000000E+00
  0.00000000E+00  0.00000000E+00  0.00000000E+00
