Na15 V32 O64                            
   1.00000000000000     
     9.1032499999999992    0.0017850000000000   -0.0014340000000000
     0.0032500000000000   11.4403380000000006   -0.0001750000000000
     0.0002210000000000    0.0003140000000000   10.6084370000000003
   Na   V    O 
    15    32    64
Direct
  0.7397708077728699  0.3801757039080355  0.1661263792640666
  0.7420485264450931  0.0722385392497367  0.1524214357562832
  0.7421898288811137  0.7979833284494341  0.1529380942150963
  0.2423469601503409  0.0624443268311134  0.3473775959986147
  0.2419388089565154  0.3137581433356287  0.3464417771861189
  0.2432612585963625  0.5622377162923763  0.3468517576960122
  0.2419655473355601  0.8130139242461395  0.3471733146380712
  0.2577556798817759  0.1877309227666055  0.8497720189738147
  0.2595569367966670  0.4381970978132134  0.8484079938620346
  0.2579445778049218  0.6886326525736647  0.8495285625179084
  0.2576080806693091  0.9381470480346620  0.8492512427370288
  0.7583872835982844  0.1878551622725723  0.6503710943771182
  0.7568037629847718  0.4378668066807292  0.6507119710624030
  0.7582877409887929  0.6878208054069593  0.6502295209618747
  0.7570326990926173  0.9377806122876193  0.6492780710059358
  0.5850923643087654  0.0620592034892156  0.8965187430497649
  0.5870031156826394  0.3122230707586501  0.8964664849443702
  0.5892550546406887  0.5648592283515058  0.8980655934174870
  0.5849012837183308  0.8135485074451856  0.8961333861361064
  0.0853620940855430  0.0618603361106592  0.6023170494986986
  0.0888028254891838  0.3112287058138793  0.6033864838670427
  0.0883014463332375  0.5640111641737262  0.6034992015288180
  0.0852556793761566  0.8122670849360734  0.6022362793359862
  0.4163062782635249  0.1891756044355162  0.1043148630619275
  0.4101066437693988  0.4393498654402982  0.1038278302812199
  0.4141885107068649  0.6865053118565697  0.1046586087365693
  0.4174245510763688  0.9384210853921147  0.1046706475755965
  0.9146733859626935  0.1880605692908152  0.3955403054588605
  0.9164231776646343  0.4385835937707339  0.3993216466711321
  0.9146509477184090  0.6868026359393736  0.3946480710282615
  0.9111008800633452  0.9375732073374539  0.3942696409980695
  0.5607461273524247  0.0655962885893618  0.3876526629912794
  0.5607911023792508  0.3111455949140785  0.3876391462916816
  0.5645842580649427  0.5645868724768993  0.3828160716796717
  0.5604108376879908  0.8108719865146766  0.3873520258725686
  0.0609890090908618  0.0605110320090270  0.1132782794099664
  0.0600450240789069  0.3087991576330308  0.1123937318206265
  0.0562661922979016  0.5651615260122766  0.1135132834205895
  0.0617576073263712  0.8172449746022019  0.1128446101632196
  0.4378639073163438  0.1882515122602899  0.6171227940906381
  0.4392660494339949  0.4389786694137713  0.6147114125771324
  0.4387264597316781  0.6879428810817589  0.6155692302210519
  0.4365509021714754  0.9384567321183899  0.6154512912340465
  0.9381700437242211  0.1873519958062619  0.8827024545488362
  0.9411888588522648  0.4379900822643751  0.8819511440878113
  0.9384884090825006  0.6890534651340828  0.8834211678565194
  0.9367182098314922  0.9384960925730361  0.8831414866056702
  0.7910045847789920  0.0633089732899020  0.8488527777342547
  0.7938277794352961  0.3141416028053491  0.8490532156226450
  0.7946202577623502  0.5626787970455664  0.8489606634776115
  0.7911560230490997  0.8127081834244299  0.8494041098390268
  0.2914831054238852  0.0629813122054272  0.6497556002556562
  0.2936229990167016  0.3121533047930281  0.6503385044556347
  0.2939893729806146  0.5640353267418329  0.6498391244335017
  0.2917885100894609  0.8127979177862509  0.6490952431665519
  0.2068228718968570  0.1908400258031129  0.1490972416515949
  0.2052462365074080  0.4385702936887332  0.1477443996712736
  0.2058762206628790  0.6857227779036905  0.1479762392777866
  0.2084160459020614  0.9374930448495663  0.1501758169426759
  0.7073619588432755  0.1875207229872392  0.3557174766462600
  0.7064222294761595  0.4374233764615326  0.3642140775417784
  0.7084110330257728  0.6905210926636155  0.3566127587021514
  0.7051899827343845  0.9382149847767519  0.3544521447876761
  0.8868938754792640  0.0631109712709434  0.5195577903654643
  0.8896932355243478  0.3130061633222258  0.5213096829882952
  0.8893079560968215  0.5627165882784068  0.5217014944324800
  0.8873902665122986  0.8120738453789750  0.5192914393052950
  0.3867620355474116  0.0630235687755138  0.9811423466300920
  0.3857044213371866  0.3128811117999096  0.9805142472221867
  0.3852456699912066  0.5637908962043751  0.9796026259919643
  0.3866348350621495  0.8136908731181888  0.9811949193322140
  0.1142992118203019  0.1872368152638045  0.4783059068815714
  0.1160464401116586  0.4376687258557023  0.4804838186449470
  0.1143962289665925  0.6877765530888570  0.4782126526543642
  0.1123099335417979  0.9374468952128960  0.4779073735061926
  0.6125754525196312  0.1888749949397098  0.0187775457542937
  0.6071338891534531  0.4392645234074061  0.0143366846865996
  0.6105855251554164  0.6881764633772746  0.0178360206721969
  0.6144412684120332  0.9378801519018966  0.0209929325949638
  0.9780227762925416  0.0630691780624564  0.2810809763587274
  0.9755970153337696  0.3143616446432023  0.2830675985340076
  0.9789617295622981  0.5613546156423206  0.2850400205366407
  0.9785250808957260  0.8127393921127951  0.2812906693408229
  0.4793885002321255  0.0643749994835429  0.2185844042534556
  0.4809045661009033  0.3148706309491179  0.2177142108690720
  0.4764205133643895  0.5622821790691676  0.2188309414260427
  0.4795766126297464  0.8121103906894611  0.2177721832723776
  0.0215160872012240  0.1871741809570450  0.7160555188469222
  0.0239030796057353  0.4375770525454682  0.7150079260770495
  0.0214137194822375  0.6883210466774432  0.7162802431543983
  0.0193633648297142  0.9378146815228676  0.7153184961960762
  0.5192185486813078  0.1881337508325134  0.7843403882759296
  0.5221635460672253  0.4382354038245732  0.7818765213856116
  0.5204527047248036  0.6875820093470068  0.7835603624796775
  0.5178068376676155  0.9380309394158826  0.7832835848022069
  0.5778878692469143  0.0637490030731793  0.5734370661660093
  0.5788960290294828  0.3111778202532647  0.5728445291909757
  0.5791516486959954  0.5648639391674113  0.5706419541616267
  0.5780765150898564  0.8128583836135272  0.5732553473091485
  0.0788049113762739  0.0623520080209871  0.9275138048864127
  0.0794631115178507  0.3119872506708273  0.9254501242615488
  0.0787662847344127  0.5637178597589756  0.9253894846843227
  0.0790751434782379  0.8145803975968358  0.9268370947369257
  0.4182473036335697  0.1883099113920452  0.4305030392685494
  0.4229228584232267  0.4377392311350793  0.4297237132459334
  0.4197525149020135  0.6885018163855992  0.4296417305736989
  0.4220712631645563  0.9380966752998910  0.4295761432111422
  0.9224036868876766  0.1890995150159773  0.0686269390332930
  0.9313535661115969  0.4380651321472035  0.0674736959556617
  0.9263673160799389  0.6888243125906218  0.0687443920991459
  0.9178081103645979  0.9376259778261485  0.0691789680067986
 
             NaN             NaN             NaN
             NaN             NaN             NaN
             NaN             NaN             NaN
             NaN             NaN             NaN
             NaN             NaN             NaN
             NaN             NaN             NaN
             NaN             NaN             NaN
             NaN             NaN             NaN
             NaN             NaN             NaN
             NaN             NaN             NaN
             NaN             NaN             NaN
             NaN             NaN             NaN
             NaN             NaN             NaN
             NaN             NaN             NaN
             NaN             NaN             NaN
             NaN             NaN             NaN
             NaN             NaN             NaN
             NaN             NaN             NaN
             NaN             NaN             NaN
             NaN             NaN             NaN
             NaN             NaN             NaN
             NaN             NaN             NaN
             NaN             NaN             NaN
             NaN             NaN             NaN
             NaN             NaN             NaN
             NaN             NaN             NaN
             NaN             NaN             NaN
             NaN             NaN             NaN
             NaN             NaN             NaN
             NaN             NaN             NaN
             NaN             NaN             NaN
             NaN             NaN             NaN
             NaN             NaN             NaN
             NaN             NaN             NaN
             NaN             NaN             NaN
             NaN             NaN             NaN
             NaN             NaN             NaN
             NaN             NaN             NaN
             NaN             NaN             NaN
             NaN             NaN             NaN
             NaN             NaN             NaN
             NaN             NaN             NaN
             NaN             NaN             NaN
             NaN             NaN             NaN
             NaN             NaN             NaN
             NaN             NaN             NaN
             NaN             NaN             NaN
             NaN             NaN             NaN
             NaN             NaN             NaN
             NaN             NaN             NaN
             NaN             NaN             NaN
             NaN             NaN             NaN
             NaN             NaN             NaN
             NaN             NaN             NaN
             NaN             NaN             NaN
             NaN             NaN             NaN
             NaN             NaN             NaN
             NaN             NaN             NaN
             NaN             NaN             NaN
             NaN             NaN             NaN
             NaN             NaN             NaN
             NaN             NaN             NaN
             NaN             NaN             NaN
             NaN             NaN             NaN
             NaN             NaN             NaN
             NaN             NaN             NaN
             NaN             NaN             NaN
             NaN             NaN             NaN
             NaN             NaN             NaN
             NaN             NaN             NaN
             NaN             NaN             NaN
             NaN             NaN             NaN
             NaN             NaN             NaN
             NaN             NaN             NaN
             NaN             NaN             NaN
             NaN             NaN             NaN
             NaN             NaN             NaN
             NaN             NaN             NaN
             NaN             NaN             NaN
             NaN             NaN             NaN
             NaN             NaN             NaN
             NaN             NaN             NaN
             NaN             NaN             NaN
             NaN             NaN             NaN
             NaN             NaN             NaN
             NaN             NaN             NaN
             NaN             NaN             NaN
             NaN             NaN             NaN
             NaN             NaN             NaN
             NaN             NaN             NaN
             NaN             NaN             NaN
             NaN             NaN             NaN
             NaN             NaN             NaN
             NaN             NaN             NaN
             NaN             NaN             NaN
             NaN             NaN             NaN
             NaN             NaN             NaN
             NaN             NaN             NaN
             NaN             NaN             NaN
             NaN             NaN             NaN
             NaN             NaN             NaN
             NaN             NaN             NaN
             NaN             NaN             NaN
             NaN             NaN             NaN
             NaN             NaN             NaN
             NaN             NaN             NaN
             NaN             NaN             NaN
             NaN             NaN             NaN
             NaN             NaN             NaN
             NaN             NaN             NaN
             NaN             NaN             NaN
