Li7 Mn16 O32                            
   1.00000000000000     
     8.1529579999999999    0.0000910000000000   -0.0000930000000000
     0.0000910000000000    8.1529319999999998   -0.0000660000000000
    -0.0000930000000000   -0.0000660000000000    8.1529349999999994
   Li   Mn   O 
     7    16    32
Direct
  0.2194287234427605  0.5305692336670437  0.7194306014076932
  0.8768430212753588  0.8731605676291327  0.8737891439587085
  0.1270164449634926  0.1273315072712564  0.1226688003949560
  0.8768426985265830  0.3762110222737072  0.3768392276014864
  0.3737923453199204  0.8731607108612957  0.3768394030302735
  0.6226648986649744  0.1273316097128536  0.6270201903406450
  0.6226647716150440  0.6229796563597401  0.1226685734989920
  0.5000943354630352  0.2499048432154186  0.2478505033943737
  0.2499675679684401  0.5000324821087508  0.2490969900745589
  0.2502136152034268  0.2484031276795828  0.4992032699244332
  0.5015969845885717  0.4997868546786703  0.4992033476310723
  0.5015987258975128  0.7507962965956876  0.7502126668045287
  0.7490969683672480  0.5000335818712910  0.7499670330786506
  0.7519368705012957  0.7503269981754821  0.4996737639776128
  0.2499669921847815  0.0009039841041067  0.7499676964985769
  0.2502125956968178  0.7507960988580742  1.0015990566372162
  0.5000952826897818  0.0021499950117141  1.0000956537424426
  0.7499490276091231  1.0000504509767130  0.2499491883396552
  0.7478501377769569  0.2499046772358154  1.0000947547382033
 -0.0007963954402850  0.2484027568299057  0.7502132269879270
 -0.0007960276819891  0.4997872979233988  1.0015976259608683
  0.9996737123939133  0.7503267369849727  0.2519364305515560
  0.9996725912916158  0.9980632274083019  0.4996729991670105
  0.7375044506442781  0.0124950584519064  0.0129236428248492
  0.0127025079424367  0.7372976358256340  0.0140550034864267
  0.0127340127453155  0.0117488154557071  0.7367318348239774
  0.7382510234888967  0.7372675666773645  0.7367323377465249
  0.2633395405793166  0.9880988641908796  0.9869805368607633
  0.9861102097592781  0.2625775697444753  0.9874219001122929
  0.9871062339692070  0.9875091516479259  0.2624920442640872
  0.2633395396699619  0.2630185640574088  0.2619022116795585
  0.7382514503560430  0.5132667188095411  0.5127333429928609
  0.0127029765551152  0.2359456830583141  0.5127033049264178
  0.0127337972950357  0.5132670243178027  0.2382502587167898
  0.7375047490144313  0.2370771642052296  0.2375042132137808
  0.2655006417398585  0.4844996004162011  0.4879016945515294
  0.9853156181005632  0.7646842440973526  0.4853159282396295
  0.9879004593709960  0.4844984899623627  0.7655020701028871
  0.2654999151335966  0.7620979664729459  0.7655001420240071
  0.2367328519562950  0.0117479198902636  0.5127338070194007
  0.5140544201682111  0.7372976720125715  0.5127028980385485
  0.5129242593074888  0.0124959246634932  0.2375031720733677
  0.2367329757630519  0.7372672715595814  0.2382508460789416
  0.7624904547856971  0.9875102010860266  0.4871065677718663
  0.4874225519133402  0.2625773368860657  0.4861102798407346
  0.4869797059110240  0.9880982638721595  0.7633406266564169
  0.7619014793244515  0.2630185945313770  0.7633400083326815
  0.2340150249766448  0.5159843510591741  0.0122164877738867
  0.5149688990094285  0.2350312797790782  0.0149688623530251
  0.5122184492665949  0.5159855248079038  0.7340141737577693
  0.2340154804571905  0.2377835026255148  0.7340159097747063
  0.7619016024462469  0.4866606683585197  0.9869808088221321
  0.4874219800427539  0.7638890348216548  0.9874215855199348
  0.4869801357094535  0.4866601385621259  0.2619029794724210
  0.7624901610237108  0.7628921842692327  0.2624906312097074
 
             NaN             NaN             NaN
             NaN             NaN             NaN
             NaN             NaN             NaN
             NaN             NaN             NaN
             NaN             NaN             NaN
             NaN             NaN             NaN
             NaN             NaN             NaN
             NaN             NaN             NaN
             NaN             NaN             NaN
             NaN             NaN             NaN
             NaN             NaN             NaN
             NaN             NaN             NaN
             NaN             NaN             NaN
             NaN             NaN             NaN
             NaN             NaN             NaN
             NaN             NaN             NaN
             NaN             NaN             NaN
             NaN             NaN             NaN
             NaN             NaN             NaN
             NaN             NaN             NaN
             NaN             NaN             NaN
             NaN             NaN             NaN
             NaN             NaN             NaN
             NaN             NaN             NaN
             NaN             NaN             NaN
             NaN             NaN             NaN
             NaN             NaN             NaN
             NaN             NaN             NaN
             NaN             NaN             NaN
             NaN             NaN             NaN
             NaN             NaN             NaN
             NaN             NaN             NaN
             NaN             NaN             NaN
             NaN             NaN             NaN
             NaN             NaN             NaN
             NaN             NaN             NaN
             NaN             NaN             NaN
             NaN             NaN             NaN
             NaN             NaN             NaN
             NaN             NaN             NaN
             NaN             NaN             NaN
             NaN             NaN             NaN
             NaN             NaN             NaN
             NaN             NaN             NaN
             NaN             NaN             NaN
             NaN             NaN             NaN
             NaN             NaN             NaN
             NaN             NaN             NaN
             NaN             NaN             NaN
             NaN             NaN             NaN
             NaN             NaN             NaN
             NaN             NaN             NaN
             NaN             NaN             NaN
             NaN             NaN             NaN
             NaN             NaN             NaN
