Li7 Mn16 O32
1.0
8.152958 0.000091 -0.000093
0.000091 8.152932 -0.000066
-0.000093 -0.000066 8.152935
Li Mn O
7 16 32
direct
0.219435 0.530565 0.719436 Li
0.876002 0.873995 0.874000 Li
0.126689 0.126691 0.123311 Li
0.876002 0.376000 0.376005 Li
0.373997 0.873996 0.376005 Li
0.623312 0.126690 0.626687 Li
0.623311 0.623313 0.123310 Li
0.499987 0.250013 0.248893 Mn
0.250023 0.499977 0.249575 Mn
0.250023 0.250700 0.501100 Mn
0.499302 0.499977 0.501100 Mn
0.499303 0.748902 0.750024 Mn
0.749576 0.499977 0.750024 Mn
0.750713 0.750039 0.499962 Mn
0.250024 0.000424 0.750024 Mn
0.250024 0.748900 0.999301 Mn
0.499986 0.001107 0.999987 Mn
0.750028 0.999972 0.250029 Mn
0.748890 0.250013 0.999987 Mn
0.001098 0.250699 0.750023 Mn
0.001100 0.499977 0.999301 Mn
0.999963 0.750037 0.250713 Mn
0.999959 0.999286 0.499959 Mn
0.737360 0.012639 0.012998 O
0.012862 0.737139 0.013062 O
0.012861 0.012704 0.736783 O
0.737296 0.737138 0.736781 O
0.263270 0.987210 0.986942 O
0.986998 0.263056 0.986941 O
0.987099 0.987312 0.262687 O
0.263270 0.263056 0.262792 O
0.737296 0.513218 0.512862 O
0.012861 0.236941 0.512863 O
0.012861 0.513218 0.237296 O
0.737358 0.237003 0.237358 O
0.264057 0.485944 0.486211 O
0.986313 0.763686 0.486312 O
0.986211 0.485945 0.764055 O
0.264057 0.763790 0.764056 O
0.236782 0.012703 0.512863 O
0.513061 0.737139 0.512863 O
0.512997 0.012640 0.237359 O
0.236781 0.737138 0.237295 O
0.762687 0.987313 0.487098 O
0.486941 0.263057 0.486997 O
0.486943 0.987211 0.763270 O
0.762792 0.263057 0.763269 O
0.235470 0.514529 0.014372 O
0.514310 0.235690 0.014311 O
0.514372 0.514531 0.735470 O
0.235469 0.235628 0.735470 O
0.762790 0.486731 0.986942 O
0.486942 0.763003 0.986941 O
0.486943 0.486731 0.262790 O
0.762689 0.762901 0.262688 O
