Na47 P16 S64
1.0
14.016632 -0.014453 -0.000051
-0.014568 14.037796 0.000005
-0.000028 -0.000033 14.383409
Na P S
47 16 64
direct
0.643562 0.749113 0.742470 Na
0.999962 0.250324 0.204098 Na
0.999761 0.250044 0.703257 Na
0.999635 0.750300 0.209164 Na
0.992378 0.751115 0.713057 Na
0.500048 0.249670 0.206159 Na
0.500244 0.249960 0.705683 Na
0.500363 0.749707 0.211007 Na
0.248917 0.998986 0.290872 Na
0.247829 0.998189 0.789198 Na
0.252171 0.500625 0.297710 Na
0.250532 0.504385 0.795674 Na
0.747858 0.999066 0.296230 Na
0.748396 0.988233 0.792161 Na
0.751053 0.501331 0.289387 Na
0.753246 0.509190 0.785701 Na
0.253552 0.998925 0.039601 Na
0.242616 1.000461 0.539839 Na
0.247235 0.499835 0.047411 Na
0.255946 0.503956 0.548163 Na
0.752852 1.000234 0.045334 Na
0.743831 0.996654 0.545693 Na
0.746371 0.501005 0.037532 Na
0.757598 0.498939 0.537368 Na
0.999893 0.249261 0.453667 Na
0.999278 0.251445 0.952621 Na
0.999960 0.749177 0.461044 Na
0.999879 0.751659 0.958939 Na
0.500110 0.250737 0.456039 Na
0.500724 0.248552 0.954079 Na
0.500034 0.750822 0.475915 Na
0.500120 0.748338 0.953179 Na
0.989573 0.999051 0.500676 Na
0.001729 0.006900 -0.000295 Na
0.011660 0.498202 0.499663 Na
0.998263 0.497634 0.998689 Na
0.492813 -0.000274 0.500400 Na
0.507589 0.998789 1.000297 Na
0.505933 0.503020 0.501420 Na
0.492419 0.496670 0.001319 Na
0.248763 0.251984 0.249732 Na
0.248635 0.254186 0.750125 Na
0.251373 0.747406 0.250104 Na
0.301557 0.749770 0.750297 Na
0.751242 0.248023 0.249482 Na
0.751371 0.245812 0.750446 Na
0.748631 0.752601 0.249854 Na
-0.001148 0.001032 0.249475 P
0.998298 0.002967 0.750561 P
0.001546 0.499310 0.249388 P
0.002398 0.497817 0.749038 P
0.499367 0.000378 0.250478 P
0.498521 1.000253 0.749917 P
0.500232 0.499277 0.250570 P
0.500782 0.498957 0.751442 P
0.249685 0.250760 0.000078 P
0.249608 0.251417 0.499395 P
0.250451 0.748653 0.001304 P
0.248666 0.751831 0.497969 P
0.750322 0.249239 0.000054 P
0.750397 0.248590 0.499078 P
0.749544 0.751346 0.002105 P
0.751325 0.748168 0.496823 P
0.155474 0.173923 0.081930 S
0.154597 0.176093 0.581216 S
0.153826 0.675410 0.083452 S
0.155564 0.676319 0.581158 S
0.655258 0.174328 0.082865 S
0.654396 0.174837 0.581068 S
0.655356 0.675129 0.084414 S
0.658126 0.667985 0.575634 S
0.344989 0.325328 0.082772 S
0.345449 0.325485 0.581323 S
0.345189 0.824067 0.083532 S
0.341941 0.831073 0.577514 S
0.844292 0.326421 0.082018 S
0.845572 0.323608 0.580954 S
0.845627 0.825395 0.084332 S
0.844359 0.824621 0.579282 S
0.174349 0.347052 0.418172 S
0.174154 0.346775 0.919878 S
0.171742 0.842883 0.412883 S
0.177847 0.841387 0.916064 S
0.676679 0.343529 0.415907 S
0.676000 0.342801 0.916640 S
0.672574 0.842746 0.416893 S
0.672123 0.849100 0.924894 S
0.323733 0.156753 0.416257 S
0.324049 0.157052 0.916733 S
0.327366 0.657228 0.418037 S
0.326674 0.650517 0.923372 S
0.825244 0.152674 0.417830 S
0.825802 0.153364 0.919782 S
0.828307 0.657140 0.411744 S
0.823348 0.658995 0.917586 S
0.096551 0.423068 0.168381 S
0.101055 0.422596 0.670868 S
0.092879 0.926650 0.165948 S
0.089468 0.926799 0.666201 S
0.593815 0.424549 0.166612 S
0.595769 0.425185 0.668114 S
0.595371 0.925243 0.169802 S
0.589755 0.923512 0.666232 S
0.405800 0.075071 0.166498 S
0.403102 0.075815 0.668482 S
0.404168 0.574524 0.169855 S
0.409117 0.577882 0.669921 S
0.903837 0.077312 0.168496 S
0.900070 0.076409 0.670496 S
0.907584 0.573584 0.165896 S
0.911655 0.571809 0.662522 S
0.074933 0.094796 0.332278 S
0.076791 0.099323 0.828771 S
0.076703 0.594572 0.331117 S
0.073188 0.592690 0.834136 S
0.573714 0.095776 0.333062 S
0.577382 0.095137 0.829525 S
0.575689 0.593630 0.332359 S
0.576665 0.586582 0.840200 S
0.425882 0.403933 0.333182 S
0.422706 0.402187 0.829777 S
0.423762 0.906007 0.332309 S
0.423028 0.910750 0.837129 S
0.925470 0.405483 0.332157 S
0.923123 0.403339 0.828517 S
0.923844 0.905786 0.331158 S
0.927117 0.909975 0.837197 S
