Na47 P16 S64                            
   1.00000000000000     
    14.0044670000000000   -0.0024800000000000   -0.0000700000000000
    -0.0025160000000000   14.0080019999999994   -0.0000220000000000
    -0.0000470000000000   -0.0000610000000000   14.4279200000000003
   Na   P    S 
    47    16    64
Direct
  0.5472102572919226  0.7460646997816198  0.7241934295012769
  0.9997460868878392  0.2512024851656705  0.2039818637986173
  0.9990809263030300  0.2502366780149288  0.7034247524542465
  0.9986110761626890  0.7512203310399386  0.2096659310597815
  0.9738191514027648  0.7540089061596760  0.7165447376667018
  0.5002292738807768  0.2487950809226831  0.2043987317202891
  0.5009502760190472  0.2499364726412310  0.7038650767664265
  0.5012870853515636  0.7488463441650595  0.2103611131488066
  0.2486171267381536  0.9995530922868667  0.2950320882762654
  0.2494408687222887  0.9988894881862294  0.7953098979085667
  0.2515284630534893  0.5003596219011754  0.2963757892076515
  0.2501698193401722  0.5015234881550654  0.7965460354450968
  0.7485109259538802  0.9986565200973274  0.2913913700579371
  0.7462499111424989  0.9731500341713755  0.7843083390905790
  0.7512854270472644  0.5014697410047333  0.2899728884021968
  0.7551872941078344  0.5267011378314237  0.7831781002255340
  0.2529712231328105  0.9994493162107077  0.0452105232597475
  0.2435176042899698  0.9977163310527928  0.5462403776679565
  0.2468943599873725  0.5002907644896055  0.0466692505284456
  0.2563824621207402  0.5036669015129718  0.5482176349177763
  0.7529419900830447  0.9998972326200288  0.0392199201815728
  0.7437622158074149  0.9992910801129042  0.5391651966298809
  0.7465727328462819  0.5002767976962801  0.0377919552031187
  0.7575376749061107  0.4998662286043469  0.5376035903367722
  0.9996315081713121  0.2474106316230262  0.4535940488056980
  0.9974364858638438  0.2551496866476839  0.9521944746217130
  0.0000625339160649  0.7471185560349483  0.4619227311944769
  0.9996182877246440  0.7558703536811535  0.9612525386803839
  0.5004055131491896  0.2526293342285584  0.4539956120310578
  0.5024175309613028  0.2448937305763650  0.9525997071731851
  0.5000865440246827  0.7527556572566638  0.4646808935631626
  0.4999575950821082  0.7437430180520579  0.9627584114900998
  0.9923972582609579  0.9952882870261917  0.5020673493391072
  0.0046047341346096  0.0111469803584328  0.0012727947681057
  0.0121403632534722  0.4951896704328718  0.4986324690351864
  0.9950570548073046  0.5052283432412494  0.9977799514023573
  0.4884150789221167  0.0045181859802454  0.4984373980925625
  0.5057863643813789  0.9941944391100606  0.9980723937271279
  0.5067146166574759  0.5050054559726576  0.5022465848401936
  0.4936905883753084  0.4891367558369879  0.0022420356992967
  0.2497356590326518  0.2504139815507642  0.2499647741386894
  0.2496119073922429  0.2508139358437802  0.7499810068917370
  0.2501965525862673  0.7494268474435302  0.2508911506632288
  0.2605972520561863  0.7495004047802070  0.7483319106695987
  0.7502878543859808  0.2496121392537276  0.2490205349543544
  0.7504100895951495  0.2490742306895015  0.7511818011616711
  0.7496809873050054  0.7505939765459786  0.2497031981662516
  0.9997178477588093  0.0014906926068292  0.2498612099236084
  0.9994918760531633  0.0032047765218763  0.7526481900472106
  0.0015486600723591  0.4999060108925235  0.2498721927872580
  0.0030942094741704  0.4997396600277639  0.7472994850409549
  0.4986718309582585  0.0000192802087611  0.2499364075536263
  0.4971972421685180  0.0001724100819587  0.7473354515224528
  0.5000776193147587  0.4986287681788468  0.2502349100544734
  0.5006383993819981  0.4974407068835660  0.7531291344567492
  0.2499530435060180  0.2501022140095657  0.0001636026800682
  0.2499327051421218  0.2503977916302773  0.4997253816739899
  0.2501458302784059  0.7495917024901431  0.0013995342031166
  0.2498675004489925  0.7507184448077595  0.4995939453297495
  0.7499946725697768  0.2497525510708414  0.9999638596525315
  0.7500603492744560  0.2497609730703161  0.4986664688480715
  0.7497093139651980  0.7497092853161291  0.0036165879800905
  0.7508072074847618  0.7498134168057788  0.4953332636581322
  0.1550283819393670  0.1745681382950650  0.0820774049306578
  0.1547336735645075  0.1752455835979774  0.5812557671928147
  0.1537098986248182  0.6762626232144271  0.0834281442775264
  0.1559678226057457  0.6759048521123461  0.5824764171496710
  0.6556910228985871  0.1733917126193916  0.0824600133434288
  0.6540706005586330  0.1759965022928824  0.5803679641494597
  0.6556657203097203  0.6733665152537114  0.0863393606488074
  0.6567599232947003  0.6701448624086765  0.5738709085094271
  0.3452123241639242  0.3252331789597633  0.0821250975509855
  0.3454473819862613  0.3253744751591086  0.5812545737912274
  0.3459529898938456  0.8237977268905752  0.0834845421522132
  0.3446645618873845  0.8265558522051037  0.5802416469092577
  0.8441140971544598  0.3266406591423205  0.0822233741023979
  0.8459998942231337  0.3237610438100447  0.5803259762969049
  0.8436619576007232  0.8269255762947267  0.0858782363888650
  0.8448856505161473  0.8280777125241485  0.5745756839568159
  0.1746817648992618  0.3455464749243404  0.4179504593325944
  0.1748226131004955  0.3455938283696085  0.9189969639257640
  0.1726509449524229  0.8437251696387591  0.4165782991610669
  0.1767438688833991  0.8447465668576086  0.9185527009862753
  0.6764380555124063  0.3457256394460515  0.4163827640536226
  0.6752524281857006  0.3442531078568294  0.9179647745700095
  0.6730183215343928  0.8437075024464065  0.4138139240957770
  0.6708872418436229  0.8440161684784684  0.9243823581957358
  0.3250405750466072  0.1552431254609630  0.4177044501699143
  0.3248805091369604  0.1550191310370082  0.9183094471276831
  0.3266780377118863  0.6560508252059378  0.4177094793655272
  0.3246489138918420  0.6529837529252234  0.9207683771982076
  0.8239394160589768  0.1535049124272092  0.4168152382318198
  0.8250619734746039  0.1546954606235431  0.9186091618705348
  0.8275606542001341  0.6564533492836162  0.4122708872005205
  0.8282912241776970  0.6553979876083886  0.9250197741493693
  0.0962531132508673  0.4243730738762679  0.1678162051906043
  0.1019032708357628  0.4221231808325427  0.6713307971220885
  0.0946344526504319  0.9264534829839164  0.1674788760978885
  0.0906759138719622  0.9229958225567572  0.6711836145655212
  0.5946472225242090  0.4232024731688711  0.1679471102203181
  0.5969756644367337  0.4259959019131898  0.6697081410067653
  0.5937994710010059  0.9251020327810053  0.1684606837292719
  0.5875139474046733  0.9281360037460047  0.6582951855154988
  0.4041795105231429  0.0752022627623816  0.1673492798080360
  0.3987034200489958  0.0777954884330967  0.6712125941692122
  0.4047224720316080  0.5738343187977009  0.1684133833594359
  0.4111428036313427  0.5805439027931527  0.6729885851404731
  0.9048307025012008  0.0771501505364398  0.1681645365664153
  0.9020458146218999  0.0745803938457286  0.6701532934057326
  0.9068685906131222  0.5746124412056375  0.1677730002306319
  0.9135118965626532  0.5724593915385938  0.6583917877639109
  0.0752163324333566  0.0959396507103776  0.3322457950890509
  0.0776606626483272  0.1015997431495421  0.8285511223393982
  0.0770805975185098  0.5947820976763367  0.3317239918659922
  0.0739508425373998  0.5962934591519939  0.8308196893925697
  0.5736170444702111  0.0952169695204717  0.3321013556906678
  0.5777357264970107  0.0917887174889884  0.8281844310241055
  0.5749690924462882  0.5934342932437033  0.3319272591585047
  0.5743415827070422  0.5847415750685698  0.8439700804133281
  0.4248824623056535  0.4038291687210531  0.3325023851837301
  0.4217005110441150  0.3990005275802986  0.8282480295440919
  0.4231107742256484  0.9052564618754957  0.3318766655260816
  0.4263866832725896  0.9030764847059700  0.8303431600106279
  0.9261881333877682  0.4050067256534078  0.3320296022125930
  0.9221252454298394  0.4078630140109851  0.8276778407582270
  0.9249236334500850  0.9064508933108826  0.3315278284848731
  0.9275086377582795  0.9130189835693585  0.8415535079345844
 
             NaN             NaN             NaN
             NaN             NaN             NaN
             NaN             NaN             NaN
             NaN             NaN             NaN
             NaN             NaN             NaN
             NaN             NaN             NaN
             NaN             NaN             NaN
             NaN             NaN             NaN
             NaN             NaN             NaN
             NaN             NaN             NaN
             NaN             NaN             NaN
             NaN             NaN             NaN
             NaN             NaN             NaN
             NaN             NaN             NaN
             NaN             NaN             NaN
             NaN             NaN             NaN
             NaN             NaN             NaN
             NaN             NaN             NaN
             NaN             NaN             NaN
             NaN             NaN             NaN
             NaN             NaN             NaN
             NaN             NaN             NaN
             NaN             NaN             NaN
             NaN             NaN             NaN
             NaN             NaN             NaN
             NaN             NaN             NaN
             NaN             NaN             NaN
             NaN             NaN             NaN
             NaN             NaN             NaN
             NaN             NaN             NaN
             NaN             NaN             NaN
             NaN             NaN             NaN
             NaN             NaN             NaN
             NaN             NaN             NaN
             NaN             NaN             NaN
             NaN             NaN             NaN
             NaN             NaN             NaN
             NaN             NaN             NaN
             NaN             NaN             NaN
             NaN             NaN             NaN
             NaN             NaN             NaN
             NaN             NaN             NaN
             NaN             NaN             NaN
             NaN             NaN             NaN
             NaN             NaN             NaN
             NaN             NaN             NaN
             NaN             NaN             NaN
             NaN             NaN             NaN
             NaN             NaN             NaN
             NaN             NaN             NaN
             NaN             NaN             NaN
             NaN             NaN             NaN
             NaN             NaN             NaN
             NaN             NaN             NaN
             NaN             NaN             NaN
             NaN             NaN             NaN
             NaN             NaN             NaN
             NaN             NaN             NaN
             NaN             NaN             NaN
             NaN             NaN             NaN
             NaN             NaN             NaN
             NaN             NaN             NaN
             NaN             NaN             NaN
             NaN             NaN             NaN
             NaN             NaN             NaN
             NaN             NaN             NaN
             NaN             NaN             NaN
             NaN             NaN             NaN
             NaN             NaN             NaN
             NaN             NaN             NaN
             NaN             NaN             NaN
             NaN             NaN             NaN
             NaN             NaN             NaN
             NaN             NaN             NaN
             NaN             NaN             NaN
             NaN             NaN             NaN
             NaN             NaN             NaN
             NaN             NaN             NaN
             NaN             NaN             NaN
             NaN             NaN             NaN
             NaN             NaN             NaN
             NaN             NaN             NaN
             NaN             NaN             NaN
             NaN             NaN             NaN
             NaN             NaN             NaN
             NaN             NaN             NaN
             NaN             NaN             NaN
             NaN             NaN             NaN
             NaN             NaN             NaN
             NaN             NaN             NaN
             NaN             NaN             NaN
             NaN             NaN             NaN
             NaN             NaN             NaN
             NaN             NaN             NaN
             NaN             NaN             NaN
             NaN             NaN             NaN
             NaN             NaN             NaN
             NaN             NaN             NaN
             NaN             NaN             NaN
             NaN             NaN             NaN
             NaN             NaN             NaN
             NaN             NaN             NaN
             NaN             NaN             NaN
             NaN             NaN             NaN
             NaN             NaN             NaN
             NaN             NaN             NaN
             NaN             NaN             NaN
             NaN             NaN             NaN
             NaN             NaN             NaN
             NaN             NaN             NaN
             NaN             NaN             NaN
             NaN             NaN             NaN
             NaN             NaN             NaN
             NaN             NaN             NaN
             NaN             NaN             NaN
             NaN             NaN             NaN
             NaN             NaN             NaN
             NaN             NaN             NaN
             NaN             NaN             NaN
             NaN             NaN             NaN
             NaN             NaN             NaN
             NaN             NaN             NaN
             NaN             NaN             NaN
             NaN             NaN             NaN
             NaN             NaN             NaN
             NaN             NaN             NaN
             NaN             NaN             NaN
