Na15 V32 O64
1.0
9.103250 0.001785 -0.001434
0.003250 11.440338 -0.000175
0.000221 0.000314 10.608437
Na V O
15 32 64
direct
0.742393 0.384219 0.153600 Na
0.742302 0.067743 0.152161 Na
0.742246 0.799167 0.152943 Na
0.242752 0.062636 0.347832 Na
0.242714 0.312901 0.347737 Na
0.243434 0.562287 0.348140 Na
0.242295 0.812357 0.347838 Na
0.257336 0.187493 0.848862 Na
0.258075 0.437671 0.848516 Na
0.257990 0.687515 0.848949 Na
0.257267 0.937468 0.849027 Na
0.757400 0.187116 0.650757 Na
0.757472 0.437525 0.651077 Na
0.757575 0.687166 0.650870 Na
0.757180 0.937494 0.650082 Na
0.584649 0.062178 0.896129 V
0.585878 0.311929 0.897185 V
0.588298 0.561980 0.898364 V
0.584295 0.811688 0.896273 V
0.085451 0.061844 0.603324 V
0.085225 0.311782 0.603688 V
0.085732 0.561962 0.603566 V
0.084926 0.811794 0.603513 V
0.414892 0.188276 0.104365 V
0.414279 0.438392 0.104017 V
0.414861 0.685909 0.104822 V
0.416396 0.938140 0.104290 V
0.915142 0.188407 0.395671 V
0.914365 0.437430 0.395734 V
0.914440 0.687072 0.395431 V
0.914735 0.936843 0.395049 V
0.562145 0.062374 0.386954 V
0.562716 0.312047 0.385659 V
0.564502 0.562479 0.383306 V
0.561247 0.811791 0.386788 V
0.061218 0.061022 0.113248 V
0.061238 0.311719 0.113347 V
0.057418 0.563655 0.115567 V
0.062702 0.813866 0.112943 V
0.437460 0.188726 0.615231 V
0.438966 0.437565 0.614330 V
0.438419 0.687866 0.614426 V
0.436990 0.937420 0.615479 V
0.937611 0.188043 0.884752 V
0.938863 0.438752 0.885374 V
0.938317 0.688321 0.885407 V
0.936591 0.938396 0.883929 V
0.791003 0.063033 0.849994 O
0.792685 0.312857 0.850793 O
0.793255 0.562474 0.849797 O
0.791626 0.812558 0.850478 O
0.292080 0.062451 0.649201 O
0.292216 0.312469 0.649208 O
0.293347 0.562608 0.648492 O
0.291627 0.812421 0.649296 O
0.207236 0.188231 0.148566 O
0.206379 0.437898 0.147833 O
0.207073 0.686254 0.148447 O
0.208152 0.938062 0.149301 O
0.707589 0.187164 0.353926 O
0.707940 0.436098 0.357021 O
0.707962 0.689436 0.355772 O
0.707118 0.937060 0.353142 O
0.887350 0.062583 0.519193 O
0.887528 0.312241 0.520479 O
0.887577 0.562143 0.520243 O
0.887331 0.812224 0.519976 O
0.386521 0.062629 0.980317 O
0.385911 0.312317 0.980123 O
0.386252 0.562332 0.979575 O
0.386239 0.812589 0.981083 O
0.113886 0.187377 0.479386 O
0.113695 0.437021 0.479770 O
0.113580 0.687210 0.479489 O
0.113438 0.937072 0.479111 O
0.612510 0.188044 0.019819 O
0.610315 0.437196 0.017578 O
0.611061 0.686888 0.018392 O
0.613546 0.936947 0.020220 O
0.978870 0.062541 0.282126 O
0.979874 0.312732 0.282677 O
0.981250 0.562428 0.284847 O
0.979607 0.812347 0.281420 O
0.479788 0.062895 0.218245 O
0.478528 0.313037 0.217587 O
0.476024 0.562407 0.219038 O
0.479837 0.812100 0.217363 O
0.020168 0.187008 0.716724 O
0.021250 0.437300 0.716789 O
0.020639 0.687272 0.716946 O
0.019398 0.937476 0.716401 O
0.519394 0.187390 0.783140 O
0.521335 0.437228 0.782779 O
0.520575 0.687194 0.783002 O
0.518653 0.937077 0.783347 O
0.577772 0.062549 0.572578 O
0.579485 0.312058 0.571804 O
0.578659 0.562947 0.570794 O
0.578868 0.812812 0.572437 O
0.078458 0.062535 0.927591 O
0.078852 0.312398 0.927031 O
0.078942 0.563267 0.927807 O
0.078839 0.813666 0.927265 O
0.421214 0.187699 0.429351 O
0.422489 0.436887 0.429019 O
0.421450 0.688119 0.428995 O
0.421149 0.937157 0.429404 O
0.922629 0.188112 0.070195 O
0.926480 0.437723 0.069787 O
0.924429 0.687770 0.069828 O
0.919920 0.937555 0.069820 O
