Li15 Fe16 P16 O64                       
   1.00000000000000     
    10.2420220000000004   -0.0011800000000000    0.0239540000000000
    -0.0013670000000000   11.9644270000000006    0.0032180000000000
     0.0092890000000000    0.0036430000000000    9.3727239999999998
   Li   Fe   P    O 
    15    16    16    64
Direct
  0.5326030418588406  0.3122910950042926  0.7210216388015668
  0.5004850289246864  0.9995038814957655  0.2487396730947692
  0.4993908531064058  0.0069421712075512  0.7528836889208361
  0.4999263436455325  0.5033591488570001  0.2524384972517640
  0.9996904078893667  0.2501551289424493  0.4960694845175128
  0.9972558962756848  0.2473008146143513  0.0006686334393917
  0.9988835696981898  0.7490592845103375  0.5008320927209533
  0.9986889569854706  0.7508805594775495  0.0021347034423387
  0.4995462967336476  0.2488613170476658  0.2514555077223630
  0.5013490658383151  0.7500129387133228  0.2513218857958566
  0.4992485111165242  0.7407687265782911  0.7535336812172556
  0.9993380926110965  0.5009031392191722  0.4962242578792988
  0.9967031543234832  0.5038086586196865  0.0009526648160029
  0.9995245628954654  0.0008961577336240  0.5005239383654638
  0.9993823291669155  0.9986430233266208  0.0020378004464127
  0.7801726791599560  0.1238498317243347  0.2666984134351822
  0.7809760543814521  0.1250015935124171  0.7638679625547202
  0.7782417096009749  0.6263272373635610  0.2668335650922485
  0.7780134502829688  0.6248677909923209  0.7615309694105716
  0.2814752099133866  0.1248073706201904  0.4850383059051085
  0.2824685280777575  0.1245395780348320  0.9838466540388443
  0.2816462700674217  0.6254658242051284  0.4856639921497267
  0.2814375081073600  0.6255745231380411  0.9856233871022266
  0.2164857212368503  0.3750566991168883  0.2310077308513555
  0.2237969531503190  0.3753492079638784  0.7471410728056708
  0.2190686484724628  0.8750580601062344  0.2361165627114739
  0.2192961979827474  0.8750173820714924  0.7358131441175887
  0.7193002300648852  0.3762314135681573  0.0155382920425637
  0.7218779684543347  0.3787893176355432  0.5089673099781035
  0.7185763841589201  0.8749831203141577  0.0145072064041772
  0.7174453373798230  0.8751132633593732  0.5178211288595989
  0.5960575764188948  0.1249619450622933  0.0424915410589387
  0.5920814606255568  0.1290374931346320  0.5431777137867344
  0.5954985769834447  0.6273487997236366  0.0424009914183895
  0.5912676760554475  0.6223568890161110  0.5434202357783040
  0.0933308720075522  0.1244919155954298  0.2068982422722549
  0.0940385896038636  0.1281509699139684  0.7099030616586646
  0.0925203043111861  0.6258613116041010  0.2086423423092236
  0.0938826187904997  0.6222133005599353  0.7108557294700643
  0.3967024379757073  0.3750806925604669  0.4557174473478559
  0.4050555636846410  0.3762598096076067  0.9611071582538794
  0.4057441286442505  0.8757749997889015  0.4572676912335494
  0.4073596712677566  0.8753501105579083  0.9566971188175943
  0.9076044053100776  0.3750623145777609  0.2881177699301823
  0.9094803254036187  0.3753206557277587  0.7881867492552290
  0.9064052490171010  0.8750596210720717  0.2942923818520914
  0.9076242435899190  0.8748113891809498  0.7932818412631886
  0.5955668697102150  0.1293479872842276  0.3807229736732040
  0.6014786610040463  0.1221000835965058  0.8815257757410001
  0.5941905188962483  0.6225272112988381  0.3799890448474322
  0.6018478125031148  0.6329845433706013  0.8824125428883050
  0.0951223674881801  0.1259628657113528  0.3691546574158426
  0.0941988133863376  0.1264270816013083  0.8716359641054664
  0.0945788230346203  0.6245971374509520  0.3709083013090185
  0.0938415862975910  0.6238604592841392  0.8726271249359614
  0.4020656282699577  0.3755076064990258  0.1229164427353033
  0.3834031483900104  0.3726989118451484  0.6178883008780079
  0.4049889483354218  0.8757283248538122  0.1187339224701671
  0.4017260686149561  0.8764007659793349  0.6189660470552465
  0.9073029778452020  0.3747168987675082  0.1259659082336735
  0.9081338553986733  0.3755152589792655  0.6265592536321536
  0.9049215268001640  0.8754425704931648  0.1321398214192258
  0.9060776887524570  0.8754142235927596  0.6311735344171138
  0.9545687325489369  0.1243492349321804  0.1452461488587918
  0.9571333028430389  0.1278011241051198  0.6441199414719208
  0.9540431179106514  0.6263061153653926  0.1464124756650041
  0.9572715093522276  0.6227597799193831  0.6446732711882271
  0.4562198228789520  0.1270394871540254  0.1030965837083125
  0.4535895693228397  0.1270023520394872  0.6031027584254981
  0.4557327531311405  0.6240661781900967  0.1034514014619643
  0.4526012578929181  0.6259385973915911  0.6011029638972281
  0.0452217209809887  0.3745860261900626  0.3522634628496193
  0.0510257472737390  0.3745635115017923  0.8487949384905175
  0.0449069933501892  0.8755026912408127  0.3569892603297466
  0.0464079430195997  0.8752499658827388  0.8554876293451696
  0.5380367530638197  0.3755625064251195  0.4028251473222620
  0.5433189372931412  0.3750611873952175  0.9033510279332579
  0.5448588286438235  0.8761016043438545  0.3955923190371623
  0.5454536406432239  0.8759535523820895  0.8935961081180437
  0.6645018769211170  0.0226316592196940  0.1128408856770932
  0.6665544696904726  0.0279615594923106  0.6082744851480721
  0.6673390812831014  0.5247876567837482  0.1079975217846828
  0.6694020518814460  0.5224724535279421  0.6049142377247684
  0.1644082934385498  0.2260893805758707  0.1383889246431824
  0.1650624053901527  0.2337207007588153  0.6478182997056710
  0.1644413426435706  0.7277022693604919  0.1425757535507531
  0.1682141926867503  0.7223845153729723  0.6437739318345920
  0.3294179632020773  0.2724884703232441  0.3867497557536504
  0.3272391821590317  0.2770665645242344  0.8917966867177287
  0.3343468113681006  0.7739785263379072  0.3900215578187693
  0.3350480486926316  0.7732496956530477  0.8914204138883288
  0.8365592582265065  0.4772708260998579  0.3541515657052303
  0.8408282078100774  0.4768120924530029  0.8574168381546050
  0.8348367316398405  0.9769304828078316  0.3613891351012665
  0.8363693388184652  0.9769694870952149  0.8596101393388779
  0.3282136000457908  0.4774183746140948  0.3888080260622798
  0.3232963941389598  0.4732090652065620  0.8948838353658600
  0.3346673705345335  0.9776880599719349  0.3894278132270232
  0.3350732355161070  0.9773886003040730  0.8905086330780193
  0.8349580326583442  0.2739185075813879  0.3555351064350201
  0.8400203071408294  0.2733481576792999  0.8563028957060544
  0.8354398301696977  0.7730308647236860  0.3611303662908161
  0.8369909658524236  0.7723290281669284  0.8591264873125344
  0.6676974826652459  0.2271575836394607  0.1086597113801371
  0.6638947584769790  0.2326226290200385  0.6077475836155201
  0.6635081668325442  0.7292934742225823  0.1149200865494453
  0.6638396773061838  0.7256904074056919  0.6076719944772335
  0.1647008406078053  0.0223791452422504  0.1412523538190634
  0.1680305224811789  0.0279402984188631  0.6427676054721063
  0.1633423297035956  0.5240888246992449  0.1405368075015701
  0.1649688085744350  0.5165371390868069  0.6488417194178219
 
             NaN             NaN             NaN
             NaN             NaN             NaN
             NaN             NaN             NaN
             NaN             NaN             NaN
             NaN             NaN             NaN
             NaN             NaN             NaN
             NaN             NaN             NaN
             NaN             NaN             NaN
             NaN             NaN             NaN
             NaN             NaN             NaN
             NaN             NaN             NaN
             NaN             NaN             NaN
             NaN             NaN             NaN
             NaN             NaN             NaN
             NaN             NaN             NaN
             NaN             NaN             NaN
             NaN             NaN             NaN
             NaN             NaN             NaN
             NaN             NaN             NaN
             NaN             NaN             NaN
             NaN             NaN             NaN
             NaN             NaN             NaN
             NaN             NaN             NaN
             NaN             NaN             NaN
             NaN             NaN             NaN
             NaN             NaN             NaN
             NaN             NaN             NaN
             NaN             NaN             NaN
             NaN             NaN             NaN
             NaN             NaN             NaN
             NaN             NaN             NaN
             NaN             NaN             NaN
             NaN             NaN             NaN
             NaN             NaN             NaN
             NaN             NaN             NaN
             NaN             NaN             NaN
             NaN             NaN             NaN
             NaN             NaN             NaN
             NaN             NaN             NaN
             NaN             NaN             NaN
             NaN             NaN             NaN
             NaN             NaN             NaN
             NaN             NaN             NaN
             NaN             NaN             NaN
             NaN             NaN             NaN
             NaN             NaN             NaN
             NaN             NaN             NaN
             NaN             NaN             NaN
             NaN             NaN             NaN
             NaN             NaN             NaN
             NaN             NaN             NaN
             NaN             NaN             NaN
             NaN             NaN             NaN
             NaN             NaN             NaN
             NaN             NaN             NaN
             NaN             NaN             NaN
             NaN             NaN             NaN
             NaN             NaN             NaN
             NaN             NaN             NaN
             NaN             NaN             NaN
             NaN             NaN             NaN
             NaN             NaN             NaN
             NaN             NaN             NaN
             NaN             NaN             NaN
             NaN             NaN             NaN
             NaN             NaN             NaN
             NaN             NaN             NaN
             NaN             NaN             NaN
             NaN             NaN             NaN
             NaN             NaN             NaN
             NaN             NaN             NaN
             NaN             NaN             NaN
             NaN             NaN             NaN
             NaN             NaN             NaN
             NaN             NaN             NaN
             NaN             NaN             NaN
             NaN             NaN             NaN
             NaN             NaN             NaN
             NaN             NaN             NaN
             NaN             NaN             NaN
             NaN             NaN             NaN
             NaN             NaN             NaN
             NaN             NaN             NaN
             NaN             NaN             NaN
             NaN             NaN             NaN
             NaN             NaN             NaN
             NaN             NaN             NaN
             NaN             NaN             NaN
             NaN             NaN             NaN
             NaN             NaN             NaN
             NaN             NaN             NaN
             NaN             NaN             NaN
             NaN             NaN             NaN
             NaN             NaN             NaN
             NaN             NaN             NaN
             NaN             NaN             NaN
             NaN             NaN             NaN
             NaN             NaN             NaN
             NaN             NaN             NaN
             NaN             NaN             NaN
             NaN             NaN             NaN
             NaN             NaN             NaN
             NaN             NaN             NaN
             NaN             NaN             NaN
             NaN             NaN             NaN
             NaN             NaN             NaN
             NaN             NaN             NaN
             NaN             NaN             NaN
             NaN             NaN             NaN
             NaN             NaN             NaN
             NaN             NaN             NaN
