Li17 Co18 O36                           
   1.00000000000000     
     8.1358280000000001   -0.0000070000000000    2.4096229999999998
     3.7111900000000002    7.2400849999999997    2.4096139999999999
    -0.0103800000000000   -0.0063400000000000    9.9945850000000007
   Li   Co   O 
    17    18    36
Direct
  0.2980157507093878  0.5544833631551006  0.5146719493856223
  0.3363256177527180  0.3299265784830215  0.9978464566125158
  0.3352030014773283  0.6684184718054137 -0.0033890828258085
  0.3335831355344934  0.9995147194771842 -0.0002648844878939
  0.3324445485189179  0.9968617982163189  0.5047470620906024
  0.6699096712158177  0.3321024058964003 -0.0025231336706372
  0.6668589472444008  0.3298828392192615  0.5027688239830319
  0.6656993851029437  0.6674734253323139 -0.0004174181207451
  0.6432219864242910  0.6657524519001112  0.5049377296418837
  0.6662734844798697  0.9990680715486970  0.0001676609392217
  0.6431201061452532  0.0215827874406865  0.5030521963029569
 -0.0007351942028114  0.3312995561869991  0.9980561325988234
  0.0114656232116409  0.3313151136180062  0.5044976783415779
 -0.0028285986994129  0.6692674068201426  0.9970732614460238
 -0.0305886211824430  0.6806498227591744  0.5028675932402165
 -0.0004086643916448  0.0029830364205361  0.9963727220571361
  0.0100229657241964  0.9884590441804766  0.5009497396784593
  0.1639293708499983  0.1680579231681242  0.2470624065772887
  0.1689375356637055  0.1653927368027156  0.7506218535470190
  0.1633393022211725  0.5001059988343147  0.2475533669929859
  0.1674838005906961  0.4954943400772799  0.7567756270436704
  0.1633766087672386  0.8369642865296442  0.2465356142266427
  0.1691377114167293  0.8303483807244455  0.7504125690293654
  0.4970139872938039  0.1677625576327321  0.2509820013125677
  0.5018104927980129  0.1617464883471992  0.7547836456049223
  0.4981705961643853  0.5006076888378473  0.2480480674434707
  0.5016700218184027  0.4976195709489368  0.7551488283534654
  0.4959743605045751  0.8339136746910888  0.2509239752544830
  0.5005214730878466  0.8305254489997094  0.7549955261670005
  0.8309724864974248  0.1679092875874814  0.2490611440806494
  0.8352718395603071  0.1646269649802227  0.7506231189544618
  0.8299309774363904  0.5007319889763554  0.2495729275731571
  0.8340748479359884  0.4984705347990286  0.7528034718538336
  0.8291932069117911  0.8348722182734917  0.2504435360644145
  0.8345080269319767  0.8305672448447200  0.7519534321056482
  0.2478476634347216  0.2584545877981371  0.3528393711919892
  0.2538705991313060  0.2491300191378347  0.8646875085330801
  0.2464603732515735  0.5910977807072760  0.3460023539394037
  0.2538266800965268  0.5854834776969730  0.8643644416500357
  0.2482259687707471  0.9256521964431881  0.3546153823517736
  0.2521013782324524  0.9187482240262914  0.8619636247564996
  0.5873955008034126  0.2553496463882906  0.3559615971664785
  0.5905624922848108  0.2493098480323883  0.8638632417637332
  0.5854830502184515  0.5850033585952777  0.3574734481934871
  0.5883303159105798  0.5831038360502712  0.8653326747128912
  0.5832219636514540  0.9214317720947967  0.3605821213026283
  0.5897688213860128  0.9162127840426729  0.8642896935617467
  0.9184952907267929  0.2546315063012739  0.3574533169735113
  0.9215641731027605  0.2511928014186068  0.8607516145295927
  0.9212067913999478  0.5858839931497283  0.3575411211487884
  0.9199590522911197  0.5849086972442753  0.8634821895513850
  0.9182887796896458  0.9208926444107600  0.3581282601243389
  0.9221260266071872  0.9181386644367803  0.8601469574655018
  0.0775556589216548  0.0816194210196431  0.1375619183320533
  0.0824763770630003  0.0782278215966906  0.6399199383442303
  0.0777157507053645  0.4174278289621521  0.1390479601515315
  0.0789467766307430  0.4149019656889338  0.6447200622084612
  0.0759185528481596  0.7451899974885418  0.1396900847075053
  0.0822423411394053  0.7395458076795466  0.6422506388758549
  0.4117359233952425  0.0803175193866255  0.1405437963392015
  0.4155956870512586  0.0728626007576349  0.6472819994628567
  0.4078574150271039  0.4141932250548760  0.1401779501153557
  0.4186287562522393  0.4046072158167772  0.6534169087072038
  0.4110397406905464  0.7481159416838881  0.1390424217223033
  0.4155350203420989  0.7444457446671396  0.6467691795045624
  0.7431305466175070  0.0798532471982884  0.1413224173083618
  0.7474597610720746  0.0772521291199273  0.6423326530017320
  0.7443689885389088  0.4145041897590607  0.1400720197808830
  0.7473574008778334  0.4122922127331176  0.6424215376254307
  0.7432140863418462  0.7475586571917283  0.1418057119179809
  0.7452967586177504  0.7448608966874650  0.6440186987515713
 
             NaN             NaN             NaN
             NaN             NaN             NaN
             NaN             NaN             NaN
             NaN             NaN             NaN
             NaN             NaN             NaN
             NaN             NaN             NaN
             NaN             NaN             NaN
             NaN             NaN             NaN
             NaN             NaN             NaN
             NaN             NaN             NaN
             NaN             NaN             NaN
             NaN             NaN             NaN
             NaN             NaN             NaN
             NaN             NaN             NaN
             NaN             NaN             NaN
             NaN             NaN             NaN
             NaN             NaN             NaN
             NaN             NaN             NaN
             NaN             NaN             NaN
             NaN             NaN             NaN
             NaN             NaN             NaN
             NaN             NaN             NaN
             NaN             NaN             NaN
             NaN             NaN             NaN
             NaN             NaN             NaN
             NaN             NaN             NaN
             NaN             NaN             NaN
             NaN             NaN             NaN
             NaN             NaN             NaN
             NaN             NaN             NaN
             NaN             NaN             NaN
             NaN             NaN             NaN
             NaN             NaN             NaN
             NaN             NaN             NaN
             NaN             NaN             NaN
             NaN             NaN             NaN
             NaN             NaN             NaN
             NaN             NaN             NaN
             NaN             NaN             NaN
             NaN             NaN             NaN
             NaN             NaN             NaN
             NaN             NaN             NaN
             NaN             NaN             NaN
             NaN             NaN             NaN
             NaN             NaN             NaN
             NaN             NaN             NaN
             NaN             NaN             NaN
             NaN             NaN             NaN
             NaN             NaN             NaN
             NaN             NaN             NaN
             NaN             NaN             NaN
             NaN             NaN             NaN
             NaN             NaN             NaN
             NaN             NaN             NaN
             NaN             NaN             NaN
             NaN             NaN             NaN
             NaN             NaN             NaN
             NaN             NaN             NaN
             NaN             NaN             NaN
             NaN             NaN             NaN
             NaN             NaN             NaN
             NaN             NaN             NaN
             NaN             NaN             NaN
             NaN             NaN             NaN
             NaN             NaN             NaN
             NaN             NaN             NaN
             NaN             NaN             NaN
             NaN             NaN             NaN
             NaN             NaN             NaN
             NaN             NaN             NaN
             NaN             NaN             NaN
