Li17 Co18 O36
1.0
8.135828 -0.000007 2.409623
3.711190 7.240085 2.409614
-0.010380 -0.006340 9.994585
Li Co O
17 18 36
direct
0.238265 0.568627 0.552771 Li
0.333064 0.333462 0.999816 Li
0.333421 0.666611 0.000073 Li
0.333506 0.999903 0.000128 Li
0.333338 0.994268 0.500009 Li
0.666567 0.333465 0.000073 Li
0.655294 0.341873 0.500008 Li
0.666446 0.666844 0.000326 Li
0.658029 0.666602 0.500372 Li
0.666387 0.999750 0.000397 Li
0.663604 1.002579 0.501107 Li
0.000310 0.333513 0.999527 Li
0.003069 0.333575 0.498886 Li
0.000157 0.666394 0.999796 Li
0.011380 0.663841 0.499984 Li
0.000135 1.000039 0.999855 Li
0.008625 0.991533 0.499637 Li
0.166737 0.167602 0.247856 Co
0.167015 0.166788 0.749433 Co
0.166890 0.499949 0.248560 Co
0.167226 0.500287 0.749181 Co
0.167088 0.833215 0.250099 Co
0.167170 0.832921 0.749259 Co
0.499649 0.166808 0.250551 Co
0.499815 0.165887 0.751394 Co
0.499433 0.500263 0.250820 Co
0.499574 0.500402 0.749919 Co
0.499517 0.832912 0.250733 Co
0.499906 0.832921 0.752170 Co
0.833630 0.166670 0.249829 Co
0.833338 0.166755 0.749528 Co
0.834251 0.499990 0.248521 Co
0.833003 0.500206 0.750180 Co
0.833346 0.833120 0.250482 Co
0.832428 0.833294 0.751488 Co
0.252966 0.253889 0.356598 O
0.252795 0.253752 0.859215 O
0.252585 0.587424 0.354353 O
0.253399 0.587111 0.858885 O
0.252782 0.924149 0.355074 O
0.252462 0.920576 0.859591 O
0.587788 0.253732 0.358264 O
0.587357 0.253530 0.859573 O
0.590518 0.586098 0.355597 O
0.586976 0.585801 0.860528 O
0.586432 0.920001 0.359535 O
0.586343 0.919580 0.862227 O
0.920952 0.254040 0.357391 O
0.920377 0.253428 0.858535 O
0.920940 0.586454 0.357921 O
0.920445 0.586229 0.859465 O
0.920831 0.920041 0.359062 O
0.920513 0.920639 0.859257 O
0.079639 0.079765 0.139527 O
0.080235 0.079444 0.640423 O
0.080371 0.414046 0.137759 O
0.078863 0.413711 0.641766 O
0.079341 0.747231 0.140375 O
0.076145 0.747003 0.644397 O
0.414160 0.079505 0.140522 O
0.413688 0.077924 0.643380 O
0.413918 0.412744 0.140604 O
0.414048 0.409629 0.645685 O
0.413248 0.746297 0.141158 O
0.413938 0.746973 0.644885 O
0.746263 0.079539 0.141432 O
0.745746 0.079341 0.642079 O
0.746166 0.413002 0.140470 O
0.745828 0.413573 0.640972 O
0.746249 0.747205 0.140872 O
0.745694 0.746616 0.642626 O
