Li16 Co18 O36                           
   1.00000000000000     
     8.1248349999999991   -0.0041710000000000    2.4123389999999998
     3.7028699999999999    7.2283020000000002    2.4111989999999999
    -0.0253310000000000   -0.0168750000000000   10.0546080000000000
   Li   Co   O 
    16    18    36
Direct
  0.2383465439297181  0.5073267175014320  0.5245193981581080
  0.3334350248027289  0.3356680462638656 -0.0063484572650110
  0.3311635420743450  0.6694521871081960  0.9920566783863933
  0.3310581786430504  1.0036148000987573 -0.0071404747873133
  0.3306128001119536  0.0032750178491950  0.5095322153043698
  0.6698966971357387  0.3314224203632581  0.9935281378154309
  0.6554702619101131  0.3338697099134850  0.5096392562050063
  0.6692669259428894  0.6679974031350990 -0.0081078912090880
  0.6733563678271683  0.6644016997572998  0.5113418387385695
  0.6701183047486352  0.0023841073943340 -0.0057370225057036
  0.6729249191117516  0.9908691183100529  0.5113382372544859
  1.0029169863618979  0.3310848351750126 -0.0036846803737813
  0.0093654395986234  0.3416687099362975  0.5025036432611844
  1.0035594889449095  0.6681113785485164 -0.0041195720243161
  1.0008744175261322  0.0006709265350723  0.9965211160062446
  0.0133895910152378  0.9648357061485566  0.5055693437213977
  0.1653924971282500  0.1694247928413813  0.2464554608592313
  0.1680808255913195  0.1643015374934459  0.7528434906289064
  0.1652425059553952  0.5009367344961452  0.2460658169685483
  0.1653262427530258  0.4973152538515357  0.7594215614563394
  0.1651936951651672  0.8368049748318304  0.2459343062470717
  0.1684105640832181  0.8308725330863760  0.7519484903560482
  0.4985104096886854  0.1679394838805775  0.2508579518450023
  0.4999601215842923  0.1642861733007290  0.7529057102536948
  0.5011801087172426  0.5001668133436650  0.2467618047223090
  0.4998053964075365  0.5000085803358861  0.7520581935839740
  0.4982109850926350  0.8344945665562108  0.2512504078142211
  0.4993907645002004  0.8312103371699606  0.7562855739311443
  0.8332434917847988  0.1687915466290400  0.2465215294494128
  0.8346228694021594  0.1654043804848994  0.7501128045298548
  0.8335006014549322  0.5014199113861496  0.2459675197090014
  0.8332660722296920  0.4995369194250042  0.7525927807397644
  0.8330342864176439  0.8340747307226007  0.2505468873166222
  0.8339171294337693  0.8306397998924385  0.7526318841632068
  0.2507950052427275  0.2551875263409411  0.3534784918608769
  0.2542511378122376  0.2491892334823115  0.8655595550251822
  0.2599265376047248  0.5904053035989517  0.3402813297431396
  0.2543359267737325  0.5853275060492577  0.8650163486719958
  0.2554077189681299  0.9240169348098960  0.3509654563915693
  0.2511710120021096  0.9186192041209467  0.8650272098856118
  0.5871119476698630  0.2599367322933848  0.3527058179166773
  0.5879467145819324  0.2517122985987233  0.8615875086137055
  0.5872491973421590  0.5885349822827497  0.3510072390911760
  0.5871440652040414  0.5827113736519739  0.8645556299139731
  0.5835474714315059  0.9198423984637523  0.3587770462960614
  0.5873683986100425  0.9189806671158453  0.8653618723938116
  0.9197737651960928  0.2571931054080829  0.3531127458020092
  0.9197808832024063  0.2516470209243916  0.8612849213397716
  0.9194420833838236  0.5853222715456181  0.3530175874594058
  0.9177133285572424  0.5854893355324771  0.8653446925349889
  0.9201169580726523  0.9262737498168050  0.3533359380839280
  0.9201969504459031  0.9193739689708794  0.8612671835146190
  0.0788961333000568  0.0817371208435812  0.1372328882174146
  0.0816398909839398  0.0778739494505798  0.6420375544482814
  0.0786485673084743  0.4152053267923698  0.1366991057319325
  0.0798233607872245  0.4099423324257076  0.6498248624258806
  0.0767250997511962  0.7497067885690902  0.1385621410130914
  0.0806410060275948  0.7402621606848508  0.6494421086128034
  0.4163905033626854  0.0759223310162511  0.1425341532493494
  0.4151821555042700  0.0731551595286017  0.6475932821676144
  0.4161490915066920  0.4125864945285566  0.1396818411387434
  0.4116988889976049  0.4099588167702692  0.6493315194430450
  0.4165860917264970  0.7474897188366164  0.1401714060925149
  0.4153377678790233  0.7466747746073888  0.6473677326879321
  0.7443036757129115  0.0802681658434892  0.1411589513182662
  0.7471151988796290  0.0778916911929623  0.6417684519796936
  0.7414412530852081  0.4173176794838716  0.1374987154729376
  0.7467880771539438  0.4131767024770722  0.6416095529292306
  0.7399046035963305  0.7515771802037513  0.1423534352621666
  0.7413258376165407  0.7465689702647065  0.6478328232000937
 
             NaN             NaN             NaN
             NaN             NaN             NaN
             NaN             NaN             NaN
             NaN             NaN             NaN
             NaN             NaN             NaN
             NaN             NaN             NaN
             NaN             NaN             NaN
             NaN             NaN             NaN
             NaN             NaN             NaN
             NaN             NaN             NaN
             NaN             NaN             NaN
             NaN             NaN             NaN
             NaN             NaN             NaN
             NaN             NaN             NaN
             NaN             NaN             NaN
             NaN             NaN             NaN
             NaN             NaN             NaN
             NaN             NaN             NaN
             NaN             NaN             NaN
             NaN             NaN             NaN
             NaN             NaN             NaN
             NaN             NaN             NaN
             NaN             NaN             NaN
             NaN             NaN             NaN
             NaN             NaN             NaN
             NaN             NaN             NaN
             NaN             NaN             NaN
             NaN             NaN             NaN
             NaN             NaN             NaN
             NaN             NaN             NaN
             NaN             NaN             NaN
             NaN             NaN             NaN
             NaN             NaN             NaN
             NaN             NaN             NaN
             NaN             NaN             NaN
             NaN             NaN             NaN
             NaN             NaN             NaN
             NaN             NaN             NaN
             NaN             NaN             NaN
             NaN             NaN             NaN
             NaN             NaN             NaN
             NaN             NaN             NaN
             NaN             NaN             NaN
             NaN             NaN             NaN
             NaN             NaN             NaN
             NaN             NaN             NaN
             NaN             NaN             NaN
             NaN             NaN             NaN
             NaN             NaN             NaN
             NaN             NaN             NaN
             NaN             NaN             NaN
             NaN             NaN             NaN
             NaN             NaN             NaN
             NaN             NaN             NaN
             NaN             NaN             NaN
             NaN             NaN             NaN
             NaN             NaN             NaN
             NaN             NaN             NaN
             NaN             NaN             NaN
             NaN             NaN             NaN
             NaN             NaN             NaN
             NaN             NaN             NaN
             NaN             NaN             NaN
             NaN             NaN             NaN
             NaN             NaN             NaN
             NaN             NaN             NaN
             NaN             NaN             NaN
             NaN             NaN             NaN
             NaN             NaN             NaN
             NaN             NaN             NaN
