Li16 Co18 O36
1.0
8.124835 -0.004171 2.412339
3.702870 7.228302 2.411199
-0.025331 -0.016875 10.054608
Li Co O
16 18 36
direct
0.235143 0.494850 0.552219 Li
0.337088 0.329685 1.000726 Li
0.336501 0.668941 0.999042 Li
0.334790 0.996820 0.001743 Li
0.334784 0.002345 0.504249 Li
0.669460 0.332678 0.997979 Li
0.660022 0.334995 0.495727 Li
0.663934 0.667251 0.001918 Li
0.671658 0.667756 0.503260 Li
0.666656 1.000032 1.000070 Li
0.668314 -0.002734 0.501022 Li
0.996650 0.331315 0.000887 Li
0.011906 0.348245 0.499688 Li
0.996073 0.670085 0.000277 Li
0.998856 0.003141 0.997347 Li
1.002109 0.988387 0.497295 Li
0.166405 0.167005 0.248380 Co
0.166884 0.165999 0.752251 Co
0.166809 0.500604 0.250622 Co
0.166333 0.500048 0.748278 Co
0.166413 0.833357 0.248777 Co
0.167151 0.833005 0.751699 Co
0.499856 0.166925 0.250294 Co
0.499840 0.166452 0.750263 Co
0.500659 0.500016 0.247666 Co
0.499896 0.500428 0.751066 Co
0.499877 0.832930 0.250170 Co
0.498961 0.832483 0.754512 Co
0.834035 0.167690 0.246130 Co
0.833620 0.166766 0.749902 Co
0.833748 0.499839 0.247662 Co
0.832862 0.500395 0.751690 Co
0.833535 0.833151 0.250325 Co
0.833092 0.832938 0.750332 Co
0.251238 0.255847 0.355293 O
0.252291 0.257539 0.859734 O
0.254674 0.588496 0.350256 O
0.251324 0.584071 0.859331 O
0.251897 0.921159 0.355932 O
0.250634 0.920022 0.863191 O
0.591275 0.253613 0.353727 O
0.587136 0.253358 0.859206 O
0.588735 0.585391 0.355616 O
0.586748 0.584022 0.862530 O
0.587184 0.920204 0.358764 O
0.587473 0.920991 0.861457 O
0.920386 0.253953 0.355273 O
0.919553 0.252944 0.860361 O
0.921911 0.584582 0.354145 O
0.923931 0.585475 0.859731 O
0.920420 0.925287 0.352911 O
0.919886 0.920364 0.859690 O
0.082556 0.078998 0.137908 O
0.081251 0.079000 0.643249 O
0.082651 0.415083 0.139517 O
0.079617 0.411717 0.648354 O
0.080601 0.744294 0.140247 O
0.081254 0.743806 0.646966 O
0.413405 0.079649 0.140787 O
0.413448 0.075171 0.646730 O
0.410303 0.413754 0.139829 O
0.410606 0.414348 0.645561 O
0.412869 0.747755 0.139665 O
0.413247 0.746735 0.645336 O
0.745561 0.079066 0.139708 O
0.746138 0.079073 0.641717 O
0.746838 0.415302 0.136754 O
0.746106 0.414406 0.642816 O
0.746180 0.747305 0.140337 O
0.740609 0.747276 0.647361 O
