Li47 P16 O64                            
   1.00000000000000     
    10.4254850000000001    0.0012750000000000    0.0017880000000000
     0.0014700000000000   12.1693499999999997    0.0029290000000000
     0.0016670000000000    0.0023530000000000    9.7952610000000000
   Li   P    O 
    47    16    64
Direct
  0.3157308754335652  0.3646938469857401  0.1483699125222724
  0.6601860944595607  0.2520110594043005  0.0975178679705276
  0.6661794928802004  0.2485322504253964  0.5972024229240723
  0.6596042845632549  0.7477122780036345  0.0971840397872903
  0.6640988809241206  0.7500979676103673  0.5982885691195704
  0.1543640575073888  0.5091670434894610  0.1517686685251089
  0.1650684344285364  0.5015822950430293  0.6515393116000041
  0.1654019120599327  0.0006522063587110  0.1505763176958930
  0.1641392794680047  0.0005416404804833  0.6524358310271342
  0.3359010841238272  0.0001048932128084  0.4010636963468385
  0.3361241817339646  0.9989274380452360  0.9023885664433294
  0.3365450691640334  0.5014467064181571  0.4045091770337438
  0.3368114528684453  0.4992602338327382  0.9043693476297027
  0.8358186991516751  0.2497343959327091  0.3474000476733101
  0.8355877133077566  0.2499455660517229  0.8505584581353274
  0.8349815277525034  0.7484297741958116  0.3481960873916568
  0.8354597736787525  0.7496944324134563  0.8475071158623979
  0.3384871414380239  0.2453209015885759  0.4067378883824332
  0.3361789950206785  0.2476561026739985  0.8998968153927622
  0.3360943894703152  0.7486375042516250  0.4019253401410109
  0.3347048507580737  0.7480743159195214  0.9024884476995820
  0.8370832098282678  0.0018844805871791  0.3493740039560942
  0.8356130994195701  0.0009753307382778  0.8457229730672325
  0.8351770978697224  0.4986311342034905  0.3451772514772294
  0.8351489516548604  0.5008461349097550  0.8526023074893434
  0.6591429157996886  0.4952905534153458  0.0969413696544467
  0.6662702581986754  0.4996539284706660  0.5975170758397605
  0.6637368449639295  0.9934954162476600  0.0959352461243608
  0.6650158945224236  0.9975203399006290  0.5974910146642060
  0.1643731782732838  0.2524765179262066  0.6487924330570425
  0.1629711656107384  0.7531659219205832  0.1534454658938837
  0.1643632889670301  0.7525648579226776  0.6515103241787378
  0.9342734066690065  0.3706101435160250  0.1453969936466417
  0.9241390801525813  0.3758917367824628  0.6545032502039875
  0.9217895217028296  0.8739881821382980  0.1482107064092738
  0.9236987144892197  0.8756752933754137  0.6485066648991400
  0.4238426829473697  0.3743438794165816  0.6056628336385198
  0.4232864538806239  0.8716529712195779  0.1017539768079787
  0.4237883607367617  0.8743947737564046  0.6001526081371528
  0.0804913397727446  0.1320546048196508  0.3422171333916869
  0.0780746350473416  0.1276954560745246  0.8547098528645695
  0.0754998050161856  0.6268184580240458  0.3538770880387330
  0.0754694120703293  0.6261769083802766  0.8495918172239889
  0.5777757903613165  0.1237925023675463  0.3986677092579949
  0.5769702936258491  0.1226706493233481  0.8983474400053362
  0.5756001040196967  0.6236257541309785  0.3990063193396767
  0.5745745374404337  0.6229322571996139  0.8982290647040395
  0.9090819993299188  0.1234417606682660  0.0948850293323306
  0.9136567766246713  0.1260517092377223  0.5953345808433174
  0.9084425217026515  0.6261830312228023  0.0955265190744872
  0.9118216273050285  0.6251876344071856  0.5955749449173640
  0.4146986368682273  0.1208673373981861  0.1540580292668064
  0.4129678167620746  0.1229458409875028  0.6550186968826649
  0.4082366717304793  0.6232545270818837  0.1548622037525398
  0.4118671486344830  0.6248539700907519  0.6549183808393944
  0.0898923258529222  0.3760274320601503  0.4048677974390504
  0.0923040162051357  0.3770011398031274  0.9056303191167843
  0.0882872777105321  0.8763771933844510  0.4045293630256685
  0.0876501949575883  0.8757387245533266  0.9046701346422102
  0.5876979357271153  0.3738019179596179  0.3447682572626800
  0.5864376287790840  0.3738688942583166  0.8411617252451306
  0.5880898082145364  0.8735651080536510  0.3453103951733105
  0.5877426701467060  0.8729542345211323  0.8449262587283083
  0.8373373411164442  0.0203023867332545  0.1464605965026842
  0.8423026789329875  0.0223692416754909  0.6455076764085238
  0.8410959387518417  0.5207789690845523  0.1449302131559672
  0.8429663586747018  0.5222863288154278  0.6507622108474935
  0.3490756174386624  0.2222059693511315  0.0941176938504613
  0.3436186069768929  0.2271627313546434  0.6046287103516824
  0.3394220931931595  0.7278131940866928  0.1037182439423948
  0.3418122279075443  0.7282903129137184  0.6027897498527701
  0.1645724057860662  0.2728789521865976  0.3640260107063676
  0.1595929347425086  0.2740982237272476  0.8489337014451354
  0.1589574533973220  0.7726482661361196  0.3542202056319436
  0.1578953007859302  0.7723565659426016  0.8527138169908715
  0.6569732731870331  0.4773699438822900  0.3989801848493449
  0.6552399783745142  0.4767027809041271  0.8961131886011008
  0.6588674740541193  0.9769101748172131  0.3962105434998572
  0.6588451991909614  0.9759513473420710  0.8965119468634641
  0.1597033245887333  0.4792961992161910  0.3505521051387951
  0.1584438693010690  0.4809123279298412  0.8482798238528162
  0.1582381320590232  0.9795044201815177  0.3520277504726009
  0.1584697115841718  0.9790832380294369  0.8537043639008139
  0.6572252150716739  0.2704867741912983  0.3994222033605367
  0.6542094768768726  0.2702731454275372  0.8964577521372125
  0.6577590003904702  0.7702132642382977  0.3978553325110706
  0.6575454036170132  0.7692240079441837  0.8962094794987442
  0.8405329967262963  0.2275501108282344  0.1463859581006172
  0.8432850676408919  0.2291332704543085  0.6486085432679204
  0.8357987914111390  0.7284089070919398  0.1469915023629178
  0.8416849078339740  0.7290240764275203  0.6462828173047969
  0.3446264257167255  0.0169758949731722  0.1044717917283870
  0.3418889193823574  0.0205404625907958  0.6016471729818518
  0.3331770890199145  0.5218452610417296  0.1052271965371368
  0.3424186164390974  0.5215875846574765  0.6018757745301917
  0.5546039134513943  0.1198674229298078  0.1039353283996322
  0.5519980471243606  0.1228312995825234  0.6027757804211016
  0.5462865542754662  0.6219024403465142  0.1003706838416850
  0.5512608287712094  0.6248146755151268  0.6038436898737379
  0.0461535133605657  0.1185063924974188  0.1486075998382140
  0.0519768042200923  0.1257969867172907  0.6488940557427653
  0.0464249647098753  0.6301971321884327  0.1504467687918581
  0.0515950900241333  0.6270193466996452  0.6451606090075628
  0.4471171322339995  0.3737850903163060  0.3947479793766682
  0.4439239507208387  0.3737639490215629  0.8781954113223104
  0.4490095513470508  0.8743694642563499  0.3972698544771415
  0.4489845606541864  0.8731775848091639  0.8976569511153828
  0.9522220059256030  0.3736422706763708  0.3490780746889919
  0.9501358559352762  0.3755675349064341  0.8611144874245269
  0.9492604939809792  0.8750365481453553  0.3518913217667479
  0.9487572056769006  0.8756929743327905  0.8520470023119133
  0.5918464292322824  0.3734609008542534  0.1892774255856503
  0.5955751434395891  0.3739234224231980  0.6837450987790596
  0.5882900660439605  0.8723428461303780  0.1879485863461859
  0.5885746550589318  0.8737877794409765  0.6875785845449289
  0.1024833031056455  0.3804079246116086  0.0617881864006919
  0.0862747937428524  0.3803256374933924  0.5625495301675915
  0.0878516642800792  0.8755460062790305  0.0620303716232651
  0.0887004615477649  0.8768220734990497  0.5619147118896952
  0.4121231247946877  0.1239702125516563  0.3110753761858212
  0.4119214887376414  0.1214949574279103  0.8121755171018750
  0.4100441294183837  0.6241730530659330  0.3122832094732148
  0.4096170486157531  0.6245093384222070  0.8121394622571906
  0.9133269546353362  0.1268137956008274  0.4379504215558778
  0.9086691021960639  0.1241092072318556  0.9375697586056954
  0.9089893943079912  0.6232309447048286  0.4381224427027730
  0.9104912030487571  0.6267707935760595  0.9381405437136732
 
             NaN             NaN             NaN
             NaN             NaN             NaN
             NaN             NaN             NaN
             NaN             NaN             NaN
             NaN             NaN             NaN
             NaN             NaN             NaN
             NaN             NaN             NaN
             NaN             NaN             NaN
             NaN             NaN             NaN
             NaN             NaN             NaN
             NaN             NaN             NaN
             NaN             NaN             NaN
             NaN             NaN             NaN
             NaN             NaN             NaN
             NaN             NaN             NaN
             NaN             NaN             NaN
             NaN             NaN             NaN
             NaN             NaN             NaN
             NaN             NaN             NaN
             NaN             NaN             NaN
             NaN             NaN             NaN
             NaN             NaN             NaN
             NaN             NaN             NaN
             NaN             NaN             NaN
             NaN             NaN             NaN
             NaN             NaN             NaN
             NaN             NaN             NaN
             NaN             NaN             NaN
             NaN             NaN             NaN
             NaN             NaN             NaN
             NaN             NaN             NaN
             NaN             NaN             NaN
             NaN             NaN             NaN
             NaN             NaN             NaN
             NaN             NaN             NaN
             NaN             NaN             NaN
             NaN             NaN             NaN
             NaN             NaN             NaN
             NaN             NaN             NaN
             NaN             NaN             NaN
             NaN             NaN             NaN
             NaN             NaN             NaN
             NaN             NaN             NaN
             NaN             NaN             NaN
             NaN             NaN             NaN
             NaN             NaN             NaN
             NaN             NaN             NaN
             NaN             NaN             NaN
             NaN             NaN             NaN
             NaN             NaN             NaN
             NaN             NaN             NaN
             NaN             NaN             NaN
             NaN             NaN             NaN
             NaN             NaN             NaN
             NaN             NaN             NaN
             NaN             NaN             NaN
             NaN             NaN             NaN
             NaN             NaN             NaN
             NaN             NaN             NaN
             NaN             NaN             NaN
             NaN             NaN             NaN
             NaN             NaN             NaN
             NaN             NaN             NaN
             NaN             NaN             NaN
             NaN             NaN             NaN
             NaN             NaN             NaN
             NaN             NaN             NaN
             NaN             NaN             NaN
             NaN             NaN             NaN
             NaN             NaN             NaN
             NaN             NaN             NaN
             NaN             NaN             NaN
             NaN             NaN             NaN
             NaN             NaN             NaN
             NaN             NaN             NaN
             NaN             NaN             NaN
             NaN             NaN             NaN
             NaN             NaN             NaN
             NaN             NaN             NaN
             NaN             NaN             NaN
             NaN             NaN             NaN
             NaN             NaN             NaN
             NaN             NaN             NaN
             NaN             NaN             NaN
             NaN             NaN             NaN
             NaN             NaN             NaN
             NaN             NaN             NaN
             NaN             NaN             NaN
             NaN             NaN             NaN
             NaN             NaN             NaN
             NaN             NaN             NaN
             NaN             NaN             NaN
             NaN             NaN             NaN
             NaN             NaN             NaN
             NaN             NaN             NaN
             NaN             NaN             NaN
             NaN             NaN             NaN
             NaN             NaN             NaN
             NaN             NaN             NaN
             NaN             NaN             NaN
             NaN             NaN             NaN
             NaN             NaN             NaN
             NaN             NaN             NaN
             NaN             NaN             NaN
             NaN             NaN             NaN
             NaN             NaN             NaN
             NaN             NaN             NaN
             NaN             NaN             NaN
             NaN             NaN             NaN
             NaN             NaN             NaN
             NaN             NaN             NaN
             NaN             NaN             NaN
             NaN             NaN             NaN
             NaN             NaN             NaN
             NaN             NaN             NaN
             NaN             NaN             NaN
             NaN             NaN             NaN
             NaN             NaN             NaN
             NaN             NaN             NaN
             NaN             NaN             NaN
             NaN             NaN             NaN
             NaN             NaN             NaN
             NaN             NaN             NaN
             NaN             NaN             NaN
             NaN             NaN             NaN
             NaN             NaN             NaN
             NaN             NaN             NaN
