Mg7 Sc16 Se32                           
   1.00000000000000     
    11.1291460000000004   -0.0000080000000000   -0.0000160000000000
    -0.0000090000000000   11.1291469999999997   -0.0000230000000000
    -0.0000160000000000   -0.0000110000000000   11.1293059999999997
   Mg   Sc   Se
     7    16    32
Direct
  0.4661382370081364  0.4661376865546558  0.4661204259668834
  0.6246166780078842  0.1266013788845487  0.1266018947165286
  0.1266012562639846  0.6246165763676180  0.1266031885023143
  0.1266014517346692  0.1266011372673368  0.6246206218699211
  0.3754800776344104  0.8726473035856034  0.8726526802418592
  0.8726490068713607  0.3754837475750017  0.8726538185832242
  0.8726504899021287  0.8726505861527289  0.3754864014252844
  0.9937350745116912  0.7499477496018612  0.7499479680457868
  0.7499495901834834  0.9937285161177991  0.7499483047397951
  0.7499508963874894  0.7499466354246013  0.9937290405946869
  0.9999873391577585  0.9999874655351456  0.9999868331910935
  0.0061953798143048  0.2499494203321820  0.2499481947551564
  0.2499521922329996  0.0061969802822905  0.2499521145316344
  0.2499531786415382  0.2499499760556321  0.0061984611289468
  0.7483355399596857  0.4993262758611874  0.2520890476845807
  0.7483358709586195  0.2520796980708025  0.4993237206786951
  0.9914016427564333  0.4999203416340196  0.4999259309981224
  0.2520837409289760  0.4993223889042769  0.7483280236566270
  0.2520869059219880  0.7483276885627218  0.4993210308839967
  0.4993334506559747  0.7483284041496461  0.2520834298004676
  0.4999162309730124  0.9914151205014652  0.4999151167202101
  0.4993290504922893  0.2520736106686571  0.7483312895795321
  0.4999226016026912  0.4999218018320600  0.9913768169934079
  0.7571409550202706  0.9935621001001204  0.9935648755093868
  0.9935593423107532  0.7571446914082718  0.9935682520803282
  0.9935602348073675  0.9935609324078519  0.7571421392233109
  0.7558433402245678  0.7558414699430446  0.7558529675200467
  0.2433121618363185  0.0064634730665843  0.0064609221620298
  0.0064586997177626  0.2433156110460542  0.0064647241956415
  0.0064613083469859  0.0064635397735295  0.2433208510363937
  0.2444376473295269  0.2444388842089711  0.2444302410946105
  0.7477537462397205  0.4929913344037390  0.4929875277725537
  0.9917335109564516  0.2573082888210949  0.4934744078401715
  0.9917335205546711  0.4934706170668028  0.2573104337355102
  0.7602288123141387  0.2561688566382835  0.2561710714305507
  0.2400024672552019  0.5049374660580791  0.5049386005909865
  0.0072472690316333  0.7423214142751339  0.5064929732936547
  0.0072458734429716  0.5064889973574203  0.7423212949904993
  0.2395100409578816  0.7428976551177076  0.7429038271287611
  0.2573011155693464  0.9917326686226116  0.4934721127728876
  0.4929913587983499  0.7477589090223109  0.4929853331137071
  0.4934673734014619  0.9917355916808213  0.2573041549560511
  0.2561696385683796  0.7602311115027405  0.2561697675770313
  0.7423144836751878  0.0072470237058052  0.5064900379704089
  0.5049376862953969  0.2400046021837474  0.5049407388394986
  0.5064848991303194  0.0072435216056411  0.7423189807425032
  0.7429001857392606  0.2395089799745534  0.7429065761310613
  0.2573107543772540  0.4934701490839862  0.9917368297594550
  0.4934651745769270  0.2573113142943680  0.9917420634293462
  0.4929908809609175  0.4929893664101891  0.7477463506692354
  0.2561698861840629  0.2561662859813755  0.7602317607168637
  0.7423164460486027  0.5064918595660002  0.0072446588427904
  0.5064888992222637  0.7423168416145313  0.0072441525631775
  0.5049395732823664  0.5049414207395705  0.2399866929521031
  0.7429024853747306  0.7429003731199068  0.2395143584887476
 
             NaN             NaN             NaN
             NaN             NaN             NaN
             NaN             NaN             NaN
             NaN             NaN             NaN
             NaN             NaN             NaN
             NaN             NaN             NaN
             NaN             NaN             NaN
             NaN             NaN             NaN
             NaN             NaN             NaN
             NaN             NaN             NaN
             NaN             NaN             NaN
             NaN             NaN             NaN
             NaN             NaN             NaN
             NaN             NaN             NaN
             NaN             NaN             NaN
             NaN             NaN             NaN
             NaN             NaN             NaN
             NaN             NaN             NaN
             NaN             NaN             NaN
             NaN             NaN             NaN
             NaN             NaN             NaN
             NaN             NaN             NaN
             NaN             NaN             NaN
             NaN             NaN             NaN
             NaN             NaN             NaN
             NaN             NaN             NaN
             NaN             NaN             NaN
             NaN             NaN             NaN
             NaN             NaN             NaN
             NaN             NaN             NaN
             NaN             NaN             NaN
             NaN             NaN             NaN
             NaN             NaN             NaN
             NaN             NaN             NaN
             NaN             NaN             NaN
             NaN             NaN             NaN
             NaN             NaN             NaN
             NaN             NaN             NaN
             NaN             NaN             NaN
             NaN             NaN             NaN
             NaN             NaN             NaN
             NaN             NaN             NaN
             NaN             NaN             NaN
             NaN             NaN             NaN
             NaN             NaN             NaN
             NaN             NaN             NaN
             NaN             NaN             NaN
             NaN             NaN             NaN
             NaN             NaN             NaN
             NaN             NaN             NaN
             NaN             NaN             NaN
             NaN             NaN             NaN
             NaN             NaN             NaN
             NaN             NaN             NaN
             NaN             NaN             NaN
