Li46 P16 O64                            
   1.00000000000000     
    10.6497589999999995   -0.0054640000000000   -0.0124350000000000
    -0.0063880000000000   12.4480819999999994   -0.0059990000000000
    -0.0117310000000000   -0.0048620000000000   10.0818010000000005
   Li   P    O 
    46    16    64
Direct
  0.4227349437660634  0.3644770760668682  0.1036666939486016
  0.6610458047190562  0.2518483240552185  0.6011388863242145
  0.6618716544493469  0.7473952887428826  0.0982417001596235
  0.6623724251033257  0.7510647289418430  0.5998415955520463
  0.1613284712897795  0.4934819997164270  0.1541026148500383
  0.1612325098889733  0.5012115324460126  0.6512804519703187
  0.1653035058746752  0.9959763048134593  0.1503165679448696
  0.1628391852172953  0.0007833363286187  0.6514330443929001
  0.3371964436635840  0.0013168962786307  0.4001657836134890
  0.3386440063748487  0.0011612590379452  0.9047332301501383
  0.3355055702637124  0.4990896324109510  0.4009650329744306
  0.3345101326807508  0.4980827522925191  0.8998955750898627
  0.8324506009183009  0.2477200238117772  0.3446388302489821
  0.8337954139636434  0.2486226454497755  0.8561255899450820
  0.8364340630067483  0.7485401530920819  0.3485119306640604
  0.8365855575989908  0.7482778689522616  0.8498267713481270
  0.3343119449235273  0.2474629728119095  0.3980238966865419
  0.3335819283042721  0.2468032728936538  0.9043038593410618
  0.3368320188838248  0.7481449732734484  0.4001739789165457
  0.3366653285442251  0.7484111315307583  0.9016990316668674
  0.8388598162024758  0.0021634836604679  0.3462787952892485
  0.8371478537106176  0.0020441994594089  0.8495156193018824
  0.8337311333992025  0.4978489891984746  0.3483159046237436
  0.8349488515165417  0.4986810011264727  0.8514964063554947
  0.6607624354159066  0.4887504507084461  0.0962590055196986
  0.6614162981152407  0.5003529287205953  0.5981407197686811
  0.6655458085459629  0.9961448896519315  0.1005119315173420
  0.6629225860226038  0.0006127056008771  0.5990700631370046
  0.1610671662940108  0.2523303278944424  0.6493791415229362
  0.1619338010607660  0.7483469402066133  0.1520563487758652
  0.1624942939748214  0.7515074705356134  0.6505873254278700
  0.9353288258072407  0.3624193736163218  0.1521993655797883
  0.9232285473331932  0.3742377425186791  0.6509866500337413
  0.9261945019255464  0.8762735301152547  0.1486195077840896
  0.9257870824410479  0.8764016001963696  0.6488688252251390
  0.4224665422664391  0.3738744920552577  0.6017059674660676
  0.4268892498340743  0.8755341678011646  0.1017975882196392
  0.4262482540209509  0.8760165140953069  0.6010638366523074
  0.0777889853068191  0.1351340880950145  0.3325853273647172
  0.0744974955132183  0.1289481127277704  0.8617267139582986
  0.0718955764688503  0.6222544600010962  0.3523288764403234
  0.0726904709670470  0.6233750628240077  0.8506446937581715
  0.5740183078631107  0.1282386499681727  0.3883117994242399
  0.5767179278282151  0.1342989729285666  0.9184930953806968
  0.5732991713982832  0.6228207308769639  0.3989816519892770
  0.5725764102769950  0.6210289098732557  0.8989270669091043
  0.9135009662476554  0.1198700636832794  0.0988619671740409
  0.9119875989282787  0.1248539444230630  0.5962024078667381
  0.9090708737254946  0.6236654838203459  0.0987170109628523
  0.9091397468949861  0.6260904831070414  0.5971722330032697
  0.4123578568216775  0.1189876265811971  0.1516066911113427
  0.4118037603216633  0.1235836181441513  0.6542813967673962
  0.4094424819306690  0.6231101391730663  0.1516036756305886
  0.4095423151760428  0.6262947522659934  0.6530930098819649
  0.0875490124220771  0.3751186198094318  0.4093899594716974
  0.0866774341850620  0.3781166548998308  0.9007325964646850
  0.0895366137304157  0.8737403318712599  0.4037225764471239
  0.0893142743927428  0.8730168045093193  0.9024047955784971
  0.5843246356487460  0.3771458609626851  0.3497912389372270
  0.5863670712417767  0.3739616780042666  0.8403106828765179
  0.5897767196973392  0.8726521934729817  0.3478081466250872
  0.5898941576539771  0.8731545501238360  0.8469975942511465
  0.8383307009487371  0.0176374528933576  0.1467270045256127
  0.8417581016821060  0.0217823510661129  0.6467222185029085
  0.8381797620612030  0.5222271407383122  0.1488922515869791
  0.8392503866449149  0.5248325074355699  0.6499929081995961
  0.3532181834340782  0.2212465866535786  0.0929829978788409
  0.3405754290037104  0.2256154085342720  0.6051106340080201
  0.3401001744962018  0.7266915701602747  0.1021304879520976
  0.3405523293566686  0.7295164463272220  0.6028582076560968
  0.1580322726316140  0.2718694884009595  0.3708547187036440
  0.1569582358539424  0.2756637145062937  0.8500935586118625
  0.1578158682251636  0.7695352010434841  0.3546885444080292
  0.1587609239936799  0.7706355367366052  0.8500566606849965
  0.6564096465690477  0.4789756961743626  0.4036341680530105
  0.6566342969359309  0.4758409771551929  0.8953595020508662
  0.6597027944331774  0.9752886508386976  0.3975834136657077
  0.6618071280750412  0.9735021147541185  0.8983719393960573
  0.1574066641147609  0.4775194625872124  0.3558141644824442
  0.1570064749906123  0.4800073139840144  0.8453395213835586
  0.1611302836818753  0.9742036261523972  0.3528475220984377
  0.1593829829102185  0.9755092663292212  0.8529841417544579
  0.6557759762098476  0.2748221135997954  0.3992859525952383
  0.6562855315746814  0.2703421880989040  0.8786793650711956
  0.6590647784780111  0.7703266791398891  0.4005290454674844
  0.6578954491604670  0.7687463611804451  0.8958308711333693
  0.8556094115554608  0.2231174823178029  0.1563025355743782
  0.8412016718912999  0.2268258074178307  0.6460318625868141
  0.8398450067065429  0.7272967437544929  0.1480844234250868
  0.8402699985530652  0.7293218392825525  0.6473817788705186
  0.3379574087203533  0.0158786408692121  0.1044856422142311
  0.3416034176741730  0.0206028545845313  0.6029847968964634
  0.3379028581837570  0.5218171947220526  0.1009410084749898
  0.3388995551487230  0.5250512545943227  0.6008198704449130
  0.5496343897743554  0.1070736557521661  0.1064664895894276
  0.5480831207949679  0.1239482786461520  0.5983161459998975
  0.5465760888963576  0.6232101773063242  0.0982192373601205
  0.5471519223586473  0.6270158659985865  0.6013044404770379
  0.0507815880110275  0.1077716688018967  0.1444630453651485
  0.0485420426762133  0.1246708286656494  0.6521899022974107
  0.0464173051077598  0.6243693338739796  0.1525983134468986
  0.0471764720901716  0.6274228601102022  0.6484567862546865
  0.4479910779109415  0.3752167706834827  0.4079604193657408
  0.4486366438106032  0.3745812221403836  0.8926584109758771
  0.4520242067878305  0.8731351319906857  0.4001645141032452
  0.4522605849947061  0.8730451670885845  0.8995150621385907
  0.9504329210343511  0.3753209967950597  0.3545548258972877
  0.9490557249023405  0.3758232550669520  0.8453985421870455
  0.9518048285848294  0.8734739832742431  0.3508732653851622
  0.9516093449472200  0.8734990004430234  0.8493077395529055
  0.5771015943187021  0.3837489290611495  0.1979739079200192
  0.5847201548672133  0.3809359574937078  0.6847809198832933
  0.5897889475740491  0.8693479396503897  0.1930448216156255
  0.5891018206139366  0.8742073288117839  0.6915310662665801
  0.0838989836560986  0.3850004287092250  0.0527174981880652
  0.0842560453734336  0.3814146993074969  0.5648447381064641
  0.0889800829581378  0.8698454674045298  0.0571815835687795
  0.0887484673017831  0.8745350584364304  0.5591516571788954
  0.4071754524212632  0.1230107318429840  0.3079286901477997
  0.4131266530546367  0.1222819294623923  0.8091983525771332
  0.4102202651029326  0.6238596778565029  0.3071361208834488
  0.4091639356275678  0.6252134644070898  0.8082052011539737
  0.9131047588905705  0.1240267560206197  0.4412290392034411
  0.9080206092966819  0.1231098375513674  0.9425419351556574
  0.9080123776780820  0.6247343692714743  0.4420303297228476
  0.9100573396897926  0.6243768296591482  0.9431675645289175
 
             NaN             NaN             NaN
             NaN             NaN             NaN
             NaN             NaN             NaN
             NaN             NaN             NaN
             NaN             NaN             NaN
             NaN             NaN             NaN
             NaN             NaN             NaN
             NaN             NaN             NaN
             NaN             NaN             NaN
             NaN             NaN             NaN
             NaN             NaN             NaN
             NaN             NaN             NaN
             NaN             NaN             NaN
             NaN             NaN             NaN
             NaN             NaN             NaN
             NaN             NaN             NaN
             NaN             NaN             NaN
             NaN             NaN             NaN
             NaN             NaN             NaN
             NaN             NaN             NaN
             NaN             NaN             NaN
             NaN             NaN             NaN
             NaN             NaN             NaN
             NaN             NaN             NaN
             NaN             NaN             NaN
             NaN             NaN             NaN
             NaN             NaN             NaN
             NaN             NaN             NaN
             NaN             NaN             NaN
             NaN             NaN             NaN
             NaN             NaN             NaN
             NaN             NaN             NaN
             NaN             NaN             NaN
             NaN             NaN             NaN
             NaN             NaN             NaN
             NaN             NaN             NaN
             NaN             NaN             NaN
             NaN             NaN             NaN
             NaN             NaN             NaN
             NaN             NaN             NaN
             NaN             NaN             NaN
             NaN             NaN             NaN
             NaN             NaN             NaN
             NaN             NaN             NaN
             NaN             NaN             NaN
             NaN             NaN             NaN
             NaN             NaN             NaN
             NaN             NaN             NaN
             NaN             NaN             NaN
             NaN             NaN             NaN
             NaN             NaN             NaN
             NaN             NaN             NaN
             NaN             NaN             NaN
             NaN             NaN             NaN
             NaN             NaN             NaN
             NaN             NaN             NaN
             NaN             NaN             NaN
             NaN             NaN             NaN
             NaN             NaN             NaN
             NaN             NaN             NaN
             NaN             NaN             NaN
             NaN             NaN             NaN
             NaN             NaN             NaN
             NaN             NaN             NaN
             NaN             NaN             NaN
             NaN             NaN             NaN
             NaN             NaN             NaN
             NaN             NaN             NaN
             NaN             NaN             NaN
             NaN             NaN             NaN
             NaN             NaN             NaN
             NaN             NaN             NaN
             NaN             NaN             NaN
             NaN             NaN             NaN
             NaN             NaN             NaN
             NaN             NaN             NaN
             NaN             NaN             NaN
             NaN             NaN             NaN
             NaN             NaN             NaN
             NaN             NaN             NaN
             NaN             NaN             NaN
             NaN             NaN             NaN
             NaN             NaN             NaN
             NaN             NaN             NaN
             NaN             NaN             NaN
             NaN             NaN             NaN
             NaN             NaN             NaN
             NaN             NaN             NaN
             NaN             NaN             NaN
             NaN             NaN             NaN
             NaN             NaN             NaN
             NaN             NaN             NaN
             NaN             NaN             NaN
             NaN             NaN             NaN
             NaN             NaN             NaN
             NaN             NaN             NaN
             NaN             NaN             NaN
             NaN             NaN             NaN
             NaN             NaN             NaN
             NaN             NaN             NaN
             NaN             NaN             NaN
             NaN             NaN             NaN
             NaN             NaN             NaN
             NaN             NaN             NaN
             NaN             NaN             NaN
             NaN             NaN             NaN
             NaN             NaN             NaN
             NaN             NaN             NaN
             NaN             NaN             NaN
             NaN             NaN             NaN
             NaN             NaN             NaN
             NaN             NaN             NaN
             NaN             NaN             NaN
             NaN             NaN             NaN
             NaN             NaN             NaN
             NaN             NaN             NaN
             NaN             NaN             NaN
             NaN             NaN             NaN
             NaN             NaN             NaN
             NaN             NaN             NaN
             NaN             NaN             NaN
             NaN             NaN             NaN
             NaN             NaN             NaN
             NaN             NaN             NaN
             NaN             NaN             NaN
             NaN             NaN             NaN
