Li46 P16 O64                            
   1.00000000000000     
    10.6497589999999995   -0.0054640000000000   -0.0124350000000000
    -0.0063880000000000   12.4480819999999994   -0.0059990000000000
    -0.0117310000000000   -0.0048620000000000   10.0818010000000005
   Li   P    O 
    46    16    64
Direct
  0.4068839092144465  0.3645849155375207  0.1206249394678172
  0.6620063818273976  0.2518251173889342  0.6007963418876893
  0.6618310339603308  0.7468034473277165  0.0978060594156334
  0.6629908226436306  0.7511415243920925  0.5999794094809574
  0.1592099337010067  0.4961502501443511  0.1534756492033977
  0.1621794008337680  0.5010930490805687  0.6514593593166703
  0.1649262646208373  0.9959038743396814  0.1507972518929122
  0.1633931892887995  0.0006966327063334  0.6514888327842877
  0.3376269380089805  0.0008053159682538  0.3998001713324781
  0.3388489070235462  0.0008477216997838  0.9053510014865608
  0.3357271677219799  0.4998332933739523  0.4021496236580129
  0.3356936264870162  0.4972654682132450  0.8999968870084989
  0.8327022620663633  0.2481361319978847  0.3443480138516626
  0.8335562469895837  0.2489957464893839  0.8566081687049392
  0.8368212343302973  0.7485882052540855  0.3486949998915431
  0.8368780529316351  0.7484302514461622  0.8494677267468485
  0.3348812508124374  0.2460497051636412  0.4011671778341497
  0.3352315257403717  0.2475393247126817  0.9044357581900441
  0.3371487622374608  0.7482990415594143  0.4002583420056754
  0.3369077114150590  0.7483233598015010  0.9016196571790984
  0.8392097825756261  0.0025877674073262  0.3463587490202604
  0.8375671667015019  0.0023679593615779  0.8493071680286323
  0.8338317335609935  0.4977076884356853  0.3476981498863241
  0.8343809956999939  0.4986534595850838  0.8514807322282401
  0.6583970369948391  0.4865389857655233  0.0948337802747312
  0.6623952510290411  0.5005255349977705  0.5968458060697265
  0.6655440421047633  0.9962782086152852  0.0998327903105334
  0.6633873278636726  0.0006703995221679  0.5991970249167275
  0.1618574535314679  0.2524681007118297  0.6501067481133785
  0.1619328449400792  0.7488221552655712  0.1518964255754911
  0.1629932970006044  0.7515873368721380  0.6509131574845566
  0.9360708858249529  0.3625726983569391  0.1516172474057710
  0.9244920522564242  0.3743860772746973  0.6512962591529223
  0.9258876994683135  0.8764444772188688  0.1488061572943302
  0.9261405274531107  0.8765795869799242  0.6488171391148357
  0.4231949271364875  0.3740114915935279  0.6027804837251399
  0.4273681025892264  0.8749494881280887  0.1020237276215210
  0.4268613691710875  0.8759698201235834  0.6006139473362515
  0.0784192396595005  0.1357183854987823  0.3326326488718273
  0.0751321261764015  0.1291127564832562  0.8618875974712282
  0.0722221893844444  0.6228582842899525  0.3523911519426081
  0.0728710713445259  0.6234153673242347  0.8506005544517758
  0.5744442072373003  0.1280471225899076  0.3885131539751919
  0.5763115828911807  0.1347997736107616  0.9179765676374546
  0.5737909071825731  0.6230141654152789  0.3988937291038328
  0.5726620264290965  0.6206644550752253  0.8983273461343704
  0.9136070778925430  0.1201299252948909  0.0989085086521060
  0.9127693971124909  0.1252118260211399  0.5961343795887706
  0.9085799356021107  0.6237881643861160  0.0984042966324228
  0.9099055301104960  0.6260104571379482  0.5969948990700000
  0.4117953395636472  0.1182299796253732  0.1518002650053634
  0.4121503236205322  0.1230835739174704  0.6543830661332609
  0.4092830567268294  0.6226558021322548  0.1519978560033975
  0.4100246436437832  0.6265788526896579  0.6530813790718678
  0.0886831466462506  0.3755463416736137  0.4084800298593697
  0.0874871861054179  0.3782907984118630  0.9012012172657514
  0.0897353224878664  0.8739818205439444  0.4039395204930715
  0.0893755352898045  0.8731728828691929  0.9024960933541996
  0.5834783910188365  0.3767777133837079  0.3492061805728875
  0.5857997613910256  0.3738130002043195  0.8379546548378954
  0.5903699083387096  0.8725867822481485  0.3475935387920597
  0.5903092407454859  0.8730256193964201  0.8469189093933920
  0.8382171968017426  0.0180275529169183  0.1467949917979114
  0.8423184309800446  0.0221668312023751  0.6464916424693637
  0.8379973722158056  0.5220641596469652  0.1482261177981990
  0.8400754238894640  0.5246739663303153  0.6497132055972246
  0.3510409436135686  0.2200275520501455  0.0936208591012602
  0.3408562109024365  0.2250874841778727  0.6051017648811355
  0.3397380102064215  0.7259011894234706  0.1019408082569890
  0.3410457514093428  0.7298208369917317  0.6027900742057811
  0.1596747076384456  0.2727491160379391  0.3690582284621873
  0.1574375071211606  0.2758455290180878  0.8501720256535225
  0.1581403333428171  0.7699143956497002  0.3545003306424082
  0.1588608514569853  0.7707267229589487  0.8503618459275273
  0.6558842401942721  0.4787795702945655  0.4022691209136786
  0.6555823711627063  0.4755820244332580  0.8943470616987742
  0.6600643385292573  0.9753396306904620  0.3974024244631149
  0.6624219050412528  0.9732848103378647  0.8981369820301827
  0.1579604190613241  0.4783698828463663  0.3552114881035701
  0.1575557891936917  0.4802592772866576  0.8456697969236311
  0.1611750845544461  0.9745682037018012  0.3533373436664865
  0.1596533482778277  0.9755774988591389  0.8531733269834596
  0.6555276429633251  0.2747655369155039  0.3987960970135376
  0.6555861292702345  0.2702875581273388  0.8772839205761854
  0.6596822901248888  0.7703936554734870  0.4006663278173117
  0.6582370486617500  0.7684672513411799  0.8954905222647702
  0.8556946404792529  0.2235462154599300  0.1559387428445041
  0.8422658823390270  0.2272378260336278  0.6461913378271350
  0.8394008634313279  0.7272946431695517  0.1481051491855270
  0.8409851844140031  0.7292295114796706  0.6472312666981593
  0.3377152910243264  0.0147313595333100  0.1055491891023708
  0.3421198893624824  0.0201715043255627  0.6026413379757263
  0.3369521778013460  0.5211024809922763  0.1028318390372627
  0.3394539630945913  0.5253983171429576  0.6005410260429125
  0.5486568033186728  0.1067585645328308  0.1052722823515310
  0.5484817862945749  0.1237536286969917  0.5985307409666673
  0.5460041621750548  0.6223940004018456  0.0977120406384823
  0.5476974891908126  0.6272673840718871  0.6014005496724327
  0.0507393366988396  0.1079474153823309  0.1449472086821729
  0.0493644100984133  0.1247462238873180  0.6519804475284229
  0.0459853476439731  0.6249422317549581  0.1523298143165149
  0.0479334099507809  0.6273235142763888  0.6482482035855699
  0.4471162699467800  0.3748665397338877  0.4077855723237165
  0.4470587976927397  0.3743347701019717  0.8860980024543976
  0.4525189539743318  0.8729763930517689  0.3996831324813542
  0.4527871425947614  0.8728886825755910  0.8998051901674091
  0.9514644691583812  0.3755056509226800  0.3538384433287758
  0.9495784997501336  0.3761736097450633  0.8466123005422614
  0.9519647907436730  0.8736637866090822  0.3511322108473394
  0.9517820194696742  0.8737165562168140  0.8491007617946414
  0.5738854138543940  0.3827321084206859  0.1975183078089544
  0.5872211418940451  0.3809444344122803  0.6822973161882891
  0.5905175704724983  0.8690846911303337  0.1928419884617336
  0.5893822529417615  0.8741966443339114  0.6914413936397398
  0.0857129447316975  0.3850092189653507  0.0533060062012365
  0.0855878803887055  0.3812940165302867  0.5640250722638220
  0.0886564807671708  0.8700685085418660  0.0572743717919399
  0.0890495931819841  0.8744398769863297  0.5593447792420114
  0.4077876302305760  0.1226341702120650  0.3081423724954280
  0.4130879101484428  0.1216584881550228  0.8092115101488023
  0.4107996803675310  0.6241175191839745  0.3074800024414851
  0.4092798416351174  0.6254006820729945  0.8081358082101517
  0.9137076864604055  0.1245897960357696  0.4411464706160630
  0.9084764969114836  0.1232901842326733  0.9425841710859338
  0.9085606505681376  0.6246699284576995  0.4418359779203871
  0.9098426848872543  0.6246229220937780  0.9428786812010899
 
             NaN             NaN             NaN
             NaN             NaN             NaN
             NaN             NaN             NaN
             NaN             NaN             NaN
             NaN             NaN             NaN
             NaN             NaN             NaN
             NaN             NaN             NaN
             NaN             NaN             NaN
             NaN             NaN             NaN
             NaN             NaN             NaN
             NaN             NaN             NaN
             NaN             NaN             NaN
             NaN             NaN             NaN
             NaN             NaN             NaN
             NaN             NaN             NaN
             NaN             NaN             NaN
             NaN             NaN             NaN
             NaN             NaN             NaN
             NaN             NaN             NaN
             NaN             NaN             NaN
             NaN             NaN             NaN
             NaN             NaN             NaN
             NaN             NaN             NaN
             NaN             NaN             NaN
             NaN             NaN             NaN
             NaN             NaN             NaN
             NaN             NaN             NaN
             NaN             NaN             NaN
             NaN             NaN             NaN
             NaN             NaN             NaN
             NaN             NaN             NaN
             NaN             NaN             NaN
             NaN             NaN             NaN
             NaN             NaN             NaN
             NaN             NaN             NaN
             NaN             NaN             NaN
             NaN             NaN             NaN
             NaN             NaN             NaN
             NaN             NaN             NaN
             NaN             NaN             NaN
             NaN             NaN             NaN
             NaN             NaN             NaN
             NaN             NaN             NaN
             NaN             NaN             NaN
             NaN             NaN             NaN
             NaN             NaN             NaN
             NaN             NaN             NaN
             NaN             NaN             NaN
             NaN             NaN             NaN
             NaN             NaN             NaN
             NaN             NaN             NaN
             NaN             NaN             NaN
             NaN             NaN             NaN
             NaN             NaN             NaN
             NaN             NaN             NaN
             NaN             NaN             NaN
             NaN             NaN             NaN
             NaN             NaN             NaN
             NaN             NaN             NaN
             NaN             NaN             NaN
             NaN             NaN             NaN
             NaN             NaN             NaN
             NaN             NaN             NaN
             NaN             NaN             NaN
             NaN             NaN             NaN
             NaN             NaN             NaN
             NaN             NaN             NaN
             NaN             NaN             NaN
             NaN             NaN             NaN
             NaN             NaN             NaN
             NaN             NaN             NaN
             NaN             NaN             NaN
             NaN             NaN             NaN
             NaN             NaN             NaN
             NaN             NaN             NaN
             NaN             NaN             NaN
             NaN             NaN             NaN
             NaN             NaN             NaN
             NaN             NaN             NaN
             NaN             NaN             NaN
             NaN             NaN             NaN
             NaN             NaN             NaN
             NaN             NaN             NaN
             NaN             NaN             NaN
             NaN             NaN             NaN
             NaN             NaN             NaN
             NaN             NaN             NaN
             NaN             NaN             NaN
             NaN             NaN             NaN
             NaN             NaN             NaN
             NaN             NaN             NaN
             NaN             NaN             NaN
             NaN             NaN             NaN
             NaN             NaN             NaN
             NaN             NaN             NaN
             NaN             NaN             NaN
             NaN             NaN             NaN
             NaN             NaN             NaN
             NaN             NaN             NaN
             NaN             NaN             NaN
             NaN             NaN             NaN
             NaN             NaN             NaN
             NaN             NaN             NaN
             NaN             NaN             NaN
             NaN             NaN             NaN
             NaN             NaN             NaN
             NaN             NaN             NaN
             NaN             NaN             NaN
             NaN             NaN             NaN
             NaN             NaN             NaN
             NaN             NaN             NaN
             NaN             NaN             NaN
             NaN             NaN             NaN
             NaN             NaN             NaN
             NaN             NaN             NaN
             NaN             NaN             NaN
             NaN             NaN             NaN
             NaN             NaN             NaN
             NaN             NaN             NaN
             NaN             NaN             NaN
             NaN             NaN             NaN
             NaN             NaN             NaN
             NaN             NaN             NaN
             NaN             NaN             NaN
             NaN             NaN             NaN
             NaN             NaN             NaN
