Li7 Mn16 O32                            
   1.00000000000000     
     8.6029420000000005   -0.0191840000000000    0.0177020000000000
    -0.0175330000000000    8.0913930000000001   -0.0927550000000000
     0.0164990000000000    0.0023760000000000    8.0684039999999992
   Li   Mn   O 
     7    16    32
Direct
  0.3008301871902045  0.4480480065474092  0.8011950100774704
  0.8667455578563583  0.8764331501447377  0.8753408439639403
  0.1369733624674594  0.1258389005972568  0.1235335969720741
  0.8667103144208922  0.3750581600438189  0.3738775776679029
  0.3612696488955865  0.8727092878683015  0.3766903669363802
  0.6336534014882543  0.1287113274862278  0.6288175030629021
  0.6332595649499825  0.6217502672548005  0.1210475330523613
  0.4997541447246229  0.2498070041931503  0.2490358462984648
  0.2489901131253521  0.5020178459534902  0.2551566857262865
  0.2493679711326489  0.2480928163388121  0.4991419128275315
  0.5068634688244883  0.4985032858653599  0.4982249896563561
  0.5067473825634703  0.7522960699387796  0.7512175712490612
  0.7571691481136695  0.5022947973122412  0.7498908334416113
  0.7502050434137394  0.7508352074713535  0.4993064541377957
  0.2489037366140603  0.9945603735276806  0.7475454073479024
  0.2493466982937535  0.7507234515054186  0.0016695780398330
  0.4997779906597739  0.0009407756101369  0.0001536499041811
  0.7446251300048716  0.0002017907195768  0.2496119954049417
  0.7479973562428299  0.2512848417591025  0.9997494626214434
  0.9997617677242986  0.2497170107999283  0.7503367691013033
  0.9999487420437253  0.4996979960882958  1.0000324910847198
  0.9928133606079033  0.7488517330381994  0.2494579422477692
  0.9928054233586495  0.0005356606114667  0.5007112346521748
  0.7232097145661294  0.0104827726941513  0.0126025218954882
  0.9962998201458322  0.7363975221347063  0.0164095030083397
  0.9951242731005359  0.0140390262488683  0.7347640214445451
  0.7326285636475833  0.7424175938728778  0.7339388232742433
  0.2755919548480872  0.9863811292042359  0.9870618171444223
  0.0010274061452733  0.2641585772081079  0.9864786901970820
  0.9959369275929445  0.9839810995692028  0.2649648126879101
  0.2756835802060188  0.2629463177401585  0.2630308737103062
  0.7334766464898008  0.5163199094433516  0.5106004087619762
  0.9958799019707736  0.2329543669481405  0.5128883203343865
  0.9951940316038644  0.5152988106356674  0.2361994133742086
  0.7234063994736002  0.2387656691297100  0.2381815917703397
  0.2877598876636320  0.4880641282770297  0.4917242710251208
  0.9708868635288106  0.7630494070660022  0.4875117754650586
  0.0066901144359263  0.4810313746334304  0.7680573819144664
  0.2874977693930864  0.7585596461859808  0.7611617325501122
  0.2165052865526480  0.0058201675842879  0.5095980382342353
  0.5241515865297081  0.7406202157471542  0.5083781524581117
  0.4946652440799265  0.0141679055868411  0.2364643294500189
  0.2167219726092209  0.7394022118716385  0.2443026226246547
  0.7670703171401999  0.9865366262679051  0.4888841978073911
  0.5051063765094372  0.2662939988763799  0.4864822913821893
  0.5043872639860884  0.9859941842463479  0.7646059274946407
  0.7763898843071415  0.2624289589332479  0.7620753570839440
  0.2220482789591516  0.5155380999597385  0.0141546458556222
  0.4993959052817597  0.2322962535626395  0.0169971847709663
  0.5058610240569970  0.5187376218093106  0.7322500878056170
  0.2219260287570542  0.2352231871381502  0.7344865018479223
  0.7767382414037541  0.4907515328955481  0.9867849937680985
  0.5047096412509615  0.7640048955726153  0.9839134534416983
  0.5047401924831348  0.4847228502005674  0.2638101688008014
  0.7674824372029464  0.7598540706944116  0.2633417853725320
 
             NaN             NaN             NaN
             NaN             NaN             NaN
             NaN             NaN             NaN
             NaN             NaN             NaN
             NaN             NaN             NaN
             NaN             NaN             NaN
             NaN             NaN             NaN
             NaN             NaN             NaN
             NaN             NaN             NaN
             NaN             NaN             NaN
             NaN             NaN             NaN
             NaN             NaN             NaN
             NaN             NaN             NaN
             NaN             NaN             NaN
             NaN             NaN             NaN
             NaN             NaN             NaN
             NaN             NaN             NaN
             NaN             NaN             NaN
             NaN             NaN             NaN
             NaN             NaN             NaN
             NaN             NaN             NaN
             NaN             NaN             NaN
             NaN             NaN             NaN
             NaN             NaN             NaN
             NaN             NaN             NaN
             NaN             NaN             NaN
             NaN             NaN             NaN
             NaN             NaN             NaN
             NaN             NaN             NaN
             NaN             NaN             NaN
             NaN             NaN             NaN
             NaN             NaN             NaN
             NaN             NaN             NaN
             NaN             NaN             NaN
             NaN             NaN             NaN
             NaN             NaN             NaN
             NaN             NaN             NaN
             NaN             NaN             NaN
             NaN             NaN             NaN
             NaN             NaN             NaN
             NaN             NaN             NaN
             NaN             NaN             NaN
             NaN             NaN             NaN
             NaN             NaN             NaN
             NaN             NaN             NaN
             NaN             NaN             NaN
             NaN             NaN             NaN
             NaN             NaN             NaN
             NaN             NaN             NaN
             NaN             NaN             NaN
             NaN             NaN             NaN
             NaN             NaN             NaN
             NaN             NaN             NaN
             NaN             NaN             NaN
             NaN             NaN             NaN
