Li7 Mn16 O32                            
   1.00000000000000     
     8.6029420000000005   -0.0191840000000000    0.0177020000000000
    -0.0175330000000000    8.0913930000000001   -0.0927550000000000
     0.0164990000000000    0.0023760000000000    8.0684039999999992
   Li   Mn   O 
     7    16    32
Direct
  0.3010373124348439  0.4477021655461416  0.8015472101088953
  0.8667450267648016  0.8764835543483869  0.8752709552451191
  0.1369543011344477  0.1258485455779269  0.1235458326209057
  0.8667194703378407  0.3750728561438482  0.3738312014189868
  0.3612722322538959  0.8727586596122821  0.3766638278124521
  0.6336465310542556  0.1287182729919767  0.6287604285724797
  0.6332471989812992  0.6217545905437590  0.1210451637223499
  0.4997302972443201  0.2498133825393962  0.2490197251623533
  0.2489379950788733  0.5019590991448634  0.2551386787504707
  0.2494084596444607  0.2481179191448928  0.4991957430472558
  0.5068468875511588  0.4985447925514092  0.4981816126690716
  0.5067236103399134  0.7523280619591929  0.7511974449108539
  0.7571516496839924  0.5022768756556337  0.7498841783964699
  0.7502059201402840  0.7508673375387652  0.4992984145030045
  0.2488881940539662  0.9945795754361260  0.7475991965868262
  0.2493464526132612  0.7507348354110074  1.0016613457722259
  0.4997710877214536  0.0009503812605806  0.0001378460456204
  0.7446744165841154  1.0002134188120895  0.2496113574571859
  0.7480113601543340  0.2512330290137004  0.9997031822808822
  0.9997453157408179  0.2497357211614562  0.7503131088287597
  0.9999530929759988  0.4997027067177917 -0.0000021591014695
  0.9928104741099406  0.7488407159002469  0.2494658041966781
  0.9927802301193581  0.0005187484623052  0.5007027951126454
  0.7232259739852992  0.0105647442195972  0.0125245465287056
  0.9962778767984235  0.7363697482565359  0.0164132306895296
  0.9951558896458368  0.0140442413838605  0.7347627836526901
  0.7325957221962958  0.7424123914016295  0.7339212928049503
  0.2756026588555704  0.9863909979828658  0.9871004070772080
  1.0010175251424620  0.2641422175551410  0.9864713421650062
  0.9960103742090725  0.9839510138709309  0.2649662950001271
  0.2756644189612182  0.2629785855919517  0.2630589233638418
  0.7334686604834414  0.5163636191362522  0.5105821631792449
  0.9958824951018141  0.2329811779994699  0.5129059816490625
  0.9951537015965937  0.5152808729275723  0.2361717634783824
  0.7233973549080852  0.2387240306076952  0.2382032581714215
  0.2877395909168244  0.4881607834884281  0.4916712628845534
  0.9709084466354754  0.7630238503244114  0.4875548478497403
  1.0066433291413144  0.4810315714674796  0.7680554168109065
  0.2874797571874873  0.7586192839769124  0.7611584587865969
  0.2165012551134932  0.0058826147524377  0.5096096435613312
  0.5241286908272463  0.7406501388902225  0.5083845105279680
  0.4946599546435350  0.0141736505995274  0.2364368498374491
  0.2166888294428500  0.7394178289588829  0.2442539872344850
  0.7670941462316934  0.9865351419470557  0.4889224090626795
  0.5051000647161069  0.2663666384373684  0.4864761608892545
  0.5043612895315969  0.9860191968198537  0.7645902562357841
  0.7764211316293972  0.2623929033700981  0.7619863540227435
  0.2220208291832174  0.5155285601051427  0.0141690646675175
  0.4993218800235985  0.2323141654527499  0.0169839893366936
  0.5058166752788367  0.5187605794494721  0.7322149810985481
  0.2219224480960667  0.2352432732175132  0.7344897672923725
  0.7766929499170541  0.4906347590928500  0.9868049450618488
  0.5047539760307951  0.7640104974885410  0.9839003372843669
  0.5047373508209031  0.4847355496500459  0.2637691069141752
  0.7674717450123506  0.7598985003043061  0.2633552142627449
 
             NaN             NaN             NaN
             NaN             NaN             NaN
             NaN             NaN             NaN
             NaN             NaN             NaN
             NaN             NaN             NaN
             NaN             NaN             NaN
             NaN             NaN             NaN
             NaN             NaN             NaN
             NaN             NaN             NaN
             NaN             NaN             NaN
             NaN             NaN             NaN
             NaN             NaN             NaN
             NaN             NaN             NaN
             NaN             NaN             NaN
             NaN             NaN             NaN
             NaN             NaN             NaN
             NaN             NaN             NaN
             NaN             NaN             NaN
             NaN             NaN             NaN
             NaN             NaN             NaN
             NaN             NaN             NaN
             NaN             NaN             NaN
             NaN             NaN             NaN
             NaN             NaN             NaN
             NaN             NaN             NaN
             NaN             NaN             NaN
             NaN             NaN             NaN
             NaN             NaN             NaN
             NaN             NaN             NaN
             NaN             NaN             NaN
             NaN             NaN             NaN
             NaN             NaN             NaN
             NaN             NaN             NaN
             NaN             NaN             NaN
             NaN             NaN             NaN
             NaN             NaN             NaN
             NaN             NaN             NaN
             NaN             NaN             NaN
             NaN             NaN             NaN
             NaN             NaN             NaN
             NaN             NaN             NaN
             NaN             NaN             NaN
             NaN             NaN             NaN
             NaN             NaN             NaN
             NaN             NaN             NaN
             NaN             NaN             NaN
             NaN             NaN             NaN
             NaN             NaN             NaN
             NaN             NaN             NaN
             NaN             NaN             NaN
             NaN             NaN             NaN
             NaN             NaN             NaN
             NaN             NaN             NaN
             NaN             NaN             NaN
             NaN             NaN             NaN
