Li15 Fe16 P16 O64                       
   1.00000000000000     
    10.4266609999999993    0.0009300000000000    0.0056540000000000
     0.0010870000000000   12.1423340000000000   -0.0008170000000000
     0.0036020000000000   -0.0007540000000000    9.5215080000000007
   Li   Fe   P    O 
    15    16    16    64
Direct
  0.5327416570635127  0.4374828851027720  0.7253951824881694
  0.4964289792705182  0.4975509489015669  0.2451110292235113
  0.4982487857497367  0.0042095345196416  0.2492253675858470
  0.4958887105681328  0.0121628613069295  0.7599348993028441
  0.0014209252560209  0.2513376836060678  0.5029325449963192
  0.0019046947500394  0.2507284397738968  0.0003773493553140
  0.0060755344452402  0.7449640973572011  0.4969160224739199
  0.0009198116226219  0.7474079892041585  0.9954344307332721
  0.4968640555551604  0.2507429353054182  0.2457055690134376
  0.4973888841011470  0.7464423826267378  0.2475491567797189
  0.4955906063352914  0.7406173513580107  0.7594061082660274
  0.0004968477706264  0.0032516596099317  0.9949980789241074
  0.0059216561296313  0.0051110477942037  0.4965025151675502
  0.0017421069943833  0.4988070501082200  0.0009810047572065
  0.0012526440698711  0.4975424391045234  0.5033779750464705
  0.7792796682449811  0.1260092267242072  0.2632658427461943
  0.7782739954715728  0.1266096830626168  0.7630505499855640
  0.7796556434104062  0.6227776027652412  0.2636063955204105
  0.7806658087583924  0.6241931489123302  0.7645916514586677
  0.2842031279303039  0.1254527162325776  0.4892962415131944
  0.2824003163928110  0.1262609526173383  0.9858758764697190
  0.2826325184098699  0.6236314767054127  0.4872648947113025
  0.2824071673525084  0.6229970417722430  0.9857161331102049
  0.2184449737563117  0.3748635232460735  0.2350712225064985
  0.2222684035562286  0.3740997500528195  0.7399619164552730
  0.2208706111256960  0.8750331058612338  0.2364446505854479
  0.2195044580421131  0.8747474725277994  0.7359962137542079
  0.7171342459307254  0.3738478478528101  0.0135768659468436
  0.7204704401188935  0.3710787637023726  0.5082591977271125
  0.7152181861047611  0.8749861151479560  0.0166877027063993
  0.7195998211677187  0.8744714099078437  0.5094998080224240
  0.5961170084700242  0.1222656209968807  0.0422386329881677
  0.5946678720275916  0.1221802732429891  0.5387818702753002
  0.5960791197533729  0.6260793289684983  0.0425553018215293
  0.5933369052751958  0.6252715939192335  0.5405222585056786
  0.0933006709377334  0.1231575116515454  0.2091472136938005
  0.0931974322919917  0.1238751635725251  0.7078989714489341
  0.0932934512423860  0.6266977314329032  0.2085352056418846
  0.0933692247343479  0.6254204678890033  0.7077033678509973
  0.4039055556317775  0.3750358395362715  0.4552576180274218
  0.4029746631834979  0.3740644082469498  0.9616421845292583
  0.4083341600352183  0.8740574574015425  0.4604056666144318
  0.4054448238475453  0.8745552612581112  0.9584699402441451
  0.9081835211480082  0.3749802548351223  0.2912212128307331
  0.9060720447497934  0.3749274919700082  0.7923692020702758
  0.9045789044343995  0.8744975982925537  0.2942049683502893
  0.8992148633303059  0.8750833347269952  0.7924692844366661
  0.5967625485641826  0.1231408595513959  0.3767921653759216
  0.6029729961472187  0.1149412023892324  0.8828662403392158
  0.5976980632220367  0.6235063486485782  0.3792673685307423
  0.6019671348794696  0.6311619534534276  0.8822886540445145
  0.0964359585143722  0.1219742295125846  0.3707642607679717
  0.0951723536402449  0.1226735961343417  0.8693785363378234
  0.0963936761081657  0.6275519178299163  0.3701707479781979
  0.0952982367378449  0.6269650488782541  0.8691282029008005
  0.4019394554400048  0.3744193762685297  0.1244131540489968
  0.3974311312496087  0.3776916441234657  0.6151180448594932
  0.4033350179193360  0.8743998614130815  0.1201901531103677
  0.4022550589691244  0.8738379932611545  0.6205725161966307
  0.9056854550625394  0.3756072600655504  0.1300364601934530
  0.9035858812831573  0.3746136989652273  0.6305981406623825
  0.9011873530226473  0.8745462088778310  0.1340450850449522
  0.8865551470559248  0.8740835629482753  0.6299830612910854
  0.9550142993485771  0.1211134920631342  0.1478633114750299
  0.9554448593418773  0.1223604158689524  0.6453965706414619
  0.9548505494059909  0.6281905041228429  0.1477067084440205
  0.9553306861119177  0.6266701993285899  0.6453559208085956
  0.4574705669733215  0.1241049782202053  0.1029842351949829
  0.4584332898975867  0.1170674906366254  0.5991770662377898
  0.4575256395389123  0.6251228484011556  0.1033724003931097
  0.4568277163297854  0.6311020977035482  0.6012316841119352
  0.0450971677892342  0.3755792113593479  0.3553279784902028
  0.0434667074158651  0.3756250363133303  0.8550897909640419
  0.0415361733248886  0.8745460038947135  0.3570500725598479
  0.0396398507499435  0.8747419553073328  0.8450665712325161
  0.5431430737650550  0.3741828163881178  0.3959444972312093
  0.5419610946280397  0.3755186140011390  0.9057549224822773
  0.5509254854623815  0.8731025611103108  0.4037551723377246
  0.5431621818949605  0.8740955932662546  0.8971137773978429
  0.6647983931443877  0.0213964979774035  0.1164431732851377
  0.6672782675200777  0.0161513401172191  0.6009573294397944
  0.6667018814884215  0.5238150848005344  0.1078943145056937
  0.6638162856534058  0.5229773932925703  0.6078351897529934
  0.1612915905844638  0.2259109384815804  0.1431258118972816
  0.1631423360281534  0.2259876723170747  0.6417567914766746
  0.1648326576173748  0.7279350337739380  0.1414247486141617
  0.1645118168058997  0.7268864495453721  0.6395826754804955
  0.3338862341092709  0.2727622228685700  0.3890866431810187
  0.3260556543096542  0.2748703093380243  0.8999565320704926
  0.3408137364687587  0.7728011493352654  0.3891561571848524
  0.3339307452740438  0.7729733175485339  0.8919232861943902
  0.8359224065660369  0.4759308097208335  0.3587700309614310
  0.8341436486574922  0.4766401624911004  0.8579445444495954
  0.8294088329553441  0.9735813900271243  0.3649044663983386
  0.8324732184674603  0.9773848171077589  0.8605783426850687
  0.3348684866954402  0.4772570611526287  0.3863476980463795
  0.3298120650993913  0.4753087096654807  0.8974278561510964
  0.3412821580928403  0.9755856903098570  0.3894932454634848
  0.3341565502936062  0.9761820774172559  0.8920983115877944
  0.8378730596416142  0.2725757648964141  0.3569223874605592
  0.8351173463686153  0.2735902242734096  0.8592370323451739
  0.8294084974138151  0.7752251768318527  0.3646685146330327
  0.8319568361944745  0.7731604971168520  0.8614240194353479
  0.6667131024521721  0.2247177854895196  0.1073759098087341
  0.6738229812048355  0.2198630988932996  0.6011627956556859
  0.6650398448266873  0.7271865635335808  0.1151377816053687
  0.6691733591725991  0.7286709712979884  0.6025309348382969
  0.1654828240484321  0.0222318910383938  0.1418055001280275
  0.1647816983826933  0.0223921022615238  0.6400663465475704
  0.1618728199527943  0.5242770534095453  0.1421008986656865
  0.1631401812648529  0.5231705814167192  0.6416163856059365
 
             NaN             NaN             NaN
             NaN             NaN             NaN
             NaN             NaN             NaN
             NaN             NaN             NaN
             NaN             NaN             NaN
             NaN             NaN             NaN
             NaN             NaN             NaN
             NaN             NaN             NaN
             NaN             NaN             NaN
             NaN             NaN             NaN
             NaN             NaN             NaN
             NaN             NaN             NaN
             NaN             NaN             NaN
             NaN             NaN             NaN
             NaN             NaN             NaN
             NaN             NaN             NaN
             NaN             NaN             NaN
             NaN             NaN             NaN
             NaN             NaN             NaN
             NaN             NaN             NaN
             NaN             NaN             NaN
             NaN             NaN             NaN
             NaN             NaN             NaN
             NaN             NaN             NaN
             NaN             NaN             NaN
             NaN             NaN             NaN
             NaN             NaN             NaN
             NaN             NaN             NaN
             NaN             NaN             NaN
             NaN             NaN             NaN
             NaN             NaN             NaN
             NaN             NaN             NaN
             NaN             NaN             NaN
             NaN             NaN             NaN
             NaN             NaN             NaN
             NaN             NaN             NaN
             NaN             NaN             NaN
             NaN             NaN             NaN
             NaN             NaN             NaN
             NaN             NaN             NaN
             NaN             NaN             NaN
             NaN             NaN             NaN
             NaN             NaN             NaN
             NaN             NaN             NaN
             NaN             NaN             NaN
             NaN             NaN             NaN
             NaN             NaN             NaN
             NaN             NaN             NaN
             NaN             NaN             NaN
             NaN             NaN             NaN
             NaN             NaN             NaN
             NaN             NaN             NaN
             NaN             NaN             NaN
             NaN             NaN             NaN
             NaN             NaN             NaN
             NaN             NaN             NaN
             NaN             NaN             NaN
             NaN             NaN             NaN
             NaN             NaN             NaN
             NaN             NaN             NaN
             NaN             NaN             NaN
             NaN             NaN             NaN
             NaN             NaN             NaN
             NaN             NaN             NaN
             NaN             NaN             NaN
             NaN             NaN             NaN
             NaN             NaN             NaN
             NaN             NaN             NaN
             NaN             NaN             NaN
             NaN             NaN             NaN
             NaN             NaN             NaN
             NaN             NaN             NaN
             NaN             NaN             NaN
             NaN             NaN             NaN
             NaN             NaN             NaN
             NaN             NaN             NaN
             NaN             NaN             NaN
             NaN             NaN             NaN
             NaN             NaN             NaN
             NaN             NaN             NaN
             NaN             NaN             NaN
             NaN             NaN             NaN
             NaN             NaN             NaN
             NaN             NaN             NaN
             NaN             NaN             NaN
             NaN             NaN             NaN
             NaN             NaN             NaN
             NaN             NaN             NaN
             NaN             NaN             NaN
             NaN             NaN             NaN
             NaN             NaN             NaN
             NaN             NaN             NaN
             NaN             NaN             NaN
             NaN             NaN             NaN
             NaN             NaN             NaN
             NaN             NaN             NaN
             NaN             NaN             NaN
             NaN             NaN             NaN
             NaN             NaN             NaN
             NaN             NaN             NaN
             NaN             NaN             NaN
             NaN             NaN             NaN
             NaN             NaN             NaN
             NaN             NaN             NaN
             NaN             NaN             NaN
             NaN             NaN             NaN
             NaN             NaN             NaN
             NaN             NaN             NaN
             NaN             NaN             NaN
             NaN             NaN             NaN
             NaN             NaN             NaN
