Na47 P16 S64                            
   1.00000000000000     
    14.0068999999999999   -0.0048740000000000   -0.0000660000000000
    -0.0049270000000000   14.0139610000000001   -0.0000160000000000
    -0.0000430000000000   -0.0000550000000000   14.4190179999999994
   Na   P    S 
    47    16    64
Direct
  0.5653801605370148  0.7483828786017188  0.7312812552053995
  0.9997702035737972  0.2510440855745797  0.2039868475013071
  0.9992198451101181  0.2502063350592250  0.7034143614709940
  0.9986888813351097  0.7511313128505921  0.2096127577147417
  0.9775239661095269  0.7534653917273960  0.7155898032652307
  0.5001858105825903  0.2489558035758890  0.2047363897370539
  0.5008459642091990  0.2501321678214520  0.7042231521223206
  0.5011122251108622  0.7489931038849394  0.2108461208641745
  0.2486234338991279  0.9994007719017965  0.2942187672764098
  0.2491104673301961  0.9988751914906073  0.7942282662425334
  0.2516664103747908  0.5004297989911549  0.2966692797803252
  0.2501719886120461  0.5018547840714254  0.7964172157199809
  0.7483735381053277  0.9987376606885405  0.2923692427282195
  0.7470135568273297  0.9766349544449122  0.7859274467403385
  0.7512545136758703  0.5014818113780980  0.2898078278678102
  0.7553363180702658  0.5231491703152733  0.7839337606878912
  0.2529633182681418  0.9993717179311316  0.0441853874435967
  0.2431532814289353  0.9982743901148790  0.5448747392596309
  0.2468233201670590  0.5001568030538834  0.0468761124485060
  0.2565055320756178  0.5040785617134131  0.5484334221665640
  0.7526364635053214  1.0000323399094626  0.0403329673563294
  0.7442888166455592  0.9990675170052482  0.5401129413623554
  0.7464540418283364  0.5003461637749379  0.0377877432286168
  0.7579877050958638  0.4993750169207565  0.5373149535297821
  0.9996989899294678  0.2477656040972052  0.4535998978847538
  0.9977250894472779  0.2543781816597502  0.9522719737619172
  1.0002192847391278  0.7474827808331834  0.4617574717488535
  0.9997340296269557  0.7549953169803090  0.9606238197275755
  0.5003503976141795  0.2523225479032233  0.4543456443257087
  0.5020333278045326  0.2457112815903557  0.9529304823812303
  0.5000871548876816  0.7523165555643050  0.4671255000599813
  0.4992411780011475  0.7442794444128923  0.9630434823905012
  0.9918262877114724  0.9959156078707503  0.5017906850702206
  0.0039341371901682  0.0104024324384649  0.0009401259753701
  0.0121970344085648  0.4957599331919153  0.4988819016707542
  0.9955285748739520  0.5037993538525233  0.9979338401511670
  0.4887537523197680  0.0037828943663278  0.4984814517865953
  0.5059869650183403  0.9952157768839158  0.9984750517724866
  0.5065198549836748  0.5046234585329954  0.5021821609167587
  0.4929767914793803  0.4900805983658877  0.0026419614016943
  0.2495158151182007  0.2507462222795346  0.2499349821187305
  0.2493952213423932  0.2515230069158538  0.7499821275900143
  0.2503635201809722  0.7489534298216450  0.2507781384891623
  0.2694762427122662  0.7490829334810180  0.7482285495320419
  0.7505164303260955  0.2492956646186662  0.2490810931850077
  0.7506918644700344  0.2483692156559222  0.7510516787069510
  0.7494005131449836  0.7510834840036568  0.2494379954149279
  0.9994985105576311  0.0014313400173038  0.2496589359969843
  0.9993330617143665  0.0033007505745450  0.7522919180149082
  0.0015590573334229  0.4998020046459462  0.2498332158747648
  0.0030666176839785  0.4991989716609525  0.7475842943076170
  0.4988294109404811  0.0000561565277531  0.2499432034586678
  0.4973506334307038  1.0007849016819379  0.7476891188696267
  0.5001194167891687  0.4987630438242975  0.2503277317069698
  0.5006083199886110  0.4975652045620860  0.7531116872257591
  0.2498935678639795  0.2501778980187424  0.0001719216651884
  0.2498740037966259  0.2506420152121100  0.4996216742599796
  0.2501969562646535  0.7492540278886863  0.0013705086305146
  0.2496924115314900  0.7512469909943394  0.4992501743335224
  0.7500085173363883  0.2495562127277391 -0.0000940994770728
  0.7501091290143869  0.2495418971573661  0.4987396514625042
  0.7494250906058707  0.7493790224340330  0.0027355710638191
  0.7512908321132949  0.7495315633500770  0.4952184756694855
  0.1551376000475375  0.1744343185551114  0.0821216924877705
  0.1547513436165273  0.1754438050052051  0.5812137909084401
  0.1536090119899138  0.6762006515663710  0.0834777805967765
  0.1564397038449256  0.6765791930070215  0.5829989776851335
  0.6555045896723268  0.1735805532545886  0.0825209319291578
  0.6541283913763366  0.1758741420730137  0.5804840786594203
  0.6552560391074096  0.6736530673767419  0.0857978172339541
  0.6575131913110850  0.6694831870135367  0.5736783840507562
  0.3452213837007904  0.3252057797273194  0.0822388469810434
  0.3454571143570713  0.3255191988801922  0.5811825371507962
  0.3457089468119629  0.8238760017932826  0.0835362275302273
  0.3444685403259224  0.8279352231401240  0.5791087127775185
  0.8441655124051866  0.3264662067212380  0.0821029399992330
  0.8460049932138005  0.3236278833783505  0.5804131566031123
  0.8432413231926255  0.8268976651825906  0.0848357439217395
  0.8452311401765196  0.8274133330959276  0.5748877987893970
  0.1746332884479844  0.3458281065701880  0.4179212692588920
  0.1746690123891463  0.3457763594525209  0.9192363566243582
  0.1721880625782203  0.8434396127653853  0.4156655603808034
  0.1772571024093162  0.8437515815598605  0.9176354081113505
  0.6765346826239542  0.3452932700914284  0.4162096779757641
  0.6755041873422590  0.3439343617323282  0.9176451422350591
  0.6730130659955159  0.8434929589378020  0.4142601973747547
  0.6705970503883812  0.8434995729964527  0.9228235390516227
  0.3248092973724064  0.1555053857940422  0.4174448421072163
  0.3246930551734770  0.1553478549437825  0.9180235761665806
  0.3266119544417315  0.6562430384610388  0.4177982573280140
  0.3251119457768583  0.6521185369504410  0.9215927576244881
  0.8241700914661986  0.1533020422734025  0.4170028487341396
  0.8250962798489586  0.1541801028804322  0.9188314115410277
  0.8279622505432068  0.6567816718429279  0.4115233460443805
  0.8278793470195409  0.6550038297768599  0.9242968042588218
  0.0962787641199353  0.4241243536384689  0.1679141271183008
  0.1019341164362483  0.4220977148971176  0.6712050290384672
  0.0942366621762137  0.9265293864636949  0.1670090467645894
  0.0905271019152717  0.9239823975558299  0.6702092260672232
  0.5944929287691465  0.4234132495462246  0.1677247694431461
  0.5966719195687091  0.4259077636335415  0.6694983125758511
  0.5941526709132867  0.9250533705884355  0.1686328227870467
  0.5882443197483310  0.9291445103894123  0.6588915757239490
  0.4045180608477100  0.0751092546755666  0.1670711413986779
  0.3990002105138893  0.0779087103809425  0.6710355578765501
  0.4045965068024212  0.5739690863540390  0.1687191809715314
  0.4116424360819013  0.5811646137332734  0.6731046739350373
  0.9045682410630751  0.0772082851486673  0.1681349755930142
  0.9015387374099524  0.0750004066166999  0.6703347242280625
  0.9070767070571053  0.5744331286306936  0.1674151252472121
  0.9132737708246400  0.5721413325975756  0.6590997586447379
  0.0751224834364537  0.0957087001824996  0.3321758773554767
  0.0774892835151237  0.1014314966385215  0.8285768376157697
  0.0771020934675128  0.5947153794076724  0.3316379849238797
  0.0738293699384614  0.5954226515940404  0.8314460532974990
  0.5736077295608496  0.0953131629112545  0.3321906134849962
  0.5774258759837907  0.0928148057858234  0.8286372209647908
  0.5750999115709522  0.5934847772461860  0.3320013420198263
  0.5749691205993562  0.5836018790957379  0.8447801542920428
  0.4250725137106422  0.4038583022688599  0.3326247525159315
  0.4214444415798612  0.3992200961613732  0.8282074032843465
  0.4232798076054611  0.9053667289195786  0.3318721135201356
  0.4265799216592865  0.9039042981628898  0.8309263637921187
  0.9260549048280524  0.4050982709778692  0.3320656720048085
  0.9224087479143597  0.4067293004612932  0.8277388118639872
  0.9247130979311718  0.9063085767933573  0.3312687555371375
  0.9277298401265233  0.9124482611530895  0.8408270272032479
 
             NaN             NaN             NaN
             NaN             NaN             NaN
             NaN             NaN             NaN
             NaN             NaN             NaN
             NaN             NaN             NaN
             NaN             NaN             NaN
             NaN             NaN             NaN
             NaN             NaN             NaN
             NaN             NaN             NaN
             NaN             NaN             NaN
             NaN             NaN             NaN
             NaN             NaN             NaN
             NaN             NaN             NaN
             NaN             NaN             NaN
             NaN             NaN             NaN
             NaN             NaN             NaN
             NaN             NaN             NaN
             NaN             NaN             NaN
             NaN             NaN             NaN
             NaN             NaN             NaN
             NaN             NaN             NaN
             NaN             NaN             NaN
             NaN             NaN             NaN
             NaN             NaN             NaN
             NaN             NaN             NaN
             NaN             NaN             NaN
             NaN             NaN             NaN
             NaN             NaN             NaN
             NaN             NaN             NaN
             NaN             NaN             NaN
             NaN             NaN             NaN
             NaN             NaN             NaN
             NaN             NaN             NaN
             NaN             NaN             NaN
             NaN             NaN             NaN
             NaN             NaN             NaN
             NaN             NaN             NaN
             NaN             NaN             NaN
             NaN             NaN             NaN
             NaN             NaN             NaN
             NaN             NaN             NaN
             NaN             NaN             NaN
             NaN             NaN             NaN
             NaN             NaN             NaN
             NaN             NaN             NaN
             NaN             NaN             NaN
             NaN             NaN             NaN
             NaN             NaN             NaN
             NaN             NaN             NaN
             NaN             NaN             NaN
             NaN             NaN             NaN
             NaN             NaN             NaN
             NaN             NaN             NaN
             NaN             NaN             NaN
             NaN             NaN             NaN
             NaN             NaN             NaN
             NaN             NaN             NaN
             NaN             NaN             NaN
             NaN             NaN             NaN
             NaN             NaN             NaN
             NaN             NaN             NaN
             NaN             NaN             NaN
             NaN             NaN             NaN
             NaN             NaN             NaN
             NaN             NaN             NaN
             NaN             NaN             NaN
             NaN             NaN             NaN
             NaN             NaN             NaN
             NaN             NaN             NaN
             NaN             NaN             NaN
             NaN             NaN             NaN
             NaN             NaN             NaN
             NaN             NaN             NaN
             NaN             NaN             NaN
             NaN             NaN             NaN
             NaN             NaN             NaN
             NaN             NaN             NaN
             NaN             NaN             NaN
             NaN             NaN             NaN
             NaN             NaN             NaN
             NaN             NaN             NaN
             NaN             NaN             NaN
             NaN             NaN             NaN
             NaN             NaN             NaN
             NaN             NaN             NaN
             NaN             NaN             NaN
             NaN             NaN             NaN
             NaN             NaN             NaN
             NaN             NaN             NaN
             NaN             NaN             NaN
             NaN             NaN             NaN
             NaN             NaN             NaN
             NaN             NaN             NaN
             NaN             NaN             NaN
             NaN             NaN             NaN
             NaN             NaN             NaN
             NaN             NaN             NaN
             NaN             NaN             NaN
             NaN             NaN             NaN
             NaN             NaN             NaN
             NaN             NaN             NaN
             NaN             NaN             NaN
             NaN             NaN             NaN
             NaN             NaN             NaN
             NaN             NaN             NaN
             NaN             NaN             NaN
             NaN             NaN             NaN
             NaN             NaN             NaN
             NaN             NaN             NaN
             NaN             NaN             NaN
             NaN             NaN             NaN
             NaN             NaN             NaN
             NaN             NaN             NaN
             NaN             NaN             NaN
             NaN             NaN             NaN
             NaN             NaN             NaN
             NaN             NaN             NaN
             NaN             NaN             NaN
             NaN             NaN             NaN
             NaN             NaN             NaN
             NaN             NaN             NaN
             NaN             NaN             NaN
             NaN             NaN             NaN
             NaN             NaN             NaN
             NaN             NaN             NaN
             NaN             NaN             NaN
             NaN             NaN             NaN
