Na47 P16 S64
1.0
14.006900 -0.004874 -0.000066
-0.004927 14.013961 -0.000016
-0.000043 -0.000055 14.419018
Na P S
47 16 64
direct
0.568178 0.746725 0.725772 Na
0.999864 0.250980 0.203928 Na
0.999277 0.250128 0.703351 Na
0.998915 0.750883 0.209578 Na
0.977137 0.753349 0.715967 Na
0.500142 0.249015 0.204609 Na
0.500731 0.249873 0.704159 Na
0.501086 0.749119 0.210192 Na
0.248764 0.999541 0.294396 Na
0.249162 0.998747 0.794136 Na
0.251597 0.500335 0.296677 Na
0.250291 0.502104 0.796296 Na
0.748501 0.998724 0.292218 Na
0.746485 0.975750 0.785769 Na
0.751133 0.501410 0.289940 Na
0.754062 0.523388 0.783619 Na
0.253156 0.999356 0.044113 Na
0.243677 0.998223 0.545246 Na
0.247107 0.500229 0.046716 Na
0.255843 0.503251 0.548022 Na
0.753141 0.999981 0.040491 Na
0.743507 0.998562 0.540610 Na
0.746603 0.500433 0.037893 Na
0.756966 0.499973 0.537833 Na
0.999678 0.247784 0.453646 Na
0.997828 0.254342 0.952243 Na
0.999889 0.747538 0.461633 Na
0.999635 0.754986 0.960937 Na
0.500322 0.252216 0.454434 Na
0.502171 0.245656 0.952726 Na
0.500107 0.752465 0.466590 Na
0.500366 0.745011 0.959017 Na
0.992121 0.996012 0.501837 Na
0.004220 0.010009 0.001011 Na
0.011595 0.495755 0.498779 Na
0.995754 0.503607 0.997952 Na
0.489891 0.003556 0.499023 Na
0.506201 0.995199 0.998487 Na
0.506372 0.504677 0.502087 Na
0.493827 0.491184 0.001550 Na
0.249591 0.250667 0.249911 Na
0.249551 0.251390 0.750042 Na
0.250460 0.749136 0.250697 Na
0.267190 0.749919 0.749241 Na
0.750413 0.249342 0.249166 Na
0.750460 0.248600 0.751006 Na
0.749543 0.750871 0.249952 Na
-0.000310 0.001338 0.249945 P
0.999305 0.002968 0.752225 P
0.001506 0.499693 0.249676 P
0.002784 0.499393 0.747640 P
0.498794 0.000201 0.250039 P
0.497527 0.999960 0.747934 P
0.499999 0.498767 0.250308 P
0.500382 0.497671 0.752519 P
0.249894 0.250251 0.000099 P
0.249871 0.250473 0.499724 P
0.250149 0.749548 0.001353 P
0.249553 0.750611 0.499302 P
0.750107 0.249746 0.000038 P
0.750131 0.249530 0.498772 P
0.749849 0.750447 0.003774 P
0.750440 0.749391 0.495867 P
0.155080 0.174414 0.081966 S
0.154650 0.175276 0.581277 S
0.153788 0.676001 0.083393 S
0.155353 0.675484 0.581499 S
0.655649 0.173627 0.082526 S
0.654141 0.175681 0.580534 S
0.655757 0.673757 0.086075 S
0.656401 0.670206 0.574649 S
0.345077 0.325335 0.082245 S
0.345373 0.325253 0.581310 S
0.345886 0.823824 0.083418 S
0.343816 0.826983 0.580282 S
0.844199 0.326621 0.082243 S
0.845851 0.323801 0.580490 S
0.844575 0.826417 0.086045 S
0.844424 0.827336 0.575867 S
0.174555 0.345765 0.418071 S
0.174630 0.345812 0.919091 S
0.172767 0.843728 0.416055 S
0.176687 0.844451 0.918509 S
0.676424 0.345329 0.416393 S
0.675375 0.344100 0.917767 S
0.672904 0.843616 0.414358 S
0.671581 0.846007 0.925525 S
0.324804 0.155511 0.417431 S
0.324772 0.155462 0.918044 S
0.326938 0.656305 0.417775 S
0.324825 0.652844 0.920950 S
0.824216 0.153400 0.417034 S
0.825226 0.154618 0.918817 S
0.827386 0.656352 0.412645 S
0.826910 0.656692 0.923087 S
0.096398 0.424075 0.167949 S
0.101447 0.422235 0.671207 S
0.094399 0.926347 0.167450 S
0.090465 0.923405 0.670330 S
0.594460 0.423571 0.167657 S
0.596682 0.425762 0.669315 S
0.594002 0.925262 0.168589 S
0.587554 0.926019 0.660504 S
0.404387 0.075305 0.167320 S
0.399934 0.077239 0.670410 S
0.404618 0.574046 0.168751 S
0.409062 0.578157 0.671573 S
0.904759 0.077050 0.168291 S
0.901930 0.074774 0.670111 S
0.906984 0.574346 0.167284 S
0.912912 0.572424 0.659269 S
0.075257 0.095811 0.332275 S
0.077563 0.100870 0.828675 S
0.076845 0.594708 0.331584 S
0.073699 0.595655 0.831437 S
0.573776 0.095366 0.332221 S
0.577989 0.092355 0.828242 S
0.575049 0.593422 0.332134 S
0.574043 0.586500 0.841639 S
0.425013 0.403765 0.332571 S
0.422271 0.399633 0.829010 S
0.423306 0.905484 0.331982 S
0.425041 0.905490 0.832431 S
0.925951 0.405053 0.331919 S
0.922180 0.407136 0.827908 S
0.924794 0.906384 0.331731 S
0.927218 0.912352 0.840635 S
