Li47 P16 O64                            
   1.00000000000000     
    10.4320120000000003    0.0007250000000000   -0.0066070000000000
     0.0008350000000000   12.1595569999999995   -0.0035920000000000
    -0.0062290000000000   -0.0028830000000000    9.7967800000000000
   Li   P    O 
    47    16    64
Direct
  0.4633362201048070  0.3331576725352036  0.0845847672403823
  0.6644677966408239  0.2504615095087997  0.6041025976506964
  0.6648211409381533  0.7512624578929319  0.0975275981616465
  0.6646982928211279  0.7524069472136717  0.5987752286188740
  0.1663580788565159  0.4981752317716949  0.1512951036405572
  0.1647198127907833  0.4994766811391093  0.6524043025839329
  0.1646759811545798  0.9940558367193031  0.1551899953174048
  0.1644822684407354  0.9980717330016214  0.6519969056987233
  0.3357977917543513  0.9995332404526877  0.4033730583121549
  0.3366340858625778  0.9999431272560489  0.9021037956570961
  0.3365137355532893  0.5012362833516468  0.3994062741578889
  0.3382418555041084  0.4976436347383068  0.9078065775046759
  0.8337941534732256  0.2495553715685810  0.3467819786494792
  0.8371992511191405  0.2496467803658041  0.8512581857568331
  0.8361107237019793  0.7489693036969289  0.3480422541906341
  0.8363062811822853  0.7491815105612236  0.8478130694159516
  0.3356820762771554  0.2491111084227536  0.4015149479273788
  0.3322301977473117  0.2471712687749620  0.8979834157004855
  0.3364841259903786  0.7493678777107627  0.4019392997656168
  0.3363053904782732  0.7487364415158572  0.9027654730611412
  0.8360944627610875  0.0011733464356416  0.3491293959737534
  0.8355120846113836  0.0011641982737715  0.8474136097839630
  0.8347363514567916  0.5019639133538623  0.3478895184344482
  0.8359019051740422  0.5013676413427177  0.8481063314046504
  0.6642371824884223  0.4973765471287920  0.0954370196056122
  0.6647668932990555  0.5034367420873762  0.6000051762572191
  0.6646584708279497  0.0028938345876282  0.1002930399099183
  0.6639510449473811  0.0006513831773233  0.5972377597854069
  0.1648074258212447  0.2521855448597928  0.1512306322152600
  0.1630178920951818  0.2506278879179382  0.6515651171417718
  0.1649969053875887  0.7501915063542640  0.1516233575097330
  0.1641141028066362  0.7508089517952019  0.6530118143398077
  0.9210239886718546  0.3772516391455150  0.1463242340527590
  0.9233019665158591  0.3754662739787255  0.6493339731614906
  0.9230603856893056  0.8745063787069641  0.1492805645422259
  0.9232712497872108  0.8752980418200104  0.6486947757392592
  0.4199001440820714  0.3761250605424453  0.6011465961247245
  0.4266750689250617  0.8737092326937225  0.1004896869841671
  0.4247325920280856  0.8752085213519305  0.6018544641684218
  0.0774259598195114  0.1242343619321585  0.3527435747695595
  0.0772850584354548  0.1242833987435871  0.8500859405244660
  0.0764974795643088  0.6246270793557896  0.3504136268312320
  0.0773819196193263  0.6242942018817428  0.8522068546578599
  0.5759961526621672  0.1267847149801186  0.3949515372252685
  0.5795377757419826  0.1289456922088869  0.9068167701552677
  0.5766875931819655  0.6267428782647189  0.4008668836355115
  0.5757734164519041  0.6252211096476545  0.8985722678768269
  0.9150528343502342  0.1238062868262753  0.0954927037116005
  0.9124591307169374  0.1252139506332635  0.5951208460343603
  0.9119349318904864  0.6255551081969835  0.0953125022734539
  0.9125328615051576  0.6253579612122885  0.5954708798583146
  0.4083572140139632  0.1193673880925456  0.1544681038113640
  0.4121364313738067  0.1247478944185371  0.6547197326517273
  0.4129339938477058  0.6254793800967509  0.1544781977763596
  0.4111977519565843  0.6257940566528003  0.6551133938970068
  0.0877012307798151  0.3755601987052852  0.4046690716522725
  0.0878954522338214  0.3754089314471972  0.9045551166648711
  0.0878872994803459  0.8740392525236635  0.4053620924382001
  0.0880348004366193  0.8746034144146945  0.9047482528074596
  0.5890556180356638  0.3775356303078808  0.3507196487396367
  0.5887446923208838  0.3746408018929628  0.8385517023936790
  0.5890463535050835  0.8755775707631097  0.3454574742312765
  0.5891883748365297  0.8757773873265416  0.8454628315307064
  0.8431820054700169  0.0219454767258901  0.1482468429867057
  0.8415745422938605  0.0220185984806586  0.6466981714169964
  0.8405982719335245  0.5228180496217488  0.1470840576312253
  0.8421773586956340  0.5222190019739855  0.6476572564576583
  0.3370308174353606  0.2211814448065623  0.0987910488880308
  0.3407013686895533  0.2282142188093473  0.6038200991916268
  0.3438746940495171  0.7308005403438832  0.1051086914149391
  0.3412185305450653  0.7297856028672089  0.6043810559243168
  0.1571420777619909  0.2716175259767945  0.3526989821652124
  0.1565075179407405  0.2712919875472308  0.8519477364181147
  0.1583273869252748  0.7709047995055243  0.3530842899400660
  0.1584219899742731  0.7709862329767606  0.8537620581841348
  0.6587476998613666  0.4806446745112167  0.4040741979281259
  0.6576590927093963  0.4774802685980455  0.8941422012209790
  0.6585563704152199  0.9795969790347507  0.3968229433876526
  0.6591945486205361  0.9787779424223474  0.8985870495534074
  0.1585176837804032  0.4784522710263812  0.3528581963155772
  0.1596963080525647  0.4779941484268042  0.8528149477785617
  0.1583481862698727  0.9776174947518410  0.3547018832216437
  0.1588152540911759  0.9777802353465084  0.8531994836977782
  0.6585709697232718  0.2736461000180916  0.4015838017809472
  0.6601460168677380  0.2697554019518920  0.8782429112873260
  0.6596860233926984  0.7724884920363709  0.3979546434047752
  0.6590222185518481  0.7716719614213517  0.8961788482980461
  0.8547005408780820  0.2295636975562977  0.1507781352415221
  0.8435764029132984  0.2288964846808367  0.6475462983998719
  0.8421133486324474  0.7292562326740617  0.1469652923851242
  0.8421418038674737  0.7288734307689353  0.6468547261177039
  0.3388508481588682  0.0146012026895804  0.1057345762885362
  0.3416885819256094  0.0211992606210975  0.6032613805205911
  0.3403432165825278  0.5246638412892859  0.1019953629585622
  0.3411912979279685  0.5230765902335325  0.6008830096517083
  0.5454974530813270  0.1210064419925219  0.1020109216411240
  0.5500487108054023  0.1257756268368170  0.6002313385968532
  0.5518223526606797  0.6254373013347504  0.1016819750409620
  0.5504578873180931  0.6274328965930914  0.6042033238177009
  0.0551147446020746  0.1215337836960289  0.1461394052061765
  0.0517395169756173  0.1240182562131178  0.6465709991628730
  0.0509304279157728  0.6247075319776816  0.1473018751234974
  0.0514078186175905  0.6251480325347311  0.6477725390288940
  0.4496384130682549  0.3751990553822851  0.4011436894114094
  0.4508444603818877  0.3706648341700394  0.8939056185111371
  0.4502083763527786  0.8749498481985272  0.3976976935186406
  0.4500328665821067  0.8748351545107250  0.8967331463179451
  0.9484564541452390  0.3760693759095981  0.3532870937080554
  0.9489284917192927  0.3764441658084268  0.8525232054760692
  0.9490082971722226  0.8746787469905591  0.3529979186173295
  0.9492536727510511  0.8751047832630381  0.8519384524530299
  0.5920778110339868  0.3805069331793176  0.1950051156926764
  0.5856948819586381  0.3801860914587514  0.6814356903571885
  0.5907552301179929  0.8753737054326036  0.1881823994299580
  0.5903393168818768  0.8767056229588761  0.6880553134030462
  0.0885145428152812  0.3753004345121219  0.0617097283123224
  0.0891173689238542  0.3753230989573607  0.5620494691990722
  0.0878028076067333  0.8740489132832820  0.0621060508267681
  0.0885471043230818  0.8738863732648674  0.5626545294238710
  0.4070749562058602  0.1235605123706745  0.3119611407546998
  0.4126000064069029  0.1242271049014260  0.8119418333835388
  0.4132613166023806  0.6253989230579479  0.3122055241673989
  0.4097701975341407  0.6237056780494507  0.8124701059732764
  0.9111253197380523  0.1254890226484194  0.4377764063892175
  0.9125601059350179  0.1239948138783795  0.9384287188917293
  0.9116076758607004  0.6250944268955640  0.4380916939967318
  0.9110896738829938  0.6253572748443360  0.9378843076371129
 
             NaN             NaN             NaN
             NaN             NaN             NaN
             NaN             NaN             NaN
             NaN             NaN             NaN
             NaN             NaN             NaN
             NaN             NaN             NaN
             NaN             NaN             NaN
             NaN             NaN             NaN
             NaN             NaN             NaN
             NaN             NaN             NaN
             NaN             NaN             NaN
             NaN             NaN             NaN
             NaN             NaN             NaN
             NaN             NaN             NaN
             NaN             NaN             NaN
             NaN             NaN             NaN
             NaN             NaN             NaN
             NaN             NaN             NaN
             NaN             NaN             NaN
             NaN             NaN             NaN
             NaN             NaN             NaN
             NaN             NaN             NaN
             NaN             NaN             NaN
             NaN             NaN             NaN
             NaN             NaN             NaN
             NaN             NaN             NaN
             NaN             NaN             NaN
             NaN             NaN             NaN
             NaN             NaN             NaN
             NaN             NaN             NaN
             NaN             NaN             NaN
             NaN             NaN             NaN
             NaN             NaN             NaN
             NaN             NaN             NaN
             NaN             NaN             NaN
             NaN             NaN             NaN
             NaN             NaN             NaN
             NaN             NaN             NaN
             NaN             NaN             NaN
             NaN             NaN             NaN
             NaN             NaN             NaN
             NaN             NaN             NaN
             NaN             NaN             NaN
             NaN             NaN             NaN
             NaN             NaN             NaN
             NaN             NaN             NaN
             NaN             NaN             NaN
             NaN             NaN             NaN
             NaN             NaN             NaN
             NaN             NaN             NaN
             NaN             NaN             NaN
             NaN             NaN             NaN
             NaN             NaN             NaN
             NaN             NaN             NaN
             NaN             NaN             NaN
             NaN             NaN             NaN
             NaN             NaN             NaN
             NaN             NaN             NaN
             NaN             NaN             NaN
             NaN             NaN             NaN
             NaN             NaN             NaN
             NaN             NaN             NaN
             NaN             NaN             NaN
             NaN             NaN             NaN
             NaN             NaN             NaN
             NaN             NaN             NaN
             NaN             NaN             NaN
             NaN             NaN             NaN
             NaN             NaN             NaN
             NaN             NaN             NaN
             NaN             NaN             NaN
             NaN             NaN             NaN
             NaN             NaN             NaN
             NaN             NaN             NaN
             NaN             NaN             NaN
             NaN             NaN             NaN
             NaN             NaN             NaN
             NaN             NaN             NaN
             NaN             NaN             NaN
             NaN             NaN             NaN
             NaN             NaN             NaN
             NaN             NaN             NaN
             NaN             NaN             NaN
             NaN             NaN             NaN
             NaN             NaN             NaN
             NaN             NaN             NaN
             NaN             NaN             NaN
             NaN             NaN             NaN
             NaN             NaN             NaN
             NaN             NaN             NaN
             NaN             NaN             NaN
             NaN             NaN             NaN
             NaN             NaN             NaN
             NaN             NaN             NaN
             NaN             NaN             NaN
             NaN             NaN             NaN
             NaN             NaN             NaN
             NaN             NaN             NaN
             NaN             NaN             NaN
             NaN             NaN             NaN
             NaN             NaN             NaN
             NaN             NaN             NaN
             NaN             NaN             NaN
             NaN             NaN             NaN
             NaN             NaN             NaN
             NaN             NaN             NaN
             NaN             NaN             NaN
             NaN             NaN             NaN
             NaN             NaN             NaN
             NaN             NaN             NaN
             NaN             NaN             NaN
             NaN             NaN             NaN
             NaN             NaN             NaN
             NaN             NaN             NaN
             NaN             NaN             NaN
             NaN             NaN             NaN
             NaN             NaN             NaN
             NaN             NaN             NaN
             NaN             NaN             NaN
             NaN             NaN             NaN
             NaN             NaN             NaN
             NaN             NaN             NaN
             NaN             NaN             NaN
             NaN             NaN             NaN
             NaN             NaN             NaN
             NaN             NaN             NaN
             NaN             NaN             NaN
