Li47 P16 O64                            
   1.00000000000000     
    10.5757659999999998    0.0006670000000000   -0.0045670000000000
     0.0007790000000000   12.3256969999999999   -0.0018840000000000
    -0.0042950000000000   -0.0014990000000000    9.9840260000000001
   Li   P    O 
    47    16    64
Direct
  0.5258461972314940  0.2863883234507018  0.0688205821132142
  0.6644435532201634  0.2504433140545824  0.6013953454051161
  0.6641522496972417  0.7516717675872199  0.0985511333589967
  0.6643853205450613  0.7517307943714223  0.5996401201256295
  0.1635378874631350  0.4978012579438141  0.1509323837352945
  0.1644857890988233  0.4992106808161962  0.6515659111562656
  0.1643162820380966  0.9940733800218953  0.1541289417849931
  0.1637256175558381  0.9985833381296108  0.6515046907277461
  0.3361520805320471  0.9996033620452577  0.4023709774827971
  0.3363723093093109  0.0005005237901264  0.9011661628513901
  0.3372144279028224  0.5010842928765727  0.3980843905997719
  0.3387214760645316  0.4968023971638535  0.9089167668758291
  0.8347587077984274  0.2493441474139536  0.3476767342702650
  0.8344172837348124  0.2500286198502078  0.8549408423657762
  0.8367321992671237  0.7489267156453178  0.3494288731089265
  0.8369287075594839  0.7489639849608003  0.8490166570639132
  0.3370946203489347  0.2493860448897353  0.3976813421380342
  0.3328159459423052  0.2505836546542345  0.9016523885035331
  0.3366761230521556  0.7499058992043770  0.4015186894772343
  0.3370030905766378  0.7497273794368543  0.9014877273248941
  0.8368507713311706  0.0014794313606551  0.3507249116520563
  0.8369840533314785  0.0011909091915996  0.8489373870212041
  0.8354595802310991  0.5020377583616285  0.3487477901694422
  0.8363866929126857  0.5017422924052354  0.8491127864087398
  0.6607075143841386  0.4974244223273455  0.0962677301945664
  0.6648223556479562  0.5018873832630230  0.5996717549466239
  0.6649049979576873  0.0036357852254286  0.1009569875927539
  0.6640472581491775  0.9999706356539551  0.5985351859139501
  0.1671946774240799  0.2528549014310774  0.1492490803648970
  0.1631651060178915  0.2506416027305316  0.6509162354091853
  0.1633615681448829  0.7511489638477385  0.1516089626763340
  0.1639393798620395  0.7509573151952890  0.6521887999237691
  0.9225976243613577  0.3766758012017174  0.1463959312835928
  0.9249413762947511  0.3747527972755917  0.6498731428794425
  0.9244114368794772  0.8746738375628397  0.1497456890746626
  0.9251245755392704  0.8751677781109052  0.6490897388061252
  0.4234011290438127  0.3760636480891030  0.6024301681149872
  0.4296829661700756  0.8763410507382976  0.1004269189908440
  0.4264804489742020  0.8751328043849990  0.6020885016723762
  0.0754864776434163  0.1245293350559298  0.3523261605887324
  0.0751344263551061  0.1250088122789848  0.8511775655374487
  0.0749276748240126  0.6246457829271587  0.3511043407513860
  0.0759898782509477  0.6242768871234232  0.8526426495289852
  0.5741758190886035  0.1259460493387111  0.3960422257008942
  0.5783651794908121  0.1243041520144930  0.8995188885516968
  0.5747439837324496  0.6262102017183349  0.4005364070816616
  0.5735654597147242  0.6251513670305593  0.8973373494372019
  0.9150698792921789  0.1244448926651733  0.0979384453265313
  0.9116806161867738  0.1251920382760918  0.5972777536929287
  0.9106478185331710  0.6255348632318912  0.0969488553117308
  0.9123051615370142  0.6252550881480501  0.5970780655013794
  0.4068385067089543  0.1182558646272808  0.1527184436372965
  0.4111943634321943  0.1251040331219699  0.6535320202344918
  0.4103751492194301  0.6295772651896113  0.1530929688953201
  0.4107608519331398  0.6256843023553108  0.6540922060747578
  0.0884910432626939  0.3752967093664730  0.4033526805167780
  0.0876978817640093  0.3751335930582770  0.9032606738114125
  0.0882817224893271  0.8743816904058300  0.4048416451361920
  0.0883544813197005  0.8747812270485238  0.9039340053028412
  0.5899038925085304  0.3770376873064862  0.3503398260263998
  0.5887682360229768  0.3757967088802592  0.8399039610642719
  0.5899020534306655  0.8756292780260587  0.3472201057843698
  0.5901288090644989  0.8754180610143325  0.8463202705620030
  0.8432849083838764  0.0225999232463587  0.1502982454670604
  0.8415000145435916  0.0216981495269426  0.6481427448254673
  0.8393372039928881  0.5227600244535011  0.1477529641492858
  0.8423588527595369  0.5221137254818368  0.6486942729399718
  0.3385068947637796  0.2202814582583001  0.0972588286465455
  0.3408817080496473  0.2282544100440107  0.6013272557865007
  0.3441475251276120  0.7365631417842345  0.1061492846433054
  0.3410728210360580  0.7295170906776681  0.6031073651786160
  0.1575632766721690  0.2715276320268901  0.3514180587447776
  0.1567047390708559  0.2713787042384039  0.8513011104004733
  0.1584521126882399  0.7712810633693440  0.3529566765771794
  0.1589136526052747  0.7713935090191452  0.8534408908987342
  0.6594567143603134  0.4799492660487828  0.4038297048384380
  0.6579635249898933  0.4789000083261063  0.8937395235391802
  0.6593989948407079  0.9792950615568347  0.3987296825003218
  0.6606399341693804  0.9781707594898902  0.8987589663222146
  0.1590767857579066  0.4781804077481008  0.3520668441525412
  0.1587906601040538  0.4777517292314561  0.8516826276664566
  0.1583623718546033  0.9778166898443772  0.3541061143643590
  0.1587177889996253  0.9779923452455682  0.8528096733997500
  0.6585085059235205  0.2727870875210611  0.4013645937912195
  0.6560942524837535  0.2715156525296156  0.8907468970181501
  0.6600044342509352  0.7722948681667331  0.3988415759158289
  0.6592950461522279  0.7714796254394509  0.8973216132707769
  0.8547201656283434  0.2296981481884723  0.1530823970237683
  0.8419898142151844  0.2282387651291140  0.6497273329281105
  0.8409155453775120  0.7292193424152293  0.1480276876993063
  0.8419885416971810  0.7286288478995959  0.6481076242550986
  0.3385543778907358  0.0132998001075290  0.1048767536423077
  0.3412827849453923  0.0214451066016542  0.6025041672670862
  0.3316253319488079  0.5343153035487997  0.0976031339099925
  0.3412050373721845  0.5228629260928023  0.6003135409432621
  0.5442997815170647  0.1224695813643687  0.0985034128583654
  0.5496141360792525  0.1253826221780087  0.6008098129148257
  0.5482524569560425  0.6263946347816303  0.0990814867268921
  0.5497436342754414  0.6267660495642327  0.6029728395469236
  0.0550031631235568  0.1216648109831939  0.1474463106508406
  0.0505480171629323  0.1244516176069228  0.6489349718455418
  0.0489759798230001  0.6250448732443111  0.1499256294645531
  0.0508735290753258  0.6253001657538761  0.6493572450354802
  0.4509666664367762  0.3754139119544335  0.4016281908270545
  0.4509906181784932  0.3724997433729842  0.8930376636729576
  0.4513395371209974  0.8750478014532855  0.3992896441348019
  0.4513118304160245  0.8755601007009994  0.8974216029003153
  0.9495774561661948  0.3760370644652856  0.3519630172018318
  0.9488625185355865  0.3757351960332433  0.8515359559356102
  0.9497269997500176  0.8747958778979992  0.3524324233359676
  0.9500596921031789  0.8749871387034314  0.8507736632719063
  0.5926657999468724  0.3794042273017749  0.1958591920216541
  0.5899605660949986  0.3777194114498433  0.6838503099987273
  0.5918446650903669  0.8761070553702121  0.1908836249070821
  0.5910948703674594  0.8760483038075583  0.6899683356664369
  0.0881233019253409  0.3750432808777899  0.0594129366662792
  0.0894840245444428  0.3749267689022606  0.5597013802211654
  0.0873252432896908  0.8742846852176945  0.0602485163260823
  0.0889506390826211  0.8742888493539336  0.5611262170786568
  0.4079196074903182  0.1220891136265844  0.3092159427203001
  0.4107943705451760  0.1253051332818416  0.8098015904392885
  0.4121442749158926  0.6263728094148391  0.3094683455705071
  0.4090894841538608  0.6243583744342152  0.8103487326573230
  0.9109181527791715  0.1257228413831935  0.4408837274960413
  0.9116481049565989  0.1246351652500279  0.9418153081320153
  0.9115631836477820  0.6251005144009245  0.4406678230879393
  0.9110252489430373  0.6255061732865983  0.9405333421080321
 
             NaN             NaN             NaN
             NaN             NaN             NaN
             NaN             NaN             NaN
             NaN             NaN             NaN
             NaN             NaN             NaN
             NaN             NaN             NaN
             NaN             NaN             NaN
             NaN             NaN             NaN
             NaN             NaN             NaN
             NaN             NaN             NaN
             NaN             NaN             NaN
             NaN             NaN             NaN
             NaN             NaN             NaN
             NaN             NaN             NaN
             NaN             NaN             NaN
             NaN             NaN             NaN
             NaN             NaN             NaN
             NaN             NaN             NaN
             NaN             NaN             NaN
             NaN             NaN             NaN
             NaN             NaN             NaN
             NaN             NaN             NaN
             NaN             NaN             NaN
             NaN             NaN             NaN
             NaN             NaN             NaN
             NaN             NaN             NaN
             NaN             NaN             NaN
             NaN             NaN             NaN
             NaN             NaN             NaN
             NaN             NaN             NaN
             NaN             NaN             NaN
             NaN             NaN             NaN
             NaN             NaN             NaN
             NaN             NaN             NaN
             NaN             NaN             NaN
             NaN             NaN             NaN
             NaN             NaN             NaN
             NaN             NaN             NaN
             NaN             NaN             NaN
             NaN             NaN             NaN
             NaN             NaN             NaN
             NaN             NaN             NaN
             NaN             NaN             NaN
             NaN             NaN             NaN
             NaN             NaN             NaN
             NaN             NaN             NaN
             NaN             NaN             NaN
             NaN             NaN             NaN
             NaN             NaN             NaN
             NaN             NaN             NaN
             NaN             NaN             NaN
             NaN             NaN             NaN
             NaN             NaN             NaN
             NaN             NaN             NaN
             NaN             NaN             NaN
             NaN             NaN             NaN
             NaN             NaN             NaN
             NaN             NaN             NaN
             NaN             NaN             NaN
             NaN             NaN             NaN
             NaN             NaN             NaN
             NaN             NaN             NaN
             NaN             NaN             NaN
             NaN             NaN             NaN
             NaN             NaN             NaN
             NaN             NaN             NaN
             NaN             NaN             NaN
             NaN             NaN             NaN
             NaN             NaN             NaN
             NaN             NaN             NaN
             NaN             NaN             NaN
             NaN             NaN             NaN
             NaN             NaN             NaN
             NaN             NaN             NaN
             NaN             NaN             NaN
             NaN             NaN             NaN
             NaN             NaN             NaN
             NaN             NaN             NaN
             NaN             NaN             NaN
             NaN             NaN             NaN
             NaN             NaN             NaN
             NaN             NaN             NaN
             NaN             NaN             NaN
             NaN             NaN             NaN
             NaN             NaN             NaN
             NaN             NaN             NaN
             NaN             NaN             NaN
             NaN             NaN             NaN
             NaN             NaN             NaN
             NaN             NaN             NaN
             NaN             NaN             NaN
             NaN             NaN             NaN
             NaN             NaN             NaN
             NaN             NaN             NaN
             NaN             NaN             NaN
             NaN             NaN             NaN
             NaN             NaN             NaN
             NaN             NaN             NaN
             NaN             NaN             NaN
             NaN             NaN             NaN
             NaN             NaN             NaN
             NaN             NaN             NaN
             NaN             NaN             NaN
             NaN             NaN             NaN
             NaN             NaN             NaN
             NaN             NaN             NaN
             NaN             NaN             NaN
             NaN             NaN             NaN
             NaN             NaN             NaN
             NaN             NaN             NaN
             NaN             NaN             NaN
             NaN             NaN             NaN
             NaN             NaN             NaN
             NaN             NaN             NaN
             NaN             NaN             NaN
             NaN             NaN             NaN
             NaN             NaN             NaN
             NaN             NaN             NaN
             NaN             NaN             NaN
             NaN             NaN             NaN
             NaN             NaN             NaN
             NaN             NaN             NaN
             NaN             NaN             NaN
             NaN             NaN             NaN
             NaN             NaN             NaN
             NaN             NaN             NaN
             NaN             NaN             NaN
