Li47 P16 O64                            
   1.00000000000000     
    10.5757659999999998    0.0006670000000000   -0.0045670000000000
     0.0007790000000000   12.3256969999999999   -0.0018840000000000
    -0.0042950000000000   -0.0014990000000000    9.9840260000000001
   Li   P    O 
    47    16    64
Direct
  0.5266157464149424  0.2863297498038533  0.0694182999552148
  0.6647794319338964  0.2502547976258926  0.6018341664231529
  0.6643037333717488  0.7517920184576422  0.0985896845854020
  0.6641764342272233  0.7520673229635868  0.5996193129656023
  0.1643272419568468  0.4973693960029748  0.1505650392021300
  0.1641572796919760  0.4992537491847553  0.6515913521189376
  0.1642679830046475  0.9948273833227763  0.1535193603255996
  0.1638733638292409  0.9986183975928589  0.6512699210588404
  0.3360707899699362 -0.0003181057238969  0.4020103755860747
  0.3364794258821837  0.0005229740432307  0.9014776200322951
  0.3369454207906880  0.5008728628038176  0.3988091314227133
  0.3388869958760573  0.4964407381709720  0.9082433044165233
  0.8347392321658180  0.2489867241822587  0.3475775881631702
  0.8339852856334485  0.2497644571340613  0.8543073950281421
  0.8366309980637324  0.7488734938300057  0.3494759665291302
  0.8367014658840850  0.7489487423541905  0.8491335094188305
  0.3376496747725877  0.2499843716127612  0.3981857304876055
  0.3330197799404660  0.2507740957216529  0.9017616166146990
  0.3365793886983199  0.7494006313987021  0.4009909522183937
  0.3366324613031966  0.7495203501282500  0.9010964688635283
  0.8366476657862010  0.0012695430369120  0.3501144283938576
  0.8366849988891913  0.0010881635718525  0.8488341170415233
  0.8359981319782160  0.5018679553107239  0.3493256764039302
  0.8368801346288056  0.5013920212424189  0.8493419891290310
  0.6613832666631261  0.4977108871315863  0.0965074949567639
  0.6652274275408478  0.5030110398836943  0.6019687779179670
  0.6639173614109759  0.0037468474838443  0.1007731933513933
  0.6639480648104378  0.9996875538361705  0.5986243986781711
  0.1674456961060044  0.2531943896515186  0.1492358252709017
  0.1632352094167790  0.2507854528609634  0.6510486881111435
  0.1635041678987273  0.7509429176640141  0.1512202073400429
  0.1638179869748644  0.7511966187209087  0.6517184399918809
  0.9219613415345798  0.3762461699911199  0.1463321221459980
  0.9247387592500885  0.3746236124779525  0.6494813842559209
  0.9244894227152358  0.8745810059205155  0.1492973653428007
  0.9253701977876003  0.8752390248374549  0.6489195995420225
  0.4237802357299081  0.3761904801816818  0.6038517675522311
  0.4285111415615218  0.8756014139876782  0.1008179979832987
  0.4262064813434881  0.8751454762344272  0.6014798988750099
  0.0753747613673857  0.1246782760695038  0.3522642847477669
  0.0750463845394907  0.1251311911731678  0.8510346271235745
  0.0748692645763196  0.6245816934928468  0.3508323386812151
  0.0756238067408374  0.6244021427987851  0.8523619194873224
  0.5745113176697648  0.1261399611229265  0.3962843790368806
  0.5781771268960083  0.1242855709070909  0.8996548515189307
  0.5747537842617516  0.6260535589025210  0.4011466785400640
  0.5734407790778576  0.6253319233933607  0.8974797994844695
  0.9143102054257333  0.1243944365411720  0.0975510904029353
  0.9117621272622750  0.1249883708184566  0.5971254436068613
  0.9110813197204860  0.6254054746348906  0.0969964823264077
  0.9125553124752406  0.6255386948746811  0.5972657340153890
  0.4071746677481230  0.1189106321592712  0.1532070756435186
  0.4112337775591264  0.1250295360520071  0.6536153652840839
  0.4109786183018504  0.6285851191267052  0.1528198869662225
  0.4104328171495105  0.6258723864036426  0.6542198094555712
  0.0884499254097836  0.3750916080273057  0.4032570637254321
  0.0874159472552259  0.3750451168237566  0.9032208938971948
  0.0883601561061417  0.8744839092191449  0.4042591807219483
  0.0883962046444700  0.8748774812082324  0.9037727338287687
  0.5904698007913520  0.3775127793207876  0.3517564944866820
  0.5889348003368552  0.3758086946002057  0.8396991044887469
  0.5895387039732036  0.8755267450792410  0.3468768615273028
  0.5896519446328122  0.8753334821123757  0.8465063070698663
  0.8426752187198824  0.0223465284830946  0.1495517518333633
  0.8415812462139951  0.0215373884693142  0.6480881766344017
  0.8399250171465967  0.5226645360529203  0.1481777305845469
  0.8429368140410480  0.5224132923000918  0.6494650962063792
  0.3390402001917965  0.2211107455650452  0.0978906368580383
  0.3410630050121060  0.2283298682808260  0.6016170386461224
  0.3437394088149594  0.7350802076446077  0.1058093409079508
  0.3407119289131288  0.7294948275400669  0.6028763627857353
  0.1578537346424181  0.2714698604054291  0.3514283741070192
  0.1568159465217019  0.2714332227329907  0.8514100625508931
  0.1585511856791007  0.7713330600001461  0.3524915109742857
  0.1587797845118178  0.7714654636090561  0.8531200448282020
  0.6602627115247113  0.4804333654516956  0.4043650103833226
  0.6579778988322285  0.4790325914585232  0.8933887098146669
  0.6590965379994951  0.9791014235864380  0.3985303016207892
  0.6600250199030577  0.9782115421788073  0.8986904130656121
  0.1588624703482151  0.4780709304321528  0.3518883324171777
  0.1583632707854266  0.4778103881692477  0.8518303067188969
  0.1583688798027148  0.9779163121247896  0.3534511594033082
  0.1587602023193955  0.9780871516981312  0.8526274235910305
  0.6587891874565132  0.2731071772591765  0.4018119881450906
  0.6560260553399577  0.2716871803088359  0.8911377020459419
  0.6597557822887382  0.7721759825806369  0.3984657771318598
  0.6592124690793563  0.7715376039290315  0.8974137169456526
  0.8534185488707217  0.2294779677876178  0.1527705518231931
  0.8420768421681732  0.2280375802087389  0.6496351226588291
  0.8413864273961302  0.7291079257349700  0.1481592148894384
  0.8419683816559953  0.7288635428227229  0.6480677574450664
  0.3388727429703505  0.0140667467289768  0.1050086769136616
  0.3413473047387057  0.0214779098182217  0.6023118211457468
  0.3332459623248187  0.5326535543514630  0.0974381249477115
  0.3410391922688384  0.5228606829334221  0.6007284245751038
  0.5447376540534086  0.1231011167017642  0.0992721378361715
  0.5497444688831310  0.1253002943183998  0.6010091814156585
  0.5489029438273894  0.6263599628894824  0.0990503836512382
  0.5494913331334937  0.6270535176463410  0.6030954778229567
  0.0541591729614374  0.1219923022297392  0.1474287874499289
  0.0506548995286833  0.1244173557598383  0.6485880293212800
  0.0495871613675945  0.6249306352035100  0.1494187178052437
  0.0511535866191672  0.6257830956703612  0.6491548597364084
  0.4517943113363079  0.3757853410233226  0.4030078895165554
  0.4508631386441154  0.3726125006737245  0.8916889282027883
  0.4509749432558442  0.8747910880800073  0.3988751997647721
  0.4509265336515886  0.8752323358618139  0.8978954974739689
  0.9495144619624205  0.3754907104137266  0.3518977071214505
  0.9486983332620668  0.3753474473532411  0.8511787561835984
  0.9497655901772666  0.8747867424350011  0.3519121549064153
  0.9500220650941620  0.8750433820433469  0.8508427467199347
  0.5928679599869205  0.3802095051346349  0.1966839924272240
  0.5909003789560301  0.3776320800806479  0.6835349335906475
  0.5912345443367663  0.8760605725412585  0.1905555929487039
  0.5904252590945387  0.8759071671953970  0.6901194251467051
  0.0875331082536777  0.3749489596544150  0.0593830315734916
  0.0893792169544192  0.3749133767170647  0.5595995777603207
  0.0877104097141565  0.8744154402817640  0.0600934174821717
  0.0890217036324111  0.8744674672019634  0.5605529518567086
  0.4081363948204744  0.1224968561416606  0.3097325382902337
  0.4107560246761167  0.1251464946317492  0.8098693743765947
  0.4122504759064179  0.6256027241162103  0.3093126501705107
  0.4089553132451362  0.6245794523036846  0.8104093402485136
  0.9107757247961606  0.1254415025804612  0.4407033091560236
  0.9112931706035280  0.1246893124805453  0.9414326345882387
  0.9115882531533451  0.6250803521251381  0.4408414876872835
  0.9108700403450577  0.6253139136960024  0.9405888496374942
 
             NaN             NaN             NaN
             NaN             NaN             NaN
             NaN             NaN             NaN
             NaN             NaN             NaN
             NaN             NaN             NaN
             NaN             NaN             NaN
             NaN             NaN             NaN
             NaN             NaN             NaN
             NaN             NaN             NaN
             NaN             NaN             NaN
             NaN             NaN             NaN
             NaN             NaN             NaN
             NaN             NaN             NaN
             NaN             NaN             NaN
             NaN             NaN             NaN
             NaN             NaN             NaN
             NaN             NaN             NaN
             NaN             NaN             NaN
             NaN             NaN             NaN
             NaN             NaN             NaN
             NaN             NaN             NaN
             NaN             NaN             NaN
             NaN             NaN             NaN
             NaN             NaN             NaN
             NaN             NaN             NaN
             NaN             NaN             NaN
             NaN             NaN             NaN
             NaN             NaN             NaN
             NaN             NaN             NaN
             NaN             NaN             NaN
             NaN             NaN             NaN
             NaN             NaN             NaN
             NaN             NaN             NaN
             NaN             NaN             NaN
             NaN             NaN             NaN
             NaN             NaN             NaN
             NaN             NaN             NaN
             NaN             NaN             NaN
             NaN             NaN             NaN
             NaN             NaN             NaN
             NaN             NaN             NaN
             NaN             NaN             NaN
             NaN             NaN             NaN
             NaN             NaN             NaN
             NaN             NaN             NaN
             NaN             NaN             NaN
             NaN             NaN             NaN
             NaN             NaN             NaN
             NaN             NaN             NaN
             NaN             NaN             NaN
             NaN             NaN             NaN
             NaN             NaN             NaN
             NaN             NaN             NaN
             NaN             NaN             NaN
             NaN             NaN             NaN
             NaN             NaN             NaN
             NaN             NaN             NaN
             NaN             NaN             NaN
             NaN             NaN             NaN
             NaN             NaN             NaN
             NaN             NaN             NaN
             NaN             NaN             NaN
             NaN             NaN             NaN
             NaN             NaN             NaN
             NaN             NaN             NaN
             NaN             NaN             NaN
             NaN             NaN             NaN
             NaN             NaN             NaN
             NaN             NaN             NaN
             NaN             NaN             NaN
             NaN             NaN             NaN
             NaN             NaN             NaN
             NaN             NaN             NaN
             NaN             NaN             NaN
             NaN             NaN             NaN
             NaN             NaN             NaN
             NaN             NaN             NaN
             NaN             NaN             NaN
             NaN             NaN             NaN
             NaN             NaN             NaN
             NaN             NaN             NaN
             NaN             NaN             NaN
             NaN             NaN             NaN
             NaN             NaN             NaN
             NaN             NaN             NaN
             NaN             NaN             NaN
             NaN             NaN             NaN
             NaN             NaN             NaN
             NaN             NaN             NaN
             NaN             NaN             NaN
             NaN             NaN             NaN
             NaN             NaN             NaN
             NaN             NaN             NaN
             NaN             NaN             NaN
             NaN             NaN             NaN
             NaN             NaN             NaN
             NaN             NaN             NaN
             NaN             NaN             NaN
             NaN             NaN             NaN
             NaN             NaN             NaN
             NaN             NaN             NaN
             NaN             NaN             NaN
             NaN             NaN             NaN
             NaN             NaN             NaN
             NaN             NaN             NaN
             NaN             NaN             NaN
             NaN             NaN             NaN
             NaN             NaN             NaN
             NaN             NaN             NaN
             NaN             NaN             NaN
             NaN             NaN             NaN
             NaN             NaN             NaN
             NaN             NaN             NaN
             NaN             NaN             NaN
             NaN             NaN             NaN
             NaN             NaN             NaN
             NaN             NaN             NaN
             NaN             NaN             NaN
             NaN             NaN             NaN
             NaN             NaN             NaN
             NaN             NaN             NaN
             NaN             NaN             NaN
             NaN             NaN             NaN
             NaN             NaN             NaN
             NaN             NaN             NaN
             NaN             NaN             NaN
             NaN             NaN             NaN
