Li7 Mn16 O32                            
   1.00000000000000     
     8.0352530000000009   -0.0000590000000000   -0.0000430000000000
    -0.0000520000000000    8.0351859999999995    0.0001100000000000
    -0.0000490000000000    0.0000520000000000    8.0321879999999997
   Li   Mn   O 
     7    16    32
Direct
  0.1577950476069123  0.5922435410375757  0.6577713218731491
  0.8756261505443240  0.8743882133829997  0.8746949481432853
  0.1269522457648607  0.1270745871380759  0.1228944007475383
  0.8756306589000276  0.3753223656725674  0.3756159332824109
  0.3746279387580059  0.8743557292775597  0.3756377815109551
  0.6228807063032173  0.1271507018758757  0.6269913426763228
  0.6229013444149014  0.6230021193827676  0.1228598247780263
  0.4998095197996087  0.2501627278273896  0.2479896778416045
  0.2503120620051563  0.4996597018911128  0.2480350017197756
  0.2505945987683538  0.2484772385767209  0.5010744497492368
  0.5014583119210316  0.4993486568074988  0.5010726531659602
  0.5014708088350740  0.7489459412513489  0.7506715378604819
  0.7480262189337594  0.4996631505552858  0.7503230434967362
  0.7517893118942982  0.7498348743039985  0.5002097092812640
  0.2503100983132259  0.0019626915673156  0.7503299987915284
  0.2506010210043053  0.7489277421714536  1.0014959597427373
  0.4998332252693397  0.0020093685369901  0.9998216643234442
  0.7497751915341585  0.9999397758171616  0.2500849413012101
  0.7479617528243532  0.2501269598615982  0.9998714923260992
  0.0010400061920725  0.2485004597400138  0.7506622977238613
  0.0010472075400251  0.4993689245575542  1.0014576546043983
  1.0001008768042563  0.7498399462222787  0.2518201315050579
  1.0000870063944425  0.9981713325062238  0.5001642987757079
  0.7377770118761349  0.0122476681181678  0.0124352482583726
  0.0125277698226719  0.7375259265207615  0.0133750630744459
  0.0124604185159102  0.0115870000665124  0.7376860283868892
  0.7384421437118582  0.7375783104202439  0.7376681887957807
  0.2628854236263538  0.9878890585808277  0.9877048388217975
  0.9869412522615270  0.2621417488004198  0.9878892025925357
  0.9877181577934580  0.9874374733389648  0.2625409272408483
  0.2628629608668469  0.2623218067251184  0.2620737271742476
  0.7384221240867296  0.5123797732031917  0.5123954422372921
  0.0125336176337529  0.2365558887833890  0.5124587212450623
  0.0124634030374279  0.5123711445539367  0.2383968533437555
  0.7377557715107474  0.2375535342665262  0.2377797186765893
  0.2647995786203358  0.4852265024458016  0.4861441052453956
  0.9885429357985366  0.7614736321442517  0.4885475114748231
  0.9861687355695695  0.4852216518662324  0.7647026227226543
  0.2648280686141671  0.7638898705724573  0.7647060027667980
  0.2376396183676286  0.0116034915195336  0.5123914158250951
  0.5134633995468100  0.7374950435460195  0.5124808597780489
  0.5123510021672629  0.0122608638989046  0.2377811529066561
  0.2376370628317803  0.7375748642059043  0.2383999300446579
  0.7625321700178174  0.9874554985028025  0.4878814088613700
  0.4879078729916868  0.2621258751748904  0.4868782539114554
  0.4877419648732348  0.9878720708797621  0.7627924214903732
  0.7621756140162654  0.2623125610312698  0.7628001911760437
  0.2354444968610194  0.5146312189331080  0.0136651630375056
  0.5142601889275762  0.2358259488697224  0.0141463452531918
  0.5137569901014942  0.5145882097332546  0.7354635121452930
  0.2354388354541803  0.2362653198521560  0.7354296572664027
  0.7621846839742361  0.4871500763840432  0.9877237888625315
  0.4879274157135217  0.7631418270822975  0.9879028023355555
  0.4877210838662848  0.4871764261625574  0.2621199320107202
  0.7625415058887586  0.7621831557236868  0.2625332169242061
 
             NaN             NaN             NaN
             NaN             NaN             NaN
             NaN             NaN             NaN
             NaN             NaN             NaN
             NaN             NaN             NaN
             NaN             NaN             NaN
             NaN             NaN             NaN
             NaN             NaN             NaN
             NaN             NaN             NaN
             NaN             NaN             NaN
             NaN             NaN             NaN
             NaN             NaN             NaN
             NaN             NaN             NaN
             NaN             NaN             NaN
             NaN             NaN             NaN
             NaN             NaN             NaN
             NaN             NaN             NaN
             NaN             NaN             NaN
             NaN             NaN             NaN
             NaN             NaN             NaN
             NaN             NaN             NaN
             NaN             NaN             NaN
             NaN             NaN             NaN
             NaN             NaN             NaN
             NaN             NaN             NaN
             NaN             NaN             NaN
             NaN             NaN             NaN
             NaN             NaN             NaN
             NaN             NaN             NaN
             NaN             NaN             NaN
             NaN             NaN             NaN
             NaN             NaN             NaN
             NaN             NaN             NaN
             NaN             NaN             NaN
             NaN             NaN             NaN
             NaN             NaN             NaN
             NaN             NaN             NaN
             NaN             NaN             NaN
             NaN             NaN             NaN
             NaN             NaN             NaN
             NaN             NaN             NaN
             NaN             NaN             NaN
             NaN             NaN             NaN
             NaN             NaN             NaN
             NaN             NaN             NaN
             NaN             NaN             NaN
             NaN             NaN             NaN
             NaN             NaN             NaN
             NaN             NaN             NaN
             NaN             NaN             NaN
             NaN             NaN             NaN
             NaN             NaN             NaN
             NaN             NaN             NaN
             NaN             NaN             NaN
             NaN             NaN             NaN
