Li7 Mn16 O32
1.0
8.035253 -0.000059 -0.000043
-0.000052 8.035186 0.000110
-0.000049 0.000052 8.032188
Li Mn O
7 16 32
direct
0.157941 0.592089 0.657903 Li
0.875293 0.874713 0.874721 Li
0.126965 0.126927 0.123039 Li
0.875293 0.375289 0.375280 Li
0.374672 0.874707 0.375285 Li
0.623044 0.126985 0.626981 Li
0.623062 0.623016 0.123014 Li
0.499783 0.250167 0.248380 Mn
0.250123 0.499864 0.248604 Mn
0.250116 0.250377 0.501649 Mn
0.499578 0.499848 0.501629 Mn
0.499580 0.748368 0.750179 Mn
0.748604 0.499866 0.750122 Mn
0.750123 0.750093 0.500002 Mn
0.250112 0.001386 0.750119 Mn
0.250116 0.748349 0.999607 Mn
0.499817 0.001619 0.999812 Mn
0.749856 0.999959 0.250077 Mn
0.748340 0.250143 0.999850 Mn
0.001625 0.250391 0.750178 Mn
0.001626 0.499864 0.999566 Mn
0.999827 0.749998 0.250293 Mn
0.999773 0.999745 0.499970 Mn
0.737815 0.012226 0.012490 O
0.012333 0.737720 0.012504 O
0.012329 0.012268 0.737490 O
0.737768 0.737710 0.737460 O
0.262789 0.987398 0.987332 O
0.987440 0.262706 0.987334 O
0.987688 0.987762 0.262213 O
0.262767 0.262691 0.262556 O
0.737754 0.512587 0.512266 O
0.012335 0.237464 0.512257 O
0.012338 0.512543 0.237745 O
0.737789 0.237497 0.237798 O
0.263009 0.487037 0.487165 O
0.987473 0.762505 0.487534 O
0.987222 0.487021 0.762919 O
0.263030 0.762843 0.762914 O
0.237416 0.012291 0.512263 O
0.512534 0.737706 0.512265 O
0.512459 0.012227 0.237806 O
0.237426 0.737695 0.237734 O
0.762158 0.987823 0.487818 O
0.487352 0.262698 0.487371 O
0.487361 0.987382 0.762694 O
0.762663 0.262701 0.762690 O
0.235941 0.514142 0.014083 O
0.514113 0.235962 0.013998 O
0.514188 0.514098 0.735931 O
0.235943 0.235853 0.735908 O
0.762670 0.487265 0.987333 O
0.487366 0.762644 0.987337 O
0.487357 0.487265 0.262582 O
0.762187 0.762249 0.262191 O
