Li46 P16 O64                            
   1.00000000000000     
    10.4906020000000009   -0.0011810000000000   -0.0054860000000000
    -0.0013520000000000   12.2783899999999999    0.0012800000000000
    -0.0051000000000000    0.0010350000000000    9.8911330000000000
   Li   P    O 
    46    16    64
Direct
  0.5897027994262395  0.2641123169597023  0.0846805099456140
  0.6646561035226337  0.2491095823762368  0.5964359663084740
  0.6629911011239448  0.7491224823143130  0.0980124085156201
  0.6632664797560293  0.7506418190863661  0.5987076800850282
  0.1656573156993783  0.4888850283616886  0.1542308989228058
  0.1626190852923282  0.5007608492703028  0.6522094156534258
  0.1652509891922889  0.9983524008709231  0.1505269431963031
  0.1632443840708568  0.0011051975692019  0.6533787744103826
  0.3360430190760972  0.0018646750980764  0.4020038253367411
  0.3355334423096857  0.0023428643819868  0.9046616309607531
  0.3373546598812450  0.4980451416030974  0.3975007805042705
  0.3321821321395015  0.4972728893020947  0.9090803480093501
  0.8343860612048764  0.2476027271295824  0.3448642888471710
  0.8301934673144959  0.2496247861389311  0.8543665361319898
  0.8364342608530578  0.7488961589415819  0.3479017659122838
  0.8363647724877903  0.7483548697029551  0.8485092837203639
  0.3362407762087424  0.2521069505821472  0.3884162387732522
  0.3316969829489522  0.2563759418480508  0.9122622510620494
  0.3363596572619987  0.7493464996632029  0.4007452470246919
  0.3355123211914305  0.7494857176076057  0.9062643818527547
  0.8376875409239282  0.0022094470037301  0.3458901956183530
  0.8372821736025464  0.0008914093822744  0.8473640307226119
  0.8353765712022612  0.4992426126870245  0.3476056498011298
  0.8334291298763770  0.5005549080368836  0.8501616272088927
  0.6571520373340927  0.4972937259236095  0.0968153736452909
  0.6651326217568651  0.5019045647897979  0.5987762395865514
  0.6668485591886398  0.9949715579408155  0.0975777484330174
  0.6640119155946713  0.9990707788209727  0.5983064907173039
  0.1620667973844071  0.2530114452011239  0.6486799899356489
  0.1638536650243663  0.7494184497185428  0.1537362888201514
  0.1641735528144834  0.7520879516812130  0.6521657198401021
  0.9263552891485529  0.3670595847071284  0.1516183275080437
  0.9183573292074182  0.3748691538598364  0.6501969970016025
  0.9246192750157614  0.8756073981134219  0.1499640048296865
  0.9249674410728186  0.8757999777218346  0.6488423406611714
  0.4245891775400440  0.3744349032063894  0.6066120334669668
  0.4276843919327691  0.8772337270218691  0.1021025650729325
  0.4236540927121316  0.8759086230479981  0.6006561542895982
  0.0787961913028170  0.1329030892783107  0.3347970182972708
  0.0754630113529207  0.1296601402116552  0.8606290460256690
  0.0759890426264025  0.6217049363561541  0.3509416045373606
  0.0755071276518752  0.6235508687508301  0.8518079440514201
  0.5761294384038087  0.1264669547316097  0.3964063040342695
  0.5752047180545231  0.1218899878155465  0.9011624687480150
  0.5745366766797657  0.6232849416521790  0.4007507819345203
  0.5705705071963373  0.6231414074680494  0.8996921947703146
  0.9104910991916250  0.1210491450338199  0.0960197381650720
  0.9123132720635954  0.1239229748122825  0.5958349641366784
  0.9104013343870437  0.6245359127602403  0.0977298452145667
  0.9114347388355700  0.6271818446797790  0.5955849606660912
  0.4138769908851382  0.1196623130128697  0.1529630592018537
  0.4111894652636738  0.1248290300163024  0.6551318193738556
  0.4080833220861736  0.6299193243070876  0.1539212168335754
  0.4096684461992871  0.6263797435906343  0.6549989429085402
  0.0863005083174063  0.3741187855513483  0.4105115849636683
  0.0823916939873701  0.3776021761485981  0.9013601677342632
  0.0887383363845413  0.8748821897500825  0.4050420983133674
  0.0882422464399410  0.8739011434149075  0.9050549896336281
  0.5907670224549877  0.3770551170674312  0.3507575141730034
  0.5832696775969511  0.3765299108432324  0.8363959745049633
  0.5895614664234418  0.8739990605880431  0.3473258684345809
  0.5883717919162814  0.8736023297943477  0.8444420704373730
  0.8381567766363811  0.0174195009871979  0.1451716727010425
  0.8424073815594267  0.0201415058561500  0.6458278975571491
  0.8379393175760200  0.5234687718001410  0.1481789100254584
  0.8409769094091784  0.5263331476008520  0.6496933131536035
  0.3595849026924297  0.2225366062966625  0.0946205613142774
  0.3425584988442933  0.2268647500777810  0.6024075194528041
  0.3444861474766797  0.7384543379894942  0.1096381637553452
  0.3414090985578868  0.7298271673425911  0.6024906851682967
  0.1566082038942141  0.2700662999687892  0.3736063437593941
  0.1534448633168604  0.2753388333820754  0.8502537687950856
  0.1570982528345350  0.7707819848795099  0.3554813686144749
  0.1584701025336642  0.7716437479258602  0.8527119016048880
  0.6603208395534315  0.4797017665485945  0.4058091215723787
  0.6524912706247329  0.4780680800997299  0.8941079555862670
  0.6597720801185905  0.9763368871709973  0.3987473297943351
  0.6598888909980503  0.9752522443127799  0.8950001454772365
  0.1572641054542760  0.4759469388913063  0.3563541676217625
  0.1532857828204703  0.4795290720561634  0.8464192996134705
  0.1594811918969077  0.9760112687401442  0.3526825297575453
  0.1577786418847069  0.9768104242539397  0.8546635614458507
  0.6593460765106197  0.2731208442371971  0.4023891282624540
  0.6462248252282979  0.2730025368893242  0.8957938857676159
  0.6585776825991975  0.7710327399128772  0.3996803442433166
  0.6573700882898768  0.7702865616660509  0.8954692232322220
  0.8458348830483483  0.2233000915444350  0.1515306713555673
  0.8400926518762087  0.2248355430218265  0.6481215077689889
  0.8409410849229496  0.7285558343671261  0.1474264538607998
  0.8416778128003967  0.7305951960632188  0.6456630830325802
  0.3420894659234696  0.0159798555231822  0.1048900863412073
  0.3414624289799896  0.0214286006447675  0.6035765029704588
  0.3296623391941326  0.5365053306936753  0.0980290581125906
  0.3406694167073206  0.5248021457495824  0.6007619172045126
  0.5546317528355962  0.1115065246383108  0.1060077243577631
  0.5499264520351337  0.1231897033745824  0.6031971303159444
  0.5463415270761725  0.6273207936611456  0.1003058766531572
  0.5489494824984887  0.6267620702455573  0.6054228068618263
  0.0481881212584491  0.1123610058495116  0.1428511886145574
  0.0492479309408440  0.1242627977934222  0.6510793672343338
  0.0479336558743843  0.6246483136372107  0.1512427852759643
  0.0496576573587029  0.6287048322671190  0.6471193770031954
  0.4531397629752313  0.3762514700236726  0.4046388692812399
  0.4414561431431654  0.3787249565131610  0.8672361695480251
  0.4512594120053378  0.8747321681538666  0.3990825538353071
  0.4504970462655048  0.8748176301168501  0.8967360831294369
  0.9487310279720792  0.3744336954933912  0.3548712485031258
  0.9441349276251247  0.3755120157731820  0.8454862913807001
  0.9501514922710731  0.8745852576589580  0.3534136412174547
  0.9501640554167563  0.8737563358338810  0.8517753878282684
  0.5964452732591056  0.3808009573838537  0.1976062771448359
  0.6000775383561117  0.3756383453974255  0.6813107853796356
  0.5914306529339949  0.8723843534766336  0.1914820898327771
  0.5886657724743382  0.8739018667730389  0.6882917462401025
  0.0778165637209247  0.3836532932002182  0.0542940711135957
  0.0815653288431060  0.3814165335640819  0.5668577591574486
  0.0883033251339987  0.8717578506518522  0.0607851819727968
  0.0894895424253000  0.8758176864075440  0.5614451528195092
  0.4115460234494285  0.1214569784140260  0.3101036005269082
  0.4101150251903020  0.1240801294886656  0.8110868046823705
  0.4110152218586245  0.6261294603737749  0.3106770627049061
  0.4066142119717199  0.6266596078036126  0.8109019995775419
  0.9127446683988741  0.1242278882198673  0.4397990503858995
  0.9052850572962418  0.1234955489765225  0.9388260258725036
  0.9101942512348741  0.6253831601426035  0.4394993211829532
  0.9103438566523006  0.6252499742070867  0.9411096693925308
 
             NaN             NaN             NaN
             NaN             NaN             NaN
             NaN             NaN             NaN
             NaN             NaN             NaN
             NaN             NaN             NaN
             NaN             NaN             NaN
             NaN             NaN             NaN
             NaN             NaN             NaN
             NaN             NaN             NaN
             NaN             NaN             NaN
             NaN             NaN             NaN
             NaN             NaN             NaN
             NaN             NaN             NaN
             NaN             NaN             NaN
             NaN             NaN             NaN
             NaN             NaN             NaN
             NaN             NaN             NaN
             NaN             NaN             NaN
             NaN             NaN             NaN
             NaN             NaN             NaN
             NaN             NaN             NaN
             NaN             NaN             NaN
             NaN             NaN             NaN
             NaN             NaN             NaN
             NaN             NaN             NaN
             NaN             NaN             NaN
             NaN             NaN             NaN
             NaN             NaN             NaN
             NaN             NaN             NaN
             NaN             NaN             NaN
             NaN             NaN             NaN
             NaN             NaN             NaN
             NaN             NaN             NaN
             NaN             NaN             NaN
             NaN             NaN             NaN
             NaN             NaN             NaN
             NaN             NaN             NaN
             NaN             NaN             NaN
             NaN             NaN             NaN
             NaN             NaN             NaN
             NaN             NaN             NaN
             NaN             NaN             NaN
             NaN             NaN             NaN
             NaN             NaN             NaN
             NaN             NaN             NaN
             NaN             NaN             NaN
             NaN             NaN             NaN
             NaN             NaN             NaN
             NaN             NaN             NaN
             NaN             NaN             NaN
             NaN             NaN             NaN
             NaN             NaN             NaN
             NaN             NaN             NaN
             NaN             NaN             NaN
             NaN             NaN             NaN
             NaN             NaN             NaN
             NaN             NaN             NaN
             NaN             NaN             NaN
             NaN             NaN             NaN
             NaN             NaN             NaN
             NaN             NaN             NaN
             NaN             NaN             NaN
             NaN             NaN             NaN
             NaN             NaN             NaN
             NaN             NaN             NaN
             NaN             NaN             NaN
             NaN             NaN             NaN
             NaN             NaN             NaN
             NaN             NaN             NaN
             NaN             NaN             NaN
             NaN             NaN             NaN
             NaN             NaN             NaN
             NaN             NaN             NaN
             NaN             NaN             NaN
             NaN             NaN             NaN
             NaN             NaN             NaN
             NaN             NaN             NaN
             NaN             NaN             NaN
             NaN             NaN             NaN
             NaN             NaN             NaN
             NaN             NaN             NaN
             NaN             NaN             NaN
             NaN             NaN             NaN
             NaN             NaN             NaN
             NaN             NaN             NaN
             NaN             NaN             NaN
             NaN             NaN             NaN
             NaN             NaN             NaN
             NaN             NaN             NaN
             NaN             NaN             NaN
             NaN             NaN             NaN
             NaN             NaN             NaN
             NaN             NaN             NaN
             NaN             NaN             NaN
             NaN             NaN             NaN
             NaN             NaN             NaN
             NaN             NaN             NaN
             NaN             NaN             NaN
             NaN             NaN             NaN
             NaN             NaN             NaN
             NaN             NaN             NaN
             NaN             NaN             NaN
             NaN             NaN             NaN
             NaN             NaN             NaN
             NaN             NaN             NaN
             NaN             NaN             NaN
             NaN             NaN             NaN
             NaN             NaN             NaN
             NaN             NaN             NaN
             NaN             NaN             NaN
             NaN             NaN             NaN
             NaN             NaN             NaN
             NaN             NaN             NaN
             NaN             NaN             NaN
             NaN             NaN             NaN
             NaN             NaN             NaN
             NaN             NaN             NaN
             NaN             NaN             NaN
             NaN             NaN             NaN
             NaN             NaN             NaN
             NaN             NaN             NaN
             NaN             NaN             NaN
             NaN             NaN             NaN
             NaN             NaN             NaN
             NaN             NaN             NaN
             NaN             NaN             NaN
