Na15 V32 O64                            
   1.00000000000000     
     9.1022940000000006    0.0024680000000000   -0.0003810000000000
     0.0042420000000000   11.4392720000000008   -0.0003330000000000
     0.0003810000000000   -0.0002060000000000   10.6106210000000001
   Na   V    O 
    15    32    64
Direct
  0.7423829999999967  0.3308790000000030  0.1534720000000007
  0.7422779999999989  0.0627789999999990  0.1514480000000020
  0.7422510000000031  0.7944230000000019  0.1531790000000015
  0.2427020000000013  0.0625369999999990  0.3478849999999980
  0.2424800000000005  0.3129920000000013  0.3480869999999996
  0.2436239999999970  0.5623470000000026  0.3481949999999969
  0.2421679999999995  0.8122520000000009  0.3479379999999992
  0.2570880000000031  0.1872899999999973  0.8487980000000022
  0.2580230000000014  0.4376310000000032  0.8483019999999968
  0.2581780000000009  0.6872490000000013  0.8487470000000030
  0.2572699999999983  0.9374930000000035  0.8488479999999967
  0.7573069999999973  0.1871760000000009  0.6508669999999981
  0.7574070000000006  0.4374619999999965  0.6514219999999966
  0.7575429999999983  0.6873099999999965  0.6513360000000006
  0.7570109999999985  0.9373549999999966  0.6501909999999995
  0.5846840000000029  0.0621259999999992  0.8961090000000027
  0.5845160000000007  0.3119299999999967  0.8956799999999987
  0.5896669999999986  0.5620499999999993  0.8991240000000005
  0.5840579999999989  0.8116059999999976  0.8959189999999992
  0.0843440000000015  0.0618720000000010  0.6033809999999988
  0.0851129999999998  0.3117680000000007  0.6039340000000024
  0.0849850000000032  0.5618509999999972  0.6037370000000024
  0.0851380000000006  0.8117730000000023  0.6037409999999994
  0.4160719999999998  0.1880949999999970  0.1041430000000005
  0.4146270000000030  0.4391170000000031  0.1037159999999986
  0.4142280000000014  0.6856360000000024  0.1047360000000026
  0.4164480000000026  0.9379550000000023  0.1041719999999984
  0.9150899999999993  0.1884030000000010  0.3957109999999986
  0.9142149999999987  0.4376979999999975  0.3960130000000035
  0.9144640000000024  0.6872600000000020  0.3956820000000008
  0.9147170000000031  0.9363359999999972  0.3949420000000003
  0.5625179999999972  0.0622359999999986  0.3865410000000011
  0.5614599999999967  0.3121470000000031  0.3868889999999965
  0.5657730000000001  0.5627970000000033  0.3816759999999988
  0.5610280000000003  0.8116979999999998  0.3866930000000011
  0.0609809999999982  0.0616369999999975  0.1136020000000002
  0.0633550000000014  0.3109949999999984  0.1136259999999965
  0.0556430000000034  0.5625590000000003  0.1166320000000027
  0.0633189999999999  0.8146169999999984  0.1128050000000016
  0.4368339999999975  0.1883169999999978  0.6149010000000033
  0.4389299999999992  0.4389350000000007  0.6138199999999969
  0.4387850000000029  0.6874480000000034  0.6137200000000007
  0.4367450000000019  0.9383940000000024  0.6150719999999978
  0.9371689999999973  0.1882090000000005  0.8854079999999982
  0.9389419999999973  0.4384700000000024  0.8861840000000001
  0.9389030000000034  0.6883399999999966  0.8861399999999975
  0.9364759999999990  0.9384790000000010  0.8841790000000032
  0.7909190000000024  0.0627870000000001  0.8501339999999971
  0.7921850000000035  0.3129610000000014  0.8509910000000005
  0.7940049999999985  0.5626340000000027  0.8500179999999986
  0.7918110000000027  0.8123149999999981  0.8507740000000013
  0.2912689999999998  0.0625879999999981  0.6493400000000022
  0.2922689999999974  0.3125789999999995  0.6487120000000033
  0.2931239999999988  0.5627360000000010  0.6484420000000028
  0.2921679999999967  0.8126019999999983  0.6486939999999990
  0.2080709999999968  0.1880469999999974  0.1491159999999994
  0.2066560000000024  0.4385589999999979  0.1481610000000018
  0.2066319999999990  0.6861419999999967  0.1479700000000008
  0.2083960000000005  0.9374499999999983  0.1493859999999998
  0.7074209999999965  0.1878850000000014  0.3529079999999993
  0.7079110000000028  0.4348000000000027  0.3569710000000015
  0.7082229999999967  0.6900789999999972  0.3565060000000031
  0.7072459999999978  0.9370230000000035  0.3528999999999982
  0.8868300000000033  0.0623780000000025  0.5190309999999982
  0.8874369999999985  0.3122919999999993  0.5206450000000018
  0.8872190000000018  0.5623020000000025  0.5204850000000008
  0.8874349999999964  0.8120910000000023  0.5203389999999999
  0.3868209999999976  0.0626729999999966  0.9802620000000033
  0.3860249999999965  0.3122789999999966  0.9800970000000007
  0.3863610000000008  0.5622510000000034  0.9791620000000023
  0.3860049999999973  0.8125969999999967  0.9808400000000006
  0.1135810000000035  0.1873599999999982  0.4794430000000034
  0.1134959999999978  0.4370150000000024  0.4799959999999999
  0.1135429999999999  0.6871739999999988  0.4798320000000018
  0.1132300000000015  0.9369739999999993  0.4792550000000020
  0.6135769999999994  0.1882329999999968  0.0201709999999977
  0.6104300000000009  0.4372189999999989  0.0172260000000009
  0.6101540000000014  0.6871089999999995  0.0175759999999983
  0.6135420000000025  0.9364010000000036  0.0200040000000001
  0.9790849999999978  0.0625020000000021  0.2821879999999979
  0.9795030000000011  0.3127950000000013  0.2820079999999976
  0.9818470000000019  0.5623909999999981  0.2860069999999979
  0.9798329999999993  0.8122359999999986  0.2814869999999985
  0.4803420000000003  0.0626710000000017  0.2180159999999987
  0.4799980000000019  0.3132590000000022  0.2170670000000001
  0.4750790000000009  0.5626400000000018  0.2191090000000031
  0.4799300000000031  0.8118839999999992  0.2171239999999983
  0.0196159999999992  0.1870759999999976  0.7171269999999978
  0.0212119999999985  0.4371069999999975  0.7172610000000006
  0.0210259999999991  0.6872649999999965  0.7172839999999994
  0.0192070000000015  0.9373999999999967  0.7166330000000016
  0.5188119999999969  0.1870449999999977  0.7828980000000030
  0.5214849999999984  0.4376350000000002  0.7823840000000004
  0.5213839999999976  0.6869080000000025  0.7825610000000012
  0.5187689999999989  0.9373399999999990  0.7830560000000020
  0.5780880000000010  0.0628590000000031  0.5721130000000016
  0.5786579999999972  0.3120860000000008  0.5722700000000032
  0.5794349999999966  0.5631050000000002  0.5696950000000029
  0.5783300000000011  0.8131529999999998  0.5722600000000000
  0.0782219999999967  0.0627279999999999  0.9281689999999969
  0.0793109999999970  0.3120839999999987  0.9276770000000027
  0.0787490000000020  0.5628609999999981  0.9283039999999971
  0.0792280000000005  0.8138969999999972  0.9271030000000025
  0.4208169999999996  0.1876859999999994  0.4290609999999973
  0.4224729999999965  0.4370010000000022  0.4286839999999970
  0.4215779999999967  0.6881610000000009  0.4286140000000032
  0.4211060000000018  0.9374409999999997  0.4290749999999974
  0.9207409999999996  0.1885090000000034  0.0706569999999971
  0.9262429999999995  0.4372759999999971  0.0701880000000017
  0.9263159999999999  0.6881330000000005  0.0699960000000033
  0.9199050000000000  0.9369000000000014  0.0699100000000001
 
  0.00000000E+00  0.00000000E+00  0.00000000E+00
  0.00000000E+00  0.00000000E+00  0.00000000E+00
  0.00000000E+00  0.00000000E+00  0.00000000E+00
  0.00000000E+00  0.00000000E+00  0.00000000E+00
  0.00000000E+00  0.00000000E+00  0.00000000E+00
  0.00000000E+00  0.00000000E+00  0.00000000E+00
  0.00000000E+00  0.00000000E+00  0.00000000E+00
  0.00000000E+00  0.00000000E+00  0.00000000E+00
  0.00000000E+00  0.00000000E+00  0.00000000E+00
  0.00000000E+00  0.00000000E+00  0.00000000E+00
  0.00000000E+00  0.00000000E+00  0.00000000E+00
  0.00000000E+00  0.00000000E+00  0.00000000E+00
  0.00000000E+00  0.00000000E+00  0.00000000E+00
  0.00000000E+00  0.00000000E+00  0.00000000E+00
  0.00000000E+00  0.00000000E+00  0.00000000E+00
  0.00000000E+00  0.00000000E+00  0.00000000E+00
  0.00000000E+00  0.00000000E+00  0.00000000E+00
  0.00000000E+00  0.00000000E+00  0.00000000E+00
  0.00000000E+00  0.00000000E+00  0.00000000E+00
  0.00000000E+00  0.00000000E+00  0.00000000E+00
  0.00000000E+00  0.00000000E+00  0.00000000E+00
  0.00000000E+00  0.00000000E+00  0.00000000E+00
  0.00000000E+00  0.00000000E+00  0.00000000E+00
  0.00000000E+00  0.00000000E+00  0.00000000E+00
  0.00000000E+00  0.00000000E+00  0.00000000E+00
  0.00000000E+00  0.00000000E+00  0.00000000E+00
  0.00000000E+00  0.00000000E+00  0.00000000E+00
  0.00000000E+00  0.00000000E+00  0.00000000E+00
  0.00000000E+00  0.00000000E+00  0.00000000E+00
  0.00000000E+00  0.00000000E+00  0.00000000E+00
  0.00000000E+00  0.00000000E+00  0.00000000E+00
  0.00000000E+00  0.00000000E+00  0.00000000E+00
  0.00000000E+00  0.00000000E+00  0.00000000E+00
  0.00000000E+00  0.00000000E+00  0.00000000E+00
  0.00000000E+00  0.00000000E+00  0.00000000E+00
  0.00000000E+00  0.00000000E+00  0.00000000E+00
  0.00000000E+00  0.00000000E+00  0.00000000E+00
  0.00000000E+00  0.00000000E+00  0.00000000E+00
  0.00000000E+00  0.00000000E+00  0.00000000E+00
  0.00000000E+00  0.00000000E+00  0.00000000E+00
  0.00000000E+00  0.00000000E+00  0.00000000E+00
  0.00000000E+00  0.00000000E+00  0.00000000E+00
  0.00000000E+00  0.00000000E+00  0.00000000E+00
  0.00000000E+00  0.00000000E+00  0.00000000E+00
  0.00000000E+00  0.00000000E+00  0.00000000E+00
  0.00000000E+00  0.00000000E+00  0.00000000E+00
  0.00000000E+00  0.00000000E+00  0.00000000E+00
  0.00000000E+00  0.00000000E+00  0.00000000E+00
  0.00000000E+00  0.00000000E+00  0.00000000E+00
  0.00000000E+00  0.00000000E+00  0.00000000E+00
  0.00000000E+00  0.00000000E+00  0.00000000E+00
  0.00000000E+00  0.00000000E+00  0.00000000E+00
  0.00000000E+00  0.00000000E+00  0.00000000E+00
  0.00000000E+00  0.00000000E+00  0.00000000E+00
  0.00000000E+00  0.00000000E+00  0.00000000E+00
  0.00000000E+00  0.00000000E+00  0.00000000E+00
  0.00000000E+00  0.00000000E+00  0.00000000E+00
  0.00000000E+00  0.00000000E+00  0.00000000E+00
  0.00000000E+00  0.00000000E+00  0.00000000E+00
  0.00000000E+00  0.00000000E+00  0.00000000E+00
  0.00000000E+00  0.00000000E+00  0.00000000E+00
  0.00000000E+00  0.00000000E+00  0.00000000E+00
  0.00000000E+00  0.00000000E+00  0.00000000E+00
  0.00000000E+00  0.00000000E+00  0.00000000E+00
  0.00000000E+00  0.00000000E+00  0.00000000E+00
  0.00000000E+00  0.00000000E+00  0.00000000E+00
  0.00000000E+00  0.00000000E+00  0.00000000E+00
  0.00000000E+00  0.00000000E+00  0.00000000E+00
  0.00000000E+00  0.00000000E+00  0.00000000E+00
  0.00000000E+00  0.00000000E+00  0.00000000E+00
  0.00000000E+00  0.00000000E+00  0.00000000E+00
  0.00000000E+00  0.00000000E+00  0.00000000E+00
  0.00000000E+00  0.00000000E+00  0.00000000E+00
  0.00000000E+00  0.00000000E+00  0.00000000E+00
  0.00000000E+00  0.00000000E+00  0.00000000E+00
  0.00000000E+00  0.00000000E+00  0.00000000E+00
  0.00000000E+00  0.00000000E+00  0.00000000E+00
  0.00000000E+00  0.00000000E+00  0.00000000E+00
  0.00000000E+00  0.00000000E+00  0.00000000E+00
  0.00000000E+00  0.00000000E+00  0.00000000E+00
  0.00000000E+00  0.00000000E+00  0.00000000E+00
  0.00000000E+00  0.00000000E+00  0.00000000E+00
  0.00000000E+00  0.00000000E+00  0.00000000E+00
  0.00000000E+00  0.00000000E+00  0.00000000E+00
  0.00000000E+00  0.00000000E+00  0.00000000E+00
  0.00000000E+00  0.00000000E+00  0.00000000E+00
  0.00000000E+00  0.00000000E+00  0.00000000E+00
  0.00000000E+00  0.00000000E+00  0.00000000E+00
  0.00000000E+00  0.00000000E+00  0.00000000E+00
  0.00000000E+00  0.00000000E+00  0.00000000E+00
  0.00000000E+00  0.00000000E+00  0.00000000E+00
  0.00000000E+00  0.00000000E+00  0.00000000E+00
  0.00000000E+00  0.00000000E+00  0.00000000E+00
  0.00000000E+00  0.00000000E+00  0.00000000E+00
  0.00000000E+00  0.00000000E+00  0.00000000E+00
  0.00000000E+00  0.00000000E+00  0.00000000E+00
  0.00000000E+00  0.00000000E+00  0.00000000E+00
  0.00000000E+00  0.00000000E+00  0.00000000E+00
  0.00000000E+00  0.00000000E+00  0.00000000E+00
  0.00000000E+00  0.00000000E+00  0.00000000E+00
  0.00000000E+00  0.00000000E+00  0.00000000E+00
  0.00000000E+00  0.00000000E+00  0.00000000E+00
  0.00000000E+00  0.00000000E+00  0.00000000E+00
  0.00000000E+00  0.00000000E+00  0.00000000E+00
  0.00000000E+00  0.00000000E+00  0.00000000E+00
  0.00000000E+00  0.00000000E+00  0.00000000E+00
  0.00000000E+00  0.00000000E+00  0.00000000E+00
  0.00000000E+00  0.00000000E+00  0.00000000E+00
  0.00000000E+00  0.00000000E+00  0.00000000E+00
  0.00000000E+00  0.00000000E+00  0.00000000E+00
  0.00000000E+00  0.00000000E+00  0.00000000E+00
