Na15 V32 O64
1.0
9.102294 0.002468 -0.000381
0.004242 11.439272 -0.000333
0.000381 -0.000206 10.610621
Na V O
15 32 64
direct
0.742383 0.330879 0.153472 Na
0.742278 0.062779 0.151448 Na
0.742251 0.794423 0.153179 Na
0.242702 0.062537 0.347885 Na
0.242480 0.312992 0.348087 Na
0.243624 0.562347 0.348195 Na
0.242168 0.812252 0.347938 Na
0.257088 0.187290 0.848798 Na
0.258023 0.437631 0.848302 Na
0.258178 0.687249 0.848747 Na
0.257270 0.937493 0.848848 Na
0.757307 0.187176 0.650867 Na
0.757407 0.437462 0.651422 Na
0.757543 0.687310 0.651336 Na
0.757011 0.937355 0.650191 Na
0.584684 0.062126 0.896109 V
0.584516 0.311930 0.895680 V
0.589667 0.562050 0.899124 V
0.584058 0.811606 0.895919 V
0.084344 0.061872 0.603381 V
0.085113 0.311768 0.603934 V
0.084985 0.561851 0.603737 V
0.085138 0.811773 0.603741 V
0.416072 0.188095 0.104143 V
0.414627 0.439117 0.103716 V
0.414228 0.685636 0.104736 V
0.416448 0.937955 0.104172 V
0.915090 0.188403 0.395711 V
0.914215 0.437698 0.396013 V
0.914464 0.687260 0.395682 V
0.914717 0.936336 0.394942 V
0.562518 0.062236 0.386541 V
0.561460 0.312147 0.386889 V
0.565773 0.562797 0.381676 V
0.561028 0.811698 0.386693 V
0.060981 0.061637 0.113602 V
0.063355 0.310995 0.113626 V
0.055643 0.562559 0.116632 V
0.063319 0.814617 0.112805 V
0.436834 0.188317 0.614901 V
0.438930 0.438935 0.613820 V
0.438785 0.687448 0.613720 V
0.436745 0.938394 0.615072 V
0.937169 0.188209 0.885408 V
0.938942 0.438470 0.886184 V
0.938903 0.688340 0.886140 V
0.936476 0.938479 0.884179 V
0.790919 0.062787 0.850134 O
0.792185 0.312961 0.850991 O
0.794005 0.562634 0.850018 O
0.791811 0.812315 0.850774 O
0.291269 0.062588 0.649340 O
0.292269 0.312579 0.648712 O
0.293124 0.562736 0.648442 O
0.292168 0.812602 0.648694 O
0.208071 0.188047 0.149116 O
0.206656 0.438559 0.148161 O
0.206632 0.686142 0.147970 O
0.208396 0.937450 0.149386 O
0.707421 0.187885 0.352908 O
0.707911 0.434800 0.356971 O
0.708223 0.690079 0.356506 O
0.707246 0.937023 0.352900 O
0.886830 0.062378 0.519031 O
0.887437 0.312292 0.520645 O
0.887219 0.562302 0.520485 O
0.887435 0.812091 0.520339 O
0.386821 0.062673 0.980262 O
0.386025 0.312279 0.980097 O
0.386361 0.562251 0.979162 O
0.386005 0.812597 0.980840 O
0.113581 0.187360 0.479443 O
0.113496 0.437015 0.479996 O
0.113543 0.687174 0.479832 O
0.113230 0.936974 0.479255 O
0.613577 0.188233 0.020171 O
0.610430 0.437219 0.017226 O
0.610154 0.687109 0.017576 O
0.613542 0.936401 0.020004 O
0.979085 0.062502 0.282188 O
0.979503 0.312795 0.282008 O
0.981847 0.562391 0.286007 O
0.979833 0.812236 0.281487 O
0.480342 0.062671 0.218016 O
0.479998 0.313259 0.217067 O
0.475079 0.562640 0.219109 O
0.479930 0.811884 0.217124 O
0.019616 0.187076 0.717127 O
0.021212 0.437107 0.717261 O
0.021026 0.687265 0.717284 O
0.019207 0.937400 0.716633 O
0.518812 0.187045 0.782898 O
0.521485 0.437635 0.782384 O
0.521384 0.686908 0.782561 O
0.518769 0.937340 0.783056 O
0.578088 0.062859 0.572113 O
0.578658 0.312086 0.572270 O
0.579435 0.563105 0.569695 O
0.578330 0.813153 0.572260 O
0.078222 0.062728 0.928169 O
0.079311 0.312084 0.927677 O
0.078749 0.562861 0.928304 O
0.079228 0.813897 0.927103 O
0.420817 0.187686 0.429061 O
0.422473 0.437001 0.428684 O
0.421578 0.688161 0.428614 O
0.421106 0.937441 0.429075 O
0.920741 0.188509 0.070657 O
0.926243 0.437276 0.070188 O
0.926316 0.688133 0.069996 O
0.919905 0.936900 0.069910 O
