Mg7 Sc16 Se32                           
   1.00000000000000     
    11.2085039999999996    0.0000000000000000    0.0000010000000000
     0.0000000000000000   11.2085039999999996    0.0000000000000000
     0.0000010000000000    0.0000000000000000   11.2085050000000006
   Mg   Sc   Se
     7    16    32
Direct
  0.4702512471195608  0.4702515063431610  0.4702511612259526
  0.6246481796398926  0.1270804227145697  0.1270803701631732
  0.1270804147036639  0.6246482886328619  0.1270804717686644
  0.1270804284495006  0.1270804039627941  0.6246481831661276
  0.3759436110541624  0.8726343066662643  0.8726343885164282
  0.8726342880171023  0.3759435959237731  0.8726343340227499
  0.8726344427769295  0.8726342855929562  0.3759435734535244
  0.9933779154892951  0.7501037710559941  0.7501037809666793
  0.7501037915699409  0.9933780458985324  0.7501038270616076
  0.7501038202845478  0.7501038297029419  0.9933779364266832
 -0.0001453093162462 -0.0001454285182303 -0.0001452283073101
  0.0062100699908987  0.2497669422004972  0.2497669073035578
  0.2497668773335817  0.0062101950207002  0.2497669596553285
  0.2497666569267618  0.2497667924030331  0.0062099924285511
  0.7478652656217587  0.4999280467633269  0.2524907063306863
  0.7478653754983349  0.2524903847789033  0.4999281874283579
  0.9910101078343549  0.5000359599242474  0.5000359451227205
  0.2524905844213568  0.4999281054608819  0.7478652391667616
  0.2524905557853900  0.7478653413125210  0.4999281600910322
  0.4999282419867169  0.7478654429847501  0.2524905426343648
  0.5000356133740237  0.9910099161187639  0.5000355893258854
  0.4999281326993913  0.2524904157511423  0.7478652797609281
  0.5000359005163524  0.5000359339029486  0.9910101002572032
  0.7573038078757258  0.9932914185185837  0.9932915704669691
  0.9932914930104413  0.7573037817648738  0.9932914248979502
  0.9932916065108224  0.9932914685848221  0.7573038698187987
  0.7563154733395222  0.7563154503193412  0.7563155426145316
  0.2427143231543643  0.0065828652778005  0.0065829807569565
  0.0065827626835260  0.2427143043862882  0.0065828245018956
  0.0065829281105393  0.0065829644533857  0.2427143703312304
  0.2436849027972150  0.2436851329697655  0.2436849404560011
  0.7475632761832427  0.4929684220959797  0.4929683362942761
  0.9912329740304093  0.2579265488161209  0.4930765506341767
  0.9912328546261435  0.4930766658851978  0.2579266043285912
  0.7608409443621962  0.2568710599620592  0.2568711029068144
  0.2403543079381310  0.5052956459243148  0.5052956059807415
  0.0078524870976819  0.7418208456613689  0.5070731366427649
  0.0078523047514494  0.5070731428823024  0.7418208423317181
  0.2388676099611757  0.7428658283906970  0.7428657299055582
  0.2579266821328129  0.9912330131410326  0.4930768061381410
  0.4929685925839953  0.7475636882014322  0.4929684520590590
  0.4930768696340900  0.9912330969254881  0.2579267089907132
  0.2568711781496806  0.7608410763084775  0.2568711728728309
  0.7418208797592036  0.0078524229587085  0.5070732373388452
  0.5052955965889254  0.2403545891661087  0.5052955887153862
  0.5070733117094453  0.0078524521283022  0.7418208642647666
  0.7428658032564145  0.2388677035957268  0.7428658595900629
  0.2579265510034682  0.4930765635456381  0.9912328423283910
  0.4930765908459372  0.2579266286225867  0.9912329157439503
  0.4929683682345691  0.4929684849044167  0.7475633836548439
  0.2568709981353061  0.2568710823194154  0.7608409342115936
  0.7418207418364651  0.5070731190390998  0.0078522882563388
  0.5070732350774619  0.7418208557749458  0.0078524174178035
  0.5052954868245827  0.5052957225446155  0.2403543293583486
  0.7428658097042841  0.7428658471962165  0.2388675961700699
 
             NaN             NaN             NaN
             NaN             NaN             NaN
             NaN             NaN             NaN
             NaN             NaN             NaN
             NaN             NaN             NaN
             NaN             NaN             NaN
             NaN             NaN             NaN
             NaN             NaN             NaN
             NaN             NaN             NaN
             NaN             NaN             NaN
             NaN             NaN             NaN
             NaN             NaN             NaN
             NaN             NaN             NaN
             NaN             NaN             NaN
             NaN             NaN             NaN
             NaN             NaN             NaN
             NaN             NaN             NaN
             NaN             NaN             NaN
             NaN             NaN             NaN
             NaN             NaN             NaN
             NaN             NaN             NaN
             NaN             NaN             NaN
             NaN             NaN             NaN
             NaN             NaN             NaN
             NaN             NaN             NaN
             NaN             NaN             NaN
             NaN             NaN             NaN
             NaN             NaN             NaN
             NaN             NaN             NaN
             NaN             NaN             NaN
             NaN             NaN             NaN
             NaN             NaN             NaN
             NaN             NaN             NaN
             NaN             NaN             NaN
             NaN             NaN             NaN
             NaN             NaN             NaN
             NaN             NaN             NaN
             NaN             NaN             NaN
             NaN             NaN             NaN
             NaN             NaN             NaN
             NaN             NaN             NaN
             NaN             NaN             NaN
             NaN             NaN             NaN
             NaN             NaN             NaN
             NaN             NaN             NaN
             NaN             NaN             NaN
             NaN             NaN             NaN
             NaN             NaN             NaN
             NaN             NaN             NaN
             NaN             NaN             NaN
             NaN             NaN             NaN
             NaN             NaN             NaN
             NaN             NaN             NaN
             NaN             NaN             NaN
             NaN             NaN             NaN
