Mg7 Sc16 Se32
1.0
11.208504 0.000000 0.000001
0.000000 11.208504 -0.000000
0.000001 -0.000000 11.208505
Mg Sc Se
7 16 32
direct
0.469284 0.469284 0.469284 Mg
0.624092 0.125908 0.125908 Mg
0.125908 0.624092 0.125908 Mg
0.125908 0.125908 0.624092 Mg
0.376442 0.873558 0.873558 Mg
0.873558 0.376442 0.873558 Mg
0.873558 0.873558 0.376442 Mg
0.996131 0.749897 0.749897 Sc
0.749897 0.996131 0.749897 Sc
0.749897 0.749897 0.996131 Sc
1.000063 1.000063 1.000063 Sc
0.002501 0.250022 0.250022 Sc
0.250022 0.002501 0.250022 Sc
0.250022 0.250022 0.002501 Sc
0.747458 0.500019 0.253954 Sc
0.747458 0.253954 0.500019 Sc
-0.001431 0.500019 0.500019 Sc
0.253954 0.500019 0.747458 Sc
0.253954 0.747458 0.500019 Sc
0.500019 0.747458 0.253954 Sc
0.500019 -0.001431 0.500019 Sc
0.500019 0.253954 0.747458 Sc
0.500019 0.500019 -0.001431 Sc
0.757710 0.992969 0.992969 Se
0.992969 0.757710 0.992969 Se
0.992969 0.992969 0.757710 Se
0.756714 0.756714 0.756714 Se
0.242592 0.007065 0.007065 Se
0.007065 0.242592 0.007065 Se
0.007065 0.007065 0.242592 Se
0.243340 0.243340 0.243340 Se
0.757854 0.493221 0.493221 Se
0.991829 0.257096 0.492226 Se
0.991829 0.492226 0.257096 Se
0.758850 0.257096 0.257096 Se
0.241522 0.506749 0.506749 Se
0.008884 0.742846 0.507496 Se
0.008884 0.507497 0.742846 Se
0.240774 0.742846 0.742846 Se
0.257096 0.991829 0.492226 Se
0.493221 0.757854 0.493221 Se
0.492226 0.991829 0.257096 Se
0.257096 0.758850 0.257096 Se
0.742846 0.008884 0.507496 Se
0.506749 0.241521 0.506749 Se
0.507497 0.008884 0.742846 Se
0.742846 0.240774 0.742846 Se
0.257096 0.492226 0.991829 Se
0.492226 0.257096 0.991829 Se
0.493221 0.493221 0.757854 Se
0.257096 0.257096 0.758850 Se
0.742846 0.507497 0.008884 Se
0.507496 0.742846 0.008884 Se
0.506749 0.506749 0.241521 Se
0.742846 0.742846 0.240774 Se
