Li47 P16 O64
1.0
10.426453 0.000597 -0.006627
0.000687 12.168112 -0.002992
-0.006255 -0.002402 9.795664
Li P O
47 16 64
direct
0.514429 0.326288 0.097661 Li
0.664832 0.249969 0.602068 Li
0.664538 0.750573 0.097597 Li
0.664369 0.751907 0.598473 Li
0.164512 0.498081 0.151855 Li
0.163846 0.499334 0.652180 Li
0.163543 0.996282 0.153760 Li
0.164320 0.998505 0.652104 Li
0.335984 0.000675 0.402290 Li
0.336227 0.000778 0.902117 Li
0.335981 0.500860 0.401418 Li
0.336649 0.499281 0.904108 Li
0.834415 0.249094 0.346336 Li
0.835891 0.249135 0.850514 Li
0.836076 0.748958 0.348008 Li
0.836110 0.749088 0.847786 Li
0.335731 0.249703 0.401941 Li
0.336543 0.249838 0.902925 Li
0.336146 0.749275 0.401639 Li
0.336099 0.749274 0.902458 Li
0.836400 0.001176 0.348362 Li
0.836127 0.001195 0.847600 Li
0.835316 0.501265 0.347741 Li
0.835729 0.500669 0.848347 Li
0.662358 0.495440 0.096167 Li
0.665335 0.502540 0.598409 Li
0.665765 1.000529 0.098982 Li
0.664030 0.999933 0.597935 Li
0.164088 0.251811 0.151425 Li
0.163628 0.250780 0.652405 Li
0.163970 0.750287 0.151869 Li
0.164104 0.751030 0.652549 Li
0.921242 0.375590 0.147383 Li
0.923094 0.375006 0.648925 Li
0.923152 0.874601 0.149010 Li
0.923491 0.875181 0.648641 Li
0.420424 0.375698 0.605641 Li
0.425851 0.874537 0.101055 Li
0.423987 0.875417 0.600921 Li
0.076968 0.124796 0.351368 Li
0.077457 0.124874 0.851305 Li
0.076345 0.624611 0.350856 Li
0.076645 0.624600 0.851705 Li
0.576687 0.126122 0.397036 Li
0.577502 0.127722 0.903928 Li
0.576488 0.625815 0.399735 Li
0.576098 0.624802 0.898602 Li
0.913588 0.124495 0.095371 P
0.912573 0.124937 0.595210 P
0.911324 0.624944 0.095267 P
0.912325 0.625381 0.595392 P
0.409897 0.122688 0.154599 P
0.411747 0.124771 0.654879 P
0.412116 0.625498 0.154463 P
0.411280 0.625991 0.654913 P
0.087678 0.375168 0.404656 P
0.087763 0.375056 0.904710 P
0.088032 0.874484 0.404979 P
0.088063 0.874668 0.904814 P
0.588157 0.376208 0.349278 P
0.587537 0.375146 0.839578 P
0.588868 0.875276 0.345289 P
0.588668 0.875448 0.845443 P
0.843071 0.021506 0.147494 O
0.841855 0.021597 0.646527 O
0.840205 0.522009 0.146714 O
0.842238 0.522209 0.647718 O
0.337635 0.223228 0.099725 O
0.340890 0.228024 0.603234 O
0.342852 0.730231 0.104473 O
0.341373 0.729666 0.603359 O
0.157579 0.271631 0.352599 O
0.157968 0.271599 0.853050 O
0.158338 0.771190 0.352961 O
0.158459 0.771179 0.853527 O
0.658629 0.479659 0.401490 O
0.657145 0.477334 0.895595 O
0.658720 0.978949 0.396902 O
0.659120 0.978532 0.897609 O
0.158299 0.478366 0.353119 O
0.158252 0.478318 0.852990 O
0.158383 0.977941 0.353777 O
0.158716 0.977929 0.853484 O
0.658414 0.272718 0.400653 O
0.656982 0.270178 0.883302 O
0.659021 0.771989 0.397711 O
0.658567 0.771554 0.896497 O
0.848462 0.228728 0.148971 O
0.843013 0.228290 0.647582 O
0.841602 0.728658 0.146937 O
0.841872 0.728839 0.646748 O
0.339881 0.017844 0.105534 O
0.341573 0.021254 0.602908 O
0.339037 0.524876 0.100899 O
0.340837 0.523055 0.602196 O
0.547435 0.120349 0.101372 O
0.550319 0.125250 0.601693 O
0.550868 0.624785 0.101816 O
0.550451 0.626597 0.603334 O
0.053428 0.123043 0.146332 O
0.051715 0.124289 0.647181 O
0.050376 0.624494 0.147502 O
0.051358 0.625451 0.647449 O
0.449407 0.375354 0.402313 O
0.447603 0.374232 0.885392 O
0.449685 0.875106 0.396813 O
0.449663 0.875205 0.897559 O
0.948508 0.375535 0.352939 O
0.948740 0.375182 0.852363 O
0.949042 0.874737 0.352714 O
0.949207 0.874936 0.852121 O
0.588870 0.378187 0.193511 O
0.590295 0.378940 0.682264 O
0.590583 0.874815 0.187942 O
0.589261 0.875850 0.688030 O
0.087962 0.375174 0.061973 O
0.088980 0.374986 0.562078 O
0.088214 0.874192 0.062189 O
0.088834 0.874415 0.562315 O
0.409586 0.125214 0.311969 O
0.411344 0.124548 0.812093 O
0.411809 0.624768 0.311893 O
0.410325 0.625184 0.812242 O
0.911428 0.125291 0.437813 O
0.911910 0.124444 0.938074 O
0.911190 0.625005 0.437995 O
0.910654 0.624997 0.937822 O
