Li7 Mn16 O32
1.0
8.152990 0.000143 -0.000103
0.000143 8.152965 -0.000025
-0.000103 -0.000025 8.152973
Li Mn O
7 16 32
direct
0.127701 0.622300 0.627701 Li
0.875000 0.874998 0.875003 Li
0.127701 0.127706 0.122298 Li
0.875000 0.374997 0.375003 Li
0.375000 0.874998 0.375003 Li
0.622298 0.127704 0.627700 Li
0.622295 0.622300 0.122297 Li
0.499905 0.250095 0.248302 Mn
0.250095 0.499905 0.248298 Mn
0.250095 0.250095 0.501701 Mn
0.499905 0.499905 0.501701 Mn
0.499906 0.748300 0.750094 Mn
0.748298 0.499905 0.750096 Mn
0.750118 0.750119 0.499881 Mn
0.250096 0.001701 0.750096 Mn
0.250096 0.748297 0.999904 Mn
0.499905 0.001698 0.999905 Mn
0.750119 0.999880 0.250120 Mn
0.748300 0.250095 0.999905 Mn
0.001699 0.250095 0.750095 Mn
0.001702 0.499905 0.999905 Mn
0.999884 0.750117 0.250117 Mn
0.999878 0.999880 0.499878 Mn
0.737428 0.012571 0.013143 O
0.012574 0.737426 0.013146 O
0.012573 0.012575 0.736858 O
0.737426 0.737427 0.736855 O
0.263348 0.987081 0.986652 O
0.987079 0.263347 0.986652 O
0.987241 0.987244 0.262755 O
0.263348 0.263346 0.262921 O
0.737427 0.513143 0.512574 O
0.012573 0.236857 0.512577 O
0.012574 0.513145 0.237425 O
0.737427 0.236856 0.237427 O
0.263348 0.486652 0.487079 O
0.987244 0.762755 0.487242 O
0.987080 0.486653 0.763347 O
0.263348 0.762922 0.763346 O
0.236857 0.012573 0.512576 O
0.513145 0.737427 0.512575 O
0.513143 0.012571 0.237428 O
0.236855 0.737427 0.237425 O
0.762755 0.987245 0.487241 O
0.486652 0.263348 0.487079 O
0.486653 0.987082 0.763348 O
0.762921 0.263348 0.763348 O
0.234758 0.515242 0.015242 O
0.515244 0.234757 0.015244 O
0.515244 0.515245 0.734756 O
0.234756 0.234757 0.734757 O
0.762919 0.486652 0.986652 O
0.486653 0.762920 0.986651 O
0.486653 0.486653 0.262920 O
0.762757 0.762758 0.262756 O
