Li47 P16 O64                            
   1.00000000000000     
    10.4309130000000003    0.0015300000000000    0.0034960000000000
     0.0017650000000000   12.1609499999999997    0.0035110000000000
     0.0032800000000000    0.0028220000000000    9.7964230000000008
   Li   P    O 
    47    16    64
Direct
  0.3583383019898671  0.3692056520814566  0.1463317673822463
  0.6598918263479460  0.2521270640984831  0.0981300759444075
  0.6653106604911878  0.2490830030649256  0.5969322144357319
  0.6604761807014011  0.7478403033530456  0.0971762966553722
  0.6641130578615737  0.7500442463315908  0.5981817236702889
  0.1567241699174972  0.5049387272668506  0.1525967198655325
  0.1648566653964764  0.5016961146448593  0.6517481559781779
  0.1652222877298769  0.0007698168505211  0.1504330678360552
  0.1640406165291025  0.0005121215808192  0.6523370577632220
  0.3357513430434828  0.9999379077925679  0.4010617668069422
  0.3360410437613349  0.9989437696024513  0.9024645212408215
  0.3355676583022529  0.5017134620706696  0.4050347293456324
  0.3360043635701385  0.4995550509218254  0.9039011927181397
  0.8354159084702112  0.2495343335618289  0.3476671571382585
  0.8348216409459470  0.2498346004639487  0.8499604035746472
  0.8351787457417705  0.7484944401286122  0.3480487212131310
  0.8356243883909885  0.7495296819815747  0.8475379792505319
  0.3372940258410974  0.2453216639238490  0.4062244219586985
  0.3351464376621163  0.2478035319616236  0.9008455213035533
  0.3358536387247756  0.7488971752690942  0.4019430837143149
  0.3347177779329955  0.7483338152068030  0.9023224599778095
  0.8369490167079048  0.0017683771761718  0.3490875734398962
  0.8357199834212137  0.0009612439597606  0.8458249654398763
  0.8348069311919077  0.4988496620703616  0.3455018059873558
  0.8344606888354417  0.5008882838895997  0.8517164557293166
  0.6590716414179859  0.4953135030718697  0.0974263187720432
  0.6654577975755048  0.4992662712279581  0.5972495082224216
  0.6637519818628779  0.9936150972188209  0.0956129359575722
  0.6648822144861291  0.9976689409072053  0.5975065601578113
  0.1640278593518272  0.2521330065006253  0.6482901562167928
  0.1627109312234550  0.7525864552963734  0.1531680565691484
  0.1642227439247450  0.7523813287310332  0.6514464478870846
  0.9324435113382273  0.3706341219930407  0.1467449149677329
  0.9230840795084958  0.3758874179178527  0.6536756402197865
  0.9220356160268911  0.8740251942810011  0.1482203068668414
  0.9237411487098858  0.8756197186568062  0.6484798782106950
  0.4236353753056094  0.3743432065268014  0.6048797545577981
  0.4236449395398564  0.8719549091951384  0.1015979666755454
  0.4239154670452843  0.8744571424236307  0.6001259028842002
  0.0798793722605584  0.1314777305247089  0.3420543119304182
  0.0775438678336933  0.1274165614346394  0.8548290412710259
  0.0754334967562012  0.6263896207900531  0.3530843606246174
  0.0752387950312890  0.6261002764587715  0.8498414672119994
  0.5774879036570155  0.1237249557786603  0.3985322358120402
  0.5767554993002687  0.1227898081458648  0.8983892822669439
  0.5754290037033586  0.6238519414772803  0.3988951758634682
  0.5746368108899674  0.6231149906061786  0.8983437526444304
  0.9088790584316649  0.1236001978852244  0.0949546803339019
  0.9133119046861981  0.1259354344015863  0.5952123855665592
  0.9090180406172713  0.6253981756878580  0.0955654263212981
  0.9116310258059518  0.6251866167825550  0.5954016894383841
  0.4141319333930237  0.1206957011969906  0.1541996039373273
  0.4126507702783970  0.1230496686465924  0.6550164145579666
  0.4086269135551361  0.6242967105532773  0.1548959481572740
  0.4116956033178021  0.6249591150885447  0.6549243085488098
  0.0890386870922347  0.3759541742855380  0.4054973578613389
  0.0901692065309590  0.3769316555251257  0.9049612558470561
  0.0881754983198592  0.8762811634157383  0.4044510722582265
  0.0876462095058698  0.8756684503278884  0.9046739858708155
  0.5860400780318438  0.3739347707967799  0.3444491827536336
  0.5858803158356273  0.3739816501267200  0.8423350019615579
  0.5882877377394462  0.8735895778088618  0.3452538500324737
  0.5878945708215373  0.8730212549185378  0.8448489259741536
  0.8372798633867360  0.0202456501127293  0.1462451796938647
  0.8422071409730173  0.0222039813692604  0.6456119371869690
  0.8405834500021233  0.5204812659263909  0.1452557579438388
  0.8422442611863784  0.5223097338440982  0.6499672351652362
  0.3487267429461204  0.2225812149487118  0.0951675395954814
  0.3430480941584618  0.2272274944070703  0.6046726201434516
  0.3394640448319904  0.7285177081033849  0.1036968618734252
  0.3416357033433538  0.7284550815728607  0.6027984722226195
  0.1626646819731334  0.2716982765829071  0.3669259702195207
  0.1584746141516028  0.2739685322195825  0.8495683214753753
  0.1586655029936797  0.7724281032309345  0.3540282960751546
  0.1578714667444526  0.7722217745006763  0.8526685280619865
  0.6562811446403239  0.4773151651194196  0.3974792000812108
  0.6553022230218188  0.4768874988360275  0.8966838655051180
  0.6589813189573512  0.9769816744348723  0.3962422126778495
  0.6589782355759777  0.9761041047849109  0.8963050499467394
  0.1591950743065557  0.4789398877469575  0.3516528225147135
  0.1578452179724030  0.4806004134944705  0.8488410840141154
  0.1581564610158385  0.9794346526490075  0.3519918016748846
  0.1583442445623304  0.9791121202524443  0.8536559275153244
  0.6565343882183473  0.2707533998932849  0.3978910097203809
  0.6542811740578319  0.2703116986637308  0.8970427539739421
  0.6579898299768663  0.7701653152032096  0.3977112231888498
  0.6578011098497276  0.7692999049345165  0.8961957627298934
  0.8399838321311645  0.2275421268566206  0.1467371867597881
  0.8426290683785741  0.2290635163787058  0.6479502448570531
  0.8370468490297226  0.7281084126884885  0.1470502045528831
  0.8416590779527330  0.7291116201530767  0.6462098021104801
  0.3442707670224215  0.0167520815849668  0.1044685908576160
  0.3416963967523118  0.0204817691599479  0.6017631153147184
  0.3343417796181541  0.5225905197732141  0.1046564013776141
  0.3419490414652407  0.5216607100305050  0.6022590264323570
  0.5541806590650253  0.1198094630665550  0.1040531260577238
  0.5516078044805367  0.1229943433677853  0.6026307113219190
  0.5467474841390014  0.6227515140937450  0.1008794691354852
  0.5509408248891022  0.6247900004530978  0.6035634919122186
  0.0457561990579337  0.1186850923190411  0.1486122502223327
  0.0514563101121160  0.1259182325564195  0.6490437169060022
  0.0471628898188389  0.6282708628400694  0.1499379472608612
  0.0511740812031391  0.6267347388449462  0.6454532980359777
  0.4457226607302075  0.3739387486363944  0.3952019317686754
  0.4440049156369362  0.3739521418771974  0.8821489959377717
  0.4492358004527460  0.8743186757753647  0.3971600232764763
  0.4492083470879317  0.8732433370606558  0.8976129195561842
  0.9515533148152825  0.3737075639269982  0.3496323057007051
  0.9491467775449649  0.3754811380431870  0.8573234863302327
  0.9492520540146554  0.8751033028521384  0.3518582494637722
  0.9488664572508420  0.8756305998860798  0.8520332475403086
  0.5854919904554063  0.3736167539751413  0.1883172414311007
  0.5941321421813158  0.3739891647929816  0.6848134441066872
  0.5886531845018809  0.8723653478167850  0.1879070322994063
  0.5886305953399651  0.8737393541267483  0.6875240388599363
  0.0960218247976866  0.3803113641811164  0.0606689114176169
  0.0854479493154436  0.3804769215827773  0.5632523675678963
  0.0877949966689270  0.8754331093082646  0.0620050104306966
  0.0886232999014462  0.8767283292855403  0.5618240833697065
  0.4118105789144444  0.1237691932534201  0.3112987514704728
  0.4116145963862774  0.1216847679675587  0.8121659914125922
  0.4097512284264699  0.6244612323954339  0.3122912662811552
  0.4096141324262476  0.6246854747912329  0.8121517964595866
  0.9131612307213267  0.1265691964736769  0.4378643202568348
  0.9085057721167108  0.1244393839716133  0.9376608217926284
  0.9092007698909969  0.6233669234240181  0.4379632539228497
  0.9104933389364295  0.6261693635497825  0.9381597319779291
 
             NaN             NaN             NaN
             NaN             NaN             NaN
             NaN             NaN             NaN
             NaN             NaN             NaN
             NaN             NaN             NaN
             NaN             NaN             NaN
             NaN             NaN             NaN
             NaN             NaN             NaN
             NaN             NaN             NaN
             NaN             NaN             NaN
             NaN             NaN             NaN
             NaN             NaN             NaN
             NaN             NaN             NaN
             NaN             NaN             NaN
             NaN             NaN             NaN
             NaN             NaN             NaN
             NaN             NaN             NaN
             NaN             NaN             NaN
             NaN             NaN             NaN
             NaN             NaN             NaN
             NaN             NaN             NaN
             NaN             NaN             NaN
             NaN             NaN             NaN
             NaN             NaN             NaN
             NaN             NaN             NaN
             NaN             NaN             NaN
             NaN             NaN             NaN
             NaN             NaN             NaN
             NaN             NaN             NaN
             NaN             NaN             NaN
             NaN             NaN             NaN
             NaN             NaN             NaN
             NaN             NaN             NaN
             NaN             NaN             NaN
             NaN             NaN             NaN
             NaN             NaN             NaN
             NaN             NaN             NaN
             NaN             NaN             NaN
             NaN             NaN             NaN
             NaN             NaN             NaN
             NaN             NaN             NaN
             NaN             NaN             NaN
             NaN             NaN             NaN
             NaN             NaN             NaN
             NaN             NaN             NaN
             NaN             NaN             NaN
             NaN             NaN             NaN
             NaN             NaN             NaN
             NaN             NaN             NaN
             NaN             NaN             NaN
             NaN             NaN             NaN
             NaN             NaN             NaN
             NaN             NaN             NaN
             NaN             NaN             NaN
             NaN             NaN             NaN
             NaN             NaN             NaN
             NaN             NaN             NaN
             NaN             NaN             NaN
             NaN             NaN             NaN
             NaN             NaN             NaN
             NaN             NaN             NaN
             NaN             NaN             NaN
             NaN             NaN             NaN
             NaN             NaN             NaN
             NaN             NaN             NaN
             NaN             NaN             NaN
             NaN             NaN             NaN
             NaN             NaN             NaN
             NaN             NaN             NaN
             NaN             NaN             NaN
             NaN             NaN             NaN
             NaN             NaN             NaN
             NaN             NaN             NaN
             NaN             NaN             NaN
             NaN             NaN             NaN
             NaN             NaN             NaN
             NaN             NaN             NaN
             NaN             NaN             NaN
             NaN             NaN             NaN
             NaN             NaN             NaN
             NaN             NaN             NaN
             NaN             NaN             NaN
             NaN             NaN             NaN
             NaN             NaN             NaN
             NaN             NaN             NaN
             NaN             NaN             NaN
             NaN             NaN             NaN
             NaN             NaN             NaN
             NaN             NaN             NaN
             NaN             NaN             NaN
             NaN             NaN             NaN
             NaN             NaN             NaN
             NaN             NaN             NaN
             NaN             NaN             NaN
             NaN             NaN             NaN
             NaN             NaN             NaN
             NaN             NaN             NaN
             NaN             NaN             NaN
             NaN             NaN             NaN
             NaN             NaN             NaN
             NaN             NaN             NaN
             NaN             NaN             NaN
             NaN             NaN             NaN
             NaN             NaN             NaN
             NaN             NaN             NaN
             NaN             NaN             NaN
             NaN             NaN             NaN
             NaN             NaN             NaN
             NaN             NaN             NaN
             NaN             NaN             NaN
             NaN             NaN             NaN
             NaN             NaN             NaN
             NaN             NaN             NaN
             NaN             NaN             NaN
             NaN             NaN             NaN
             NaN             NaN             NaN
             NaN             NaN             NaN
             NaN             NaN             NaN
             NaN             NaN             NaN
             NaN             NaN             NaN
             NaN             NaN             NaN
             NaN             NaN             NaN
             NaN             NaN             NaN
             NaN             NaN             NaN
             NaN             NaN             NaN
             NaN             NaN             NaN
             NaN             NaN             NaN
