Li17 Co18 O36                           
   1.00000000000000     
     8.2794699999999999    0.6362880000000000    1.3377230000000000
     3.4778910000000001    7.5384700000000002    1.3447600000000000
     1.2050419999999999    0.8420760000000000    9.7550220000000003
   Li   Co   O 
    17    18    36
Direct
  0.3047618012877155  0.4680005217508306  0.5116571948857346
  0.3336771794821339  0.3330620451403803  0.0018270919933891
  0.3327475915917212  0.6680014134250535  0.0008487846164795
  0.3331870722666708  1.0007360632332738  1.0010994747757984
  0.3328554920103349  1.0008178249488988  0.5009589393692336
  0.6674475813373476  0.3332506206320970  1.0012688548835542
  0.6668945510195072  0.3354870989142996  0.5020241660135455
  0.6661273037535655  0.6680179111804962  1.0011958835242496
  0.6496629687443405  0.6671481998343283  0.5011938829329825
  0.6666250098731280  1.0004583682601860  0.0022279985883944
  0.6515780403525402  1.0161404286064486  0.5021109686101759
 -0.0005300585284589  0.3334030600893370  1.0008998788284784
  0.0107649814226185  0.3348016195457222  0.4999627311476573
 -0.0013893240856019  0.6685635520980018  0.0011736008704535
 -0.0213305901080386  0.6812990526648728  0.4989069216905407
 -0.0005754102132240  0.0018693074569998  0.9996494850169338
  0.0131634114592847  0.9878251814128975  0.5006211643521159
  0.1622597160849022  0.1696691759501378  0.2473027129772381
  0.1699980529112196  0.1658151453783536  0.7502009141347346
  0.1620165437472202  0.5021553426618961  0.2450393661557712
  0.1673946241051606  0.4983020794461077  0.7560591658244670
  0.1616711573306628  0.8379746922517721  0.2467276404253261
  0.1699015102230844  0.8304769163235157  0.7500690618976167
  0.4942934438756389  0.1698939562434366  0.2507197126351354
  0.5020350180694454  0.1628943036539642  0.7555650050490961
  0.4961823577491044  0.5031265846315748  0.2488721147143665
  0.5020865899964924  0.4987574648733579  0.7553686739674913
  0.4943527165480460  0.8344754185028705  0.2508267578963063
  0.5009771874631058  0.8312399933511138  0.7539078787016557
  0.8290357315311492  0.1697858826580501  0.2504793415023694
  0.8357888034839598  0.1654961483851610  0.7500472782963555
  0.8291556165356105  0.5014207928653565  0.2488297500278176
  0.8350901377546623  0.4994094541768213  0.7514099831681431
  0.8281475695298399  0.8358527963092673  0.2501531508382324
  0.8349048548532376  0.8320380637169318  0.7532431769576967
  0.2477115540116675  0.2564114881235033  0.3542807953646163
  0.2545576236995282  0.2503591123311791  0.8636185258262675
  0.2446183008157813  0.5958574425269856  0.3463574357683403
  0.2544350420568376  0.5863132214434038  0.8638477682070975
  0.2478288772905459  0.9267514367579186  0.3539125798676240
  0.2535319223955850  0.9196630011378331  0.8608586051452474
  0.5828343241546174  0.2579797029914309  0.3584692255583122
  0.5914231012711962  0.2500788153282373  0.8635665372739589
  0.5854588534434936  0.5869049144750825  0.3566568087439100
  0.5902437270509855  0.5842932943647317  0.8637398670756994
  0.5815025613910931  0.9221409065835017  0.3602745686051310
  0.5888714684529313  0.9172159017628979  0.8644538030111951
  0.9174611604936821  0.2555279488027885  0.3585849320716140
  0.9228778191424529  0.2523518768052284  0.8592375638180009
  0.9169027048415624  0.5882973447358483  0.3576878488030342
  0.9206348682560956  0.5854962951184947  0.8625652591366453
  0.9165030188433186  0.9226320949339171  0.3587834042505298
  0.9229746594392197  0.9194847677872456  0.8602899170085634
  0.0744738238424563  0.0839117553347092  0.1381014924479693
  0.0830845454658832  0.0785634212760021  0.6405267703023997
  0.0752218192680833  0.4158843124480836  0.1365944895400782
  0.0828619903309641  0.4154305932500421  0.6423538473496936
  0.0731257202849776  0.7513535287735560  0.1375562519693801
  0.0795240064103054  0.7425930786233746  0.6451304347582318
  0.4102376295375176  0.0814667575691089  0.1403873655328847
  0.4165097899587296  0.0747618737804867  0.6470087699780609
  0.4105434942821838  0.4147974005935816  0.1386459168166618
  0.4190471704577552  0.4069722560429734  0.6545747750043447
  0.4095930253445665  0.7497718270351289  0.1388063207007641
  0.4164539958888278  0.7447049876806464  0.6474720661947937
  0.7418379900356932  0.0825344422593436  0.1418623571308952
  0.7472649412015283  0.0784703543822956  0.6432697722734794
  0.7427702151764638  0.4150303197639597  0.1401501432791993
  0.7472499045393821  0.4133164017656559  0.6426535854412901
  0.7416062612926351  0.7491612798283651  0.1410307668310922
  0.7463987091046798  0.7466530019030893  0.6439523578688873
 
             NaN             NaN             NaN
             NaN             NaN             NaN
             NaN             NaN             NaN
             NaN             NaN             NaN
             NaN             NaN             NaN
             NaN             NaN             NaN
             NaN             NaN             NaN
             NaN             NaN             NaN
             NaN             NaN             NaN
             NaN             NaN             NaN
             NaN             NaN             NaN
             NaN             NaN             NaN
             NaN             NaN             NaN
             NaN             NaN             NaN
             NaN             NaN             NaN
             NaN             NaN             NaN
             NaN             NaN             NaN
             NaN             NaN             NaN
             NaN             NaN             NaN
             NaN             NaN             NaN
             NaN             NaN             NaN
             NaN             NaN             NaN
             NaN             NaN             NaN
             NaN             NaN             NaN
             NaN             NaN             NaN
             NaN             NaN             NaN
             NaN             NaN             NaN
             NaN             NaN             NaN
             NaN             NaN             NaN
             NaN             NaN             NaN
             NaN             NaN             NaN
             NaN             NaN             NaN
             NaN             NaN             NaN
             NaN             NaN             NaN
             NaN             NaN             NaN
             NaN             NaN             NaN
             NaN             NaN             NaN
             NaN             NaN             NaN
             NaN             NaN             NaN
             NaN             NaN             NaN
             NaN             NaN             NaN
             NaN             NaN             NaN
             NaN             NaN             NaN
             NaN             NaN             NaN
             NaN             NaN             NaN
             NaN             NaN             NaN
             NaN             NaN             NaN
             NaN             NaN             NaN
             NaN             NaN             NaN
             NaN             NaN             NaN
             NaN             NaN             NaN
             NaN             NaN             NaN
             NaN             NaN             NaN
             NaN             NaN             NaN
             NaN             NaN             NaN
             NaN             NaN             NaN
             NaN             NaN             NaN
             NaN             NaN             NaN
             NaN             NaN             NaN
             NaN             NaN             NaN
             NaN             NaN             NaN
             NaN             NaN             NaN
             NaN             NaN             NaN
             NaN             NaN             NaN
             NaN             NaN             NaN
             NaN             NaN             NaN
             NaN             NaN             NaN
             NaN             NaN             NaN
             NaN             NaN             NaN
             NaN             NaN             NaN
             NaN             NaN             NaN
