Li47 P16 O64                            
   1.00000000000000     
    10.4346049999999995   -0.0003960000000000   -0.0149880000000000
    -0.0004560000000000   12.2459369999999996   -0.0007370000000000
    -0.0141780000000000   -0.0005920000000000    9.8312449999999991
   Li   P    O 
    47    16    64
Direct
  0.6251428616579625  0.2604237269167611  0.0891642886890624
  0.6655638108179973  0.2504229585765732  0.5973360575109966
  0.6634000746840161  0.7507965443403819  0.0975967395917969
  0.6643478253027044  0.7512874934325962  0.5986136559178834
  0.1649072128511127  0.4973068694355985  0.1517111873736315
  0.1650768486071722  0.4985661355276539  0.6524467774349699
  0.1627179187696055  0.9974435847136571  0.1525652727314726
  0.1644005539726523  0.9988990153729821  0.6525073929657548
  0.3360948441430638  0.0005144488931355  0.4013747369308319
  0.3357833679064345  0.0007641428455008  0.9046092553713180
  0.3387530600467408  0.4995425015369327  0.3972882764587439
  0.3373650477308452  0.4971448436163762  0.9107562954982312
  0.8334186262599697  0.2493988027935105  0.3445457683224482
  0.8323475095244910  0.2495579952326005  0.8525744706077448
  0.8363331343704876  0.7485914675123886  0.3478430987104320
  0.8364094451691857  0.7486640920831780  0.8474672451368541
  0.3385064555505163  0.2516695246285214  0.3975012721308635
  0.3369654074203559  0.2536320689899030  0.9085472195677783
  0.3367955207147796  0.7498073192678920  0.4007193752088264
  0.3363365664495015  0.7494415907901792  0.9055499838686940
  0.8364611147106407  0.0022135349723109  0.3479165403508233
  0.8370105145525164  0.0012386384632389  0.8475636959795464
  0.8346077236235003  0.5010578857345962  0.3476321806529059
  0.8336766905064672  0.5010751900695811  0.8492316266961446
  0.6557695627237191  0.4984569475990228  0.0971519346051806
  0.6658220938964200  0.5019391915507030  0.5987484044564643
  0.6644171641425621  0.0012410347111983  0.0984523166742820
  0.6640698539445653  0.9999937314139906  0.5980033458849562
  0.1644241234204815  0.2524975876059486  0.1507506248583259
  0.1644095539498339  0.2513924644533975  0.6524983403416771
  0.1645080030038925  0.7511703962581667  0.1521602499384020
  0.1648730151307360  0.7513916549814765  0.6527842574691990
  0.9185043227184769  0.3746465839284177  0.1474756967179610
  0.9218955029223238  0.3746899318806608  0.6497467905864450
  0.9221508310240822  0.8754300707697479  0.1494037734820072
  0.9235682763088767  0.8751746967271999  0.6485401775637213
  0.4253792094418459  0.3757782250743816  0.6060078710665616
  0.4280793546542230  0.8753651469019581  0.1016204729224024
  0.4245882938689055  0.8753684800792554  0.6008072364511344
  0.0765311896819761  0.1261416493526733  0.3496208372498915
  0.0770053664875148  0.1258166534372070  0.8528327467231415
  0.0772195131814649  0.6240839454941886  0.3506586311240845
  0.0776558780543380  0.6239745222513561  0.8523507931615901
  0.5755859701980600  0.1274303092138764  0.3985564991872350
  0.5747484806758717  0.1240331308344570  0.8969601132072454
  0.5759345671760285  0.6246214933969056  0.4004567144915683
  0.5731410846695202  0.6244385882860050  0.8992329730159671
  0.9110549318396727  0.1255483067457965  0.0954417918905083
  0.9126753974171636  0.1249227024227958  0.5956874940960547
  0.9108263124501315  0.6253767303954543  0.0954519310071419
  0.9133708854624949  0.6256394315381026  0.5955053737498892
  0.4065240932455967  0.1195329442109117  0.1537772143513998
  0.4108388979906133  0.1247242463749139  0.6548001080598647
  0.4092272478063393  0.6298621152339738  0.1542879282655248
  0.4107674957590634  0.6262974745929610  0.6550599419505891
  0.0872157726649122  0.3751618724290426  0.4046817295166087
  0.0856720804299605  0.3751505049422372  0.9047128684665828
  0.0874505607790293  0.8749188331234531  0.4051729025686333
  0.0874570736556817  0.8746253101849143  0.9049666618803669
  0.5901731560530925  0.3770379365619639  0.3498643596280818
  0.5852316949913651  0.3760904507545885  0.8378426592945536
  0.5898343166769469  0.8757218845390550  0.3458824238255690
  0.5892557760259796  0.8751200083996415  0.8448651148702733
  0.8419466572915701  0.0219046399343386  0.1473214590665117
  0.8427038437363150  0.0214344835135750  0.6461390965975043
  0.8390627349307661  0.5233874357941933  0.1461778456783375
  0.8436459405954781  0.5234664684635453  0.6485505340635359
  0.3315890618458183  0.2158498172103989  0.0981003238131089
  0.3411341669079747  0.2269108682895724  0.6012483495227745
  0.3441518980716294  0.7376934522248570  0.1085290782018046
  0.3418163200630513  0.7298899914124265  0.6026084094790988
  0.1572682340543136  0.2723724306729349  0.3532211862845952
  0.1555167718420824  0.2723888220030985  0.8529008034573388
  0.1572731964750413  0.7721012261357186  0.3535833964870431
  0.1581272800085192  0.7718889002707912  0.8540833256181822
  0.6601333510989905  0.4799769183438209  0.4045780743980152
  0.6542509972829106  0.4781817081381419  0.8951941585286898
  0.6591729071779383  0.9789488806223853  0.3980544746857942
  0.6597699236189054  0.9777652774751705  0.8967746827286313
  0.1576448496365777  0.4779879272263194  0.3538579228425969
  0.1559080132922221  0.4777027084680947  0.8528763904873520
  0.1570137579873806  0.9779168632874272  0.3538812751904398
  0.1578241937891932  0.9774612572634531  0.8539336899456811
  0.6595023064366441  0.2728741634579219  0.4019077558284144
  0.6517619562920576  0.2724656319161284  0.8943493327108544
  0.6596132051995474  0.7728053292797612  0.3983960346721144
  0.6589138554106573  0.7718734771771858  0.8961220339770058
  0.8408200696011223  0.2278715434779095  0.1457953690639726
  0.8427140694340387  0.2267592757357570  0.6494212758954265
  0.8413470721722187  0.7289044080250900  0.1465256053100768
  0.8429992452982511  0.7287327539093006  0.6463825990442363
  0.3410168789761829  0.0121482026483152  0.1082140187994099
  0.3417660690132491  0.0210863418441749  0.6025519064679002
  0.3316455993496351  0.5348691671784386  0.0992580128428632
  0.3413951496726959  0.5241979775855067  0.6008081086502075
  0.5452839542217043  0.1209459055016676  0.0997644205340445
  0.5504714151575597  0.1245432108198833  0.6043900160131307
  0.5481359843506677  0.6281856175747992  0.1008595645795377
  0.5506115148281783  0.6270833881807717  0.6054130553587247
  0.0506040215533174  0.1243555276062483  0.1470066366382393
  0.0518690918153072  0.1242092505594383  0.6474863360012332
  0.0495325643649399  0.6250790347809723  0.1484343006113254
  0.0524985814016006  0.6260995996058706  0.6473249866018621
  0.4520663523151929  0.3759831572440582  0.4041693416361738
  0.4434551618138260  0.3760094711869246  0.8721797977260358
  0.4508245981601245  0.8754633742944854  0.3971781374352871
  0.4503872896778531  0.8754258576556803  0.8960844969129463
  0.9481658500101408  0.3755092482667090  0.3522551400410473
  0.9462472210138971  0.3752666373957349  0.8525702904931596
  0.9481790471048881  0.8750130779138829  0.3534260726809915
  0.9488723529669209  0.8746506715694096  0.8512577392660389
  0.5953626067121551  0.3796094734365393  0.1956365171895803
  0.5989638090648255  0.3762351831799149  0.6815503538866078
  0.5928592057905491  0.8757220764807937  0.1890900350544163
  0.5905842545807775  0.8755753669647535  0.6878831579539501
  0.0852332414685181  0.3752553492745222  0.0614744234242338
  0.0878206446189833  0.3749637130820986  0.5618376316482938
  0.0865880447888012  0.8743142933253150  0.0617382442051922
  0.0888717919299191  0.8748566132143016  0.5621705791863826
  0.4098306721885414  0.1232676330997878  0.3111957056202556
  0.4083839256198740  0.1244738618214617  0.8115959638394311
  0.4118557547831156  0.6269365084050609  0.3117928974745060
  0.4077480730937945  0.6260143575143291  0.8118302928782486
  0.9111424954165563  0.1259918922094176  0.4386752744372739
  0.9105365160336262  0.1243003102940295  0.9381500967552641
  0.9118352577816606  0.6251104817835224  0.4385382690978046
  0.9108018379458809  0.6255520422908459  0.9383141276310946
 
             NaN             NaN             NaN
             NaN             NaN             NaN
             NaN             NaN             NaN
             NaN             NaN             NaN
             NaN             NaN             NaN
             NaN             NaN             NaN
             NaN             NaN             NaN
             NaN             NaN             NaN
             NaN             NaN             NaN
             NaN             NaN             NaN
             NaN             NaN             NaN
             NaN             NaN             NaN
             NaN             NaN             NaN
             NaN             NaN             NaN
             NaN             NaN             NaN
             NaN             NaN             NaN
             NaN             NaN             NaN
             NaN             NaN             NaN
             NaN             NaN             NaN
             NaN             NaN             NaN
             NaN             NaN             NaN
             NaN             NaN             NaN
             NaN             NaN             NaN
             NaN             NaN             NaN
             NaN             NaN             NaN
             NaN             NaN             NaN
             NaN             NaN             NaN
             NaN             NaN             NaN
             NaN             NaN             NaN
             NaN             NaN             NaN
             NaN             NaN             NaN
             NaN             NaN             NaN
             NaN             NaN             NaN
             NaN             NaN             NaN
             NaN             NaN             NaN
             NaN             NaN             NaN
             NaN             NaN             NaN
             NaN             NaN             NaN
             NaN             NaN             NaN
             NaN             NaN             NaN
             NaN             NaN             NaN
             NaN             NaN             NaN
             NaN             NaN             NaN
             NaN             NaN             NaN
             NaN             NaN             NaN
             NaN             NaN             NaN
             NaN             NaN             NaN
             NaN             NaN             NaN
             NaN             NaN             NaN
             NaN             NaN             NaN
             NaN             NaN             NaN
             NaN             NaN             NaN
             NaN             NaN             NaN
             NaN             NaN             NaN
             NaN             NaN             NaN
             NaN             NaN             NaN
             NaN             NaN             NaN
             NaN             NaN             NaN
             NaN             NaN             NaN
             NaN             NaN             NaN
             NaN             NaN             NaN
             NaN             NaN             NaN
             NaN             NaN             NaN
             NaN             NaN             NaN
             NaN             NaN             NaN
             NaN             NaN             NaN
             NaN             NaN             NaN
             NaN             NaN             NaN
             NaN             NaN             NaN
             NaN             NaN             NaN
             NaN             NaN             NaN
             NaN             NaN             NaN
             NaN             NaN             NaN
             NaN             NaN             NaN
             NaN             NaN             NaN
             NaN             NaN             NaN
             NaN             NaN             NaN
             NaN             NaN             NaN
             NaN             NaN             NaN
             NaN             NaN             NaN
             NaN             NaN             NaN
             NaN             NaN             NaN
             NaN             NaN             NaN
             NaN             NaN             NaN
             NaN             NaN             NaN
             NaN             NaN             NaN
             NaN             NaN             NaN
             NaN             NaN             NaN
             NaN             NaN             NaN
             NaN             NaN             NaN
             NaN             NaN             NaN
             NaN             NaN             NaN
             NaN             NaN             NaN
             NaN             NaN             NaN
             NaN             NaN             NaN
             NaN             NaN             NaN
             NaN             NaN             NaN
             NaN             NaN             NaN
             NaN             NaN             NaN
             NaN             NaN             NaN
             NaN             NaN             NaN
             NaN             NaN             NaN
             NaN             NaN             NaN
             NaN             NaN             NaN
             NaN             NaN             NaN
             NaN             NaN             NaN
             NaN             NaN             NaN
             NaN             NaN             NaN
             NaN             NaN             NaN
             NaN             NaN             NaN
             NaN             NaN             NaN
             NaN             NaN             NaN
             NaN             NaN             NaN
             NaN             NaN             NaN
             NaN             NaN             NaN
             NaN             NaN             NaN
             NaN             NaN             NaN
             NaN             NaN             NaN
             NaN             NaN             NaN
             NaN             NaN             NaN
             NaN             NaN             NaN
             NaN             NaN             NaN
             NaN             NaN             NaN
             NaN             NaN             NaN
             NaN             NaN             NaN
             NaN             NaN             NaN
             NaN             NaN             NaN
