Mg7 Sc16 Se32
1.0
11.333229 -0.000000 0.000000
-0.000000 11.333225 -0.000001
0.000000 -0.000000 11.333226
Mg Sc Se
7 16 32
direct
0.377582 0.377582 0.377582 Mg
0.625000 0.125000 0.125000 Mg
0.125000 0.625000 0.125000 Mg
0.125000 0.125000 0.625000 Mg
0.377582 0.872418 0.872418 Mg
0.872418 0.377582 0.872418 Mg
0.872418 0.872418 0.377582 Mg
0.993739 0.750068 0.750068 Sc
0.750068 0.993739 0.750068 Sc
0.750068 0.750068 0.993739 Sc
1.000044 1.000044 1.000044 Sc
0.000044 0.249955 0.249956 Sc
0.249955 0.000045 0.249956 Sc
0.249955 0.249956 0.000044 Sc
0.750068 0.499932 0.256261 Sc
0.750068 0.256261 0.499932 Sc
-0.006261 0.499932 0.499932 Sc
0.256261 0.499932 0.750068 Sc
0.256261 0.750068 0.499932 Sc
0.499932 0.750068 0.256261 Sc
0.499932 -0.006261 0.499932 Sc
0.499932 0.256261 0.750068 Sc
0.499932 0.499932 -0.006261 Sc
0.758763 0.993137 0.993137 Se
0.993137 0.758763 0.993137 Se
0.993137 0.993137 0.758763 Se
0.759666 0.759666 0.759666 Se
0.242371 0.007629 0.007629 Se
0.007629 0.242371 0.007629 Se
0.007629 0.007629 0.242371 Se
0.242371 0.242371 0.242371 Se
0.759666 0.490334 0.490334 Se
0.993138 0.256863 0.491237 Se
0.993137 0.491237 0.256863 Se
0.758763 0.256863 0.256863 Se
0.240303 0.507793 0.507793 Se
0.009697 0.742207 0.507793 Se
0.009697 0.507793 0.742207 Se
0.240303 0.742207 0.742207 Se
0.256862 0.993137 0.491237 Se
0.490334 0.759666 0.490334 Se
0.491237 0.993137 0.256863 Se
0.256863 0.758763 0.256863 Se
0.742207 0.009698 0.507793 Se
0.507793 0.240303 0.507793 Se
0.507793 0.009697 0.742207 Se
0.742207 0.240302 0.742207 Se
0.256863 0.491237 0.993137 Se
0.491237 0.256863 0.993137 Se
0.490334 0.490334 0.759666 Se
0.256863 0.256863 0.758763 Se
0.742207 0.507793 0.009698 Se
0.507793 0.742207 0.009698 Se
0.507793 0.507793 0.240303 Se
0.742207 0.742207 0.240303 Se
