Na47 P16 S64                            
   1.00000000000000     
    14.0190649999999994   -0.0168470000000000   -0.0000480000000000
    -0.0169790000000000   14.0437539999999998    0.0000110000000000
    -0.0000240000000000   -0.0000280000000000   14.3745069999999995
   Na   P    S 
    47    16    64
Direct
  0.6619836627543230  0.7512023083726205  0.7495319956672937
  0.9999803264075988  0.2501904872578234  0.2040961593912724
  0.9998715116451915  0.2500438835876693  0.7032730983280794
  0.9997108099646839  0.7502566877940929  0.2092717553166074
  0.9956878739837576  0.7506130154356123  0.7121205475372433
  0.5000045623955592  0.2498186899643129  0.2062969010461121
  0.5002018772857528  0.2501326312719724  0.7059072562911821
  0.5001729158969761  0.7498099428800830  0.2117175484330004
  0.2489216982425281  0.9987926340514734  0.2900363117820574
  0.2472588266796911  0.9983082158200163  0.7882059730034761
  0.2524021929620121  0.5008476276705091  0.2978797284577787
  0.2504128747842461  0.5046577102630618  0.7956579566535096
  0.7476365611405806  0.9990170479392831  0.2970518668838384
  0.7494579763201494  0.9922972101539537  0.7939405252690909
  0.7510229466149348  0.5013798093598399  0.2891417685743267
  0.7535161433064826  0.5054605527871137  0.7865986727771900
  0.2536459576353000  0.9988619763514432  0.0386698896749319
  0.2421199303853322  0.0010345354277266  0.5386314095974252
  0.2471392302455874  0.4996512289151375  0.0476538468080989
  0.2562106058443251  0.5042854956361243  0.5482946257304283
  0.7526087480522254  0.0005052071623637  0.0464801209140678
  0.7439734962161551  0.9963399839757190  0.5465403307945798
  0.7462824172652862  0.5010666713559544  0.0376222893808374
  0.7582660238273176  0.4984105521503733  0.5370908625513653
  0.9999639895679803  0.2495611405371872  0.4537083758332176
  0.9995567763013217  0.2508090460954078  0.9527719099030533
  1.0001003915714255  0.7494986046069987  0.4608455830329058
  1.0000048958489713  0.7508611851805016  0.9580942187070499
  0.5000261714395466  0.2504612078210666  0.4561430685988427
  0.5003898570476145  0.2492098387596003  0.9542896277315553
  0.4999357062437748  0.7505385548792057  0.4785648515031877
  0.4989860820935682  0.7491202465822240  0.9529076785164191
  0.9888425373522837  0.9995523976137537  0.5004452743498795
  0.0011941717572099  0.0063307506159907  0.9994436553946109
  0.0120353254949914  0.4987829219852050  0.4999464138625787
  0.9986934105331409  0.4964765049898535  0.9988592967712564
  0.4928915159845473  0.9990120542763040  0.5005943017728750
  0.5075911572504338  0.9999256160526154  0.0007965270592834
  0.5058496151177392  0.5026617346266516  0.5013430631500309
  0.4918035856369286  0.4974525849486828  0.0016739036973016
  0.2485626277238433  0.2522483316113082  0.2497371168924367
  0.2483554659364819  0.2548395804871874  0.7500793577401391
  0.2514279343930076  0.7469496187604163  0.2499496882090363
  0.3108194946956128  0.7494286583741532  0.7504791026350328
  0.7514613847517571  0.2477815096697157  0.2495623901344752
  0.7517132561453116  0.2451190813543031  0.7502614336091465
  0.7484377621323761  0.7530576810876040  0.2494657490644150
  0.9986322322795651  0.0009979646397095  0.2492363768410403
  0.9981612549570399  0.0031420499061874  0.7503306101935762
  0.0015429421102784  0.4992383146854976  0.2493535909911870
  0.0023830352855195  0.4972762195344424  0.7493319944944627
  0.4995229553889718  0.0003945244679515  0.2505229843544229
  0.4983151668486845  0.0005839893617164  0.7506050423426052
  0.5003394334573946  0.4993467127687403  0.2506688866031238
  0.5004380870371310  0.4992021990195843  0.7511198854963781
  0.2496745543228826  0.2508564887656392  0.0000691198691303
  0.2495838431060438  0.2516086504801505  0.4993064087882242
  0.2504434459834677  0.7482048133319419  0.0014448589392553
  0.2484942554969248  0.7523890021514414  0.4976020309305665
  0.7502706269029271  0.2490966543487944 -0.0000766528516049
  0.7503731007461801  0.2482916770173900  0.4991810758822255
  0.7494924841915853  0.7507724668399002  0.0015982018711712
  0.7518540956642557  0.7480077693987387  0.4964115109971826
  0.1556570197170475  0.1738429504603807  0.0819920606841870
  0.1546064983288837  0.1763246851417825  0.5811498653421987
  0.1536279530269390  0.6753272245980355  0.0835940051665787
  0.1561364409398480  0.6770071502568399  0.5816887526595454
  0.6550128921066152  0.1745613922760691  0.0827883470260650
  0.6544065210110932  0.1746407178260479  0.5812101894040285
  0.6548619212328500  0.6754283029584305  0.0838740450863552
  0.6589327102396533  0.6671147785001039  0.5750413995273970
  0.3450650512431642  0.3252926200068026  0.0828001412191581
  0.3454835738519756  0.3255571093639339  0.5812710911932523
  0.3449321305497666  0.8240208655050291  0.0836126381868747
  0.3417208295212080  0.8324956517510012  0.5762847860869378
  0.8442783225172956  0.3262525235391368  0.0818826262051194
  0.8455132787040867  0.3233964503960120  0.5810468929616687
  0.8453740850222885  0.8253062235267556  0.0834983383144142
  0.8444708417609197  0.8240576949882572  0.5793240088797997
  0.1744305816091682  0.3472836524347485  0.4181013082875096
  0.1740418436399369  0.3469478963066536  0.9200801668249934
  0.1712703379687867  0.8425078104442877  0.4118906811962071
  0.1784097437431276  0.8402287717868692  0.9151292556213267
  0.6767364978405918  0.3430545906837847  0.4157964926615672
  0.6762503509279664  0.3425348274330818  0.9162009650797692
  0.6723930237594696  0.8424123039967253  0.4170655739491923
  0.6721204846413840  0.8491061449801945  0.9240400894892690
  0.3235169891785205  0.1569512654870782  0.4160306598019051
  0.3238362087486207  0.1573454503705057  0.9164102578660748
  0.3273651608021180  0.6574737627249418  0.4180069951662310
  0.3269960266422570  0.6493617477705080  0.9244183290200678
  0.8253480956555775  0.1524056341604588  0.4179983193710964
  0.8258092448861662  0.1529194927761186  0.9199367797703750
  0.8286770187106931  0.6575571895264286  0.4107161233837919
  0.8228260375111361  0.6584555378338344  0.9171283383186596
  0.0965063816067955  0.4229012347829746  0.1684044488875818
  0.1011781755416645  0.4225631767722444  0.6707822851340870
  0.0924709014149799  0.9267687032254995  0.1653794003216483
  0.0892672958843267  0.9277729940996379  0.6652934617558871
  0.5937133270943462  0.4247135318619275  0.1663688443136135
  0.5954231376718132  0.4253491136592618  0.6678792910592815
  0.5956083715830183  0.9251991092933635  0.1699363039005472
  0.5898918950372413  0.9236935413511100  0.6670511623528977
  0.4061055067260582  0.0749634530680887  0.1661838791112547
  0.4035078461980195  0.0758615183468378  0.6681989862932597
  0.4041642316725162  0.5746110373156903  0.1700556918595285
  0.4090206895553815  0.5779852299370593  0.6697902362782252
  0.9035668714862989  0.0773522221265780  0.1684216983122845
  0.8994927671140648  0.0768079182186516  0.6706841891026423
  0.9077684942417973  0.5734518552840560  0.1655350858468319
  0.9114734597019026  0.5714237362997580  0.6631360380664267
  0.0748251749668799  0.0945786433003524  0.3321202435519237
  0.0766124456066906  0.0994298926927566  0.8286976641462689
  0.0766928131660945  0.5944966895732112  0.3310220246754395
  0.0729916967173976  0.5918625504411148  0.8347842863291226
  0.5737079361902307  0.0959049284064196  0.3331015281691753
  0.5771606121937207  0.0958449243712173  0.8298467447830210
  0.5758429243736578  0.5935706664946836  0.3324581097086581
  0.5769773629944800  0.5859649980758823  0.8406753133282046
  0.4260526145860362  0.4039017117149027  0.3332360013172360
  0.4226610946162703  0.4025564084917559  0.8298539167011075
  0.4238836338688822  0.9061805694284720  0.3323930836537676
  0.4224360713177018  0.9121282891961665  0.8383107784251436
  0.9253316320140442  0.4055575829510570  0.3321316917707970
  0.9234352052409142  0.4021130675997566  0.8285368220739863
  0.9236679582768013  0.9056448362305323  0.3308412583674489
  0.9274347140178324  0.9095982010115066  0.8366937504470823
 
             NaN             NaN             NaN
             NaN             NaN             NaN
             NaN             NaN             NaN
             NaN             NaN             NaN
             NaN             NaN             NaN
             NaN             NaN             NaN
             NaN             NaN             NaN
             NaN             NaN             NaN
             NaN             NaN             NaN
             NaN             NaN             NaN
             NaN             NaN             NaN
             NaN             NaN             NaN
             NaN             NaN             NaN
             NaN             NaN             NaN
             NaN             NaN             NaN
             NaN             NaN             NaN
             NaN             NaN             NaN
             NaN             NaN             NaN
             NaN             NaN             NaN
             NaN             NaN             NaN
             NaN             NaN             NaN
             NaN             NaN             NaN
             NaN             NaN             NaN
             NaN             NaN             NaN
             NaN             NaN             NaN
             NaN             NaN             NaN
             NaN             NaN             NaN
             NaN             NaN             NaN
             NaN             NaN             NaN
             NaN             NaN             NaN
             NaN             NaN             NaN
             NaN             NaN             NaN
             NaN             NaN             NaN
             NaN             NaN             NaN
             NaN             NaN             NaN
             NaN             NaN             NaN
             NaN             NaN             NaN
             NaN             NaN             NaN
             NaN             NaN             NaN
             NaN             NaN             NaN
             NaN             NaN             NaN
             NaN             NaN             NaN
             NaN             NaN             NaN
             NaN             NaN             NaN
             NaN             NaN             NaN
             NaN             NaN             NaN
             NaN             NaN             NaN
             NaN             NaN             NaN
             NaN             NaN             NaN
             NaN             NaN             NaN
             NaN             NaN             NaN
             NaN             NaN             NaN
             NaN             NaN             NaN
             NaN             NaN             NaN
             NaN             NaN             NaN
             NaN             NaN             NaN
             NaN             NaN             NaN
             NaN             NaN             NaN
             NaN             NaN             NaN
             NaN             NaN             NaN
             NaN             NaN             NaN
             NaN             NaN             NaN
             NaN             NaN             NaN
             NaN             NaN             NaN
             NaN             NaN             NaN
             NaN             NaN             NaN
             NaN             NaN             NaN
             NaN             NaN             NaN
             NaN             NaN             NaN
             NaN             NaN             NaN
             NaN             NaN             NaN
             NaN             NaN             NaN
             NaN             NaN             NaN
             NaN             NaN             NaN
             NaN             NaN             NaN
             NaN             NaN             NaN
             NaN             NaN             NaN
             NaN             NaN             NaN
             NaN             NaN             NaN
             NaN             NaN             NaN
             NaN             NaN             NaN
             NaN             NaN             NaN
             NaN             NaN             NaN
             NaN             NaN             NaN
             NaN             NaN             NaN
             NaN             NaN             NaN
             NaN             NaN             NaN
             NaN             NaN             NaN
             NaN             NaN             NaN
             NaN             NaN             NaN
             NaN             NaN             NaN
             NaN             NaN             NaN
             NaN             NaN             NaN
             NaN             NaN             NaN
             NaN             NaN             NaN
             NaN             NaN             NaN
             NaN             NaN             NaN
             NaN             NaN             NaN
             NaN             NaN             NaN
             NaN             NaN             NaN
             NaN             NaN             NaN
             NaN             NaN             NaN
             NaN             NaN             NaN
             NaN             NaN             NaN
             NaN             NaN             NaN
             NaN             NaN             NaN
             NaN             NaN             NaN
             NaN             NaN             NaN
             NaN             NaN             NaN
             NaN             NaN             NaN
             NaN             NaN             NaN
             NaN             NaN             NaN
             NaN             NaN             NaN
             NaN             NaN             NaN
             NaN             NaN             NaN
             NaN             NaN             NaN
             NaN             NaN             NaN
             NaN             NaN             NaN
             NaN             NaN             NaN
             NaN             NaN             NaN
             NaN             NaN             NaN
             NaN             NaN             NaN
             NaN             NaN             NaN
             NaN             NaN             NaN
             NaN             NaN             NaN
             NaN             NaN             NaN
             NaN             NaN             NaN
