Na47 P16 S64
1.0
14.019065 -0.016847 -0.000048
-0.016979 14.043754 0.000011
-0.000024 -0.000028 14.374507
Na P S
47 16 64
direct
0.662408 0.749710 0.746645 Na
0.999986 0.250160 0.204141 Na
0.999882 0.250022 0.703234 Na
0.999815 0.750154 0.209061 Na
0.996188 0.750557 0.712330 Na
0.500024 0.249834 0.206547 Na
0.500123 0.249981 0.706064 Na
0.500182 0.749854 0.211211 Na
0.248955 0.998848 0.289991 Na
0.247496 0.998049 0.787964 Na
0.252314 0.500697 0.297968 Na
0.250592 0.504955 0.795519 Na
0.747697 0.999152 0.297232 Na
0.748873 0.991354 0.793758 Na
0.751033 0.501312 0.289249 Na
0.753041 0.505640 0.786222 Na
0.253651 0.998818 0.038473 Na
0.242351 1.001021 0.538487 Na
0.247267 0.499736 0.047585 Na
0.255972 0.504132 0.548199 Na
0.752779 1.000297 0.046545 Na
0.743912 0.996177 0.546964 Na
0.746313 0.501148 0.037441 Na
0.757755 0.498680 0.537251 Na
0.999947 0.249630 0.453672 Na
0.999640 0.250721 0.952715 Na
0.999978 0.749586 0.460897 Na
0.999939 0.750827 0.958439 Na
0.500057 0.250367 0.456441 Na
0.500363 0.249276 0.954418 Na
0.500016 0.750411 0.478246 Na
0.500058 0.749170 0.951720 Na
0.988935 0.999811 0.500385 Na
0.001106 0.006122 -0.000622 Na
0.011677 0.498814 0.499884 Na
0.998890 0.496141 0.998873 Na
0.493544 -0.001232 0.500745 Na
0.507936 0.999686 1.000750 Na
0.505823 0.502606 0.501254 Na
0.492068 0.498042 0.001262 Na
0.248556 0.252313 0.249687 Na
0.248406 0.254885 0.750146 Na
0.251602 0.746973 0.249956 Na
0.310149 0.749733 0.750561 Na
0.751449 0.247693 0.249561 Na
0.751599 0.245114 0.750306 Na
0.748403 0.753033 0.249829 Na
-0.001357 0.000956 0.249357 P
0.998046 0.002967 0.750145 P
0.001556 0.499214 0.249316 P
0.002302 0.497423 0.749387 P
0.499511 0.000422 0.250588 P
0.498770 1.000327 0.750413 P
0.500290 0.499405 0.250635 P
0.500883 0.499279 0.751173 P
0.249633 0.250887 0.000072 P
0.249542 0.251653 0.499312 P
0.250527 0.748429 0.001291 P
0.248444 0.752136 0.497636 P
0.750376 0.249113 0.000058 P
0.750464 0.248355 0.499155 P
0.749468 0.751570 0.001687 P
0.751547 0.747863 0.497062 P
0.155573 0.173800 0.081921 S
0.154583 0.176298 0.581201 S
0.153836 0.675262 0.083467 S
0.155617 0.676528 0.581073 S
0.655160 0.174503 0.082950 S
0.654460 0.174626 0.581202 S
0.655256 0.675472 0.083998 S
0.658558 0.667429 0.575881 S
0.344968 0.325327 0.082904 S
0.345468 0.325543 0.581327 S
0.345015 0.824128 0.083560 S
0.341473 0.832095 0.576822 S
0.844316 0.326371 0.081962 S
0.845502 0.323559 0.581070 S
0.845889 0.825140 0.083903 S
0.844342 0.823942 0.580136 S
0.174297 0.347374 0.418197 S
0.174035 0.347015 0.920075 S
0.171486 0.842671 0.412091 S
0.178137 0.840621 0.915453 S
0.676743 0.343079 0.415786 S
0.676156 0.342477 0.916358 S
0.672492 0.842528 0.417526 S
0.672259 0.849873 0.924737 S
0.323465 0.157064 0.415963 S
0.323869 0.157449 0.916405 S
0.327473 0.657459 0.418102 S
0.327136 0.649936 0.923978 S
0.825501 0.152493 0.418029 S
0.825946 0.153051 0.920024 S
0.828537 0.657337 0.411519 S
0.822458 0.659570 0.916211 S
0.096590 0.422816 0.168489 S
0.100957 0.422686 0.670783 S
0.092499 0.926726 0.165573 S
0.089218 0.927647 0.665169 S
0.593654 0.424794 0.166350 S
0.595541 0.425041 0.667814 S
0.595714 0.925238 0.170105 S
0.590305 0.922886 0.667664 S
0.406153 0.075013 0.166292 S
0.403894 0.075458 0.668000 S
0.404056 0.574644 0.170131 S
0.409130 0.577813 0.669508 S
0.903606 0.077377 0.168548 S
0.899605 0.076817 0.670592 S
0.907733 0.573394 0.165549 S
0.911341 0.571655 0.663335 S
0.074852 0.094543 0.332279 S
0.076598 0.098937 0.828794 S
0.076668 0.594538 0.331000 S
0.073060 0.591949 0.834811 S
0.573698 0.095879 0.333272 S
0.577231 0.095833 0.829845 S
0.575849 0.593682 0.332415 S
0.577320 0.586602 0.839841 S
0.426099 0.403974 0.333334 S
0.422815 0.402826 0.829969 S
0.423876 0.906138 0.332391 S
0.422525 0.912065 0.838303 S
0.925350 0.405590 0.332216 S
0.923359 0.402390 0.828669 S
0.923606 0.905636 0.331015 S
0.927092 0.909381 0.836337 S
