Na47 P16 S64                            
   1.00000000000000     
    14.0141989999999996   -0.0120580000000000   -0.0000550000000000
    -0.0121580000000000   14.0318369999999994    0.0000000000000000
    -0.0000320000000000   -0.0000390000000000   14.3923109999999994
   Na   P    S 
    47    16    64
Direct
  0.6244376681092283  0.7527126739373534  0.7460365337953655
  0.9999037875343106  0.2505614907447213  0.2040350124129409
  0.9996119112130165  0.2501157304915906  0.7033406365052737
  0.9991904242839853  0.7507166516693066  0.2094987197596474
  0.9877491823417427  0.7518433068430653  0.7132989557220436
  0.5000503465325238  0.2494539444887105  0.2056175852795548
  0.5005268093180020  0.2503355995221713  0.7051836168826885
  0.5005199002609668  0.7494560122393225  0.2116062863526893
  0.2487500660082750  0.9990414664109041  0.2919381458028908
  0.2479368892175177  0.9988864826845221  0.7909353857041957
  0.2520859224805295  0.5006494751838744  0.2974042985079529
  0.2502531614519620  0.5030632294379704  0.7959067965158483
  0.7479891475277041  0.9989265263224820  0.2950251588930127
  0.7488872230419178  0.9867428630315531  0.7904383731691412
  0.7511331213363925  0.5014346441652039  0.2894414833455682
  0.7544980313784438  0.5126453326626562  0.7857838237227899
  0.2532924460067177  0.9991008837065704  0.0410845835649826
  0.2424519391754830  0.9998784450980286  0.5413280471900657
  0.2468481678406692  0.4998241775302089  0.0473584288456674
  0.2563141586140801  0.5042592834192452  0.5484900057992338
  0.7524121433692992  0.0005583893364603  0.0437649279888008
  0.7444577013691442  0.9976850544097233  0.5434147313724906
  0.7463176499304004  0.5005897582466892  0.0378771235055761
  0.7584569928905295  0.4986389520747326  0.5369883653835072
  0.9998768612903686  0.2487615685951572  0.4536568130722383
  0.9987077226983199  0.2523470755181424  0.9525382331605059
  1.0002916537198352  0.7485704683550400  0.4612693787103267
  1.0000605290414895  0.7526307123232100  0.9590627677950851
  0.5001288174593416  0.2513387238630249  0.4553593227827756
  0.5010956075396037  0.2477221460293738  0.9536663129377341
  0.5000086367370236  0.7513786919944617  0.4739854781146866
  0.4979071525663685  0.7468987679140984  0.9585454435263103
  0.9902088075514721  0.9978556124156771  0.5010226376201607
  0.0024039918303382  0.0082566852584417  0.0000660081105470
  0.0122149248049234  0.4974220289873554  0.4995265667544993
  0.9971992673424396  0.4997385067538717  0.9984185546818953
  0.4905434266175276  0.0013489294515091  0.4993652259622582
  0.5065198787123734  0.9981960716982380  0.9997581032849094
  0.5059576266213872  0.5035509639436996  0.5017589667298417
  0.4919009795468634  0.4937801035601662  0.0024768689942574
  0.2489672094759253  0.2516119596528034  0.2498293182486176
  0.2488890288011307  0.2533986741897696  0.7500116765399210
  0.2509211274739404  0.7477741231628010  0.2503798107033780
  0.2934277693280684  0.7488937830837612  0.7492500799024872
  0.7510676652545686  0.2484480111560375  0.2493307877274819
  0.7513340889634503  0.2465227140355717  0.7505922019131046
  0.7487540592631952  0.7522590381193534  0.2491706638460462
  0.9989740864516042  0.0011956731753103  0.2492976717811649
  0.9987359938140834  0.0033050442727346  0.7512324320185725
  0.0015577694066281  0.4994874425326896  0.2496010754298708
  0.0027334160166585  0.4979652109776734  0.7484872602121422
  0.4992525068187857  0.0002156312366642  0.2500896996183778
  0.4973891279818153  0.0012559818985442  0.7494161723434785
  0.5002619114494109  0.4990963896314653  0.2505100688858682
  0.4999017121777101  0.4981783440126044  0.7519344737614004
  0.2497482282257213  0.2505446849571235  0.0001440979579064
  0.2496951763581207  0.2511238785802242  0.4993813434024945
  0.2502190126583975  0.7484558205813074  0.0014419801460180
  0.2490515073685550  0.7521826897538627  0.4983112651898949
  0.7501166470721284  0.2492429955217197 -0.0001800640822207
  0.7502440294911661  0.2488101689204333  0.4989829087300522
  0.7494796121748676  0.7492516389605882  0.0015992257947774
  0.7518968231304409  0.7486961483298231  0.4954559738031178
  0.1554138023091584  0.1740986617053529  0.0821226928015505
  0.1546222742729676  0.1759106634304758  0.5811102289607391
  0.1533976887012725  0.6758175194199867  0.0837006754458095
  0.1567699122897508  0.6773506773958810  0.5829784069695352
  0.6551293999547427  0.1741982221218722  0.0826431740955551
  0.6542966151570423  0.1752194350857874  0.5808913734514486
  0.6545652164103781  0.6745811298128179  0.0843161744532542
  0.6587370458429915  0.6681838241626182  0.5742332399227179
  0.3451352071574191  0.3252408282496435  0.0825943342771395
  0.3454257049498617  0.3255137505340790  0.5811083066100881
  0.3451636303666827  0.8238925157598479  0.0835930421820576
  0.3431694221458853  0.8309876855453977  0.5770050467614406
  0.8442844872164874  0.3261909374037006  0.0818900088121470
  0.8457712251097446  0.3233924429001802  0.5807510648952865
  0.8437394135196624  0.8261972388827022  0.0833872524784859
  0.8450970322907949  0.8255255857120221  0.5767814159193099
  0.1745171628174832  0.3465679667245301  0.4179244699001409
  0.1742577108634006  0.3463973570682971  0.9197684933213081
  0.1714061930043276  0.8428399153269192  0.4133764661184402
  0.1781330685199050  0.8414219774256870  0.9158631420335911
  0.6766981149208041  0.3439846782247480  0.4159166471809417
  0.6760353372613009  0.3431464911494848  0.9167369500416025
  0.6727507290904120  0.8427650204780590  0.4155903361424669
  0.6715068949824688  0.8453645159304226  0.9219593400884535
  0.3240659716936866  0.1562181526475882  0.4165911116514780
  0.3241567994067096  0.1564244246418166  0.9171946223638960
  0.3268541786151531  0.6569764996124836  0.4179037771045841
  0.3259568189265587  0.6500531601293172  0.9235328482428368
  0.8248176730638133  0.1527409243963566  0.4175640416202697
  0.8253750163524151  0.1532526489953818  0.9194115581400294
  0.8284517433132683  0.6573527305269983  0.4105179488087123
  0.8257367065054483  0.6554767398654977  0.9211072108130703
  0.0963451766711528  0.4234451693931361  0.1681534579806284
  0.1015755083370161  0.4222121770820463  0.6708886287661828
  0.0931909012944351  0.9266872755230607  0.1659349803576445
  0.0898672974657922  0.9262918556361770  0.6674542221580473
  0.5940649101279991  0.4241050463422191  0.1669663855312156
  0.5957699005460689  0.4258013645397948  0.6685902330270589
  0.5950190888902811  0.9250997885807377  0.1691579601962382
  0.5886610000384490  0.9275036037555033  0.6627304473695186
  0.4054359185921002  0.0749913288356000  0.1664399443073533
  0.4009631793071404  0.0773977057196210  0.6697101179171824
  0.4043602431557088  0.5743135377999503  0.1694650393285499
  0.4093686903041892  0.5787073626725210  0.6713551891416596
  0.9039461404770660  0.0772766914695256  0.1681863428974914
  0.9002938760998509  0.0760552283181042  0.6705938488499918
  0.9075162451613287  0.5739050718546366  0.1663610382696229
  0.9122629030110175  0.5715354197922942  0.6612877774181528
  0.0748944901415588  0.0950510979195142  0.3320773435216332
  0.0769548752319082  0.1005388706275735  0.8286451972416711
  0.0769460245193037  0.5945492682569604  0.3313363717176452
  0.0733576987561051  0.5932652996095606  0.8332482894807459
  0.5736674584435124  0.0956023834749930  0.3325660194185950
  0.5771832739898599  0.0948102118482089  0.8293773739919351
  0.5755135368891426  0.5935568897452197  0.3321937160453790
  0.5753983583313279  0.5840767042837063  0.8431463444686866
  0.4256478767549796  0.4038921094235490  0.3329432338575949
  0.4219239818833106  0.4005047518489574  0.8291297096842519
  0.4237033483065579  0.9057749757738337  0.3319923341975472
  0.4242275057834710  0.9088882061858862  0.8352084033967966
  0.9256383334522750  0.4053481568678357  0.3321069888525676
  0.9230501299199694  0.4039095025550340  0.8281316133911008
  0.9241048043487341  0.9059066733950450  0.3308647169882356
  0.9277664078558940  0.9108816224235250  0.8386294667098169
 
             NaN             NaN             NaN
             NaN             NaN             NaN
             NaN             NaN             NaN
             NaN             NaN             NaN
             NaN             NaN             NaN
             NaN             NaN             NaN
             NaN             NaN             NaN
             NaN             NaN             NaN
             NaN             NaN             NaN
             NaN             NaN             NaN
             NaN             NaN             NaN
             NaN             NaN             NaN
             NaN             NaN             NaN
             NaN             NaN             NaN
             NaN             NaN             NaN
             NaN             NaN             NaN
             NaN             NaN             NaN
             NaN             NaN             NaN
             NaN             NaN             NaN
             NaN             NaN             NaN
             NaN             NaN             NaN
             NaN             NaN             NaN
             NaN             NaN             NaN
             NaN             NaN             NaN
             NaN             NaN             NaN
             NaN             NaN             NaN
             NaN             NaN             NaN
             NaN             NaN             NaN
             NaN             NaN             NaN
             NaN             NaN             NaN
             NaN             NaN             NaN
             NaN             NaN             NaN
             NaN             NaN             NaN
             NaN             NaN             NaN
             NaN             NaN             NaN
             NaN             NaN             NaN
             NaN             NaN             NaN
             NaN             NaN             NaN
             NaN             NaN             NaN
             NaN             NaN             NaN
             NaN             NaN             NaN
             NaN             NaN             NaN
             NaN             NaN             NaN
             NaN             NaN             NaN
             NaN             NaN             NaN
             NaN             NaN             NaN
             NaN             NaN             NaN
             NaN             NaN             NaN
             NaN             NaN             NaN
             NaN             NaN             NaN
             NaN             NaN             NaN
             NaN             NaN             NaN
             NaN             NaN             NaN
             NaN             NaN             NaN
             NaN             NaN             NaN
             NaN             NaN             NaN
             NaN             NaN             NaN
             NaN             NaN             NaN
             NaN             NaN             NaN
             NaN             NaN             NaN
             NaN             NaN             NaN
             NaN             NaN             NaN
             NaN             NaN             NaN
             NaN             NaN             NaN
             NaN             NaN             NaN
             NaN             NaN             NaN
             NaN             NaN             NaN
             NaN             NaN             NaN
             NaN             NaN             NaN
             NaN             NaN             NaN
             NaN             NaN             NaN
             NaN             NaN             NaN
             NaN             NaN             NaN
             NaN             NaN             NaN
             NaN             NaN             NaN
             NaN             NaN             NaN
             NaN             NaN             NaN
             NaN             NaN             NaN
             NaN             NaN             NaN
             NaN             NaN             NaN
             NaN             NaN             NaN
             NaN             NaN             NaN
             NaN             NaN             NaN
             NaN             NaN             NaN
             NaN             NaN             NaN
             NaN             NaN             NaN
             NaN             NaN             NaN
             NaN             NaN             NaN
             NaN             NaN             NaN
             NaN             NaN             NaN
             NaN             NaN             NaN
             NaN             NaN             NaN
             NaN             NaN             NaN
             NaN             NaN             NaN
             NaN             NaN             NaN
             NaN             NaN             NaN
             NaN             NaN             NaN
             NaN             NaN             NaN
             NaN             NaN             NaN
             NaN             NaN             NaN
             NaN             NaN             NaN
             NaN             NaN             NaN
             NaN             NaN             NaN
             NaN             NaN             NaN
             NaN             NaN             NaN
             NaN             NaN             NaN
             NaN             NaN             NaN
             NaN             NaN             NaN
             NaN             NaN             NaN
             NaN             NaN             NaN
             NaN             NaN             NaN
             NaN             NaN             NaN
             NaN             NaN             NaN
             NaN             NaN             NaN
             NaN             NaN             NaN
             NaN             NaN             NaN
             NaN             NaN             NaN
             NaN             NaN             NaN
             NaN             NaN             NaN
             NaN             NaN             NaN
             NaN             NaN             NaN
             NaN             NaN             NaN
             NaN             NaN             NaN
             NaN             NaN             NaN
             NaN             NaN             NaN
             NaN             NaN             NaN
             NaN             NaN             NaN
