Na15 V32 O64                            
   1.00000000000000     
     9.2569590000000002    0.0096390000000000   -0.0007750000000000
     0.0121820000000000   11.8414110000000008    0.0046160000000000
    -0.0014050000000000    0.0050570000000000   10.7927429999999998
   Na   V    O 
    15    32    64
Direct
  0.7470215040224298  0.5133747836810889  0.1556889689482767
  0.7467709399393695  0.0636598979188710  0.1518061636651910
  0.7433928689684509  0.7937132675413608  0.1532337909821575
  0.2446203994586669  0.0504189619744987  0.3519445858870969
  0.2438123318474763  0.2997813533990246  0.3433728582068035
  0.2455938632711744  0.5499450258451809  0.3518895524261257
  0.2436060885051693  0.7990184321896364  0.3443542699195878
  0.2562818890108989  0.1704402178422203  0.8461985493976586
  0.2568216604270633  0.4202597995989958  0.8517425071428258
  0.2568112018567637  0.6710248480383159  0.8488036652897528
  0.2555620960993676  0.9206349215086753  0.8522147409648857
  0.7570109481192459  0.1730455317721658  0.6497077596725743
  0.7569998517201716  0.4239465210451558  0.6522166001348472
  0.7597253230806472  0.6723417040646904  0.6509708340734709
  0.7579913690135660  0.9246782967516998  0.6522072138130949
  0.5818525684601109  0.0422912792476495  0.8981961793905705
  0.5840137143522691  0.2946960748207286  0.8918040631887527
  0.5827891132750915  0.5479849157472434  0.8998274917522276
  0.5848792176784333  0.7937889507377981  0.8979286021266115
  0.0826652382678928  0.0489661622376984  0.6050635707106111
  0.0832122632177889  0.2999679650070714  0.6007199622282389
  0.0821131220884795  0.5479525677622109  0.6061399623626054
  0.0795323317784239  0.8023623971444561  0.6000637419359148
  0.4162830088483109  0.1708708759314947  0.1013122545278579
  0.4170143347316308  0.4198589498612481  0.1063584560357519
  0.4194805473654482  0.6699984295929804  0.1035560818280830
  0.4191847942182023  0.9210688692545994  0.1079336651234957
  0.9160929339031032  0.1765063197387633  0.3942135732469182
  0.9207912483440566  0.4236576729866080  0.3972396206209520
  0.9192733115149372  0.6748556035288823  0.3939914369545758
  0.9186341535551670  0.9268044938784786  0.3951039788556912
  0.5659263993473042  0.0478867128423285  0.3887377830562087
  0.5661592872534358  0.2990635713775138  0.3838769667013093
  0.5673798178799486  0.5489950220056680  0.3875002636858836
  0.5642089526532907  0.7955743922276639  0.3871156390118390
  0.0685308916639413  0.0458991829083817  0.1103464057184230
  0.0554639354043806  0.2968755800654567  0.1128859180806375
  0.0688422809653002  0.5462983498817098  0.1118567549646858
  0.0628379291041486  0.7970369035142152  0.1133353701743922
  0.4348258866821086  0.1724252474601629  0.6141907903672684
  0.4394230587745618  0.4258440051707034  0.6127609729282291
  0.4365193876701770  0.6717766277870397  0.6142312173119464
  0.4378245195704162  0.9177657593624521  0.6116264036604884
  0.9380834713503932  0.1737744451637627  0.8861157924939619
  0.9338338478639187  0.4200221389897086  0.8859142300866021
  0.9392923084063720  0.6726643718224531  0.8874925630351714
  0.9325460464876391  0.9202732216957135  0.8877410879278859
  0.7906910905970361  0.0490047802179381  0.8460703333474886
  0.7946015698759155  0.2883804145895096  0.8448399932708079
  0.7932434036978656  0.5497952028636055  0.8463344496437890
  0.7942950633464788  0.7890035214008021  0.8480014430554403
  0.2970648336064827  0.0464847843107470  0.6462978580447621
  0.2972489520622045  0.2976779510075968  0.6490509654337528
  0.2955731359526519  0.5396216718414111  0.6502783876659830
  0.2960920924358522  0.8055520908839495  0.6526798275699630
  0.2073443030531040  0.1773113582504284  0.1509097572438587
  0.2066341401489691  0.4161305691998956  0.1483532915643316
  0.2093751654516149  0.6780522785852934  0.1532067923862592
  0.2077584250902492  0.9160547067159098  0.1505977144328286
  0.7044506507924606  0.1777413539393676  0.3575981130895303
  0.7089153651061799  0.4189929557110612  0.3544144770604843
  0.7078349755695065  0.6792532219433639  0.3532234306273655
  0.7080983801159388  0.9189181609262195  0.3511756781310568
  0.8866942414977433  0.0461955660784079  0.5196103684549840
  0.8869213692338268  0.3048995830206848  0.5211264392917578
  0.8885636501562344  0.5455908827990597  0.5196938236052041
  0.8873772435348463  0.8055304493156865  0.5188927162360700
  0.3831337284040047  0.0476331674204454  0.9802126683882362
  0.3887159867397298  0.2890462967050057  0.9812810073560371
  0.3835537245156518  0.5502634711904887  0.9805705526868095
  0.3894047030004493  0.7898472675592928  0.9837548496308903
  0.1129525359820869  0.1811752883959083  0.4818084941315902
  0.1155832532623461  0.4214320543845964  0.4782092401206615
  0.1156120504633306  0.6816403979477355  0.4841995812495166
  0.1142505897565164  0.9222831352497213  0.4768493731059967
  0.6099319485161845  0.1622238931338091  0.0117303108268460
  0.6100720189114655  0.4274456649597214  0.0118121642049415
  0.6161261357356494  0.6659693866392676  0.0237637559035261
  0.6152914067321928  0.9243852332968633  0.0206008015961843
  0.9768643844665759  0.0429162937321899  0.2828374603718449
  0.9811122475097490  0.3036900705472679  0.2828002663568607
  0.9781456072019420  0.5422131555023439  0.2832321750985577
  0.9774670174042196  0.8027361986785694  0.2801691895306272
  0.4755838018883740  0.0556127507589108  0.2178060024291544
  0.4741744932162580  0.2932495395563153  0.2215464048515084
  0.4764625989683530  0.5532936999163770  0.2171619050598043
  0.4814652788289026  0.7932908259475272  0.2210306187018546
  0.0253292987886983  0.1747448221779825  0.7179663717681651
  0.0266164690349081  0.4124857063264941  0.7158087322653528
  0.0249676635359374  0.6754663034368287  0.7182422720366358
  0.0248425281742326  0.9137713674806124  0.7159740031212646
  0.5167454161883093  0.1681449998729422  0.7745741618900445
  0.5232274442600440  0.4230483139198021  0.7801702084719300
  0.5214603055553193  0.6642878903878727  0.7857250310834777
  0.5202715826270392  0.9262811315776420  0.7850361477171400
  0.5720199846340184  0.0423323020046806  0.5745646493639839
  0.5750457023772193  0.3009204047572436  0.5721276719225155
  0.5784315137630806  0.5444135502005432  0.5722302670497961
  0.5804676161841674  0.8007162754475809  0.5741033751188974
  0.0738574045197313  0.0499562574925072  0.9243755280490632
  0.0788432142000962  0.2916894160996111  0.9283816056889885
  0.0752700233135961  0.5511182089131368  0.9248832978356653
  0.0792783696161948  0.7924185133044580  0.9295993877791399
  0.4225524338525682  0.1767431608366043  0.4360319806965979
  0.4250853775716226  0.4200779066108769  0.4279757634345010
  0.4244211383971851  0.6775158730658889  0.4303840260071885
  0.4240427737678841  0.9173900190036084  0.4286919769297247
  0.9255363019913926  0.1742340156814496  0.0695484762489867
  0.9280125610017700  0.4173252022180665  0.0684929894819087
  0.9251711357786025  0.6750779419073513  0.0716514712156575
  0.9251751707770344  0.9171082557269438  0.0710942650444346
 
             NaN             NaN             NaN
             NaN             NaN             NaN
             NaN             NaN             NaN
             NaN             NaN             NaN
             NaN             NaN             NaN
             NaN             NaN             NaN
             NaN             NaN             NaN
             NaN             NaN             NaN
             NaN             NaN             NaN
             NaN             NaN             NaN
             NaN             NaN             NaN
             NaN             NaN             NaN
             NaN             NaN             NaN
             NaN             NaN             NaN
             NaN             NaN             NaN
             NaN             NaN             NaN
             NaN             NaN             NaN
             NaN             NaN             NaN
             NaN             NaN             NaN
             NaN             NaN             NaN
             NaN             NaN             NaN
             NaN             NaN             NaN
             NaN             NaN             NaN
             NaN             NaN             NaN
             NaN             NaN             NaN
             NaN             NaN             NaN
             NaN             NaN             NaN
             NaN             NaN             NaN
             NaN             NaN             NaN
             NaN             NaN             NaN
             NaN             NaN             NaN
             NaN             NaN             NaN
             NaN             NaN             NaN
             NaN             NaN             NaN
             NaN             NaN             NaN
             NaN             NaN             NaN
             NaN             NaN             NaN
             NaN             NaN             NaN
             NaN             NaN             NaN
             NaN             NaN             NaN
             NaN             NaN             NaN
             NaN             NaN             NaN
             NaN             NaN             NaN
             NaN             NaN             NaN
             NaN             NaN             NaN
             NaN             NaN             NaN
             NaN             NaN             NaN
             NaN             NaN             NaN
             NaN             NaN             NaN
             NaN             NaN             NaN
             NaN             NaN             NaN
             NaN             NaN             NaN
             NaN             NaN             NaN
             NaN             NaN             NaN
             NaN             NaN             NaN
             NaN             NaN             NaN
             NaN             NaN             NaN
             NaN             NaN             NaN
             NaN             NaN             NaN
             NaN             NaN             NaN
             NaN             NaN             NaN
             NaN             NaN             NaN
             NaN             NaN             NaN
             NaN             NaN             NaN
             NaN             NaN             NaN
             NaN             NaN             NaN
             NaN             NaN             NaN
             NaN             NaN             NaN
             NaN             NaN             NaN
             NaN             NaN             NaN
             NaN             NaN             NaN
             NaN             NaN             NaN
             NaN             NaN             NaN
             NaN             NaN             NaN
             NaN             NaN             NaN
             NaN             NaN             NaN
             NaN             NaN             NaN
             NaN             NaN             NaN
             NaN             NaN             NaN
             NaN             NaN             NaN
             NaN             NaN             NaN
             NaN             NaN             NaN
             NaN             NaN             NaN
             NaN             NaN             NaN
             NaN             NaN             NaN
             NaN             NaN             NaN
             NaN             NaN             NaN
             NaN             NaN             NaN
             NaN             NaN             NaN
             NaN             NaN             NaN
             NaN             NaN             NaN
             NaN             NaN             NaN
             NaN             NaN             NaN
             NaN             NaN             NaN
             NaN             NaN             NaN
             NaN             NaN             NaN
             NaN             NaN             NaN
             NaN             NaN             NaN
             NaN             NaN             NaN
             NaN             NaN             NaN
             NaN             NaN             NaN
             NaN             NaN             NaN
             NaN             NaN             NaN
             NaN             NaN             NaN
             NaN             NaN             NaN
             NaN             NaN             NaN
             NaN             NaN             NaN
             NaN             NaN             NaN
             NaN             NaN             NaN
             NaN             NaN             NaN
             NaN             NaN             NaN
