Na15 V32 O64                            
   1.00000000000000     
     9.1061180000000004   -0.0002630000000000   -0.0045940000000000
     0.0002740000000000   11.4435350000000007    0.0003010000000000
    -0.0002580000000000    0.0018750000000000   10.6018860000000004
   Na   V    O 
    15    32    64
Direct
  0.7424210000000002  0.5442389999999975  0.1539829999999967
  0.7423720000000031  0.0826369999999983  0.1543009999999967
  0.7422320000000013  0.8133989999999969  0.1522319999999979
  0.2429010000000034  0.0629339999999985  0.3476730000000003
  0.2434160000000034  0.3126260000000016  0.3466870000000029
  0.2428639999999973  0.5621060000000000  0.3479740000000007
  0.2426770000000005  0.8126719999999992  0.3475359999999981
  0.2580779999999976  0.1881020000000007  0.8490559999999974
  0.2582310000000021  0.4377899999999997  0.8491569999999982
  0.2574279999999973  0.6883139999999983  0.8495539999999977
  0.2572589999999977  0.9373909999999981  0.8495640000000009
  0.7576779999999985  0.1869360000000029  0.6504279999999980
  0.7576669999999979  0.4377130000000022  0.6500429999999966
  0.7576740000000015  0.6867319999999992  0.6494730000000004
  0.7576869999999971  0.9379089999999977  0.6497549999999990
  0.5845449999999985  0.0623319999999978  0.8961910000000017
  0.5899649999999994  0.3119280000000018  0.9016980000000032
  0.5841920000000016  0.5617689999999982  0.8960849999999994
  0.5850039999999979  0.8119330000000033  0.8973349999999982
  0.0887689999999992  0.0617609999999971  0.6031550000000010
  0.0855609999999984  0.3118240000000014  0.6029499999999999
  0.0879759999999976  0.5622929999999968  0.6030549999999977
  0.0842910000000003  0.8118570000000034  0.6028269999999978
  0.4113510000000034  0.1888160000000028  0.1050299999999993
  0.4132340000000028  0.4362179999999967  0.1049209999999974
  0.4167589999999990  0.6867280000000022  0.1050820000000030
  0.4162389999999974  0.9386950000000027  0.1046440000000004
  0.9152970000000025  0.1884200000000007  0.3955520000000021
  0.9148179999999968  0.4366259999999968  0.3948979999999978
  0.9143690000000007  0.6865090000000009  0.3946779999999990
  0.9147889999999990  0.9383630000000025  0.3953729999999993
  0.5610280000000003  0.0627899999999997  0.3881919999999965
  0.5664829999999981  0.3117469999999969  0.3819700000000026
  0.5606900000000010  0.5615230000000011  0.3881960000000007
  0.5619050000000030  0.8120690000000010  0.3870709999999988
  0.0619289999999992  0.0591760000000008  0.1121839999999992
  0.0548879999999983  0.3138909999999981  0.1125100000000003
  0.0627429999999976  0.5669409999999999  0.1123710000000031
  0.0608500000000021  0.8116130000000013  0.1133600000000001
  0.4393379999999993  0.1899519999999981  0.6162210000000030
  0.4390760000000000  0.4334580000000017  0.6158599999999979
  0.4373190000000022  0.6891210000000001  0.6165430000000001
  0.4377279999999999  0.9344979999999978  0.6167009999999991
  0.9389389999999977  0.1875450000000001  0.8827849999999984
  0.9386259999999993  0.4395969999999991  0.8829440000000019
  0.9365579999999980  0.6882659999999987  0.8832099999999983
  0.9369340000000008  0.9381479999999982  0.8831780000000009
  0.7912549999999996  0.0637699999999981  0.8495720000000020
  0.7941849999999988  0.3125450000000001  0.8502009999999984
  0.7910040000000009  0.5619939999999986  0.8491330000000019
  0.7910710000000023  0.8132870000000025  0.8495890000000017
  0.2945130000000020  0.0620389999999986  0.6487830000000017
  0.2920579999999973  0.3121390000000019  0.6506960000000035
  0.2940159999999992  0.5622249999999980  0.6486429999999999
  0.2900050000000007  0.8118800000000022  0.6511020000000016
  0.2047319999999999  0.1887830000000008  0.1469170000000020
  0.2055480000000003  0.4359139999999968  0.1468500000000006
  0.2083950000000030  0.6865889999999979  0.1498789999999985
  0.2074199999999990  0.9398989999999969  0.1490480000000005
  0.7080940000000027  0.1850030000000018  0.3569800000000001
  0.7080279999999988  0.4399919999999966  0.3571719999999985
  0.7071779999999990  0.6875069999999965  0.3535699999999977
  0.7067329999999998  0.9371719999999968  0.3538700000000006
  0.8889110000000002  0.0631970000000024  0.5196800000000010
  0.8878010000000032  0.3120860000000008  0.5199840000000009
  0.8886529999999979  0.5616679999999974  0.5195179999999979
  0.8870209999999972  0.8126239999999996  0.5188849999999974
  0.3856200000000030  0.0624979999999979  0.9804800000000000
  0.3855720000000034  0.3124329999999986  0.9801980000000015
  0.3859279999999998  0.5625760000000000  0.9808159999999972
  0.3869389999999981  0.8125649999999993  0.9818119999999979
  0.1148009999999999  0.1874260000000021  0.4792150000000035
  0.1142919999999989  0.4370380000000011  0.4790920000000014
  0.1136929999999978  0.6873179999999977  0.4784610000000029
  0.1140630000000016  0.9373679999999993  0.4786769999999976
  0.6093079999999986  0.1874770000000012  0.0187639999999973
  0.6099689999999995  0.4371259999999992  0.0186330000000012
  0.6137810000000030  0.6862229999999983  0.0208399999999997
  0.6135599999999997  0.9385839999999988  0.0208689999999976
  0.9782250000000019  0.0626589999999965  0.2819390000000013
  0.9809879999999964  0.3125429999999980  0.2846830000000011
  0.9794569999999965  0.5625390000000010  0.2813680000000005
  0.9789299999999983  0.8126790000000028  0.2812210000000022
  0.4781260000000032  0.0635690000000011  0.2189320000000023
  0.4741179999999972  0.3123689999999968  0.2191469999999995
  0.4788599999999974  0.5617090000000005  0.2188269999999974
  0.4795579999999973  0.8127489999999966  0.2180770000000010
  0.0218229999999977  0.1868029999999976  0.7155130000000014
  0.0213620000000034  0.4378809999999973  0.7153709999999975
  0.0194779999999994  0.6872919999999993  0.7159300000000002
  0.0199720000000028  0.9377039999999965  0.7157049999999998
  0.5211400000000026  0.1884269999999972  0.7838690000000028
  0.5208859999999973  0.4360089999999985  0.7839620000000025
  0.5181499999999986  0.6880519999999990  0.7843250000000026
  0.5183070000000001  0.9362870000000001  0.7842199999999977
  0.5768249999999995  0.0616180000000028  0.5739749999999972
  0.5819649999999967  0.3119749999999968  0.5704080000000005
  0.5763340000000028  0.5624719999999996  0.5740899999999982
  0.5804830000000010  0.8117880000000000  0.5729699999999980
  0.0791690000000003  0.0619560000000021  0.9258579999999981
  0.0774749999999997  0.3133399999999966  0.9250949999999989
  0.0795209999999997  0.5644869999999997  0.9263169999999974
  0.0776710000000023  0.8129750000000016  0.9277510000000007
  0.4224030000000027  0.1877350000000035  0.4302210000000031
  0.4225390000000004  0.4365439999999978  0.4300240000000031
  0.4210679999999982  0.6879920000000013  0.4301389999999969
  0.4212780000000009  0.9363060000000019  0.4303910000000002
  0.9282940000000011  0.1869220000000027  0.0688090000000017
  0.9271919999999980  0.4390629999999973  0.0685819999999993
  0.9187650000000005  0.6866800000000026  0.0693229999999971
  0.9199660000000023  0.9395189999999971  0.0695509999999970
 
  0.00000000E+00  0.00000000E+00  0.00000000E+00
  0.00000000E+00  0.00000000E+00  0.00000000E+00
  0.00000000E+00  0.00000000E+00  0.00000000E+00
  0.00000000E+00  0.00000000E+00  0.00000000E+00
  0.00000000E+00  0.00000000E+00  0.00000000E+00
  0.00000000E+00  0.00000000E+00  0.00000000E+00
  0.00000000E+00  0.00000000E+00  0.00000000E+00
  0.00000000E+00  0.00000000E+00  0.00000000E+00
  0.00000000E+00  0.00000000E+00  0.00000000E+00
  0.00000000E+00  0.00000000E+00  0.00000000E+00
  0.00000000E+00  0.00000000E+00  0.00000000E+00
  0.00000000E+00  0.00000000E+00  0.00000000E+00
  0.00000000E+00  0.00000000E+00  0.00000000E+00
  0.00000000E+00  0.00000000E+00  0.00000000E+00
  0.00000000E+00  0.00000000E+00  0.00000000E+00
  0.00000000E+00  0.00000000E+00  0.00000000E+00
  0.00000000E+00  0.00000000E+00  0.00000000E+00
  0.00000000E+00  0.00000000E+00  0.00000000E+00
  0.00000000E+00  0.00000000E+00  0.00000000E+00
  0.00000000E+00  0.00000000E+00  0.00000000E+00
  0.00000000E+00  0.00000000E+00  0.00000000E+00
  0.00000000E+00  0.00000000E+00  0.00000000E+00
  0.00000000E+00  0.00000000E+00  0.00000000E+00
  0.00000000E+00  0.00000000E+00  0.00000000E+00
  0.00000000E+00  0.00000000E+00  0.00000000E+00
  0.00000000E+00  0.00000000E+00  0.00000000E+00
  0.00000000E+00  0.00000000E+00  0.00000000E+00
  0.00000000E+00  0.00000000E+00  0.00000000E+00
  0.00000000E+00  0.00000000E+00  0.00000000E+00
  0.00000000E+00  0.00000000E+00  0.00000000E+00
  0.00000000E+00  0.00000000E+00  0.00000000E+00
  0.00000000E+00  0.00000000E+00  0.00000000E+00
  0.00000000E+00  0.00000000E+00  0.00000000E+00
  0.00000000E+00  0.00000000E+00  0.00000000E+00
  0.00000000E+00  0.00000000E+00  0.00000000E+00
  0.00000000E+00  0.00000000E+00  0.00000000E+00
  0.00000000E+00  0.00000000E+00  0.00000000E+00
  0.00000000E+00  0.00000000E+00  0.00000000E+00
  0.00000000E+00  0.00000000E+00  0.00000000E+00
  0.00000000E+00  0.00000000E+00  0.00000000E+00
  0.00000000E+00  0.00000000E+00  0.00000000E+00
  0.00000000E+00  0.00000000E+00  0.00000000E+00
  0.00000000E+00  0.00000000E+00  0.00000000E+00
  0.00000000E+00  0.00000000E+00  0.00000000E+00
  0.00000000E+00  0.00000000E+00  0.00000000E+00
  0.00000000E+00  0.00000000E+00  0.00000000E+00
  0.00000000E+00  0.00000000E+00  0.00000000E+00
  0.00000000E+00  0.00000000E+00  0.00000000E+00
  0.00000000E+00  0.00000000E+00  0.00000000E+00
  0.00000000E+00  0.00000000E+00  0.00000000E+00
  0.00000000E+00  0.00000000E+00  0.00000000E+00
  0.00000000E+00  0.00000000E+00  0.00000000E+00
  0.00000000E+00  0.00000000E+00  0.00000000E+00
  0.00000000E+00  0.00000000E+00  0.00000000E+00
  0.00000000E+00  0.00000000E+00  0.00000000E+00
  0.00000000E+00  0.00000000E+00  0.00000000E+00
  0.00000000E+00  0.00000000E+00  0.00000000E+00
  0.00000000E+00  0.00000000E+00  0.00000000E+00
  0.00000000E+00  0.00000000E+00  0.00000000E+00
  0.00000000E+00  0.00000000E+00  0.00000000E+00
  0.00000000E+00  0.00000000E+00  0.00000000E+00
  0.00000000E+00  0.00000000E+00  0.00000000E+00
  0.00000000E+00  0.00000000E+00  0.00000000E+00
  0.00000000E+00  0.00000000E+00  0.00000000E+00
  0.00000000E+00  0.00000000E+00  0.00000000E+00
  0.00000000E+00  0.00000000E+00  0.00000000E+00
  0.00000000E+00  0.00000000E+00  0.00000000E+00
  0.00000000E+00  0.00000000E+00  0.00000000E+00
  0.00000000E+00  0.00000000E+00  0.00000000E+00
  0.00000000E+00  0.00000000E+00  0.00000000E+00
  0.00000000E+00  0.00000000E+00  0.00000000E+00
  0.00000000E+00  0.00000000E+00  0.00000000E+00
  0.00000000E+00  0.00000000E+00  0.00000000E+00
  0.00000000E+00  0.00000000E+00  0.00000000E+00
  0.00000000E+00  0.00000000E+00  0.00000000E+00
  0.00000000E+00  0.00000000E+00  0.00000000E+00
  0.00000000E+00  0.00000000E+00  0.00000000E+00
  0.00000000E+00  0.00000000E+00  0.00000000E+00
  0.00000000E+00  0.00000000E+00  0.00000000E+00
  0.00000000E+00  0.00000000E+00  0.00000000E+00
  0.00000000E+00  0.00000000E+00  0.00000000E+00
  0.00000000E+00  0.00000000E+00  0.00000000E+00
  0.00000000E+00  0.00000000E+00  0.00000000E+00
  0.00000000E+00  0.00000000E+00  0.00000000E+00
  0.00000000E+00  0.00000000E+00  0.00000000E+00
  0.00000000E+00  0.00000000E+00  0.00000000E+00
  0.00000000E+00  0.00000000E+00  0.00000000E+00
  0.00000000E+00  0.00000000E+00  0.00000000E+00
  0.00000000E+00  0.00000000E+00  0.00000000E+00
  0.00000000E+00  0.00000000E+00  0.00000000E+00
  0.00000000E+00  0.00000000E+00  0.00000000E+00
  0.00000000E+00  0.00000000E+00  0.00000000E+00
  0.00000000E+00  0.00000000E+00  0.00000000E+00
  0.00000000E+00  0.00000000E+00  0.00000000E+00
  0.00000000E+00  0.00000000E+00  0.00000000E+00
  0.00000000E+00  0.00000000E+00  0.00000000E+00
  0.00000000E+00  0.00000000E+00  0.00000000E+00
  0.00000000E+00  0.00000000E+00  0.00000000E+00
  0.00000000E+00  0.00000000E+00  0.00000000E+00
  0.00000000E+00  0.00000000E+00  0.00000000E+00
  0.00000000E+00  0.00000000E+00  0.00000000E+00
  0.00000000E+00  0.00000000E+00  0.00000000E+00
  0.00000000E+00  0.00000000E+00  0.00000000E+00
  0.00000000E+00  0.00000000E+00  0.00000000E+00
  0.00000000E+00  0.00000000E+00  0.00000000E+00
  0.00000000E+00  0.00000000E+00  0.00000000E+00
  0.00000000E+00  0.00000000E+00  0.00000000E+00
  0.00000000E+00  0.00000000E+00  0.00000000E+00
  0.00000000E+00  0.00000000E+00  0.00000000E+00
  0.00000000E+00  0.00000000E+00  0.00000000E+00
  0.00000000E+00  0.00000000E+00  0.00000000E+00
