Li47 P16 O64                            
   1.00000000000000     
    10.6206090000000000   -0.0024900000000000    0.0030160000000000
    -0.0028810000000000   12.3521660000000004    0.0037890000000000
     0.0028100000000000    0.0030370000000000   10.0300170000000008
   Li   P    O 
    47    16    64
Direct
  0.3553806006065268  0.3670137029655304  0.1355029506415991
  0.6583368631728973  0.2507359695588117  0.0990068950316478
  0.6653077096750202  0.2494129058414827  0.5987383448611140
  0.6603822806760328  0.7479803219355552  0.0984003104779446
  0.6634248894368402  0.7502770738929347  0.5989745877743574
  0.1541549932687947  0.5038219241496794  0.1529680348483977
  0.1631201202893575  0.5012741573681154  0.6507423978553263
  0.1641274138855231  0.0029811874976108  0.1485376466933427
  0.1634361356950378  0.0012853229874873  0.6509719098541983
  0.3369839958250171  0.0009903820600319  0.3984325777070217
  0.3368471312252607  0.0000759078381563  0.9030763609652432
  0.3360877699549621  0.5002432442585475  0.4033425534850780
  0.3356559716922109  0.4988492506157376  0.8994996792998911
  0.8365818477112880  0.2487344333865461  0.3482501207640608
  0.8352809107509476  0.2497780419529819  0.8522136796227880
  0.8362705218122348  0.7490666855011658  0.3487845165918114
  0.8362628630659210  0.7494269153503837  0.8491170054006203
  0.3369301437898316  0.2456639807805720  0.4030179031817133
  0.3358940803686840  0.2482425181276210  0.9016395159215265
  0.3364176221263559  0.7486028014839937  0.4007558517884020
  0.3352940749243304  0.7481882311607195  0.9013222370115455
  0.8383402723651407  0.0021764526733836  0.3474998556211530
  0.8363604866930141  0.0012226731357345  0.8482235903114064
  0.8365698111608632  0.4981369485951067  0.3467004601267756
  0.8352013908118824  0.5001491709227903  0.8532572507754503
  0.6582769661180616  0.4938027285473388  0.0972024765165249
  0.6651323516353985  0.4987583969859480  0.5987474226495891
  0.6621062818515924  0.9950767546216376  0.0980359728812010
  0.6645804660055135  0.9981675005897573  0.5987547897738378
  0.1630284507557151  0.2534042330097624  0.6483234471586052
  0.1618157834310485  0.7525422941127281  0.1526308097390393
  0.1635686870105330  0.7525935446450484  0.6503063152608625
  0.9385882858284531  0.3647772339644420  0.1493204902132880
  0.9255104644265018  0.3759101554124283  0.6539334900900233
  0.9246627343406290  0.8762754061889658  0.1484121116759023
  0.9266265333208578  0.8761919194078657  0.6484973322629586
  0.4272025813093324  0.3737109019582899  0.6048658632837347
  0.4253092359979661  0.8733019095613095  0.1018853665241035
  0.4257778472489607  0.8750821888655206  0.5999634785452128
  0.0785157959551247  0.1346430584560030  0.3377012486024341
  0.0748122281434488  0.1296150259205623  0.8578121371738862
  0.0730419026370777  0.6255652521036692  0.3540967026460823
  0.0731447554400883  0.6251651857460013  0.8498123874244302
  0.5747978986214269  0.1244048078987265  0.3968979544623429
  0.5737325143345318  0.1242169749920328  0.9014050020862585
  0.5739247708134635  0.6228733854876444  0.3992780587131372
  0.5721386518418475  0.6223596579975188  0.8981797694958704
  0.9077338704207807  0.1213930056817353  0.0969033471926967
  0.9126982911962103  0.1254844829095632  0.5969944078241061
  0.9080872388103791  0.6257625063416379  0.0978717266692939
  0.9105141679719809  0.6260973084711990  0.5970959622342951
  0.4136554788091825  0.1217767424385553  0.1513079028513978
  0.4123584406170028  0.1232245069792884  0.6534751994200129
  0.4077388198604407  0.6235875974951466  0.1534043549640173
  0.4110543371975875  0.6251848685037940  0.6530440193297103
  0.0899770504683935  0.3753545537678298  0.4068593889925459
  0.0901905016981171  0.3783247192479553  0.9027783462530580
  0.0896662034938954  0.8761678295689395  0.4028426852413657
  0.0888144478090602  0.8753596630246034  0.9029799351584196
  0.5887781071181367  0.3739200484311838  0.3470960591901470
  0.5857117790542341  0.3743281065575585  0.8427134626814423
  0.5890587405951089  0.8731624567158761  0.3469783056485539
  0.5882445511094877  0.8730339655957908  0.8458070078551411
  0.8342583303638278  0.0184003195061757  0.1456188799122938
  0.8420399987306125  0.0217400667943636  0.6469754203509547
  0.8393229382710558  0.5219030972338533  0.1475149182823041
  0.8412903662644243  0.5237803722501907  0.6512279225922256
  0.3478595210129019  0.2220438175371990  0.0940342434683369
  0.3434962634358545  0.2269922917319164  0.6034890697448310
  0.3390808902913341  0.7277210272384904  0.1029409624177400
  0.3412760834749947  0.7283789426012579  0.6014676582267235
  0.1632747016418614  0.2724890134921157  0.3681257723027864
  0.1588319303211310  0.2754430486862892  0.8487575676031195
  0.1590616438543652  0.7718207873440754  0.3536045056549585
  0.1587550139728136  0.7722350749972288  0.8512179336053690
  0.6580520591275507  0.4773509290056577  0.4002841533751318
  0.6551637236025234  0.4772661987368774  0.8966286022132595
  0.6596041017898620  0.9761445169203665  0.3973693364144341
  0.6586351591206631  0.9757605252662456  0.8963993973990244
  0.1588295927241542  0.4792080964378079  0.3533155442932338
  0.1579811824938499  0.4814642362924904  0.8456552959483846
  0.1603292354261583  0.9781407576935796  0.3509691427469122
  0.1590298734459789  0.9785670859536155  0.8525875320068441
  0.6582832580157492  0.2710933368882146  0.4009601178636594
  0.6541781057139184  0.2714453438952721  0.8973571342989998
  0.6585789470295058  0.7699878219572204  0.3988521618722850
  0.6577542721038404  0.7694854692284077  0.8967626318057245
  0.8386322738186660  0.2252457281740962  0.1484512381201606
  0.8420161448607888  0.2279677204020189  0.6491827660176027
  0.8368439878124044  0.7288074204704978  0.1478846398457667
  0.8408119761933884  0.7298042595922889  0.6472976202018530
  0.3443212812570746  0.0166719314272122  0.1033907493860328
  0.3416934230829131  0.0207491773020008  0.6008250998580106
  0.3334829986260725  0.5222104751138124  0.1041338871529762
  0.3418886763272245  0.5221913888103676  0.6009678088098357
  0.5533216643171233  0.1185029583935403  0.1024813133386497
  0.5503907690097822  0.1227215086894071  0.6007953286545631
  0.5447959011494475  0.6221833746992285  0.0987689705435849
  0.5494361302087973  0.6252433134083885  0.6017825486323234
  0.0431604990773276  0.1167680107025001  0.1492001333058482
  0.0497888483527220  0.1255644772663640  0.6512323874577587
  0.0452907457454487  0.6287067790997346  0.1525431120620354
  0.0490462131815757  0.6280258831305496  0.6473006713452201
  0.4494465416390885  0.3741041089387451  0.3976640770842236
  0.4450955711107034  0.3753399216436079  0.8821449485857957
  0.4510942981770292  0.8738300282913206  0.3995624328605034
  0.4503704760908693  0.8728390136525443  0.8984030580660075
  0.9531749992253626  0.3734162872352368  0.3498564076770626
  0.9501823072884402  0.3761347220329569  0.8534605282779563
  0.9515467913710770  0.8750351792539359  0.3504473570121668
  0.9509293579332414  0.8750765938159814  0.8500926933774032
  0.5906025669033017  0.3735119892468777  0.1929129383028168
  0.5952626281689681  0.3742671194690356  0.6867092222064556
  0.5884101069518511  0.8713904835357741  0.1913672121013323
  0.5886605073631650  0.8734292855644479  0.6899620988955734
  0.0942535002532260  0.3836732331429102  0.0562889264799336
  0.0845784432583417  0.3813959982605815  0.5628423322948088
  0.0886334683779854  0.8745516634248112  0.0585808358968863
  0.0894704011857979  0.8765752891061382  0.5588392493108376
  0.4122323398543212  0.1238882032683307  0.3076925242513903
  0.4117882920296719  0.1217086464645002  0.8090232285607876
  0.4100383245555964  0.6240792183611840  0.3092443344380471
  0.4094298939190329  0.6253207494553114  0.8086942681757532
  0.9127828081570553  0.1258423799200024  0.4412828951181506
  0.9067681535058719  0.1237693535815340  0.9404839521386332
  0.9084943956425832  0.6243080399392221  0.4412803722746532
  0.9100989621597961  0.6263138457781606  0.9419034968527055
 
             NaN             NaN             NaN
             NaN             NaN             NaN
             NaN             NaN             NaN
             NaN             NaN             NaN
             NaN             NaN             NaN
             NaN             NaN             NaN
             NaN             NaN             NaN
             NaN             NaN             NaN
             NaN             NaN             NaN
             NaN             NaN             NaN
             NaN             NaN             NaN
             NaN             NaN             NaN
             NaN             NaN             NaN
             NaN             NaN             NaN
             NaN             NaN             NaN
             NaN             NaN             NaN
             NaN             NaN             NaN
             NaN             NaN             NaN
             NaN             NaN             NaN
             NaN             NaN             NaN
             NaN             NaN             NaN
             NaN             NaN             NaN
             NaN             NaN             NaN
             NaN             NaN             NaN
             NaN             NaN             NaN
             NaN             NaN             NaN
             NaN             NaN             NaN
             NaN             NaN             NaN
             NaN             NaN             NaN
             NaN             NaN             NaN
             NaN             NaN             NaN
             NaN             NaN             NaN
             NaN             NaN             NaN
             NaN             NaN             NaN
             NaN             NaN             NaN
             NaN             NaN             NaN
             NaN             NaN             NaN
             NaN             NaN             NaN
             NaN             NaN             NaN
             NaN             NaN             NaN
             NaN             NaN             NaN
             NaN             NaN             NaN
             NaN             NaN             NaN
             NaN             NaN             NaN
             NaN             NaN             NaN
             NaN             NaN             NaN
             NaN             NaN             NaN
             NaN             NaN             NaN
             NaN             NaN             NaN
             NaN             NaN             NaN
             NaN             NaN             NaN
             NaN             NaN             NaN
             NaN             NaN             NaN
             NaN             NaN             NaN
             NaN             NaN             NaN
             NaN             NaN             NaN
             NaN             NaN             NaN
             NaN             NaN             NaN
             NaN             NaN             NaN
             NaN             NaN             NaN
             NaN             NaN             NaN
             NaN             NaN             NaN
             NaN             NaN             NaN
             NaN             NaN             NaN
             NaN             NaN             NaN
             NaN             NaN             NaN
             NaN             NaN             NaN
             NaN             NaN             NaN
             NaN             NaN             NaN
             NaN             NaN             NaN
             NaN             NaN             NaN
             NaN             NaN             NaN
             NaN             NaN             NaN
             NaN             NaN             NaN
             NaN             NaN             NaN
             NaN             NaN             NaN
             NaN             NaN             NaN
             NaN             NaN             NaN
             NaN             NaN             NaN
             NaN             NaN             NaN
             NaN             NaN             NaN
             NaN             NaN             NaN
             NaN             NaN             NaN
             NaN             NaN             NaN
             NaN             NaN             NaN
             NaN             NaN             NaN
             NaN             NaN             NaN
             NaN             NaN             NaN
             NaN             NaN             NaN
             NaN             NaN             NaN
             NaN             NaN             NaN
             NaN             NaN             NaN
             NaN             NaN             NaN
             NaN             NaN             NaN
             NaN             NaN             NaN
             NaN             NaN             NaN
             NaN             NaN             NaN
             NaN             NaN             NaN
             NaN             NaN             NaN
             NaN             NaN             NaN
             NaN             NaN             NaN
             NaN             NaN             NaN
             NaN             NaN             NaN
             NaN             NaN             NaN
             NaN             NaN             NaN
             NaN             NaN             NaN
             NaN             NaN             NaN
             NaN             NaN             NaN
             NaN             NaN             NaN
             NaN             NaN             NaN
             NaN             NaN             NaN
             NaN             NaN             NaN
             NaN             NaN             NaN
             NaN             NaN             NaN
             NaN             NaN             NaN
             NaN             NaN             NaN
             NaN             NaN             NaN
             NaN             NaN             NaN
             NaN             NaN             NaN
             NaN             NaN             NaN
             NaN             NaN             NaN
             NaN             NaN             NaN
             NaN             NaN             NaN
             NaN             NaN             NaN
             NaN             NaN             NaN
             NaN             NaN             NaN
             NaN             NaN             NaN
