Li48 P16 O64                            
   1.00000000000000     
    10.4251139781518845    0.0181555490065571    0.0030473809713596
     0.0201581099926271   12.1695218657462956    0.0070461090824385
     0.0021257490167981    0.0055801223902204    9.8152671421618418
   Li   P    O 
    46    16    64
Direct
  0.6625007154794414  0.2550872260034383  0.0959415993389869
  0.6663130921040493  0.2488499093537368  0.5984915205356935
  0.6645382003744960  0.7502899760406266  0.0990715705263763
  0.6640426704997067  0.7510599945446920  0.5972699191633156
  0.1683075884669199  0.4897675961684261  0.1548203999413981
  0.1651078009218669  0.5018806909453934  0.6517576253244031
  0.1619063895266101  0.9988476507616084  0.1518504776670925
  0.1637524718194179  0.9991950010376360  0.6529730913313305
  0.3345559426196880  0.0012525437336375  0.4043670468789340
  0.3348376339734011  0.0006590177269582  0.8989650776542132
  0.3382890946143679  0.4989944671517259  0.3998072344300397
  0.3371655246488410  0.4972089964875027  0.9085928200169482
  0.8368871361259298  0.2478574629822414  0.3490054669419923
  0.8347219733403611  0.2488602815344834  0.8470715967772605
  0.8368704420951867  0.7488357392213274  0.3482492804715238
  0.8363534002859973  0.7487692372769037  0.8477534548235960
  0.3377078397150888  0.2526468814924042  0.3988965378782321
  0.3335499352336976  0.2544636508614501  0.9000963666530472
  0.3358406626246294  0.7493503551328661  0.4019496276507248
  0.3358356880626403  0.7487703029305879  0.9036270566066175
  0.8367470271618278  0.0013136384236767  0.3481688823719093
  0.8363422369741201  0.0007458217343680  0.8467571956175129
  0.8367716623689141  0.5007610832559816  0.3470498706922933
  0.8332695424921315  0.5017477155680048  0.8487571024290300
  0.6574582283859570  0.4969908872755358  0.0984544926899303
  0.6663026074521590  0.5018833788932205  0.5975925669296923
  0.6665806708383888  0.9957190781537870  0.0936849546440789
  0.6649919270522211  0.9978439203572240  0.5987123791502629
  0.1628251663019876  0.2503702466622090  0.6452714835011391
  0.1630986851011748  0.7492302554266146  0.1527765648023580
  0.1644884481119143  0.7517101102948869  0.6522192350189207
  0.9255894073926136  0.3710609105722741  0.1521616868651356
  0.9177689258922612  0.3762161521514814  0.6483605055230531
  0.9235311302443333  0.8739530550009449  0.1493771056702149
  0.9245920042772474  0.8752603652393767  0.6487318761574641
  0.4253986357634985  0.3757878539040128  0.6084876384921583
  0.4256848578046069  0.8752384488065806  0.1001478690282800
  0.4234230769496465  0.8748928931183630  0.6007892560433039
  0.0786465079569948  0.1293170790020920  0.3421341919522142
  0.0759310630131969  0.1258679392324497  0.8547480468857459
  0.0776466282444991  0.6229538438065525  0.3505551747448261
  0.0768857284003174  0.6249726015106536  0.8515620195338974
  0.5784431824424356  0.1255131819067479  0.4037173838469800
  0.5767801724152607  0.1253851930005496  0.8925409433985809
  0.5762499501845731  0.6244056867272750  0.3989290443706126
  0.5741874543230131  0.6247185228889167  0.8998073452747274
  0.9096617700385403  0.1235175779928487  0.0953003935366533
  0.9130053499717292  0.1240186652018681  0.5952336310121372
  0.9116161551125538  0.6229306176703190  0.0957709101255609
  0.9123457220349938  0.6265565798476392  0.5953442095727018
  0.4154062633269071  0.1212051002555835  0.1556177631474334
  0.4115112241163923  0.1251456834401263  0.6554491927593082
  0.4101471275079058  0.6289346704669314  0.1547462521717553
  0.4116281022129776  0.6256307156096792  0.6549224714450325
  0.0876147866576471  0.3744106358012990  0.4101546291108322
  0.0846544962615714  0.3760526674490111  0.9011367227612133
  0.0885365054520165  0.8749688770858851  0.4044985294667842
  0.0879893296600773  0.8744485751388664  0.9052102504157075
  0.5915753270562916  0.3744632031140472  0.3494622516632142
  0.5878235233851991  0.3750505145066212  0.8401641123909356
  0.5883324531603379  0.8756811244970706  0.3453820934882221
  0.5879908617143444  0.8747115460852510  0.8449436372174129
  0.8380974805263649  0.0198426176043697  0.1457695644885232
  0.8420456351273669  0.0207525325168370  0.6464435508819057
  0.8395718237936483  0.5204146805364210  0.1465394246748587
  0.8412949901117731  0.5245772675145068  0.6488607781281054
  0.3516633233110135  0.2270640208833280  0.0951405342814875
  0.3430778850174658  0.2288435101703451  0.6025576793078208
  0.3434031993476854  0.7362052052222926  0.1076108254838386
  0.3416780464668141  0.7295212911471891  0.6030468066938828
  0.1588206320601850  0.2681418320391141  0.3747598013547120
  0.1553368322867238  0.2723361267702322  0.8509112529458255
  0.1578269339988031  0.7706141091386883  0.3537229779302669
  0.1589433975916313  0.7713012754238071  0.8534656410154373
  0.6611126357491345  0.4783528129839695  0.4012780896944385
  0.6542816117630648  0.4778841251940640  0.8975538902261195
  0.6585398084694944  0.9786266203039490  0.3978120789756354
  0.6580867377858652  0.9784673916986769  0.8954946084197162
  0.1596104807952315  0.4754911205740986  0.3553645507714996
  0.1570519989778949  0.4783844624730863  0.8496302540741152
  0.1593854511694336  0.9775940119043359  0.3518265959638564
  0.1580855811024435  0.9780633954182892  0.8542662184755818
  0.6607658344171545  0.2702997696587053  0.4026670219082760
  0.6553602848759251  0.2713834131319027  0.8962408256344878
  0.6583194032889492  0.7716978731133081  0.3960221680986441
  0.6584951818305396  0.7716458583859092  0.8975205067815012
  0.8392879658857693  0.2266245124457139  0.1482112853203794
  0.8419772225888636  0.2271409822028467  0.6470441450151216
  0.8422594744294829  0.7273634325876646  0.1474353690613376
  0.8418071599013310  0.7306561395573200  0.6453125328524214
  0.3412195370014717  0.0221239540589692  0.1026340840711655
  0.3415308989974182  0.0219020328958245  0.6033169893457552
  0.3334716856889002  0.5331503791916185  0.0979268967034876
  0.3422537973763289  0.5227376403862520  0.6016001380332439
  0.5521861169779768  0.1245058244375435  0.1002432414530410
  0.5515101645140492  0.1238585698096340  0.6056418155853164
  0.5491523239242750  0.6269803305621235  0.1022113206502659
  0.5510043330323904  0.6259416918773519  0.6033012432636597
  0.0469467552945851  0.1192374993563367  0.1477471557319570
  0.0510127956341926  0.1240946076566821  0.6496878568641303
  0.0504780887736142  0.6218048709289047  0.1484958914069346
  0.0511358992830321  0.6271532938119440  0.6476715319883662
  0.4532031616431007  0.3750400875175665  0.4028267936642229
  0.4446959190129740  0.3739381068308313  0.8727678063544014
  0.4491488787057301  0.8760862102564974  0.3970475567043319
  0.4491414967932748  0.8756425371020607  0.8977584882944211
  0.9499538162670547  0.3734940409613771  0.3540865887439479
  0.9462193941443305  0.3754063278302856  0.8468914189599644
  0.9494181396886582  0.8752877086349682  0.3525233592041658
  0.9492231379404444  0.8746471628791818  0.8525125398602407
  0.5966092621564120  0.3738160888014313  0.1941704625964141
  0.6000801718198563  0.3755955330676631  0.6834492422173493
  0.5893748937980493  0.8766881028789481  0.1880491829992322
  0.5883930401064920  0.8744465187222407  0.6880159836178202
  0.0819361798369080  0.3788865742291774  0.0566206446945405
  0.0834953677340711  0.3805295202937937  0.5674136349264414
  0.0883681421365808  0.8738519928884373  0.0622251307890960
  0.0896274436603499  0.8758002656672792  0.5616461847087409
  0.4130300608841883  0.1246294574575130  0.3108568167885620
  0.4089107022812601  0.1251068682094877  0.8124766741440859
  0.4109895452829202  0.6254497737487553  0.3119289475986162
  0.4097853320216194  0.6250652348333232  0.8118864896323285
  0.9132287913458188  0.1240974871647871  0.4383283531024805
  0.9078424979406716  0.1248305935931648  0.9380060302459524
  0.9119318021100096  0.6247068177749301  0.4382199640087707
  0.9111452857737836  0.6242923046177492  0.9384649260557377
 
  0.00000000E+00  0.00000000E+00  0.00000000E+00
  0.00000000E+00  0.00000000E+00  0.00000000E+00
  0.00000000E+00  0.00000000E+00  0.00000000E+00
  0.00000000E+00  0.00000000E+00  0.00000000E+00
  0.00000000E+00  0.00000000E+00  0.00000000E+00
  0.00000000E+00  0.00000000E+00  0.00000000E+00
  0.00000000E+00  0.00000000E+00  0.00000000E+00
  0.00000000E+00  0.00000000E+00  0.00000000E+00
  0.00000000E+00  0.00000000E+00  0.00000000E+00
  0.00000000E+00  0.00000000E+00  0.00000000E+00
  0.00000000E+00  0.00000000E+00  0.00000000E+00
  0.00000000E+00  0.00000000E+00  0.00000000E+00
  0.00000000E+00  0.00000000E+00  0.00000000E+00
  0.00000000E+00  0.00000000E+00  0.00000000E+00
  0.00000000E+00  0.00000000E+00  0.00000000E+00
  0.00000000E+00  0.00000000E+00  0.00000000E+00
  0.00000000E+00  0.00000000E+00  0.00000000E+00
  0.00000000E+00  0.00000000E+00  0.00000000E+00
  0.00000000E+00  0.00000000E+00  0.00000000E+00
  0.00000000E+00  0.00000000E+00  0.00000000E+00
  0.00000000E+00  0.00000000E+00  0.00000000E+00
  0.00000000E+00  0.00000000E+00  0.00000000E+00
  0.00000000E+00  0.00000000E+00  0.00000000E+00
  0.00000000E+00  0.00000000E+00  0.00000000E+00
  0.00000000E+00  0.00000000E+00  0.00000000E+00
  0.00000000E+00  0.00000000E+00  0.00000000E+00
  0.00000000E+00  0.00000000E+00  0.00000000E+00
  0.00000000E+00  0.00000000E+00  0.00000000E+00
  0.00000000E+00  0.00000000E+00  0.00000000E+00
  0.00000000E+00  0.00000000E+00  0.00000000E+00
  0.00000000E+00  0.00000000E+00  0.00000000E+00
  0.00000000E+00  0.00000000E+00  0.00000000E+00
  0.00000000E+00  0.00000000E+00  0.00000000E+00
  0.00000000E+00  0.00000000E+00  0.00000000E+00
  0.00000000E+00  0.00000000E+00  0.00000000E+00
  0.00000000E+00  0.00000000E+00  0.00000000E+00
  0.00000000E+00  0.00000000E+00  0.00000000E+00
  0.00000000E+00  0.00000000E+00  0.00000000E+00
  0.00000000E+00  0.00000000E+00  0.00000000E+00
  0.00000000E+00  0.00000000E+00  0.00000000E+00
  0.00000000E+00  0.00000000E+00  0.00000000E+00
  0.00000000E+00  0.00000000E+00  0.00000000E+00
  0.00000000E+00  0.00000000E+00  0.00000000E+00
  0.00000000E+00  0.00000000E+00  0.00000000E+00
  0.00000000E+00  0.00000000E+00  0.00000000E+00
  0.00000000E+00  0.00000000E+00  0.00000000E+00
  0.00000000E+00  0.00000000E+00  0.00000000E+00
  0.00000000E+00  0.00000000E+00  0.00000000E+00
  0.00000000E+00  0.00000000E+00  0.00000000E+00
  0.00000000E+00  0.00000000E+00  0.00000000E+00
  0.00000000E+00  0.00000000E+00  0.00000000E+00
  0.00000000E+00  0.00000000E+00  0.00000000E+00
  0.00000000E+00  0.00000000E+00  0.00000000E+00
  0.00000000E+00  0.00000000E+00  0.00000000E+00
  0.00000000E+00  0.00000000E+00  0.00000000E+00
  0.00000000E+00  0.00000000E+00  0.00000000E+00
  0.00000000E+00  0.00000000E+00  0.00000000E+00
  0.00000000E+00  0.00000000E+00  0.00000000E+00
  0.00000000E+00  0.00000000E+00  0.00000000E+00
  0.00000000E+00  0.00000000E+00  0.00000000E+00
  0.00000000E+00  0.00000000E+00  0.00000000E+00
  0.00000000E+00  0.00000000E+00  0.00000000E+00
  0.00000000E+00  0.00000000E+00  0.00000000E+00
  0.00000000E+00  0.00000000E+00  0.00000000E+00
  0.00000000E+00  0.00000000E+00  0.00000000E+00
  0.00000000E+00  0.00000000E+00  0.00000000E+00
  0.00000000E+00  0.00000000E+00  0.00000000E+00
  0.00000000E+00  0.00000000E+00  0.00000000E+00
  0.00000000E+00  0.00000000E+00  0.00000000E+00
  0.00000000E+00  0.00000000E+00  0.00000000E+00
  0.00000000E+00  0.00000000E+00  0.00000000E+00
  0.00000000E+00  0.00000000E+00  0.00000000E+00
  0.00000000E+00  0.00000000E+00  0.00000000E+00
  0.00000000E+00  0.00000000E+00  0.00000000E+00
  0.00000000E+00  0.00000000E+00  0.00000000E+00
  0.00000000E+00  0.00000000E+00  0.00000000E+00
  0.00000000E+00  0.00000000E+00  0.00000000E+00
  0.00000000E+00  0.00000000E+00  0.00000000E+00
  0.00000000E+00  0.00000000E+00  0.00000000E+00
  0.00000000E+00  0.00000000E+00  0.00000000E+00
  0.00000000E+00  0.00000000E+00  0.00000000E+00
  0.00000000E+00  0.00000000E+00  0.00000000E+00
  0.00000000E+00  0.00000000E+00  0.00000000E+00
  0.00000000E+00  0.00000000E+00  0.00000000E+00
  0.00000000E+00  0.00000000E+00  0.00000000E+00
  0.00000000E+00  0.00000000E+00  0.00000000E+00
  0.00000000E+00  0.00000000E+00  0.00000000E+00
  0.00000000E+00  0.00000000E+00  0.00000000E+00
  0.00000000E+00  0.00000000E+00  0.00000000E+00
  0.00000000E+00  0.00000000E+00  0.00000000E+00
  0.00000000E+00  0.00000000E+00  0.00000000E+00
  0.00000000E+00  0.00000000E+00  0.00000000E+00
  0.00000000E+00  0.00000000E+00  0.00000000E+00
  0.00000000E+00  0.00000000E+00  0.00000000E+00
  0.00000000E+00  0.00000000E+00  0.00000000E+00
  0.00000000E+00  0.00000000E+00  0.00000000E+00
  0.00000000E+00  0.00000000E+00  0.00000000E+00
  0.00000000E+00  0.00000000E+00  0.00000000E+00
  0.00000000E+00  0.00000000E+00  0.00000000E+00
  0.00000000E+00  0.00000000E+00  0.00000000E+00
  0.00000000E+00  0.00000000E+00  0.00000000E+00
  0.00000000E+00  0.00000000E+00  0.00000000E+00
  0.00000000E+00  0.00000000E+00  0.00000000E+00
  0.00000000E+00  0.00000000E+00  0.00000000E+00
  0.00000000E+00  0.00000000E+00  0.00000000E+00
  0.00000000E+00  0.00000000E+00  0.00000000E+00
  0.00000000E+00  0.00000000E+00  0.00000000E+00
  0.00000000E+00  0.00000000E+00  0.00000000E+00
  0.00000000E+00  0.00000000E+00  0.00000000E+00
  0.00000000E+00  0.00000000E+00  0.00000000E+00
  0.00000000E+00  0.00000000E+00  0.00000000E+00
  0.00000000E+00  0.00000000E+00  0.00000000E+00
  0.00000000E+00  0.00000000E+00  0.00000000E+00
  0.00000000E+00  0.00000000E+00  0.00000000E+00
  0.00000000E+00  0.00000000E+00  0.00000000E+00
  0.00000000E+00  0.00000000E+00  0.00000000E+00
  0.00000000E+00  0.00000000E+00  0.00000000E+00
  0.00000000E+00  0.00000000E+00  0.00000000E+00
  0.00000000E+00  0.00000000E+00  0.00000000E+00
  0.00000000E+00  0.00000000E+00  0.00000000E+00
  0.00000000E+00  0.00000000E+00  0.00000000E+00
  0.00000000E+00  0.00000000E+00  0.00000000E+00
  0.00000000E+00  0.00000000E+00  0.00000000E+00
  0.00000000E+00  0.00000000E+00  0.00000000E+00
  0.00000000E+00  0.00000000E+00  0.00000000E+00
  0.00000000E+00  0.00000000E+00  0.00000000E+00
