Li15 Fe16 P16 O64
1.0
10.425781 -0.002531 0.005257
-0.002927 12.142262 0.002300
0.003107 0.002127 9.521146
Li Fe P O
15 16 16 64
direct
0.499252 0.260738 0.746020 Li
0.498612 0.497883 0.247222 Li
0.496587 0.003353 0.246965 Li
0.497953 0.000673 0.754158 Li
0.999756 0.252715 0.503143 Li
0.000329 0.251844 0.001827 Li
0.006526 0.744887 0.496582 Li
0.001263 0.746266 0.995090 Li
0.495858 0.253313 0.243513 Li
0.498361 0.745257 0.249845 Li
0.495361 0.735643 0.760924 Li
0.000847 0.002357 0.995658 Li
0.006171 0.005253 0.496404 Li
0.001074 0.498708 0.001424 Li
0.999944 0.498781 0.502745 Li
0.779463 0.127813 0.262442 Fe
0.781834 0.125810 0.764538 Fe
0.779436 0.622988 0.263258 Fe
0.778568 0.622993 0.763233 Fe
0.283044 0.126210 0.486965 Fe
0.281604 0.125982 0.985871 Fe
0.285031 0.623113 0.489650 Fe
0.282743 0.622092 0.985598 Fe
0.219440 0.374782 0.236263 Fe
0.222848 0.376346 0.738700 Fe
0.220598 0.874830 0.236571 Fe
0.219402 0.875246 0.736043 Fe
0.716753 0.376197 0.010660 Fe
0.717535 0.377567 0.516072 Fe
0.715260 0.874346 0.016025 Fe
0.719719 0.874251 0.507747 Fe
0.595038 0.124764 0.041230 P
0.595395 0.121867 0.540028 P
0.595861 0.627379 0.042361 P
0.595274 0.628584 0.538275 P
0.093505 0.123690 0.208111 P
0.094050 0.124689 0.707515 P
0.094111 0.626504 0.209468 P
0.093849 0.626348 0.708065 P
0.405515 0.371692 0.458118 P
0.406002 0.374645 0.958998 P
0.408396 0.875584 0.459942 P
0.405042 0.874738 0.958691 P
0.906842 0.374879 0.292029 P
0.907299 0.374787 0.792925 P
0.904725 0.875504 0.293285 P
0.899186 0.874766 0.791790 P
0.596880 0.122760 0.378978 O
0.598647 0.122236 0.880034 O
0.596312 0.627732 0.376247 O
0.602935 0.634972 0.882997 O
0.096613 0.122834 0.369701 O
0.095755 0.122912 0.868922 O
0.097363 0.627767 0.371080 O
0.096017 0.627094 0.869592 O
0.402936 0.373993 0.121947 O
0.398708 0.364649 0.617426 O
0.403112 0.875283 0.120383 O
0.403393 0.876923 0.620296 O
0.904820 0.374364 0.130634 O
0.903674 0.375060 0.631197 O
0.901465 0.875163 0.133126 O
0.887313 0.875419 0.629201 O
0.955118 0.122236 0.147082 O
0.956082 0.122644 0.645059 O
0.955786 0.627747 0.148168 O
0.956075 0.627719 0.645749 O
0.456904 0.124303 0.103056 O
0.459052 0.121632 0.604509 O
0.457166 0.625561 0.103037 O
0.459215 0.632041 0.599323 O
0.044311 0.374336 0.355478 O
0.044990 0.374500 0.854885 O
0.041531 0.875749 0.356497 O
0.039380 0.875650 0.845155 O
0.544474 0.374151 0.397859 O
0.543711 0.371171 0.901373 O
0.550378 0.875859 0.401511 O
0.542788 0.875886 0.897073 O
0.665632 0.023539 0.110791 O
0.665999 0.016246 0.602824 O
0.666076 0.524703 0.107092 O
0.677296 0.532835 0.599845 O
0.162546 0.225914 0.141401 O
0.163305 0.227169 0.641651 O
0.165432 0.727739 0.141871 O
0.165156 0.728060 0.640470 O
0.336916 0.270541 0.384790 O
0.335597 0.271514 0.892572 O
0.340284 0.774105 0.390577 O
0.334534 0.772727 0.892428 O
0.836766 0.477068 0.358042 O
0.836504 0.476134 0.859927 O
0.829121 0.974731 0.363196 O
0.831176 0.976646 0.860200 O
0.334874 0.474429 0.393194 O
0.326683 0.472921 0.898641 O
0.340877 0.977135 0.389381 O
0.333079 0.975928 0.891844 O
0.834993 0.273627 0.359207 O
0.836509 0.272705 0.858917 O
0.829763 0.776220 0.364034 O
0.832538 0.772444 0.860117 O
0.665530 0.226631 0.107438 O
0.669781 0.221185 0.606974 O
0.664856 0.728172 0.116474 O
0.666009 0.735525 0.600618 O
0.164763 0.022168 0.141194 O
0.165982 0.023612 0.639263 O
0.163101 0.523992 0.143878 O
0.164155 0.524631 0.641589 O
