Mg7 Sc16 Se32                           
   1.00000000000000     
    11.1282700000000006   -0.0000120000000000   -0.0000220000000000
    -0.0000120000000000   11.1282750000000004   -0.0000360000000000
    -0.0000220000000000   -0.0000020000000000   11.1284460000000003
   Mg   Sc   Se
     7    16    32
Direct
  0.4041599616338468  0.4041612386793428  0.4041542869042074
  0.6260586842506225  0.1265614511767146  0.1265633602460898
  0.1265632077204550  0.6260597956067293  0.1265666285482122
  0.1265723603046482  0.1265684566894416  0.6260647102877035
  0.3764565427470128  0.8735992405969446  0.8736035513979180
  0.8736009165442240  0.3764576713618747  0.8736018627708001
  0.8736017764545349  0.8735990354209714  0.3764566227799298
  0.9938968148575439  0.7501291165480352  0.7501291744624051
  0.7501293726652004  0.9938959347015812  0.7501283317166592
  0.7501345554054114  0.7501293157015233  0.9938921073762554
  0.0006224290033639  0.0006161934931069  0.0006171095674365
  0.0059356167131019  0.2512701640147593  0.2512669442540999
  0.2512788652151353  0.0059350328158396  0.2512692084743904
  0.2512860070867466  0.2512916147836678  0.0059710219434217
  0.7505641780077630  0.5005009982465374  0.2550802645267420
  0.7505630352166409  0.2550724360651834  0.5004998459893150
  0.9894842873319671  0.5011254821791604  0.5011283680110332
  0.2550792743508722  0.5004984342509128  0.7505595199757078
  0.2550779938224292  0.7505595754617869  0.5004985625238332
  0.5005051986312739  0.7505591197409771  0.2550717940545746
  0.5011357800132162  0.9894858497655408  0.5011327128894896
  0.5005013476787648  0.2550703840194845  0.7505588422712508
  0.5011409002681713  0.5011343085998485  0.9894822835126166
  0.7581382927351599  0.9939411874383746  0.9939397812798877
  0.9939384837263457  0.7581395252674485  0.9939429415622321
  0.9939403814192949  0.9939409999758643  0.7581334342694500
  0.7559913181432624  0.7559877343943145  0.7559967762387083
  0.2442278232292446  0.0080962209329708  0.0080709880722350
  0.0080841159039150  0.2442283172225030  0.0080776981692506
  0.0080752199759873  0.0080807332785928  0.2442281109895571
  0.2489950800274241  0.2490046007053340  0.2490335199603570
  0.7518536416845456  0.4937227460445209  0.4937150271633296
  0.9933986879567361  0.2577297966473576  0.4939820572049170
  0.9933983200342600  0.4939804974674265  0.2577295386527078
  0.7608278303690655  0.2570368414809807  0.2570336154472241
  0.2358314944537097  0.5083620547376125  0.5083583374629277
  0.0085918210341830  0.7437075783977239  0.5071566724804125
  0.0085930260904954  0.5071574782961981  0.7437088331695582
  0.2402822542155939  0.7438609815005962  0.7438635381990443
  0.2577277116255020  0.9934018892531524  0.4939752011412927
  0.4937254465170101  0.7518599231239937  0.4937123714500230
  0.4939776941199794  0.9934007528322778  0.2577267342473133
  0.2570331489429633  0.7608363119801416  0.2570324746755984
  0.7437064113874413  0.0085914297274825  0.5071549786829910
  0.5083610344757236  0.2358338693072060  0.5083600302345780
  0.5071549874309096  0.0085916217866500  0.7437097325091571
  0.7438601340908866  0.2402814734008018  0.7438658978925173
  0.2577349371406200  0.4939928519319592  0.9934008774926685
  0.4939822997778054  0.2577337502759998  0.9934064629139333
  0.4937266151771768  0.4937234382447929  0.7518652152561421
  0.2570307844602847  0.2570319936853244  0.7608574290405662
  0.7437073051333960  0.5071596823157428  0.0085897333628896
  0.5071576069016649  0.7437053786458563  0.0085896269424283
  0.5083624861281800  0.5083615862631552  0.2358282924993180
  0.7438612902323342  0.7438631978988235  0.2402825388860442
 
             NaN             NaN             NaN
             NaN             NaN             NaN
             NaN             NaN             NaN
             NaN             NaN             NaN
             NaN             NaN             NaN
             NaN             NaN             NaN
             NaN             NaN             NaN
             NaN             NaN             NaN
             NaN             NaN             NaN
             NaN             NaN             NaN
             NaN             NaN             NaN
             NaN             NaN             NaN
             NaN             NaN             NaN
             NaN             NaN             NaN
             NaN             NaN             NaN
             NaN             NaN             NaN
             NaN             NaN             NaN
             NaN             NaN             NaN
             NaN             NaN             NaN
             NaN             NaN             NaN
             NaN             NaN             NaN
             NaN             NaN             NaN
             NaN             NaN             NaN
             NaN             NaN             NaN
             NaN             NaN             NaN
             NaN             NaN             NaN
             NaN             NaN             NaN
             NaN             NaN             NaN
             NaN             NaN             NaN
             NaN             NaN             NaN
             NaN             NaN             NaN
             NaN             NaN             NaN
             NaN             NaN             NaN
             NaN             NaN             NaN
             NaN             NaN             NaN
             NaN             NaN             NaN
             NaN             NaN             NaN
             NaN             NaN             NaN
             NaN             NaN             NaN
             NaN             NaN             NaN
             NaN             NaN             NaN
             NaN             NaN             NaN
             NaN             NaN             NaN
             NaN             NaN             NaN
             NaN             NaN             NaN
             NaN             NaN             NaN
             NaN             NaN             NaN
             NaN             NaN             NaN
             NaN             NaN             NaN
             NaN             NaN             NaN
             NaN             NaN             NaN
             NaN             NaN             NaN
             NaN             NaN             NaN
             NaN             NaN             NaN
             NaN             NaN             NaN
