Mg7 Sc16 Se32                           
   1.00000000000000     
    11.1282700000000006   -0.0000120000000000   -0.0000220000000000
    -0.0000120000000000   11.1282750000000004   -0.0000360000000000
    -0.0000220000000000   -0.0000020000000000   11.1284460000000003
   Mg   Sc   Se
     7    16    32
Direct
  0.4074422967228266  0.4074427412287972  0.4074357633338557
  0.6258355290036708  0.1263528222016717  0.1263530725591059
  0.1263562805453266  0.6258340583587286  0.1263525306966280
  0.1263582111787543  0.1263537608064170  0.6258349553199304
  0.3770559542485760  0.8731282962122842  0.8731314579260445
  0.8731324800171792  0.3770535738530190  0.8731314003319166
  0.8731318762272641  0.8731298092415143  0.3770533390896489
  0.9938533020232868  0.7498914061765554  0.7498922592775380
  0.7498935468514709  0.9938502037987201  0.7498919435724775
  0.7498940713251976  0.7498905928012871  0.9938443113223975
  0.0000973790998576  0.0000946827967762  0.0000913398317192
  0.0058315054945690  0.2504039558706674  0.2504084146324076
  0.2504061646105318  0.0058384361397032  0.2503969653464143
  0.2504113450510475  0.2504168338206572  0.0058674949596264
  0.7507118697666116  0.5003725031894172  0.2553107508311492
  0.7507126240915470  0.2553072677908852  0.5003705314499776
  0.9902813994066664  0.5006690792316445  0.5006750207666073
  0.2553157828913082  0.5003685059641357  0.7507041173838266
  0.2553148788919171  0.7507061669216971  0.5003664170388781
  0.5003707246684677  0.7507048832263968  0.2553099541186804
  0.5006697106986133  0.9903272313718453  0.5006722690454636
  0.5003703045732718  0.2553039896512390  0.7507069817598625
  0.5006714433487487  0.5006636067416219  0.9903077509907826
  0.7574788124165116  0.9935027849371592  0.9935035008442323
  0.9935028033396884  0.7574817622900043  0.9935088680206819
  0.9935029235619376  0.9935028884462971  0.7574758865075306
  0.7557246961822998  0.7557205740726742  0.7557313140744534
  0.2434940391386257  0.0072341851538021  0.0072279225820992
  0.0072329572487617  0.2434957526929743  0.0072339847825131
  0.0072306794139418  0.0072361453630546  0.2434975727876858
  0.2484527466891977  0.2484546814934576  0.2484546860842478
  0.7528157668622724  0.4940785022756226  0.4940678185698054
  0.9937106660942374  0.2573080690188176  0.4931766104074771
  0.9937120375940839  0.4931731990956199  0.2573037766634791
  0.7604590118097899  0.2569812606962088  0.2569823623601961
  0.2364727422113246  0.5086698912299197  0.5086686788080251
  0.0089713615074410  0.7433447577219469  0.5068996367783660
  0.0089706177859270  0.5068988783990863  0.7433439322135856
  0.2401380030928208  0.7438704588545492  0.7438722020394503
  0.2573065961384229  0.9937118960976701  0.4931711059911870
  0.4940806828125091  0.7528140279005406  0.4940678472411763
  0.4931697855254500  0.9937127482061969  0.2573023397521149
  0.2569816686432510  0.7604595022335486  0.2569809546205781
  0.7433417730727582  0.0089707587371127  0.5068973159772800
  0.5086680625159136  0.2364715931423625  0.5086721768399743
  0.5068956939438691  0.0089683717681360  0.7433444003065878
  0.7438690438608022  0.2401347359042687  0.7438729246404119
  0.2573084531312400  0.4931735946710895  0.9937155027341230
  0.4931708879252542  0.2573100792558674  0.9937216530408747
  0.4940801409249643  0.4940776994334684  0.7528216873130633
  0.2569832567057043  0.2569831894092395  0.7604628904114372
  0.7433434997942791  0.5069005893179783  0.0089676993922335
  0.5068990960039461  0.7433444166399443  0.0089693765034357
  0.5086719730368976  0.5086715689987666  0.2364662248443107
  0.7438705422895647  0.7438675548675341  0.2401374234141350
 
             NaN             NaN             NaN
             NaN             NaN             NaN
             NaN             NaN             NaN
             NaN             NaN             NaN
             NaN             NaN             NaN
             NaN             NaN             NaN
             NaN             NaN             NaN
             NaN             NaN             NaN
             NaN             NaN             NaN
             NaN             NaN             NaN
             NaN             NaN             NaN
             NaN             NaN             NaN
             NaN             NaN             NaN
             NaN             NaN             NaN
             NaN             NaN             NaN
             NaN             NaN             NaN
             NaN             NaN             NaN
             NaN             NaN             NaN
             NaN             NaN             NaN
             NaN             NaN             NaN
             NaN             NaN             NaN
             NaN             NaN             NaN
             NaN             NaN             NaN
             NaN             NaN             NaN
             NaN             NaN             NaN
             NaN             NaN             NaN
             NaN             NaN             NaN
             NaN             NaN             NaN
             NaN             NaN             NaN
             NaN             NaN             NaN
             NaN             NaN             NaN
             NaN             NaN             NaN
             NaN             NaN             NaN
             NaN             NaN             NaN
             NaN             NaN             NaN
             NaN             NaN             NaN
             NaN             NaN             NaN
             NaN             NaN             NaN
             NaN             NaN             NaN
             NaN             NaN             NaN
             NaN             NaN             NaN
             NaN             NaN             NaN
             NaN             NaN             NaN
             NaN             NaN             NaN
             NaN             NaN             NaN
             NaN             NaN             NaN
             NaN             NaN             NaN
             NaN             NaN             NaN
             NaN             NaN             NaN
             NaN             NaN             NaN
             NaN             NaN             NaN
             NaN             NaN             NaN
             NaN             NaN             NaN
             NaN             NaN             NaN
             NaN             NaN             NaN
