Mg7 Sc16 Se32
1.0
11.333226 -0.000000 0.000000
-0.000000 11.333222 -0.000000
0.000000 -0.000000 11.333219
Mg Sc Se
7 16 32
direct
0.408188 0.408188 0.408188 Mg
0.624678 0.125322 0.125322 Mg
0.125322 0.624678 0.125322 Mg
0.125322 0.125322 0.624678 Mg
0.377259 0.872741 0.872741 Mg
0.872741 0.377259 0.872741 Mg
0.872741 0.872741 0.377259 Mg
0.994515 0.750067 0.750067 Sc
0.750067 0.994514 0.750067 Sc
0.750067 0.750067 0.994514 Sc
1.000032 1.000032 1.000032 Sc
0.000813 0.249948 0.249948 Sc
0.249948 0.000813 0.249948 Sc
0.249948 0.249948 0.000813 Sc
0.749285 0.499954 0.255465 Sc
0.749286 0.255465 0.499954 Sc
-0.004704 0.499954 0.499954 Sc
0.255465 0.499954 0.749285 Sc
0.255465 0.749285 0.499954 Sc
0.499954 0.749285 0.255465 Sc
0.499954 -0.004704 0.499954 Sc
0.499954 0.255465 0.749285 Sc
0.499954 0.499954 -0.004704 Sc
0.758621 0.993041 0.993041 Se
0.993042 0.758621 0.993042 Se
0.993042 0.993041 0.758621 Se
0.759412 0.759412 0.759412 Se
0.242227 0.007530 0.007530 Se
0.007530 0.242227 0.007530 Se
0.007530 0.007530 0.242227 Se
0.242107 0.242107 0.242107 Se
0.759667 0.490565 0.490565 Se
0.992787 0.256982 0.491355 Se
0.992787 0.491355 0.256982 Se
0.758876 0.256982 0.256982 Se
0.240297 0.508037 0.508037 Se
0.009340 0.742326 0.507917 Se
0.009340 0.507917 0.742326 Se
0.240417 0.742326 0.742326 Se
0.256982 0.992787 0.491355 Se
0.490565 0.759667 0.490565 Se
0.491355 0.992787 0.256982 Se
0.256982 0.758876 0.256982 Se
0.742326 0.009340 0.507917 Se
0.508037 0.240297 0.508037 Se
0.507917 0.009340 0.742326 Se
0.742326 0.240417 0.742326 Se
0.256982 0.491355 0.992787 Se
0.491355 0.256982 0.992787 Se
0.490565 0.490565 0.759667 Se
0.256982 0.256982 0.758876 Se
0.742326 0.507917 0.009341 Se
0.507917 0.742326 0.009340 Se
0.508037 0.508037 0.240297 Se
0.742326 0.742326 0.240417 Se
