Na47 P16 S64
1.0
13.939983 -0.010787 0.000011
-0.010832 13.954420 0.000107
0.000036 0.000072 14.276003
Na P S
47 16 64
direct
0.610242 0.748557 0.735378 Na
0.999880 0.250592 0.206814 Na
0.999340 0.250237 0.706115 Na
0.999394 0.750573 0.212214 Na
0.984772 0.751990 0.718304 Na
0.500116 0.249408 0.207890 Na
0.500661 0.249760 0.707494 Na
0.500602 0.749430 0.211435 Na
0.249291 0.999411 0.290068 Na
0.248376 0.998532 0.789235 Na
0.251561 0.500559 0.294827 Na
0.250468 0.502783 0.793831 Na
0.748460 0.998952 0.292127 Na
0.747781 0.982645 0.786494 Na
0.750688 0.501080 0.287372 Na
0.753376 0.516037 0.781902 Na
0.253181 0.998864 0.039294 Na
0.243685 0.999967 0.540301 Na
0.247256 0.499640 0.045042 Na
0.255370 0.503306 0.545698 Na
0.752880 1.000485 0.040574 Na
0.744252 0.997894 0.540978 Na
0.746677 0.501022 0.034836 Na
0.756696 0.498825 0.535581 Na
0.999840 0.248594 0.456189 Na
0.998763 0.252942 0.955540 Na
0.999953 0.748457 0.465149 Na
0.999961 0.753319 0.962685 Na
0.500169 0.251405 0.457644 Na
0.501240 0.247056 0.956121 Na
0.500046 0.751542 0.472981 Na
0.500029 0.746678 0.955240 Na
0.992760 0.998826 0.501248 Na
0.003105 0.008546 0.000639 Na
0.010087 0.495918 0.499210 Na
0.997694 0.500239 0.998602 Na
0.491995 0.001832 0.499483 Na
0.506232 0.996446 0.999177 Na
0.505149 0.503420 0.501524 Na
0.492973 0.494760 0.001215 Na
0.248928 0.251205 0.249843 Na
0.249188 0.252251 0.750027 Na
0.251168 0.748796 0.250405 Na
0.279987 0.749453 0.749838 Na
0.751076 0.248794 0.249342 Na
0.750810 0.247752 0.750350 Na
0.748825 0.751204 0.249909 Na
0.999429 0.000852 0.249940 P
0.998879 0.002788 0.751525 P
0.001023 0.499812 0.249714 P
0.002355 0.498884 0.748383 P
0.499487 0.999865 0.250140 P
0.498013 0.999774 0.748580 P
0.500062 0.499475 0.250366 P
0.500759 0.498556 0.751723 P
0.249830 0.250204 0.000140 P
0.249638 0.250968 0.499467 P
0.250495 0.748515 0.000976 P
0.249588 0.751605 0.499371 P
0.750173 0.249802 0.999862 P
0.750389 0.249028 0.498890 P
0.749489 0.751496 0.001868 P
0.750414 0.748395 0.497628 P
0.154855 0.173486 0.082614 S
0.154115 0.175260 0.581828 S
0.153747 0.675092 0.084140 S
0.156402 0.676096 0.583766 S
0.655292 0.173720 0.083227 S
0.654229 0.174676 0.581529 S
0.655253 0.674039 0.084491 S
0.656547 0.668084 0.576752 S
0.345389 0.325422 0.083277 S
0.345571 0.325761 0.581999 S
0.345997 0.824384 0.083303 S
0.343813 0.830015 0.579809 S
0.844462 0.327383 0.082568 S
0.846115 0.324295 0.581354 S
0.844980 0.826498 0.085335 S
0.843235 0.825808 0.580714 S
0.173953 0.346844 0.417440 S
0.174074 0.346336 0.918797 S
0.171751 0.843527 0.414613 S
0.176928 0.842152 0.915706 S
0.675993 0.344519 0.415446 S
0.674978 0.343886 0.916366 S
0.672445 0.843166 0.415862 S
0.671270 0.848392 0.923594 S
0.324671 0.155871 0.416067 S
0.324914 0.155628 0.916781 S
0.327485 0.656651 0.417727 S
0.326273 0.650546 0.921426 S
0.825402 0.152755 0.416817 S
0.826028 0.154161 0.918376 S
0.828313 0.656654 0.412747 S
0.825510 0.658918 0.917877 S
0.096163 0.423546 0.167516 S
0.101004 0.422135 0.670257 S
0.093956 0.925500 0.166242 S
0.090292 0.924249 0.667818 S
0.594150 0.424018 0.166253 S
0.596406 0.424794 0.667797 S
0.595690 0.924322 0.168754 S
0.588961 0.924038 0.662413 S
0.405519 0.075122 0.165794 S
0.401565 0.077072 0.668432 S
0.403756 0.575036 0.168797 S
0.408950 0.578646 0.669896 S
0.904168 0.077312 0.167971 S
0.901025 0.075991 0.669620 S
0.906593 0.575135 0.166200 S
0.911795 0.573064 0.660335 S
0.075841 0.095277 0.333010 S
0.077645 0.100098 0.829615 S
0.076782 0.594973 0.332525 S
0.074027 0.594731 0.833314 S
0.574321 0.095523 0.333358 S
0.577991 0.093516 0.829555 S
0.576071 0.594509 0.332521 S
0.576385 0.587003 0.841008 S
0.425190 0.404175 0.333826 S
0.422292 0.401014 0.830025 S
0.423210 0.904967 0.332489 S
0.423079 0.907472 0.834634 S
0.924654 0.405025 0.332539 S
0.922072 0.405370 0.829143 S
0.923935 0.905552 0.332552 S
0.926513 0.910788 0.839685 S
