Mg1 Ti16 S32
1.0
9.863945 -0.002273 -0.003094
-0.002272 9.863950 0.003105
-0.003078 0.003088 9.864570
Mg Ti S
1 16 32
direct
0.500328 0.249671 0.749673 Mg
0.247155 0.749129 0.002999 Ti
0.500429 -0.009778 0.009830 Ti
0.759778 0.249568 0.009831 Ti
1.000869 0.502844 0.002998 Ti
0.500021 0.249979 0.250004 Ti
0.247414 0.502585 0.249579 Ti
0.240113 0.249805 0.490176 Ti
0.500193 0.509887 0.490175 Ti
0.499727 0.749784 0.750211 Ti
0.759878 0.509540 0.750492 Ti
0.752667 0.750405 0.497877 Ti
0.240460 -0.009879 0.750492 Ti
0.752969 0.997031 0.251273 Ti
1.000214 0.250272 0.750210 Ti
0.999916 0.750084 0.250521 Ti
0.999594 0.997331 0.497877 Ti
0.747217 0.002782 0.004516 S
0.002132 0.747869 0.002901 S
-0.000438 1.002683 0.747694 S
0.747316 0.750437 0.747694 S
0.252974 -0.004509 0.997038 S
1.000659 0.252324 0.997239 S
0.997937 0.997096 0.252260 S
0.252756 0.252460 0.249299 S
0.747057 0.504524 0.502943 S
-0.000511 0.247457 0.502631 S
0.002063 0.502616 0.247910 S
0.747414 0.247568 0.250391 S
0.252895 0.497106 0.495359 S
0.998090 0.751909 0.497480 S
1.000562 0.497345 0.752364 S
0.252655 0.749437 0.752365 S
0.245477 1.002942 0.502943 S
0.502544 0.750510 0.502632 S
0.502431 0.002586 0.250390 S
0.247384 0.747937 0.247908 S
0.752895 0.997104 0.497177 S
0.495170 0.254833 0.495030 S
0.495094 -0.004973 0.754766 S
0.754973 0.254905 0.754764 S
0.247062 0.502940 0.002862 S
0.505052 0.244947 0.004540 S
0.504815 0.504523 0.744887 S
0.245477 0.245184 0.744888 S
0.754508 0.497027 0.997038 S
0.497675 0.749343 0.997238 S
0.497540 0.497244 0.249299 S
0.752904 0.752062 0.252260 S
