Li17 Co18 O36                           
   1.00000000000000     
     8.1360679999999999    0.0000590000000000    2.4098510000000002
     3.7113580000000002    7.2402699999999998    2.4098440000000001
    -0.0100930000000000   -0.0061640000000000    9.9946020000000004
   Li   Co   O 
    17    18    36
Direct
  0.3225034505131903  0.6252412793090574  0.5035187781554642
  0.3337179422379348  0.3323406689377159  0.9998868735543872
  0.3332699413287498  0.6657914331546717 -0.0000795408242238
  0.3330076217307967 -0.0012204997874758  0.9999617760670668
  0.3322196472597915  0.0032002751305296  0.5023588433178767
  0.6665271496331505  0.3325187405692968  0.0002711978887519
  0.6601932596440828  0.3295539799326275  0.5017533538347245
  0.6657965231612695  0.6657065413766914  0.0009362207688955
  0.6547648497087500  0.6645974583649306  0.5028459373708241
  0.6668235947058632  0.9985895499866674  0.0004762418795400
  0.6465792038315197  0.0170106470722511  0.5013589244283597
 -0.0007752928951908  0.3324404653448272  0.9997754275126253
  0.0122712504517020  0.3328312081907137  0.5018443478629970
 -0.0009303454590153  0.6665230149534853  0.9998334760307643
 -0.0097081820843304  0.6655640509952170  0.5012727651284921
 -0.0002546092802346 -0.0005053959332851  0.9990660800912738
  0.0032674353283644  0.9943193028684586  0.5000534555568473
  0.1646718067323983  0.1661539394093184  0.2481785588074741
  0.1671371594866744  0.1654048034049168  0.7503236431058811
  0.1647747908561446  0.4987725404625741  0.2503616972674256
  0.1667186483680710  0.4969050652201885  0.7514489128129102
  0.1645262162413060  0.8340934988045665  0.2478616113180471
  0.1671712521310680  0.8310627244895860  0.7505129437857737
  0.4973563654325429  0.1665013904791841  0.2513000634487362
  0.4995906994161667  0.1644296135724996  0.7513837057732053
  0.4975630879617975  0.4986886374960276  0.2504249073237723
  0.4998578711026292  0.4977734981080248  0.7536319678563068
  0.4971962180137068  0.8324880379212795  0.2512675687561781
  0.4997119569661794  0.8302158404464719  0.7537041526206377
  0.8325811816272704  0.1660504865949058  0.2485287440144552
  0.8334479124881332  0.1649686113670113  0.7505381031544469
  0.8311511845219527  0.4989732701489704  0.2508493631562667
  0.8320211574917740  0.4981559211436005  0.7530389089155330
  0.8309476723269080  0.8327502332463931  0.2508953929993783
  0.8331423151119114  0.8312880444839860  0.7508788717607379
  0.2505007568647148  0.2519494351065482  0.3545790991133311
  0.2533080769513993  0.2510960472140401  0.8610868417488746
  0.2493715714613723  0.5906150347395758  0.3534736606600716
  0.2523508053595324  0.5852505728632238  0.8615934296575108
  0.2504378558003261  0.9212740267588920  0.3572794930108027
  0.2521004074024100  0.9184790775188225  0.8610237252498573
  0.5895253282389771  0.2523479455426798  0.3552251218832737
  0.5877174154260123  0.2501759547573411  0.8615946532319810
  0.5838642564334563  0.5850648481316342  0.3602125292832950
  0.5859441193859382  0.5838437447480098  0.8645824758799777
  0.5839083180881209  0.9200384896900575  0.3606906044383590
  0.5876299443815447  0.9181170623150665  0.8618245384464871
  0.9192044979423674  0.2522675551985253  0.3582292258359215
  0.9202792020684200  0.2507104565725170  0.8606910471466866
  0.9185014689023290  0.5856903447801726  0.3600045759265281
  0.9198280386509687  0.5854272332166138  0.8614250089048731
  0.9189628468211911  0.9199762481867274  0.3583460951906084
  0.9204302923229259  0.9183646655427479  0.8596378685292653
  0.0788196442269877  0.0802858327038893  0.1371975238431880
  0.0804877424694001  0.0782527391147575  0.6410049451626858
  0.0772899538132952  0.4135943811879049  0.1402035532749294
  0.0748852158886867  0.4128351732933729  0.6462520956627028
  0.0769159904411276  0.7459521346637367  0.1400473338384170
  0.0802725561261120  0.7430765257621367  0.6412307886745571
  0.4122301698971674  0.0786948559694672  0.1408211044610619
  0.4139239535846741  0.0727941295560002  0.6468393643738558
  0.4112914621181342  0.4120121545052084  0.1408654746084024
  0.4147846669556365  0.4101701611360569  0.6474606706990801
  0.4122128622881939  0.7458434873779970  0.1403137207781952
  0.4136598616589055  0.7439998400846117  0.6444788020991656
  0.7441493063413286  0.0788255378874534  0.1407506261244673
  0.7459133097970325  0.0781489915982010  0.6414118034218167
  0.7447449029400437  0.4132329374497345  0.1405484618250895
  0.7456312965725020  0.4117848682135259  0.6430663729113493
  0.7440051264569205  0.7457844916706869  0.1420064963320727
  0.7451634059227219  0.7442213896396258  0.6434620134003184
 
             NaN             NaN             NaN
             NaN             NaN             NaN
             NaN             NaN             NaN
             NaN             NaN             NaN
             NaN             NaN             NaN
             NaN             NaN             NaN
             NaN             NaN             NaN
             NaN             NaN             NaN
             NaN             NaN             NaN
             NaN             NaN             NaN
             NaN             NaN             NaN
             NaN             NaN             NaN
             NaN             NaN             NaN
             NaN             NaN             NaN
             NaN             NaN             NaN
             NaN             NaN             NaN
             NaN             NaN             NaN
             NaN             NaN             NaN
             NaN             NaN             NaN
             NaN             NaN             NaN
             NaN             NaN             NaN
             NaN             NaN             NaN
             NaN             NaN             NaN
             NaN             NaN             NaN
             NaN             NaN             NaN
             NaN             NaN             NaN
             NaN             NaN             NaN
             NaN             NaN             NaN
             NaN             NaN             NaN
             NaN             NaN             NaN
             NaN             NaN             NaN
             NaN             NaN             NaN
             NaN             NaN             NaN
             NaN             NaN             NaN
             NaN             NaN             NaN
             NaN             NaN             NaN
             NaN             NaN             NaN
             NaN             NaN             NaN
             NaN             NaN             NaN
             NaN             NaN             NaN
             NaN             NaN             NaN
             NaN             NaN             NaN
             NaN             NaN             NaN
             NaN             NaN             NaN
             NaN             NaN             NaN
             NaN             NaN             NaN
             NaN             NaN             NaN
             NaN             NaN             NaN
             NaN             NaN             NaN
             NaN             NaN             NaN
             NaN             NaN             NaN
             NaN             NaN             NaN
             NaN             NaN             NaN
             NaN             NaN             NaN
             NaN             NaN             NaN
             NaN             NaN             NaN
             NaN             NaN             NaN
             NaN             NaN             NaN
             NaN             NaN             NaN
             NaN             NaN             NaN
             NaN             NaN             NaN
             NaN             NaN             NaN
             NaN             NaN             NaN
             NaN             NaN             NaN
             NaN             NaN             NaN
             NaN             NaN             NaN
             NaN             NaN             NaN
             NaN             NaN             NaN
             NaN             NaN             NaN
             NaN             NaN             NaN
             NaN             NaN             NaN
