Li17 Co18 O36
1.0
8.136068 0.000059 2.409851
3.711358 7.240270 2.409844
-0.010093 -0.006164 9.994602
Li Co O
17 18 36
direct
0.301634 0.626442 0.517612 Li
0.333233 0.333366 0.999948 Li
0.333578 0.666518 0.000218 Li
0.333165 1.000103 -0.000153 Li
0.333339 1.005626 0.499989 Li
0.666503 0.333592 0.000218 Li
0.655331 0.336170 0.500024 Li
0.666358 0.666491 0.000478 Li
0.663587 0.666445 0.501089 Li
0.666534 0.999943 0.000124 Li
0.658119 1.008382 0.500367 Li
0.000239 0.333168 0.999646 Li
0.008560 0.333418 0.499615 Li
0.000079 0.666536 0.999924 Li
0.011315 0.658198 0.499992 Li
0.000276 1.000244 0.999566 Li
0.003085 0.997388 0.498914 Li
0.166758 0.167046 0.247860 Co
0.167152 0.167076 0.749252 Co
0.167090 0.499624 0.250067 Co
0.167214 0.499748 0.749175 Co
0.166844 0.834142 0.248635 Co
0.167014 0.833184 0.749436 Co
0.499525 0.167063 0.250731 Co
0.499591 0.166768 0.749912 Co
0.499443 0.499720 0.250817 Co
0.499789 0.500065 0.751398 Co
0.499664 0.833200 0.250566 Co
0.499940 0.832342 0.752124 Co
0.834280 0.166704 0.248545 Co
0.833322 0.166875 0.749526 Co
0.833646 0.499822 0.249829 Co
0.832369 0.500040 0.751460 Co
0.833327 0.833251 0.250494 Co
0.833045 0.833334 0.750172 Co
0.252700 0.253008 0.355121 O
0.253393 0.253712 0.858817 O
0.252557 0.590441 0.354359 O
0.252784 0.587236 0.859362 O
0.253064 0.922025 0.356648 O
0.252514 0.920442 0.859482 O
0.590563 0.252939 0.355663 O
0.587318 0.252828 0.859592 O
0.587818 0.586344 0.358215 O
0.586271 0.585879 0.862293 O
0.586446 0.920501 0.359558 O
0.587038 0.920161 0.860442 O
0.920959 0.253483 0.357421 O
0.920375 0.252836 0.859130 O
0.920814 0.586454 0.359021 O
0.920449 0.587000 0.859521 O
0.920879 0.920616 0.358007 O
0.920414 0.920456 0.858619 O
0.080378 0.080420 0.137737 O
0.080213 0.079950 0.640450 O
0.079690 0.414128 0.139521 O
0.076092 0.413981 0.644344 O
0.079307 0.746561 0.140419 O
0.078855 0.746293 0.641764 O
0.414167 0.079401 0.140442 O
0.413974 0.075779 0.644883 O
0.413280 0.412888 0.141105 O
0.414096 0.412623 0.645626 O
0.413841 0.746306 0.140766 O
0.413642 0.746124 0.643349 O
0.746239 0.079373 0.140771 O
0.745874 0.079921 0.640991 O
0.746262 0.413759 0.140537 O
0.745743 0.413520 0.642045 O
0.746288 0.746606 0.141443 O
0.745740 0.746048 0.642553 O
