Li48 P16 O64                            
   1.00000000000000     
    10.6332894842661609   -0.0033238607644740    0.0083020894995356
    -0.0038453656800990   12.3327194433250877    0.0050616356528115
     0.0077921825463483    0.0040568743079991   10.0339361327146310
   Li   P    O 
    47    16    64
Direct
  0.4239992469832927  0.3731168509382175  0.1018333708766589
  0.6638114396861828  0.2490108171278797  0.1007745682228409
  0.6631518697400355  0.2504095660183450  0.5992706961101449
  0.6640693782453559  0.7499937928349872  0.0992128216180471
  0.6632826231526684  0.7508775326475713  0.5984563908601416
  0.1633429970987969  0.4923613869868748  0.1533141176025898
  0.1621782479319141  0.5014546692552880  0.6515216923424246
  0.1656268912784179  0.0037879164162261  0.1484191698644889
  0.1628106953128097  0.0016226694101366  0.6505479460963478
  0.3370150066475270  0.0024105564970785  0.3996946307041601
  0.3367341886642300  0.0020962768838974  0.9018414980739102
  0.3355283787375271  0.4995705206689445  0.4003341058306919
  0.3335460447869645  0.5002277534947607  0.8999297891706695
  0.8374831416331590  0.2480171065335252  0.3496728381685805
  0.8365505123747540  0.2496474780583321  0.8496056338854070
  0.8374263409845071  0.7495725761093792  0.3483698436440008
  0.8371025918527522  0.7491599962093164  0.8495842619570010
  0.3347421382471448  0.2488079935484317  0.3945012719723188
  0.3313696810517703  0.2492224077986158  0.9065911476953733
  0.3362822379134115  0.7490518795588449  0.4005820084676162
  0.3362252051722083  0.7489355398342914  0.9009607891562571
  0.8377280980720804  0.0014631686120824  0.3469319588462889
  0.8367736450379781  0.0011822757444766  0.8490143570588411
  0.8380159383437366  0.4993579737307141  0.3486050430719731
  0.8370225639857585  0.5006625849202603  0.8502277701725464
  0.6647072830671731  0.4979764638545507  0.0991021971499384
  0.6632409838211041  0.4994081034540487  0.5990770370493708
  0.6631352360380245  0.9957556681176284  0.0978633419178150
  0.6637680129908305  0.9989784503984920  0.5993005909784699
  0.1617383876878173  0.2533808655500160  0.6471479986623637
  0.1634118465232493  0.7505024854807461  0.1514837476239216
  0.1631576396017493  0.7521110210607279  0.6503513329921649
  0.9351858182847587  0.3665904709682957  0.1526251392482105
  0.9233163070052667  0.3760713143999718  0.6503831006478564
  0.9274048833793661  0.8763477290951487  0.1485520384102945
  0.9268534183167043  0.8761505909607807  0.6486081279830411
  0.4255613048945366  0.3739924057671270  0.6012155089676844
  0.4258749530726387  0.8759451608748025  0.1011106664812045
  0.4253086952012888  0.8758743659678103  0.6005945545506166
  0.0772010543984813  0.1327352217508575  0.3387586455895576
  0.0739782423720000  0.1295587003315564  0.8570230714740389
  0.0742418710848686  0.6232643969173300  0.3509802796282133
  0.0738802851647328  0.6246360513376367  0.8510562695923721
  0.5744389317920774  0.1247641194560286  0.3976252031187076
  0.5734255782729037  0.1252963851788018  0.9017836082108995
  0.5738841371117626  0.6242629974769788  0.3985604482837272
  0.5730748126537848  0.6240010097319728  0.8992808073355427
  0.9086038571429903  0.1213604443839053  0.0973081485300052
  0.9110037061185270  0.1246935596307021  0.5967000116471022
  0.9116028123957670  0.6244972457652342  0.0980583848793312
  0.9101180145866992  0.6267996072239275  0.5966231627698259
  0.4159099912442231  0.1251968977737870  0.1517723690380552
  0.4114484180308211  0.1254708499121092  0.6536252514115140
  0.4109379055576459  0.6246848968771235  0.1529782761067554
  0.4108426747832774  0.6251527286285705  0.6527429453315563
  0.0884512398321803  0.3743218140495168  0.4092358298376791
  0.0868051704869261  0.3779046562343487  0.9007515007976100
  0.0901730582358229  0.8757066461732576  0.4023738280632852
  0.0898159268899251  0.8752837818842608  0.9030397310469754
  0.5894004426797926  0.3750685759484874  0.3471027410831711
  0.5879950989035650  0.3755356036242108  0.8466133974168661
  0.5890176803666793  0.8740828683198846  0.3471244630772259
  0.5884370129186325  0.8741621617409163  0.8457481570637586
  0.8351042173917744  0.0178971441717913  0.1451393501828844
  0.8410565075857267  0.0208651120328701  0.6477906410229092
  0.8410244011487537  0.5217442859586611  0.1493821027170665
  0.8390711860187310  0.5245481145920428  0.6488639526119464
  0.3552517205519986  0.2290224185580411  0.0976871429937852
  0.3426443100396958  0.2287654456792827  0.6023817587263910
  0.3416412102996770  0.7284062687109850  0.1020111767374139
  0.3410454520375169  0.7285721026814419  0.6017257946796741
  0.1588876088387197  0.2695477906892546  0.3730759901047999
  0.1573561733591612  0.2748043869636427  0.8492110655118200
  0.1590259455079809  0.7711226926082705  0.3527476922957863
  0.1596206957739208  0.7720628757561692  0.8510223313661902
  0.6593166559467354  0.4784831461935383  0.3984271034063295
  0.6585298136484340  0.4787640740816690  0.8977028098311883
  0.6593589197605163  0.9770829336962872  0.3980227180289405
  0.6585663719307137  0.9772844683456906  0.8958661624765473
  0.1587445992638278  0.4768958087510690  0.3541022115084985
  0.1578326425094520  0.4807473687107381  0.8462271860522254
  0.1612715810628879  0.9777758304443621  0.3508090572959856
  0.1591927717868810  0.9788593404493718  0.8519683800715150
  0.6591066098820606  0.2718817142019912  0.3987058531794223
  0.6572722476651826  0.2722765404678976  0.8986556363409355
  0.6588622972300465  0.7706808955766054  0.3982565473359918
  0.6583377228227336  0.7708351710969659  0.8972078452086104
  0.8394625268996775  0.2248913912774478  0.1503952630633625
  0.8393471054827091  0.2273779206072514  0.6472581483105331
  0.8415908946204517  0.7284993945248027  0.1481419717446317
  0.8404764911757426  0.7306611554460413  0.6468800202791738
  0.3446076795099346  0.0217884099363735  0.1008534717947526
  0.3413689810210917  0.0220847717833905  0.6022799534532640
  0.3409819922617192  0.5217925175396577  0.1019352897404380
  0.3413088348833512  0.5220445585912269  0.6012725087546326
  0.5559452750286383  0.1195725001452369  0.1038815738390299
  0.5495538710132357  0.1243669592274101  0.6011107705053801
  0.5490693282453296  0.6246062999259150  0.1009546611338702
  0.5488101941958649  0.6253229854101607  0.6005153635328085
  0.0437220284826116  0.1163406689608778  0.1493523480010902
  0.0476900327586540  0.1255660113350403  0.6513465868017405
  0.0491398384111901  0.6250642985710684  0.1507198320465101
  0.0476872591899048  0.6278664845501416  0.6488802645268853
  0.4515757852144238  0.3753425359734387  0.3993286426860455
  0.4498434604789492  0.3768795008965397  0.8967698669852397
  0.4512537346394206  0.8744798784869385  0.3999296860559053
  0.4506748429508624  0.8742540534081329  0.8983693452592829
  0.9514078795865955  0.3736348515948699  0.3531592743725191
  0.9492768493320161  0.3760836630558630  0.8449177613462214
  0.9522577257416927  0.8753798263647953  0.3501653830185115
  0.9518142148711211  0.8748162876296982  0.8510245342914928
  0.5902240783701522  0.3751418131908156  0.1915446723391489
  0.5901423268469110  0.3752677606897156  0.6906497219278027
  0.5886060375475727  0.8727787538353676  0.1915417614320646
  0.5883981633758576  0.8738865998501664  0.6900094637913599
  0.0833646549165874  0.3834153749246054  0.0534101404539174
  0.0833565275548061  0.3822945582853700  0.5649008717150225
  0.0908603667969066  0.8744238488992601  0.0585709335170251
  0.0898083103145904  0.8761280954811264  0.5583666488380614
  0.4132703888083886  0.1242692144615578  0.3081013669986689
  0.4110837179781217  0.1251285768546191  0.8093255733215359
  0.4105855480972819  0.6248210133296828  0.3088496891923069
  0.4104225238453545  0.6252090513003782  0.8084690020725789
  0.9115412160393341  0.1241542803526862  0.4411552546327686
  0.9069703405277435  0.1245811907309693  0.9409531443015146
  0.9101308512652735  0.6255424985505851  0.4408931787850268
  0.9111746638132194  0.6251169074621007  0.9420959099849068
 
  0.00000000E+00  0.00000000E+00  0.00000000E+00
  0.00000000E+00  0.00000000E+00  0.00000000E+00
  0.00000000E+00  0.00000000E+00  0.00000000E+00
  0.00000000E+00  0.00000000E+00  0.00000000E+00
  0.00000000E+00  0.00000000E+00  0.00000000E+00
  0.00000000E+00  0.00000000E+00  0.00000000E+00
  0.00000000E+00  0.00000000E+00  0.00000000E+00
  0.00000000E+00  0.00000000E+00  0.00000000E+00
  0.00000000E+00  0.00000000E+00  0.00000000E+00
  0.00000000E+00  0.00000000E+00  0.00000000E+00
  0.00000000E+00  0.00000000E+00  0.00000000E+00
  0.00000000E+00  0.00000000E+00  0.00000000E+00
  0.00000000E+00  0.00000000E+00  0.00000000E+00
  0.00000000E+00  0.00000000E+00  0.00000000E+00
  0.00000000E+00  0.00000000E+00  0.00000000E+00
  0.00000000E+00  0.00000000E+00  0.00000000E+00
  0.00000000E+00  0.00000000E+00  0.00000000E+00
  0.00000000E+00  0.00000000E+00  0.00000000E+00
  0.00000000E+00  0.00000000E+00  0.00000000E+00
  0.00000000E+00  0.00000000E+00  0.00000000E+00
  0.00000000E+00  0.00000000E+00  0.00000000E+00
  0.00000000E+00  0.00000000E+00  0.00000000E+00
  0.00000000E+00  0.00000000E+00  0.00000000E+00
  0.00000000E+00  0.00000000E+00  0.00000000E+00
  0.00000000E+00  0.00000000E+00  0.00000000E+00
  0.00000000E+00  0.00000000E+00  0.00000000E+00
  0.00000000E+00  0.00000000E+00  0.00000000E+00
  0.00000000E+00  0.00000000E+00  0.00000000E+00
  0.00000000E+00  0.00000000E+00  0.00000000E+00
  0.00000000E+00  0.00000000E+00  0.00000000E+00
  0.00000000E+00  0.00000000E+00  0.00000000E+00
  0.00000000E+00  0.00000000E+00  0.00000000E+00
  0.00000000E+00  0.00000000E+00  0.00000000E+00
  0.00000000E+00  0.00000000E+00  0.00000000E+00
  0.00000000E+00  0.00000000E+00  0.00000000E+00
  0.00000000E+00  0.00000000E+00  0.00000000E+00
  0.00000000E+00  0.00000000E+00  0.00000000E+00
  0.00000000E+00  0.00000000E+00  0.00000000E+00
  0.00000000E+00  0.00000000E+00  0.00000000E+00
  0.00000000E+00  0.00000000E+00  0.00000000E+00
  0.00000000E+00  0.00000000E+00  0.00000000E+00
  0.00000000E+00  0.00000000E+00  0.00000000E+00
  0.00000000E+00  0.00000000E+00  0.00000000E+00
  0.00000000E+00  0.00000000E+00  0.00000000E+00
  0.00000000E+00  0.00000000E+00  0.00000000E+00
  0.00000000E+00  0.00000000E+00  0.00000000E+00
  0.00000000E+00  0.00000000E+00  0.00000000E+00
  0.00000000E+00  0.00000000E+00  0.00000000E+00
  0.00000000E+00  0.00000000E+00  0.00000000E+00
  0.00000000E+00  0.00000000E+00  0.00000000E+00
  0.00000000E+00  0.00000000E+00  0.00000000E+00
  0.00000000E+00  0.00000000E+00  0.00000000E+00
  0.00000000E+00  0.00000000E+00  0.00000000E+00
  0.00000000E+00  0.00000000E+00  0.00000000E+00
  0.00000000E+00  0.00000000E+00  0.00000000E+00
  0.00000000E+00  0.00000000E+00  0.00000000E+00
  0.00000000E+00  0.00000000E+00  0.00000000E+00
  0.00000000E+00  0.00000000E+00  0.00000000E+00
  0.00000000E+00  0.00000000E+00  0.00000000E+00
  0.00000000E+00  0.00000000E+00  0.00000000E+00
  0.00000000E+00  0.00000000E+00  0.00000000E+00
  0.00000000E+00  0.00000000E+00  0.00000000E+00
  0.00000000E+00  0.00000000E+00  0.00000000E+00
  0.00000000E+00  0.00000000E+00  0.00000000E+00
  0.00000000E+00  0.00000000E+00  0.00000000E+00
  0.00000000E+00  0.00000000E+00  0.00000000E+00
  0.00000000E+00  0.00000000E+00  0.00000000E+00
  0.00000000E+00  0.00000000E+00  0.00000000E+00
  0.00000000E+00  0.00000000E+00  0.00000000E+00
  0.00000000E+00  0.00000000E+00  0.00000000E+00
  0.00000000E+00  0.00000000E+00  0.00000000E+00
  0.00000000E+00  0.00000000E+00  0.00000000E+00
  0.00000000E+00  0.00000000E+00  0.00000000E+00
  0.00000000E+00  0.00000000E+00  0.00000000E+00
  0.00000000E+00  0.00000000E+00  0.00000000E+00
  0.00000000E+00  0.00000000E+00  0.00000000E+00
  0.00000000E+00  0.00000000E+00  0.00000000E+00
  0.00000000E+00  0.00000000E+00  0.00000000E+00
  0.00000000E+00  0.00000000E+00  0.00000000E+00
  0.00000000E+00  0.00000000E+00  0.00000000E+00
  0.00000000E+00  0.00000000E+00  0.00000000E+00
  0.00000000E+00  0.00000000E+00  0.00000000E+00
  0.00000000E+00  0.00000000E+00  0.00000000E+00
  0.00000000E+00  0.00000000E+00  0.00000000E+00
  0.00000000E+00  0.00000000E+00  0.00000000E+00
  0.00000000E+00  0.00000000E+00  0.00000000E+00
  0.00000000E+00  0.00000000E+00  0.00000000E+00
  0.00000000E+00  0.00000000E+00  0.00000000E+00
  0.00000000E+00  0.00000000E+00  0.00000000E+00
  0.00000000E+00  0.00000000E+00  0.00000000E+00
  0.00000000E+00  0.00000000E+00  0.00000000E+00
  0.00000000E+00  0.00000000E+00  0.00000000E+00
  0.00000000E+00  0.00000000E+00  0.00000000E+00
  0.00000000E+00  0.00000000E+00  0.00000000E+00
  0.00000000E+00  0.00000000E+00  0.00000000E+00
  0.00000000E+00  0.00000000E+00  0.00000000E+00
  0.00000000E+00  0.00000000E+00  0.00000000E+00
  0.00000000E+00  0.00000000E+00  0.00000000E+00
  0.00000000E+00  0.00000000E+00  0.00000000E+00
  0.00000000E+00  0.00000000E+00  0.00000000E+00
  0.00000000E+00  0.00000000E+00  0.00000000E+00
  0.00000000E+00  0.00000000E+00  0.00000000E+00
  0.00000000E+00  0.00000000E+00  0.00000000E+00
  0.00000000E+00  0.00000000E+00  0.00000000E+00
  0.00000000E+00  0.00000000E+00  0.00000000E+00
  0.00000000E+00  0.00000000E+00  0.00000000E+00
  0.00000000E+00  0.00000000E+00  0.00000000E+00
  0.00000000E+00  0.00000000E+00  0.00000000E+00
  0.00000000E+00  0.00000000E+00  0.00000000E+00
  0.00000000E+00  0.00000000E+00  0.00000000E+00
  0.00000000E+00  0.00000000E+00  0.00000000E+00
  0.00000000E+00  0.00000000E+00  0.00000000E+00
  0.00000000E+00  0.00000000E+00  0.00000000E+00
  0.00000000E+00  0.00000000E+00  0.00000000E+00
  0.00000000E+00  0.00000000E+00  0.00000000E+00
  0.00000000E+00  0.00000000E+00  0.00000000E+00
  0.00000000E+00  0.00000000E+00  0.00000000E+00
  0.00000000E+00  0.00000000E+00  0.00000000E+00
  0.00000000E+00  0.00000000E+00  0.00000000E+00
  0.00000000E+00  0.00000000E+00  0.00000000E+00
  0.00000000E+00  0.00000000E+00  0.00000000E+00
  0.00000000E+00  0.00000000E+00  0.00000000E+00
  0.00000000E+00  0.00000000E+00  0.00000000E+00
  0.00000000E+00  0.00000000E+00  0.00000000E+00
  0.00000000E+00  0.00000000E+00  0.00000000E+00
  0.00000000E+00  0.00000000E+00  0.00000000E+00
  0.00000000E+00  0.00000000E+00  0.00000000E+00
