Li7 Mn16 O32                            
   1.00000000000000     
     8.0359839999999991   -0.0000150000000000   -0.0000450000000000
    -0.0000090000000000    8.0360060000000004   -0.0000770000000000
    -0.0000520000000000    0.0000090000000000    8.0329339999999991
   Li   Mn   O 
     7    16    32
Direct
  0.3421859866363035  0.4078507279448787  0.8421283565601249
  0.8771207441964119  0.8729140920244954  0.8730500414896676
  0.1252794175686162  0.1256069165609014  0.1243670899437095
  0.8771267961955982  0.3769551866723388  0.3770980744589635
  0.3730046336806729  0.8728420027104548  0.3771422214577075
  0.6243582003437921  0.1256519870966903  0.6253401583215435
  0.6243780925752435  0.6246620285578699  0.1243507415448482
  0.4997628058638611  0.2501730935994458  0.2481822930099168
  0.2496103205349768  0.5003566572520720  0.2519467436301298
  0.2493232018315304  0.2510646075949554  0.4985034724269609
  0.4988839460494960  0.5006323761650313  0.4984738176235742
  0.4988839774724771  0.7515263752836036  0.7493664139525149
  0.7519394915368268  0.5003287202527842  0.7496222453945172
  0.7520055615902965  0.7498614208676699  0.5001847119130847
  0.2496379612239284  0.9980553210130567  0.7496278868823155
  0.2493165685672404  0.7514989666148864  0.9988943377545679
  0.4997995592122776  0.0018275907650277 -0.0001824022702248
  0.7497337182380016 -0.0000022220258048  0.2501288580673378
  0.7481343451053983  0.2501241529732020 -0.0001439381003397
 -0.0015433909488838  0.2510847258519493  0.7493692082019071
 -0.0015492552301823  0.5006257523956888  0.9988862308645550
  0.0000980321091988  0.7498776125324501  0.2520276888729036
  0.0000983280289408  0.9979652870728145  0.5001253668815813
  0.7374796945630480  0.0125144331348750  0.0122762811826137
  0.0121762122297896  0.7378543810993273  0.0130828231397835
  0.0123820163844713  0.0121102696320734  0.7371821674720856
  0.7379468641498695  0.7376675050793253  0.7371786653691648
  0.2623995059513444  0.9884098229305591  0.9875801901861204
  0.9865815931013218  0.2624951992071453  0.9875217212564816
  0.9874862240245301  0.9877423915350103  0.2622428157097111
  0.2623837583881891  0.2624455257210817  0.2615568481958012
  0.7379405785021227  0.5128567284090600  0.5122898970756724
  0.0121979570199292  0.2368719158944124  0.5121021390411437
  0.0123518126751917  0.5128663947603829  0.2379049445374749
  0.7374540671345194  0.2377537159624980  0.2375177994712273
  0.2646617268578411  0.4854049786685505  0.4862580982822474
  0.9858410095634114  0.7642246577223591  0.4858158692408427
  0.9862519529333620  0.4853603023492223  0.7645639015455291
  0.2646652149742074  0.7637677207317721  0.7645372783541672
  0.2371986679552396  0.0121378882864607  0.5122811642505195
  0.5131855960224728  0.7378450794415263  0.5121045595215816
  0.5121510613794144  0.0125286338963929  0.2375306247630019
  0.2371696406022119  0.7376830282763817  0.2378656388572899
  0.7622581294757275  0.9877526269158172  0.4876910095843069
  0.4875467514194666  0.2625007542039974  0.4865564876738330
  0.4876199052800052  0.9884188745559422  0.7623441634139758
  0.7616237192242937  0.2624153981673736  0.7623326829949431
  0.2352810547222289  0.5147701649179777  0.0138477909531841
  0.5115423671793760  0.2385030725977813  0.0114592781285384
  0.5139303864755296  0.5147751718817800  0.7352815378685077
  0.2352940125051612  0.2361069136358297  0.7352787796745811
  0.7616304327022515  0.4876013834529159  0.9875956883895485
  0.4875467686721653  0.7634723391128706  0.9875141301627842
  0.4875938774514805  0.4876240979879525  0.2615597705169758
  0.7622615681600685  0.7624333321845819  0.2622464937818631
 
             NaN             NaN             NaN
             NaN             NaN             NaN
             NaN             NaN             NaN
             NaN             NaN             NaN
             NaN             NaN             NaN
             NaN             NaN             NaN
             NaN             NaN             NaN
             NaN             NaN             NaN
             NaN             NaN             NaN
             NaN             NaN             NaN
             NaN             NaN             NaN
             NaN             NaN             NaN
             NaN             NaN             NaN
             NaN             NaN             NaN
             NaN             NaN             NaN
             NaN             NaN             NaN
             NaN             NaN             NaN
             NaN             NaN             NaN
             NaN             NaN             NaN
             NaN             NaN             NaN
             NaN             NaN             NaN
             NaN             NaN             NaN
             NaN             NaN             NaN
             NaN             NaN             NaN
             NaN             NaN             NaN
             NaN             NaN             NaN
             NaN             NaN             NaN
             NaN             NaN             NaN
             NaN             NaN             NaN
             NaN             NaN             NaN
             NaN             NaN             NaN
             NaN             NaN             NaN
             NaN             NaN             NaN
             NaN             NaN             NaN
             NaN             NaN             NaN
             NaN             NaN             NaN
             NaN             NaN             NaN
             NaN             NaN             NaN
             NaN             NaN             NaN
             NaN             NaN             NaN
             NaN             NaN             NaN
             NaN             NaN             NaN
             NaN             NaN             NaN
             NaN             NaN             NaN
             NaN             NaN             NaN
             NaN             NaN             NaN
             NaN             NaN             NaN
             NaN             NaN             NaN
             NaN             NaN             NaN
             NaN             NaN             NaN
             NaN             NaN             NaN
             NaN             NaN             NaN
             NaN             NaN             NaN
             NaN             NaN             NaN
             NaN             NaN             NaN
