Li7 Mn16 O32
1.0
8.035984 -0.000015 -0.000045
-0.000009 8.036006 -0.000077
-0.000052 0.000009 8.032934
Li Mn O
7 16 32
direct
0.342045 0.408001 0.842005 Li
0.877018 0.873022 0.873011 Li
0.125236 0.125269 0.124715 Li
0.877020 0.376989 0.376982 Li
0.372996 0.872966 0.377019 Li
0.624723 0.125283 0.625287 Li
0.624733 0.624716 0.124710 Li
0.499865 0.249919 0.249739 Mn
0.249839 0.500143 0.251401 Mn
0.249841 0.251650 0.500418 Mn
0.498321 0.500127 0.500370 Mn
0.498323 0.749622 0.749883 Mn
0.751394 0.500126 0.749829 Mn
0.751607 0.749866 0.500184 Mn
0.249850 -0.001399 0.749830 Mn
0.249837 0.749598 0.998342 Mn
0.499892 0.000318 1.000014 Mn
0.749737 1.000058 0.250003 Mn
0.749555 0.249977 1.000023 Mn
0.000363 0.251668 0.749879 Mn
0.000366 0.500122 0.998322 Mn
1.000102 0.749862 0.251650 Mn
1.000097 0.998355 0.500134 Mn
0.737747 0.012233 0.012257 O
0.012726 0.737328 0.012623 O
0.012743 0.012623 0.737321 O
0.737445 0.737315 0.737313 O
0.262527 0.987702 0.987716 O
0.987464 0.262311 0.987718 O
0.987483 0.987758 0.262217 O
0.262516 0.262308 0.262264 O
0.737439 0.512725 0.512640 O
0.012739 0.237336 0.512635 O
0.012722 0.512713 0.237399 O
0.737735 0.237735 0.237803 O
0.264204 0.485876 0.485925 O
0.985974 0.764094 0.485955 O
0.985938 0.485833 0.764098 O
0.264208 0.764103 0.764082 O
0.237342 0.012646 0.512636 O
0.512726 0.737321 0.512638 O
0.512192 0.012192 0.237836 O
0.237328 0.737325 0.237374 O
0.762257 0.987780 0.487616 O
0.487741 0.262305 0.487501 O
0.487747 0.987707 0.762513 O
0.762332 0.262293 0.762478 O
0.237125 0.512937 0.012880 O
0.512448 0.237541 0.012439 O
0.512965 0.512935 0.737100 O
0.237134 0.237087 0.737100 O
0.762339 0.487472 0.987717 O
0.487733 0.762548 0.987720 O
0.487728 0.487439 0.262266 O
0.762263 0.762470 0.262212 O
