Li47 P16 O64                            
   1.00000000000000     
    10.5952470000000005   -0.0008230000000000   -0.0075570000000000
    -0.0009520000000000   12.3910610000000005    0.0012450000000000
    -0.0071530000000000    0.0009960000000000   10.0221780000000003
   Li   P    O 
    47    16    64
Direct
  0.2164729583084218  0.3004328817503432  0.1619417474217627
  0.6564028090541004  0.2524686277959788  0.0984751534430814
  0.6671620733177549  0.2491771984603407  0.5980824672731625
  0.6598342916855798  0.7484277558659621  0.0981260427471481
  0.6635736427367427  0.7500364125395795  0.5993025370585484
  0.1589403299012408  0.5098963002036653  0.1480911673537962
  0.1656759946969597  0.5003585978978914  0.6503251966933584
  0.1645141024511103  1.0013411596536910  0.1487360054550589
  0.1644824050079654  1.0003494179883983  0.6515413931580945
  0.3377309376055239  0.0006971048530654  0.3985391118516532
  0.3375074392230393  0.0001059276904205  0.9033656357235512
  0.3405146998754075  0.4989882739103425  0.3972978464648501
  0.3392672681337642  0.4964721273567924  0.9081140364705045
  0.8364535141279312  0.2488379125276053  0.3475490412354118
  0.8348757701448308  0.2492882600621625  0.8521331687438959
  0.8361297132219578  0.7489897970902689  0.3489550120625875
  0.8362407817801913  0.7494985491780676  0.8487819752814312
  0.3440109081507692  0.2484887076717114  0.4042526237116458
  0.3413040823380570  0.2517771803454361  0.9043824456785916
  0.3376951531117165  0.7486193160617306  0.4000203249980542
  0.3362197772220377  0.7482590243262439  0.9027682731540688
  0.8386452869535052  0.0024981868901812  0.3483225830180089
  0.8368131670062141  0.0014010351824842  0.8480396735976047
  0.8359667993252278  0.4995058679124111  0.3465073591009559
  0.8346082116049363  0.5007629840652411  0.8527891199160976
  0.6549137199418091  0.4943475074588582  0.0972780260796331
  0.6668602959660261  0.4995645745551438  0.5981815764363492
  0.6630917101396221  0.9964086264147684  0.0982171037891319
  0.6648721890688642  0.9985857762612178  0.5985797456629224
  0.1658292406501110  0.2522798413792200  0.6521464165908026
  0.1640432046870309  0.7542533899425310  0.1522743272998808
  0.1646872283595319  0.7525085816349660  0.6503126109986469
  0.9298384189365937  0.3700862552868372  0.1469708844318542
  0.9263165908145947  0.3753121802257636  0.6518924081209615
  0.9240344559534046  0.8759107882259326  0.1486419083371192
  0.9264190865789095  0.8758483918031194  0.6483790164317883
  0.4302249725809386  0.3752065335408124  0.6075731805994423
  0.4274172947210620  0.8737482289842573  0.1021458723425049
  0.4261941533369407  0.8747150800421694  0.6002072355406849
  0.0783959051633222  0.1319202820300172  0.3401166251841037
  0.0761910198074699  0.1279335351364567  0.8572526140248449
  0.0738383748208021  0.6276158358082965  0.3528687269093823
  0.0744269351091150  0.6257258627358748  0.8499590547050583
  0.5759075325635560  0.1254236964410980  0.3974524067332991
  0.5740197028992141  0.1248474124928049  0.9004855725388098
  0.5743039322048660  0.6224118317805538  0.3993257346016870
  0.5716006067303795  0.6223620012213527  0.8983788351949091
  0.9097375541595463  0.1228573457269202  0.0966979547251273
  0.9147401817372919  0.1257181522445745  0.5970305256661671
  0.9084977703894105  0.6266906599772091  0.0970947400972698
  0.9123105293800614  0.6257044737129196  0.5970542132745575
  0.4127236545105624  0.1203107729694988  0.1515200583104650
  0.4123273139350164  0.1232315242750285  0.6535044621588310
  0.4074184112559599  0.6270605120573753  0.1522324010343780
  0.4110701225600852  0.6251994165440805  0.6531523308172595
  0.0910256852368879  0.3777752118613607  0.4027320308591744
  0.0903349640405939  0.3775614685040124  0.9034957007322855
  0.0894298620580438  0.8765359919128439  0.4032215934004543
  0.0885837655127008  0.8754926213326352  0.9031072031580819
  0.5931815191332562  0.3741102351526421  0.3490673909983221
  0.5877044772844822  0.3744491204118952  0.8396393477352739
  0.5901424758400324  0.8738882189378490  0.3474088273571135
  0.5890014309937673  0.8736936979557608  0.8452940802217709
  0.8375147736543108  0.0200468536995470  0.1465738393156903
  0.8436018179553151  0.0224738084414173  0.6463091974441959
  0.8407928667306890  0.5226136129566155  0.1467211023946891
  0.8442865812728290  0.5230950096351549  0.6510256899027473
  0.3421679131120133  0.2176086751101403  0.0931995914379083
  0.3430008808757837  0.2263901442030141  0.6022159196766479
  0.3422224106069123  0.7344472238264991  0.1056487264106138
  0.3417558524849400  0.7285669003005498  0.6012963874761722
  0.1670548027638349  0.2780872620389491  0.3511395000535177
  0.1593209649887556  0.2748515213254749  0.8515475442257386
  0.1592702940823590  0.7731072847477681  0.3534153148726679
  0.1586368588367384  0.7726353799479118  0.8518489678413274
  0.6615106251067204  0.4778430903781292  0.4035710131510283
  0.6554747162508847  0.4771118748813053  0.8964207244548202
  0.6605678864751735  0.9768061805359448  0.3981497280830822
  0.6594069644829617  0.9762569086176638  0.8965291042041810
  0.1580542663081390  0.4821862883083707  0.3517448967003161
  0.1574662364275090  0.4803923382384787  0.8484112997111004
  0.1593582592949157  0.9788830675382263  0.3516044530752099
  0.1591195723987761  0.9783511221150181  0.8529457819639696
  0.6616910757291397  0.2706245478759188  0.4038328891381655
  0.6547610419668418  0.2716572789274916  0.8967863003536449
  0.6594077691447187  0.7709022360828864  0.3995982981252591
  0.6583293963628354  0.7703943728827388  0.8964136573946235
  0.8399947589653151  0.2260866426709833  0.1474243618805988
  0.8447678172689369  0.2279840820016426  0.6496216320277690
  0.8367328313629854  0.7289450544900005  0.1474998382506189
  0.8421799523232827  0.7287374304209824  0.6477305064859452
  0.3452491727009424  0.0140320243291994  0.1053749152101874
  0.3420149808516730  0.0206986432575511  0.6009590877871994
  0.3296957918996339  0.5311822220026096  0.0993340443838637
  0.3421772126848412  0.5228055764926901  0.5994404551145354
  0.5520109092909251  0.1195653442092315  0.1014429403192864
  0.5507501418967252  0.1229577467399424  0.6014314216714337
  0.5453719534045415  0.6243793933118270  0.0980347648169183
  0.5501241095567282  0.6255133374909587  0.6028129160564237
  0.0467013906317197  0.1203209859552586  0.1486787182549377
  0.0524611348784160  0.1254715815848596  0.6510524444062474
  0.0462269927427025  0.6304738576493706  0.1512623502744673
  0.0514499986116116  0.6272312789145477  0.6470594713682679
  0.4545464180933039  0.3742045560516993  0.4015985146446674
  0.4456766023559088  0.3751699650373466  0.8708436906282129
  0.4518087192118173  0.8746212715704771  0.3994450938949633
  0.4506919670250331  0.8737654819929336  0.8968126688040284
  0.9533501985122371  0.3740301103056205  0.3487716274293601
  0.9499313161085583  0.3756765212375167  0.8562814055786868
  0.9508667358436840  0.8752903758793262  0.3508863774452906
  0.9504834557153500  0.8753766901082775  0.8496056300139173
  0.6017855412474148  0.3738617941188583  0.1961940746209495
  0.6024760375457338  0.3743464594648009  0.6841549883727001
  0.5908388176140813  0.8727809948154962  0.1917087978813081
  0.5902517452614323  0.8741687171947335  0.6893116730029526
  0.0949345317296320  0.3811121537821417  0.0593645402258478
  0.0898495617361130  0.3766313406213217  0.5586198279062248
  0.0877191983934036  0.8752614481880494  0.0588118295450253
  0.0896238251353345  0.8766634421594320  0.5592877540255571
  0.4119555717848901  0.1241586978244527  0.3080190403750409
  0.4111323244783866  0.1223792914331621  0.8091169947933610
  0.4111562777784682  0.6254666603919040  0.3086449000902019
  0.4084805117385961  0.6251275943125695  0.8088213830436113
  0.9152936958343849  0.1266099467472134  0.4410432934940908
  0.9086477984590383  0.1238505362735430  0.9402287717399357
  0.9097645157853586  0.6245464900252753  0.4411176515628235
  0.9102872418255548  0.6267364049009396  0.9410105622257892
 
             NaN             NaN             NaN
             NaN             NaN             NaN
             NaN             NaN             NaN
             NaN             NaN             NaN
             NaN             NaN             NaN
             NaN             NaN             NaN
             NaN             NaN             NaN
             NaN             NaN             NaN
             NaN             NaN             NaN
             NaN             NaN             NaN
             NaN             NaN             NaN
             NaN             NaN             NaN
             NaN             NaN             NaN
             NaN             NaN             NaN
             NaN             NaN             NaN
             NaN             NaN             NaN
             NaN             NaN             NaN
             NaN             NaN             NaN
             NaN             NaN             NaN
             NaN             NaN             NaN
             NaN             NaN             NaN
             NaN             NaN             NaN
             NaN             NaN             NaN
             NaN             NaN             NaN
             NaN             NaN             NaN
             NaN             NaN             NaN
             NaN             NaN             NaN
             NaN             NaN             NaN
             NaN             NaN             NaN
             NaN             NaN             NaN
             NaN             NaN             NaN
             NaN             NaN             NaN
             NaN             NaN             NaN
             NaN             NaN             NaN
             NaN             NaN             NaN
             NaN             NaN             NaN
             NaN             NaN             NaN
             NaN             NaN             NaN
             NaN             NaN             NaN
             NaN             NaN             NaN
             NaN             NaN             NaN
             NaN             NaN             NaN
             NaN             NaN             NaN
             NaN             NaN             NaN
             NaN             NaN             NaN
             NaN             NaN             NaN
             NaN             NaN             NaN
             NaN             NaN             NaN
             NaN             NaN             NaN
             NaN             NaN             NaN
             NaN             NaN             NaN
             NaN             NaN             NaN
             NaN             NaN             NaN
             NaN             NaN             NaN
             NaN             NaN             NaN
             NaN             NaN             NaN
             NaN             NaN             NaN
             NaN             NaN             NaN
             NaN             NaN             NaN
             NaN             NaN             NaN
             NaN             NaN             NaN
             NaN             NaN             NaN
             NaN             NaN             NaN
             NaN             NaN             NaN
             NaN             NaN             NaN
             NaN             NaN             NaN
             NaN             NaN             NaN
             NaN             NaN             NaN
             NaN             NaN             NaN
             NaN             NaN             NaN
             NaN             NaN             NaN
             NaN             NaN             NaN
             NaN             NaN             NaN
             NaN             NaN             NaN
             NaN             NaN             NaN
             NaN             NaN             NaN
             NaN             NaN             NaN
             NaN             NaN             NaN
             NaN             NaN             NaN
             NaN             NaN             NaN
             NaN             NaN             NaN
             NaN             NaN             NaN
             NaN             NaN             NaN
             NaN             NaN             NaN
             NaN             NaN             NaN
             NaN             NaN             NaN
             NaN             NaN             NaN
             NaN             NaN             NaN
             NaN             NaN             NaN
             NaN             NaN             NaN
             NaN             NaN             NaN
             NaN             NaN             NaN
             NaN             NaN             NaN
             NaN             NaN             NaN
             NaN             NaN             NaN
             NaN             NaN             NaN
             NaN             NaN             NaN
             NaN             NaN             NaN
             NaN             NaN             NaN
             NaN             NaN             NaN
             NaN             NaN             NaN
             NaN             NaN             NaN
             NaN             NaN             NaN
             NaN             NaN             NaN
             NaN             NaN             NaN
             NaN             NaN             NaN
             NaN             NaN             NaN
             NaN             NaN             NaN
             NaN             NaN             NaN
             NaN             NaN             NaN
             NaN             NaN             NaN
             NaN             NaN             NaN
             NaN             NaN             NaN
             NaN             NaN             NaN
             NaN             NaN             NaN
             NaN             NaN             NaN
             NaN             NaN             NaN
             NaN             NaN             NaN
             NaN             NaN             NaN
             NaN             NaN             NaN
             NaN             NaN             NaN
             NaN             NaN             NaN
             NaN             NaN             NaN
             NaN             NaN             NaN
             NaN             NaN             NaN
             NaN             NaN             NaN
             NaN             NaN             NaN
