Li7 Mn16 O32                            
   1.00000000000000     
     8.1529150000000001    0.0000210000000000   -0.0000810000000000
     0.0000210000000000    8.1528880000000008   -0.0001210000000000
    -0.0000810000000000   -0.0001210000000000    8.1528860000000005
   Li   Mn   O 
     7    16    32
Direct
  0.3418528559551327  0.4081533297939933  0.8418484735092333
  0.8774481144653218  0.8725565005216438  0.8725728178774874
  0.1253629610475543  0.1258140629266034  0.1241844627155572
  0.8774477368347327  0.3774286520983409  0.3774446169372691
  0.3725756643177912  0.8725567626331440  0.3774447461675354
  0.6241814058205859  0.1258139958761702  0.6253657762896740
  0.6241814939331178  0.6246323518185699  0.1241846279538091
  0.4999785894330743  0.2500214361616848  0.2482864338376669
  0.2496326878714254  0.5003674760311680  0.2520345147977872
  0.2495096259581716  0.2506934647606718  0.4985357133922826
  0.4993068258842712  0.5004903819494858  0.4985352893345668
  0.4993079658309278  0.7514631639394524  0.7495077489516305
  0.7520337507095608  0.5003682233041991  0.7496316679319253
  0.7519740540162856  0.7499917752777697  0.5000084965925330
  0.2496315166796716  0.9979659200647352  0.7496314441509780
  0.2495071067840392  0.7514622411318850  0.9993071226648831
  0.4999801536732233  0.0017154902599415 -0.0000196664152565
  0.7498676695377374  0.0001321649780836  0.2498678729959388
  0.7482847963161271  0.2500203854640844 -0.0000204287140466
 -0.0014639149997542  0.2506922690320528  0.7495088229332342
 -0.0014633874416756  0.5004917717975097  0.9993071948245121
  0.0000082285250546  0.7499918955422458  0.2519729860872952
  0.0000080325419669  0.9980262548694609  0.5000081038329967
  0.7370854343253929  0.0129138518232116  0.0126991486486492
  0.0126271553654814  0.7373730273917989  0.0134233175368535
  0.0128661213501695  0.0122820181279397  0.7364863154307469
  0.7377180080362095  0.7371353565128091  0.7364874164386380
  0.2629835448640380  0.9880999514709266  0.9872102027586771
  0.9862389521783171  0.2628190118761980  0.9871801290687574
  0.9868897880586095  0.9875057498888458  0.2624950492717280
  0.2629830495741227  0.2627887829078876  0.2619002264563339
  0.7377177388183976  0.5135123758593695  0.5128654091907220
  0.0126264432618068  0.2365775172691740  0.5126270947805432
  0.0128655261367577  0.5135126227071626  0.2377169793437912
  0.7370860980075316  0.2373015900473935  0.2370854600982954
  0.2655394130113669  0.4844611519891172  0.4852882036994721
  0.9848786983203084  0.7651213058143632  0.4848787584554428
  0.9852860231068561  0.4844589981074638  0.7655408253461807
  0.2655389322351022  0.7647110849648787  0.7655382441990342
  0.2364871002992883  0.0122814810000718  0.5128654575992581
  0.5134228563176498  0.7373739570430736  0.5126271918907896
  0.5126998346340540  0.0129146813915257  0.2370841961963363
  0.2364878090520533  0.7371359577661141  0.2377177253933436
  0.7624940751808287  0.9875068268089443  0.4868898890271200
  0.4871799181404446  0.2628197538237470  0.4862386148994600
  0.4872098756756536  0.9880995186807741  0.7629844088920781
  0.7618993159894661  0.2627881500662264  0.7629836114519416
  0.2347022104075226  0.5152970130463504  0.0138571583359820
  0.5124338522258993  0.2375663129767457  0.0124336504901305
  0.5138575084449826  0.5152983247787079  0.7347018337296806
  0.2347023245626003  0.2361435204123721  0.7347032580357227
  0.7619002072242778  0.4870166405976927  0.9872103906866785
  0.4871802040764418  0.7637601677943349  0.9871797694494315
  0.4872095836105008  0.4870164794591145  0.2619015837193058
  0.7624937556641792  0.7631088642133917  0.2624936649721180
 
             NaN             NaN             NaN
             NaN             NaN             NaN
             NaN             NaN             NaN
             NaN             NaN             NaN
             NaN             NaN             NaN
             NaN             NaN             NaN
             NaN             NaN             NaN
             NaN             NaN             NaN
             NaN             NaN             NaN
             NaN             NaN             NaN
             NaN             NaN             NaN
             NaN             NaN             NaN
             NaN             NaN             NaN
             NaN             NaN             NaN
             NaN             NaN             NaN
             NaN             NaN             NaN
             NaN             NaN             NaN
             NaN             NaN             NaN
             NaN             NaN             NaN
             NaN             NaN             NaN
             NaN             NaN             NaN
             NaN             NaN             NaN
             NaN             NaN             NaN
             NaN             NaN             NaN
             NaN             NaN             NaN
             NaN             NaN             NaN
             NaN             NaN             NaN
             NaN             NaN             NaN
             NaN             NaN             NaN
             NaN             NaN             NaN
             NaN             NaN             NaN
             NaN             NaN             NaN
             NaN             NaN             NaN
             NaN             NaN             NaN
             NaN             NaN             NaN
             NaN             NaN             NaN
             NaN             NaN             NaN
             NaN             NaN             NaN
             NaN             NaN             NaN
             NaN             NaN             NaN
             NaN             NaN             NaN
             NaN             NaN             NaN
             NaN             NaN             NaN
             NaN             NaN             NaN
             NaN             NaN             NaN
             NaN             NaN             NaN
             NaN             NaN             NaN
             NaN             NaN             NaN
             NaN             NaN             NaN
             NaN             NaN             NaN
             NaN             NaN             NaN
             NaN             NaN             NaN
             NaN             NaN             NaN
             NaN             NaN             NaN
             NaN             NaN             NaN
