Li7 Mn16 O32
1.0
8.152915 0.000021 -0.000081
0.000021 8.152888 -0.000121
-0.000081 -0.000121 8.152886
Li Mn O
7 16 32
direct
0.341746 0.408251 0.841748 Li
0.877339 0.872659 0.872663 Li
0.125341 0.125338 0.124661 Li
0.877338 0.377337 0.377340 Li
0.372660 0.872661 0.377340 Li
0.624665 0.125337 0.625336 Li
0.624665 0.624663 0.124661 Li
0.500095 0.249903 0.249680 Mn
0.249927 0.500073 0.251278 Mn
0.249927 0.251505 0.500298 Mn
0.498499 0.500073 0.500297 Mn
0.498500 0.749705 0.749929 Mn
0.751280 0.500073 0.749927 Mn
0.751506 0.749931 0.500069 Mn
0.249928 -0.001279 0.749929 Mn
0.249928 0.749703 0.998497 Mn
0.500093 0.000319 1.000095 Mn
0.749906 1.000093 0.249908 Mn
0.749677 0.249903 1.000097 Mn
0.000297 0.251504 0.749927 Mn
0.000297 0.500072 0.998496 Mn
1.000069 0.749931 0.251506 Mn
1.000068 0.998494 0.500068 Mn
0.737268 0.012731 0.012804 O
0.013247 0.736755 0.012950 O
0.013245 0.012875 0.736684 O
0.737122 0.736754 0.736682 O
0.263167 0.987381 0.987327 O
0.986889 0.262669 0.987327 O
0.986909 0.987403 0.262595 O
0.263165 0.262670 0.262620 O
0.737123 0.513318 0.513247 O
0.013245 0.237052 0.513246 O
0.013245 0.513316 0.237124 O
0.737266 0.237199 0.237267 O
0.265001 0.485000 0.485054 O
0.985072 0.764926 0.485073 O
0.985053 0.485000 0.765000 O
0.265003 0.764948 0.765002 O
0.236683 0.012877 0.513246 O
0.512949 0.736755 0.513246 O
0.512804 0.012732 0.237267 O
0.236682 0.736754 0.237122 O
0.762596 0.987402 0.486908 O
0.487328 0.262669 0.486888 O
0.487329 0.987384 0.763166 O
0.762619 0.262670 0.763163 O
0.236420 0.513580 0.013211 O
0.513066 0.236934 0.013067 O
0.513210 0.513579 0.736421 O
0.236420 0.236789 0.736420 O
0.762618 0.486837 0.987329 O
0.487328 0.763113 0.987328 O
0.487329 0.486836 0.262616 O
0.762597 0.763091 0.262599 O
