Li17 Co18 O36
1.0
8.135708 -0.000040 2.409508
3.711107 7.239992 2.409500
-0.010524 -0.006428 9.994576
Li Co O
17 18 36
direct
0.333320 0.344752 0.499985 Li
0.332979 0.333511 0.999751 Li
0.333343 0.666657 0.000001 Li
0.333676 0.999803 0.000269 Li
0.333338 0.988589 0.500019 Li
0.666599 0.333402 -0.000000 Li
0.655276 0.344724 0.500000 Li
0.666489 0.667020 0.000250 Li
0.655249 0.666680 0.500014 Li
0.666314 0.999654 0.000533 Li
0.666346 0.999677 0.501477 Li
0.000346 0.333686 0.999467 Li
0.000323 0.333654 0.498522 Li
0.000197 0.666323 0.999731 Li
0.011412 0.666662 0.499980 Li
0.000065 0.999936 1.000000 Li
0.011395 0.988605 0.499999 Li
0.166726 0.167880 0.247854 Co
0.166947 0.166644 0.749524 Co
0.166790 0.500111 0.247806 Co
0.167232 0.500557 0.749184 Co
0.167210 0.832751 0.250831 Co
0.167248 0.832790 0.749171 Co
0.499712 0.166680 0.250461 Co
0.499927 0.165447 0.752134 Co
0.499427 0.500534 0.250821 Co
0.499466 0.500571 0.749180 Co
0.499443 0.832768 0.250816 Co
0.499890 0.833210 0.752194 Co
0.833304 0.166653 0.250471 Co
0.833346 0.166695 0.749529 Co
0.834553 0.500074 0.247866 Co
0.833319 0.500289 0.749539 Co
0.833355 0.833054 0.250475 Co
0.832119 0.833274 0.752146 Co
0.253099 0.254330 0.357337 O
0.252495 0.253771 0.859413 O
0.252600 0.585915 0.354350 O
0.253706 0.587048 0.858646 O
0.252641 0.925211 0.354286 O
0.252435 0.920643 0.859646 O
0.586400 0.254129 0.359565 O
0.587376 0.253882 0.859563 O
0.591869 0.585975 0.354288 O
0.587329 0.585762 0.859646 O
0.586424 0.919752 0.359523 O
0.585995 0.919289 0.863120 O
0.920948 0.254318 0.357376 O
0.920378 0.253724 0.858237 O
0.921003 0.586455 0.357371 O
0.920444 0.585843 0.859437 O
0.920807 0.919754 0.359590 O
0.920562 0.920730 0.859576 O
0.079269 0.079438 0.140423 O
0.080246 0.079191 0.640410 O
0.080711 0.414005 0.136878 O
0.080249 0.413576 0.640477 O
0.079358 0.747566 0.140353 O
0.074790 0.747358 0.645714 O
0.414157 0.079557 0.140562 O
0.413546 0.078997 0.642629 O
0.414237 0.412671 0.140353 O
0.414025 0.408132 0.645714 O
0.412952 0.746293 0.141354 O
0.414086 0.747397 0.645653 O
0.746276 0.079623 0.141762 O
0.745682 0.079052 0.642623 O
0.746118 0.412624 0.140436 O
0.745871 0.413599 0.640436 O
0.746229 0.747504 0.140586 O
0.745671 0.746900 0.642663 O
