Li17 Co18 O36                           
   1.00000000000000     
     8.1836880000000001   -0.0000540000000000    2.4234360000000001
     3.7329740000000000    7.2826959999999996    2.4234300000000002
     0.0233090000000000    0.0142540000000000    9.9385080000000006
   Li   Co   O 
    17    18    36
Direct
  0.3134167524153495  0.4228012725311586  0.5077298824634952
  0.3325126134853663  0.3336306268523626  0.0015936885914467
  0.3322073504531917  0.6676618615950335  0.0007414445979454
  0.3330487115079231  1.0006966364683967  1.0008007186216672
  0.3311052741149347  0.9986520997113335  0.5009173540282352
  0.6663825154722948  0.3335933738693139  0.0009600731306380
  0.6669733753104670  0.3364351479909669  0.5010927030016413
  0.6656450356323720  0.6680631026939862  1.0010304477266139
  0.6446666640592387  0.6674642098885081  0.5012976613503394
  0.6657335675116192  1.0000231744987464  0.0016918603738524
  0.6489415134495177  1.0170439121181261  0.5016883641263041
 -0.0000710392067318  0.3335769139764087  1.0007684989859358
  0.0088541015316889  0.3337548304171877  0.4997121325943918
 -0.0011147679801154  0.6674335242831206  0.0011650848853747
 -0.0205055236417060  0.6809526763142506  0.4998260176275836
 -0.0005566780683039  1.0011046263248573 -0.0000436698615161
  0.0139391846156944  0.9845478847569014  0.5003963696137281
  0.1638875773943721  0.1701709198089651  0.2476505547629450
  0.1684513314087182  0.1670730486882279  0.7505802504618088
  0.1635194420927992  0.5031907147129840  0.2472273776988877
  0.1671760398160037  0.5007155113945260  0.7542540722520444
  0.1634777970993654  0.8377065847235173  0.2483540379498139
  0.1681139370604170  0.8327585784574366  0.7504482125157749
  0.4959623294421593  0.1699165061278051  0.2512949499618983
  0.5009717746697765  0.1651948920428993  0.7545217606810503
  0.4966892783902272  0.5039048744625152  0.2492581351595868
  0.5009297140033921  0.5004796303984206  0.7534518219849751
  0.4962412794750174  0.8352972764923617  0.2511836777395504
  0.5003281275893319  0.8329117160981383  0.7544225443975247
  0.8299121705114347  0.1697339369118553  0.2503699335875918
  0.8347155251944395  0.1667604219874506  0.7506361061562293
  0.8309513337357315  0.5023721651565147  0.2489136862918948
  0.8342533654427996  0.5005086411413832  0.7514732088999686
  0.8296252647612118  0.8360380368485324  0.2506916215982753
  0.8334663691169066  0.8330712981551541  0.7529102386635599
  0.2493076771535031  0.2571987135862996  0.3549396212164689
  0.2536706374994275  0.2527072260831450  0.8620099522865573
  0.2473194053600269  0.5949058230721218  0.3494875497083115
  0.2538370297818295  0.5880996083631223  0.8621318214101484
  0.2493231851328621  0.9281301360795408  0.3533651925434574
  0.2526898010660395  0.9213867150424080  0.8605865613395551
  0.5831249813349360  0.2587098712901445  0.3587464505494568
  0.5897954035230215  0.2523603751697193  0.8619212859765389
  0.5880033325423141  0.5877554107987865  0.3548612842990855
  0.5892281789659651  0.5852013943261710  0.8623809859581025
  0.5827975946413193  0.9227094665943484  0.3602267792430959
  0.5874168475793644  0.9193801096816215  0.8641533713928963
  0.9184859994794266  0.2564413952097478  0.3571813724260213
  0.9219235569606328  0.2537254733442271  0.8587184811397894
  0.9182335924804990  0.5889185258801523  0.3576179615746364
  0.9198872347701794  0.5868898940916846  0.8613603620265659
  0.9176335641837884  0.9231922090735957  0.3585917554556847
  0.9214607579436518  0.9209106920914166  0.8596911732876688
  0.0755087782460814  0.0833554763634128  0.1393846868875331
  0.0815584751191266  0.0795790984262463  0.6413019593021163
  0.0771334531681505  0.4165727223483691  0.1376974784291247
  0.0816981593135674  0.4154976922345877  0.6427247894607825
  0.0747937944195853  0.7508828816326127  0.1396318308709540
  0.0764718717518265  0.7454879094715241  0.6470512819757132
  0.4114946519029817  0.0819048756626177  0.1413255964958406
  0.4148914395564279  0.0765648299412254  0.6471883368956529
  0.4111019036431248  0.4149810823521252  0.1402631031346852
  0.4165691326039496  0.4090689580810390  0.6518272455208084
  0.4107066786561546  0.7497788868632526  0.1401466801735696
  0.4149500414218301  0.7468446474492281  0.6485003549436842
  0.7426601021080662  0.0821580056336619  0.1426623248742805
  0.7460888727403684  0.0793003105243021  0.6439634711244798
  0.7440133874540132  0.4148470120133019  0.1410001242756028
  0.7464779860166608  0.4138536227316447  0.6429902565125321
  0.7432121134515808  0.7493264002616330  0.1418793813404401
  0.7451238900520705  0.7471730464574298  0.6449503986447465
 
             NaN             NaN             NaN
             NaN             NaN             NaN
             NaN             NaN             NaN
             NaN             NaN             NaN
             NaN             NaN             NaN
             NaN             NaN             NaN
             NaN             NaN             NaN
             NaN             NaN             NaN
             NaN             NaN             NaN
             NaN             NaN             NaN
             NaN             NaN             NaN
             NaN             NaN             NaN
             NaN             NaN             NaN
             NaN             NaN             NaN
             NaN             NaN             NaN
             NaN             NaN             NaN
             NaN             NaN             NaN
             NaN             NaN             NaN
             NaN             NaN             NaN
             NaN             NaN             NaN
             NaN             NaN             NaN
             NaN             NaN             NaN
             NaN             NaN             NaN
             NaN             NaN             NaN
             NaN             NaN             NaN
             NaN             NaN             NaN
             NaN             NaN             NaN
             NaN             NaN             NaN
             NaN             NaN             NaN
             NaN             NaN             NaN
             NaN             NaN             NaN
             NaN             NaN             NaN
             NaN             NaN             NaN
             NaN             NaN             NaN
             NaN             NaN             NaN
             NaN             NaN             NaN
             NaN             NaN             NaN
             NaN             NaN             NaN
             NaN             NaN             NaN
             NaN             NaN             NaN
             NaN             NaN             NaN
             NaN             NaN             NaN
             NaN             NaN             NaN
             NaN             NaN             NaN
             NaN             NaN             NaN
             NaN             NaN             NaN
             NaN             NaN             NaN
             NaN             NaN             NaN
             NaN             NaN             NaN
             NaN             NaN             NaN
             NaN             NaN             NaN
             NaN             NaN             NaN
             NaN             NaN             NaN
             NaN             NaN             NaN
             NaN             NaN             NaN
             NaN             NaN             NaN
             NaN             NaN             NaN
             NaN             NaN             NaN
             NaN             NaN             NaN
             NaN             NaN             NaN
             NaN             NaN             NaN
             NaN             NaN             NaN
             NaN             NaN             NaN
             NaN             NaN             NaN
             NaN             NaN             NaN
             NaN             NaN             NaN
             NaN             NaN             NaN
             NaN             NaN             NaN
             NaN             NaN             NaN
             NaN             NaN             NaN
             NaN             NaN             NaN
