Na15 V32 O64                            
   1.00000000000000     
     9.2497080000000000   -0.0174940000000000    0.0041440000000000
    -0.0224230000000000   11.8404360000000004    0.0548010000000000
     0.0041990000000000    0.0504050000000000   10.8011999999999997
   Na   V    O 
    15    32    64
Direct
  0.7302823179647732  0.3295105980428368  0.1506560612152347
  0.7219828033893327  0.0611255650542665  0.1503648530411058
  0.7251392322586419  0.7922052565463279  0.1521046553351513
  0.2229484371109608  0.0602307782101783  0.3439733681213124
  0.2249068048728272  0.3107605788272231  0.3516765679338513
  0.2222875282527949  0.5598903199759178  0.3419950942584744
  0.2239489957132357  0.8100769701449962  0.3512738765782100
  0.2369566282294861  0.1872506014331390  0.8435657985418686
  0.2338682458387376  0.4384582441165862  0.8520155310346189
  0.2399673825417702  0.6874357414841450  0.8461855398397800
  0.2352038410542367  0.9378282502746489  0.8516019709298126
  0.7382833622669859  0.1862217203953293  0.6533022029711465
  0.7352611303752218  0.4350361227575814  0.6462756481723105
  0.7360676678478366  0.6859092140025508  0.6530769278197608
  0.7350767977245845  0.9340183583295553  0.6463047226467677
  0.5640157761177355  0.0626996265052545  0.8921282788160760
  0.5617773939614972  0.3123251856736404  0.8962943962510701
  0.5638181868359068  0.5615574294496041  0.8944601294025850
  0.5594602963697546  0.8128476001614785  0.8979832904109343
  0.0623283709857855  0.0591817625077103  0.6010266559892774
  0.0617987253068583  0.3098400003335755  0.6052338421432817
  0.0619963279349546  0.5597609788320950  0.6008535869453713
  0.0632509974488529  0.8098884727419833  0.6043300375197979
  0.3993429964731384  0.1842244900019324  0.1002614664606828
  0.3963130397337957  0.4359751505064695  0.1041578204794018
  0.3979896623935407  0.6855233733809878  0.1019603817946021
  0.4004259204652522  0.9385877732416245  0.1055632228798928
  0.9012025851214173  0.1862503236173632  0.3968133725379898
  0.8998520889533355  0.4367100823644311  0.3927511607166371
  0.8980633225225571  0.6856633948870096  0.3978187191593719
  0.8977644601012702  0.9349525989211585  0.3933699782313612
  0.5436434183478631  0.0651739367962093  0.3876994703522437
  0.5462531001620062  0.3096140613046416  0.3854048934643925
  0.5453320163058546  0.5559385628232024  0.3815558097078355
  0.5443603872481383  0.8103179631475521  0.3836490326447133
  0.0421223514341573  0.0578468653436894  0.1125952900772161
  0.0527273150964293  0.3061915439140827  0.1095931485960836
  0.0317824667218354  0.5670020451524290  0.1116590758659859
  0.0460895372441747  0.8089490411773942  0.1099947902314397
  0.4175100010661646  0.1858476670963610  0.6131686145792249
  0.4134042001328196  0.4339467495181644  0.6108852808010680
  0.4179657973777561  0.6825104281609481  0.6101920350071710
  0.4133226491996439  0.9342661874589310  0.6106221567974797
  0.9186751933406365  0.1840140599351087  0.8859598081792645
  0.9137228467796659  0.4383255595910982  0.8877303001102916
  0.9169958467021817  0.6859724873343337  0.8830349931352353
  0.9124257603722952  0.9365401826367908  0.8865988659355027
  0.7743125130387102  0.0681124313452044  0.8470673424599937
  0.7721163189457131  0.3071488766127179  0.8498459733823334
  0.7745207651369386  0.5666760654929424  0.8456645320810584
  0.7722776602778667  0.8072504942931491  0.8439074994364967
  0.2723486355309255  0.0656969440334765  0.6505436945887968
  0.2738632400100481  0.3047258509209573  0.6492170058341380
  0.2727856831699284  0.5658098493666585  0.6493317532310233
  0.2758896805430409  0.8045442063286928  0.6461033137905891
  0.1915893828528896  0.1766895778509087  0.1493573919355384
  0.1987656417568907  0.4335311269272152  0.1488600389964090
  0.1822601193540017  0.6765122937426691  0.1492459102279532
  0.1861750009913237  0.9404183424541267  0.1519823169933609
  0.6897215113725084  0.1782213557033548  0.3498294305062552
  0.6866683013797755  0.4381286915143023  0.3515734264806382
  0.6840874544898877  0.6841463817045930  0.3568561170749805
  0.6821580751861007  0.9371087246357622  0.3528558840341774
  0.8669831397999238  0.0657629215490512  0.5179087203249587
  0.8669608467682020  0.3073037802540995  0.5181060504268752
  0.8663200523826196  0.5658266419844203  0.5192792027383141
  0.8675288989622452  0.8074300826523070  0.5196278810539572
  0.3680002744408852  0.0678438302134998  0.9793796776813751
  0.3644634315145638  0.3085435094425741  0.9798818556717561
  0.3682105383712538  0.5587233646579255  0.9803265718484835
  0.3633407439783901  0.8135284884531361  0.9808146428284802
  0.0948240780313465  0.1798968056031146  0.4798979213609845
  0.0952256649793311  0.4385635422487018  0.4796781518960460
  0.0942600076681366  0.6796445929431725  0.4793334483293373
  0.0951408097762389  0.9387235188610356  0.4782229901847818
  0.5944418607570273  0.1925587042218649  0.0174641977649730
  0.5881393686400591  0.4302528328894237  0.0198331359223225
  0.5920024375526203  0.6949699320314365  0.0113387773767203
  0.5949114516500387  0.9344313141179266  0.0182792511919493
  0.9563270790655914  0.0623298926850265  0.2795159267954682
  0.9611464537698888  0.3005121049811871  0.2831284220566446
  0.9609596534968722  0.5638885322965576  0.2827977529666601
  0.9561025031427780  0.8005366215804510  0.2828795507014066
  0.4622836688251823  0.0664036849371535  0.2185890800808071
  0.4571914732735063  0.3053986305201677  0.2123785722103087
  0.4566725443191404  0.5567793928746676  0.2154400523815521
  0.4653889707041355  0.8100199142409092  0.2232917342063504
  0.0029894523089872  0.1822102561489193  0.7184850779859655
  0.0034156182682785  0.4444860859447693  0.7147640742058015
  0.0043493269194813  0.6828700827072530  0.7174854394717826
  0.0031889334851667  0.9445476441828506  0.7141044133080796
  0.5023780869604197  0.1900969029465272  0.7785794281676628
  0.5037540977661192  0.4285705576846051  0.7825508703238282
  0.5015617257872751  0.6883817515448110  0.7764956552840838
  0.5034866582136526  0.9299065378466427  0.7815354161010678
  0.5567597565455280  0.0645793715078141  0.5714438692659296
  0.5556450125837207  0.3055257851901481  0.5691437638752014
  0.5567836514122488  0.5622741428559341  0.5684125818200484
  0.5566505903761710  0.8059113349099672  0.5629285683636182
  0.0584214697200866  0.0638921963588940  0.9290528413566334
  0.0555948843108108  0.3064480817904771  0.9240205443193057
  0.0575197976985238  0.5679686532857338  0.9276024854295639
  0.0549569501216923  0.8084015335612225  0.9242927231271897
  0.4013715193628504  0.1815771273847756  0.4279904847509808
  0.4037761850775294  0.4386692787864009  0.4249066534987622
  0.4049535170479214  0.6808395324203692  0.4244177555991094
  0.4073553192979417  0.9391688322028234  0.4243688096846562
  0.9051641393568363  0.1804684685915648  0.0694236123233069
  0.9160784278556354  0.4379406903248928  0.0731661009827355
  0.9003236370631428  0.6834077167810402  0.0662100183654245
  0.9039475091024990  0.9377324509844086  0.0725697556159924
 
             NaN             NaN             NaN
             NaN             NaN             NaN
             NaN             NaN             NaN
             NaN             NaN             NaN
             NaN             NaN             NaN
             NaN             NaN             NaN
             NaN             NaN             NaN
             NaN             NaN             NaN
             NaN             NaN             NaN
             NaN             NaN             NaN
             NaN             NaN             NaN
             NaN             NaN             NaN
             NaN             NaN             NaN
             NaN             NaN             NaN
             NaN             NaN             NaN
             NaN             NaN             NaN
             NaN             NaN             NaN
             NaN             NaN             NaN
             NaN             NaN             NaN
             NaN             NaN             NaN
             NaN             NaN             NaN
             NaN             NaN             NaN
             NaN             NaN             NaN
             NaN             NaN             NaN
             NaN             NaN             NaN
             NaN             NaN             NaN
             NaN             NaN             NaN
             NaN             NaN             NaN
             NaN             NaN             NaN
             NaN             NaN             NaN
             NaN             NaN             NaN
             NaN             NaN             NaN
             NaN             NaN             NaN
             NaN             NaN             NaN
             NaN             NaN             NaN
             NaN             NaN             NaN
             NaN             NaN             NaN
             NaN             NaN             NaN
             NaN             NaN             NaN
             NaN             NaN             NaN
             NaN             NaN             NaN
             NaN             NaN             NaN
             NaN             NaN             NaN
             NaN             NaN             NaN
             NaN             NaN             NaN
             NaN             NaN             NaN
             NaN             NaN             NaN
             NaN             NaN             NaN
             NaN             NaN             NaN
             NaN             NaN             NaN
             NaN             NaN             NaN
             NaN             NaN             NaN
             NaN             NaN             NaN
             NaN             NaN             NaN
             NaN             NaN             NaN
             NaN             NaN             NaN
             NaN             NaN             NaN
             NaN             NaN             NaN
             NaN             NaN             NaN
             NaN             NaN             NaN
             NaN             NaN             NaN
             NaN             NaN             NaN
             NaN             NaN             NaN
             NaN             NaN             NaN
             NaN             NaN             NaN
             NaN             NaN             NaN
             NaN             NaN             NaN
             NaN             NaN             NaN
             NaN             NaN             NaN
             NaN             NaN             NaN
             NaN             NaN             NaN
             NaN             NaN             NaN
             NaN             NaN             NaN
             NaN             NaN             NaN
             NaN             NaN             NaN
             NaN             NaN             NaN
             NaN             NaN             NaN
             NaN             NaN             NaN
             NaN             NaN             NaN
             NaN             NaN             NaN
             NaN             NaN             NaN
             NaN             NaN             NaN
             NaN             NaN             NaN
             NaN             NaN             NaN
             NaN             NaN             NaN
             NaN             NaN             NaN
             NaN             NaN             NaN
             NaN             NaN             NaN
             NaN             NaN             NaN
             NaN             NaN             NaN
             NaN             NaN             NaN
             NaN             NaN             NaN
             NaN             NaN             NaN
             NaN             NaN             NaN
             NaN             NaN             NaN
             NaN             NaN             NaN
             NaN             NaN             NaN
             NaN             NaN             NaN
             NaN             NaN             NaN
             NaN             NaN             NaN
             NaN             NaN             NaN
             NaN             NaN             NaN
             NaN             NaN             NaN
             NaN             NaN             NaN
             NaN             NaN             NaN
             NaN             NaN             NaN
             NaN             NaN             NaN
             NaN             NaN             NaN
             NaN             NaN             NaN
             NaN             NaN             NaN
             NaN             NaN             NaN
