Li47 P16 O64                            
   1.00000000000000     
    10.4037740000000003    0.0002520000000000   -0.0050420000000000
     0.0002900000000000   12.2029490000000003    0.0006000000000000
    -0.0047860000000000    0.0004780000000000    9.7906150000000007
   Li   P    O 
    47    16    64
Direct
  0.1881068032809140  0.2743171130996157  0.1583251423624057
  0.6600076961471003  0.2515693635404660  0.0969483704169307
  0.6677832072225505  0.2476959477235756  0.5976837712838899
  0.6624773917769697  0.7496385032343377  0.0967906070012262
  0.6645685866852820  0.7506739737769921  0.5984352468863356
  0.1613079880287741  0.5044190836136825  0.1512485900760351
  0.1652437118859077  0.5006815843035988  0.6517316307873218
  0.1642514452134813  1.0006205264562771  0.1508643285336064
  0.1647933988718952  0.9999748651587169  0.6527741795738616
  0.3363213810157361  0.0004434219593349  0.4005598952954272
  0.3367743444666268 -0.0002670902575942  0.9026596441408676
  0.3373579112960916  0.4997218221989196  0.3992426838197241
  0.3375425529321541  0.4971805413227148  0.9077287957237657
  0.8380203466442939  0.2490093107056206  0.3472707012163832
  0.8359024978904810  0.2493335987739831  0.8492192653520967
  0.8357466609868945  0.7490253106102579  0.3479520098327513
  0.8361684101137792  0.7496334790937884  0.8474771738602297
  0.3400690770850461  0.2486684959679341  0.4050397338376861
  0.3390277973961389  0.2512294781686739  0.9038439978959635
  0.3364974314335353  0.7492684667152778  0.4015213091173018
  0.3356529469858092  0.7486703450686553  0.9024473294500769
  0.8381531070626269  0.0019892140037839  0.3485654594265108
  0.8370717164743002  0.0014666096096429  0.8467115071294389
  0.8373704734118357  0.5005467825481591  0.3465356027463969
  0.8353294770199644  0.5014000514892302  0.8500256793202905
  0.6586970779831128  0.4970548264390880  0.0966840382284760
  0.6677548609557493  0.5014627066416265  0.5978549473435524
  0.6669657860507396  0.9968005909943657  0.0974444611110609
  0.6655723215266838  0.9981052277388370  0.5975919390411578
  0.1652331414872147  0.2522341565793456  0.6527921624883682
  0.1637874848899084  0.7534511321977848  0.1530841366633487
  0.1647951348467009  0.7523980994357462  0.6516831561017637
  0.9246231628798675  0.3741051190337636  0.1472145343223007
  0.9238475777579590  0.3755108641154304  0.6504786626062596
  0.9226528218298710  0.8750754983637482  0.1490077457438569
  0.9240180142451041  0.8754151986089291  0.6480926137314725
  0.4236823837039423  0.3752561702638261  0.6121341980300529
  0.4270661138826684  0.8740942575795908  0.1004057452602673
  0.4238671942661340  0.8747623294121261  0.6003624208063277
  0.0798399927338304  0.1293887681144954  0.3457328308816371
  0.0788815426704502  0.1268593952132611  0.8548941212326824
  0.0764599324582633  0.6273110451992367  0.3521295255947513
  0.0766744435940702  0.6260003842524964  0.8506409094310415
  0.5783268708762132  0.1239432437421857  0.3982530303988659
  0.5769836864304306  0.1235205809892007  0.8989516727641657
  0.5768875848781985  0.6246289436980718  0.3994772125959771
  0.5747367091595550  0.6240849920024572  0.8976994488786794
  0.9130437925313615  0.1258447823384306  0.0952580274808281
  0.9148382757079840  0.1255080625591217  0.5954220567824912
  0.9099457098716013  0.6262001815639473  0.0953624365681436
  0.9129335641853035  0.6257328219449161  0.5953840540519242
  0.4143142956374161  0.1209851183358683  0.1541109320749904
  0.4128619194298857  0.1238032641749570  0.6549546031150202
  0.4102164529460139  0.6273244730433581  0.1544177327895627
  0.4117527313303424  0.6249533412462457  0.6546283956437265
  0.0896205459404883  0.3772268221964698  0.4050006810480712
  0.0886847604647150  0.3769342232459252  0.9046675988712994
  0.0884923128620501  0.8764631897255118  0.4046443937515682
  0.0881304378844699  0.8756889655522395  0.9047873713125844
  0.5912403954824693  0.3743575917631426  0.3482330435362514
  0.5884983280528846  0.3745208545486212  0.8388459486800290
  0.5892290637652132  0.8743482473836217  0.3453635832143130
  0.5886920486747087  0.8739692492520327  0.8447060366197423
  0.8434031539819944  0.0221134066846988  0.1474040167812840
  0.8435571818244816  0.0221369628981190  0.6455427501866373
  0.8403564254598891  0.5223202470222912  0.1460478149290814
  0.8438734417535871  0.5227608642761699  0.6491448601776809
  0.3419099627929938  0.2185604727403879  0.0945345899048718
  0.3433296674310741  0.2275671953937053  0.6036909105422494
  0.3431729246720965  0.7336543091408304  0.1062119083423432
  0.3422934972888399  0.7284152673366894  0.6022351259804168
  0.1636909730358962  0.2755734939512713  0.3541061295274205
  0.1589570062375660  0.2739040298167671  0.8531596188581408
  0.1591870397727887  0.7732603218521762  0.3535022444376448
  0.1585954866996669  0.7724760218023391  0.8533001953053996
  0.6602833628937599  0.4782397793856805  0.4005528972963378
  0.6551977618882664  0.4774556132672268  0.8960391944761112
  0.6597822280451265  0.9774976387207445  0.3968913584647014
  0.6595367972843789  0.9767706660894530  0.8967300708956962
  0.1578586717373567  0.4811665470253794  0.3528745679075720
  0.1575005313335642  0.4800248481808909  0.8509219832194982
  0.1579628548313459  0.9796889648514203  0.3521377695866739
  0.1590519492028187  0.9787801740181693  0.8538243706262756
  0.6605940397224861  0.2707371425497989  0.4007359835068117
  0.6547630719277150  0.2713498230062049  0.8960860267750934
  0.6585501588480651  0.7710358986854013  0.3981080227529224
  0.6581774959047026  0.7702961871374344  0.8960699863131931
  0.8408272582825584  0.2283448007282621  0.1464245688438989
  0.8441923790428210  0.2281730398530136  0.6480683593651414
  0.8386667290268974  0.7289693388695261  0.1467458725459420
  0.8423549830793522  0.7288886994627475  0.6467583701066667
  0.3453914515738606  0.0156816304119123  0.1062024562303975
  0.3423446716272826  0.0212173205582369  0.6017481599102510
  0.3326125373921523  0.5310802540364410  0.0991452899732178
  0.3425943917481177  0.5220732737607312  0.6005736606931552
  0.5539836304256788  0.1211240783088361  0.1034772381416688
  0.5522931436762001  0.1237699651473484  0.6028382151441295
  0.5489091843142963  0.6248933352889715  0.1007586150656420
  0.5518113773627350  0.6250562148724316  0.6041851171923748
  0.0525215217846697  0.1272250210944076  0.1461836582958492
  0.0535821498200576  0.1255325504857220  0.6489470277509315
  0.0488140122480031  0.6282641705336629  0.1487853004246579
  0.0527434847698725  0.6267828188689684  0.6458792265543246
  0.4520197041377746  0.3744420227147788  0.4002220370248816
  0.4444707858078947  0.3747978225750800  0.8684654741665957
  0.4496958684355022  0.8749917959838857  0.3966048582442677
  0.4494031595491109  0.8741301871362588  0.8965135634197934
  0.9507370544289656  0.3746104071874743  0.3515758915136942
  0.9483001458424228  0.3755989495744015  0.8549119696696592
  0.9489531285683077  0.8750552723404758  0.3529313508300584
  0.9491238338520076  0.8755511476862782  0.8516804275627550
  0.5965889734786836  0.3742261577198390  0.1923945435221658
  0.6012455498880799  0.3745571119559684  0.6816115053137894
  0.5911868305381724  0.8737968251002364  0.1879331005270479
  0.5896866751640631  0.8745394958353092  0.6872675946214438
  0.0906666481106250  0.3792425122158711  0.0620121670603147
  0.0895965558218743  0.3767724950049435  0.5623937022401221
  0.0881648093778711  0.8758567230678417  0.0621842931163718
  0.0898498559612202  0.8766321705754873  0.5621372283770852
  0.4122796915545076  0.1250023401319661  0.3114881315920873
  0.4116156015222356  0.1230138173803118  0.8121885648137046
  0.4117160035362175  0.6251462375791896  0.3119076593764724
  0.4090657945126385  0.6245097978832616  0.8118859374283250
  0.9147306210198518  0.1262946275326598  0.4378838934541224
  0.9106127137100776  0.1251622512785057  0.9375809379520567
  0.9103478225517208  0.6247380447481153  0.4379049479884770
  0.9103265622203701  0.6261394233969784  0.9378223986323261
 
             NaN             NaN             NaN
             NaN             NaN             NaN
             NaN             NaN             NaN
             NaN             NaN             NaN
             NaN             NaN             NaN
             NaN             NaN             NaN
             NaN             NaN             NaN
             NaN             NaN             NaN
             NaN             NaN             NaN
             NaN             NaN             NaN
             NaN             NaN             NaN
             NaN             NaN             NaN
             NaN             NaN             NaN
             NaN             NaN             NaN
             NaN             NaN             NaN
             NaN             NaN             NaN
             NaN             NaN             NaN
             NaN             NaN             NaN
             NaN             NaN             NaN
             NaN             NaN             NaN
             NaN             NaN             NaN
             NaN             NaN             NaN
             NaN             NaN             NaN
             NaN             NaN             NaN
             NaN             NaN             NaN
             NaN             NaN             NaN
             NaN             NaN             NaN
             NaN             NaN             NaN
             NaN             NaN             NaN
             NaN             NaN             NaN
             NaN             NaN             NaN
             NaN             NaN             NaN
             NaN             NaN             NaN
             NaN             NaN             NaN
             NaN             NaN             NaN
             NaN             NaN             NaN
             NaN             NaN             NaN
             NaN             NaN             NaN
             NaN             NaN             NaN
             NaN             NaN             NaN
             NaN             NaN             NaN
             NaN             NaN             NaN
             NaN             NaN             NaN
             NaN             NaN             NaN
             NaN             NaN             NaN
             NaN             NaN             NaN
             NaN             NaN             NaN
             NaN             NaN             NaN
             NaN             NaN             NaN
             NaN             NaN             NaN
             NaN             NaN             NaN
             NaN             NaN             NaN
             NaN             NaN             NaN
             NaN             NaN             NaN
             NaN             NaN             NaN
             NaN             NaN             NaN
             NaN             NaN             NaN
             NaN             NaN             NaN
             NaN             NaN             NaN
             NaN             NaN             NaN
             NaN             NaN             NaN
             NaN             NaN             NaN
             NaN             NaN             NaN
             NaN             NaN             NaN
             NaN             NaN             NaN
             NaN             NaN             NaN
             NaN             NaN             NaN
             NaN             NaN             NaN
             NaN             NaN             NaN
             NaN             NaN             NaN
             NaN             NaN             NaN
             NaN             NaN             NaN
             NaN             NaN             NaN
             NaN             NaN             NaN
             NaN             NaN             NaN
             NaN             NaN             NaN
             NaN             NaN             NaN
             NaN             NaN             NaN
             NaN             NaN             NaN
             NaN             NaN             NaN
             NaN             NaN             NaN
             NaN             NaN             NaN
             NaN             NaN             NaN
             NaN             NaN             NaN
             NaN             NaN             NaN
             NaN             NaN             NaN
             NaN             NaN             NaN
             NaN             NaN             NaN
             NaN             NaN             NaN
             NaN             NaN             NaN
             NaN             NaN             NaN
             NaN             NaN             NaN
             NaN             NaN             NaN
             NaN             NaN             NaN
             NaN             NaN             NaN
             NaN             NaN             NaN
             NaN             NaN             NaN
             NaN             NaN             NaN
             NaN             NaN             NaN
             NaN             NaN             NaN
             NaN             NaN             NaN
             NaN             NaN             NaN
             NaN             NaN             NaN
             NaN             NaN             NaN
             NaN             NaN             NaN
             NaN             NaN             NaN
             NaN             NaN             NaN
             NaN             NaN             NaN
             NaN             NaN             NaN
             NaN             NaN             NaN
             NaN             NaN             NaN
             NaN             NaN             NaN
             NaN             NaN             NaN
             NaN             NaN             NaN
             NaN             NaN             NaN
             NaN             NaN             NaN
             NaN             NaN             NaN
             NaN             NaN             NaN
             NaN             NaN             NaN
             NaN             NaN             NaN
             NaN             NaN             NaN
             NaN             NaN             NaN
             NaN             NaN             NaN
             NaN             NaN             NaN
             NaN             NaN             NaN
             NaN             NaN             NaN
             NaN             NaN             NaN
