Li47 P16 O64
1.0
10.403774 0.000252 -0.005042
0.000290 12.202949 0.000600
-0.004786 0.000478 9.790615
Li P O
47 16 64
direct
0.196105 0.268390 0.145883 Li
0.658390 0.252098 0.097184 Li
0.666838 0.248326 0.598426 Li
0.664763 0.750801 0.097611 Li
0.664742 0.751194 0.598266 Li
0.164007 0.496614 0.152271 Li
0.164351 0.499317 0.652285 Li
0.163232 -0.001085 0.152096 Li
0.164568 -0.001174 0.652573 Li
0.336015 0.000632 0.401543 Li
0.335949 0.000670 0.902516 Li
0.337170 0.499658 0.400225 Li
0.336691 0.497698 0.906315 Li
0.836947 0.248492 0.347746 Li
0.834831 0.248814 0.848671 Li
0.836622 0.748803 0.348264 Li
0.836512 0.748995 0.847609 Li
0.337214 0.250312 0.399780 Li
0.336511 0.252384 0.906613 Li
0.336008 0.749411 0.401492 Li
0.335888 0.749369 0.902593 Li
0.836630 0.001215 0.348325 Li
0.836469 0.001003 0.847475 Li
0.836966 0.501346 0.347506 Li
0.834888 0.501303 0.848765 Li
0.658489 0.497897 0.097081 Li
0.666878 0.501695 0.598479 Li
0.664667 0.998519 0.097221 Li
0.664782 0.998706 0.598354 Li
0.164252 0.251153 0.651534 Li
0.162989 0.751309 0.152364 Li
0.164621 0.751530 0.652464 Li
0.920842 0.374464 0.148595 Li
0.921733 0.375137 0.648908 Li
0.922408 0.874915 0.149224 Li
0.923773 0.875090 0.648429 Li
0.423278 0.375001 0.610852 Li
0.427070 0.874924 0.100214 Li
0.423653 0.875030 0.600809 Li
0.077905 0.125940 0.350059 Li
0.077451 0.125606 0.852537 Li
0.077639 0.624554 0.351111 Li
0.077425 0.624776 0.852000 Li
0.577183 0.124801 0.399848 Li
0.575268 0.124769 0.897899 Li
0.577013 0.625090 0.399765 Li
0.575147 0.625114 0.898001 Li
0.910661 0.124931 0.095396 P
0.913323 0.124461 0.595442 P
0.911122 0.624711 0.095411 P
0.913239 0.625688 0.595440 P
0.411304 0.121611 0.154453 P
0.411607 0.124777 0.654878 P
0.410867 0.628295 0.154491 P
0.411554 0.625286 0.654845 P
0.087942 0.375022 0.405439 P
0.086086 0.375232 0.904319 P
0.088112 0.875090 0.404807 P
0.087765 0.875062 0.905112 P
0.591020 0.375014 0.349085 P
0.587896 0.375033 0.839748 P
0.588963 0.874930 0.345548 P
0.588591 0.874898 0.844850 P
0.840912 0.021309 0.146951 O
0.842658 0.021212 0.646566 O
0.839388 0.522043 0.146470 O
0.843080 0.523011 0.648348 O
0.335672 0.218418 0.097650 O
0.342294 0.227851 0.601594 O
0.343271 0.734288 0.106601 O
0.341973 0.728645 0.602340 O
0.158514 0.271585 0.355969 O
0.156709 0.272243 0.852807 O
0.158088 0.771786 0.353058 O
0.158488 0.771919 0.853895 O
0.660317 0.478725 0.401238 O
0.654944 0.478084 0.896341 O
0.658938 0.978164 0.397680 O
0.658655 0.978164 0.896614 O
0.158551 0.477894 0.353515 O
0.156751 0.478220 0.852660 O
0.158215 0.978220 0.352833 O
0.158434 0.978268 0.854051 O
0.660256 0.271263 0.401212 O
0.654793 0.271906 0.896448 O
0.658888 0.771637 0.397649 O
0.658648 0.771660 0.896772 O
0.839091 0.227589 0.146695 O
0.843093 0.227206 0.648148 O
0.841538 0.728321 0.147168 O
0.842635 0.728978 0.646472 O
0.343558 0.015757 0.106476 O
0.341990 0.021442 0.602379 O
0.334032 0.531753 0.098060 O
0.342128 0.522247 0.601584 O
0.550341 0.123105 0.101623 O
0.551614 0.124445 0.604243 O
0.549721 0.626413 0.101379 O
0.551538 0.625502 0.604190 O
0.049636 0.124779 0.148078 O
0.052585 0.124310 0.647570 O
0.050336 0.624244 0.147982 O
0.052620 0.626036 0.647243 O
0.451784 0.375048 0.400878 O
0.444506 0.375107 0.872102 O
0.449465 0.874974 0.396889 O
0.449180 0.874948 0.896477 O
0.948765 0.374850 0.352441 O
0.946693 0.375073 0.851716 O
0.948574 0.875042 0.353100 O
0.948784 0.875023 0.852027 O
0.595607 0.375055 0.193010 O
0.599772 0.374997 0.682571 O
0.591117 0.874841 0.188068 O
0.589643 0.874880 0.687434 O
0.085355 0.375619 0.061451 O
0.087883 0.375783 0.562979 O
0.087687 0.874972 0.062520 O
0.089573 0.875162 0.562291 O
0.411844 0.124727 0.311857 O
0.409257 0.124937 0.812184 O
0.411589 0.625144 0.311889 O
0.409206 0.625127 0.812149 O
0.912040 0.124976 0.437966 O
0.910211 0.124915 0.937843 O
0.911855 0.624971 0.437939 O
0.910671 0.625085 0.937847 O
