Li47 P16 O64                            
   1.00000000000000     
    10.5811390000000003    0.0008600000000000   -0.0043960000000000
     0.0010040000000000   12.3167249999999999   -0.0023390000000000
    -0.0041270000000000   -0.0018610000000000    9.9857879999999994
   Li   P    O 
    47    16    64
Direct
  0.4981551524287949  0.3031728668793080  0.0747566827132257
  0.6642594194975284  0.2504507864120374  0.6035858684405488
  0.6641498332791732  0.7515483807567936  0.0986727893483844
  0.6640310051646039  0.7521362486673675  0.5997031277099030
  0.1647350371104744  0.4975951480171313  0.1505049550053773
  0.1641068611250670  0.4993336901322591  0.6514178984967173
  0.1640986537987664  0.9945698519882760  0.1537904121781377
  0.1638394329036835  0.9985406504104505  0.6511950496961033
  0.3360755038389222 -0.0002491021837817  0.4020920768480305
  0.3366611158226122  0.0004226124585016  0.9013540832794812
  0.3368952272445724  0.5009216392243602  0.3986551756641808
  0.3390237603357062  0.4966881883705789  0.9080332956954700
  0.8345498462820007  0.2490180013966339  0.3475289616613975
  0.8357239691020779  0.2494906616153959  0.8534436022705328
  0.8365161887716476  0.7488966335719821  0.3494460577132465
  0.8365618333606254  0.7490158639470366  0.8491834830297810
  0.3373332605642229  0.2496802226115941  0.3988027634761370
  0.3321949160119648  0.2491147615469580  0.8986919801231136
  0.3366291794319093  0.7493529880709222  0.4008862994043435
  0.3367360005204307  0.7494287432576112  0.9012626887622336
  0.8365925918444982  0.0011666712713219  0.3500779899165696
  0.8364289167118474  0.0011888556276673  0.8487594888734136
  0.8358756257740944  0.5018130206604194  0.3493266536349505
  0.8371129045758228  0.5012168696809822  0.8492276958061863
  0.6626654326864676  0.4973838333910738  0.0965928416292804
  0.6648575463476465  0.5032321715391528  0.6016659712003458
  0.6640015560329158  0.0037938659456616  0.1007888421868078
  0.6637388287652869  0.9998993084506468  0.5988169212435719
  0.1667232018104291  0.2529662281841230  0.1495282452626256
  0.1629623388276617  0.2507099019537369  0.6507486727038200
  0.1638829059723232  0.7507083068234506  0.1510419666496336
  0.1637480210230075  0.7510999918514512  0.6516975832057562
  0.9223501307681092  0.3763700532494254  0.1463055732771635
  0.9249363081618349  0.3747104158751428  0.6493137030738787
  0.9247018464662384  0.8744227572089665  0.1492500174879569
  0.9253200524542444  0.8752408551296161  0.6489448234120131
  0.4231259654839773  0.3764044221381423  0.6018020577419112
  0.4281620728513634  0.8754381283294121  0.1009723701279271
  0.4262501316624431  0.8751641299184644  0.6015088155449863
  0.0753394500591016  0.1245636586144906  0.3522762760061904
  0.0749790361576893  0.1248150270790421  0.8507674893427479
  0.0746885485907668  0.6246048058071068  0.3507557115925246
  0.0754952040114398  0.6244538967024614  0.8522253372392218
  0.5746133228418010  0.1263500378612642  0.3959282045367585
  0.5783292382673475  0.1268870425261476  0.9032651373918127
  0.5746366302000688  0.6261229956247849  0.4009750052901320
  0.5736166579160537  0.6251625793682930  0.8979482397625699
  0.9147034042589277  0.1242233830535520  0.0975055294268388
  0.9117586800076015  0.1250257174137869  0.5967516467295485
  0.9112504867325164  0.6254411244413315  0.0969381355503378
  0.9122568400950584  0.6254666335598476  0.5972053701324934
  0.4074719806945684  0.1189698570007720  0.1531588014962234
  0.4112790299477066  0.1249745565689661  0.6535045957712765
  0.4113605384525173  0.6278383139844860  0.1528064279156482
  0.4104631815229456  0.6258232417268690  0.6541721159245234
  0.0884020508416014  0.3751261317077799  0.4031860177421737
  0.0877845568622353  0.3750929120119416  0.9031700442102665
  0.0883161195970366  0.8743878676593121  0.4042728325507379
  0.0884265052898962  0.8748107923703431  0.9036687227775404
  0.5901573085918576  0.3777928722280142  0.3517942763515266
  0.5897315295998030  0.3751305839705049  0.8395663981089788
  0.5895534023325427  0.8755015662320739  0.3468522406954325
  0.5896854208064157  0.8755188719362650  0.8467682168831305
  0.8429855641739519  0.0222384404068586  0.1495467245173721
  0.8414848565162025  0.0216687088700418  0.6479515498173505
  0.8403715383211272  0.5225717516883353  0.1482340312309309
  0.8426399694612463  0.5222723369964459  0.6493135995724337
  0.3380774091557551  0.2215102841806308  0.0983508019663366
  0.3407727342092798  0.2283783764498639  0.6020097811646726
  0.3437728684138647  0.7342037612794357  0.1053615263071488
  0.3406078753906641  0.7296027723719923  0.6031728890011501
  0.1578493697650038  0.2714217329228665  0.3513865670345601
  0.1568751109600450  0.2712597563428248  0.8511805072574744
  0.1586207437522983  0.7712291514019695  0.3525050933527008
  0.1588136198756731  0.7713387581157797  0.8529656837220514
  0.6601174302699474  0.4806490620199807  0.4047985083671684
  0.6586769986286292  0.4782446390617516  0.8938143006619145
  0.6590934502184917  0.9791686975663264  0.3983898467766572
  0.6600312407696826  0.9784147352583270  0.8989471178324162
  0.1588519951463322  0.4781547976662182  0.3518635828713177
  0.1589697071538330  0.4778045324236329  0.8517750935652035
  0.1584218072943903  0.9779064494543654  0.3535712978952508
  0.1588436296687971  0.9780785396589674  0.8524926102653860
  0.6587952497422260  0.2732593566997406  0.4017611169126110
  0.6589966504942359  0.2705304281683892  0.8842590434579016
  0.6597243233175955  0.7721671655541468  0.3985316210118333
  0.6591515846312178  0.7715216879464940  0.8974208735656098
  0.8543231217936148  0.2294865925654107  0.1528080673832128
  0.8424508991459292  0.2283586857997126  0.6488607606649887
  0.8414742741861593  0.7290959362870342  0.1481247527884486
  0.8417956996737255  0.7288603520376854  0.6480793974877045
  0.3382632984365494  0.0145195221672943  0.1047803089894249
  0.3411459247815760  0.0214253352198585  0.6022468150677370
  0.3346142757860561  0.5307357637926460  0.0981222813213468
  0.3407478796723072  0.5229205844774351  0.6006717758313806
  0.5442329033031174  0.1234182593667950  0.0992831604315381
  0.5493853993894448  0.1254120829068093  0.6003574305711502
  0.5493052696865375  0.6259368435184034  0.0993190630013918
  0.5492511533606483  0.6271904197049153  0.6028876924972855
  0.0544798679009220  0.1218119499788363  0.1473992202358612
  0.0506106413079797  0.1243449279824060  0.6484475533349926
  0.0497718145816046  0.6249763206298756  0.1492369728396536
  0.0508540500240669  0.6256365439629419  0.6492331628912670
  0.4515363818526316  0.3756132850378240  0.4032687276071789
  0.4525553552159388  0.3711833145682788  0.8955775028325191
  0.4509812475308425  0.8748382877723507  0.3989333395434181
  0.4510047733717921  0.8752960413235155  0.8982932882608602
  0.9496283835865024  0.3755231797635983  0.3518442155242696
  0.9492724628273782  0.3755210753463605  0.8510600618012695
  0.9499106617286678  0.8747214665741790  0.3518567200831991
  0.9501442847848766  0.8750489824435225  0.8507934791462095
  0.5925011329271870  0.3810360438405168  0.1971586104634794
  0.5878136368137612  0.3792075332289100  0.6835688381077699
  0.5910552652916892  0.8759387937176160  0.1905795694050882
  0.5902585364163760  0.8760410938965397  0.6903716528414575
  0.0879910343354652  0.3749542611836398  0.0592869142320854
  0.0894047224680101  0.3749234012280679  0.5595300749760287
  0.0878440900870712  0.8742956208641915  0.0599573553406112
  0.0888871103114392  0.8743682052042867  0.5605604729257043
  0.4078189126421881  0.1227261019827347  0.3096514327351998
  0.4110257589641537  0.1249147252896815  0.8097270813496129
  0.4123594224931308  0.6254788355015688  0.3092887678847775
  0.4092295768384511  0.6242670730005503  0.8104017483997215
  0.9109332982454467  0.1252848648563575  0.4404217625141850
  0.9118219314750752  0.1244824702368739  0.9414300620133467
  0.9114837853863802  0.6250636352147264  0.4408599227850751
  0.9109410637192216  0.6252818796607486  0.9405553308139871
 
             NaN             NaN             NaN
             NaN             NaN             NaN
             NaN             NaN             NaN
             NaN             NaN             NaN
             NaN             NaN             NaN
             NaN             NaN             NaN
             NaN             NaN             NaN
             NaN             NaN             NaN
             NaN             NaN             NaN
             NaN             NaN             NaN
             NaN             NaN             NaN
             NaN             NaN             NaN
             NaN             NaN             NaN
             NaN             NaN             NaN
             NaN             NaN             NaN
             NaN             NaN             NaN
             NaN             NaN             NaN
             NaN             NaN             NaN
             NaN             NaN             NaN
             NaN             NaN             NaN
             NaN             NaN             NaN
             NaN             NaN             NaN
             NaN             NaN             NaN
             NaN             NaN             NaN
             NaN             NaN             NaN
             NaN             NaN             NaN
             NaN             NaN             NaN
             NaN             NaN             NaN
             NaN             NaN             NaN
             NaN             NaN             NaN
             NaN             NaN             NaN
             NaN             NaN             NaN
             NaN             NaN             NaN
             NaN             NaN             NaN
             NaN             NaN             NaN
             NaN             NaN             NaN
             NaN             NaN             NaN
             NaN             NaN             NaN
             NaN             NaN             NaN
             NaN             NaN             NaN
             NaN             NaN             NaN
             NaN             NaN             NaN
             NaN             NaN             NaN
             NaN             NaN             NaN
             NaN             NaN             NaN
             NaN             NaN             NaN
             NaN             NaN             NaN
             NaN             NaN             NaN
             NaN             NaN             NaN
             NaN             NaN             NaN
             NaN             NaN             NaN
             NaN             NaN             NaN
             NaN             NaN             NaN
             NaN             NaN             NaN
             NaN             NaN             NaN
             NaN             NaN             NaN
             NaN             NaN             NaN
             NaN             NaN             NaN
             NaN             NaN             NaN
             NaN             NaN             NaN
             NaN             NaN             NaN
             NaN             NaN             NaN
             NaN             NaN             NaN
             NaN             NaN             NaN
             NaN             NaN             NaN
             NaN             NaN             NaN
             NaN             NaN             NaN
             NaN             NaN             NaN
             NaN             NaN             NaN
             NaN             NaN             NaN
             NaN             NaN             NaN
             NaN             NaN             NaN
             NaN             NaN             NaN
             NaN             NaN             NaN
             NaN             NaN             NaN
             NaN             NaN             NaN
             NaN             NaN             NaN
             NaN             NaN             NaN
             NaN             NaN             NaN
             NaN             NaN             NaN
             NaN             NaN             NaN
             NaN             NaN             NaN
             NaN             NaN             NaN
             NaN             NaN             NaN
             NaN             NaN             NaN
             NaN             NaN             NaN
             NaN             NaN             NaN
             NaN             NaN             NaN
             NaN             NaN             NaN
             NaN             NaN             NaN
             NaN             NaN             NaN
             NaN             NaN             NaN
             NaN             NaN             NaN
             NaN             NaN             NaN
             NaN             NaN             NaN
             NaN             NaN             NaN
             NaN             NaN             NaN
             NaN             NaN             NaN
             NaN             NaN             NaN
             NaN             NaN             NaN
             NaN             NaN             NaN
             NaN             NaN             NaN
             NaN             NaN             NaN
             NaN             NaN             NaN
             NaN             NaN             NaN
             NaN             NaN             NaN
             NaN             NaN             NaN
             NaN             NaN             NaN
             NaN             NaN             NaN
             NaN             NaN             NaN
             NaN             NaN             NaN
             NaN             NaN             NaN
             NaN             NaN             NaN
             NaN             NaN             NaN
             NaN             NaN             NaN
             NaN             NaN             NaN
             NaN             NaN             NaN
             NaN             NaN             NaN
             NaN             NaN             NaN
             NaN             NaN             NaN
             NaN             NaN             NaN
             NaN             NaN             NaN
             NaN             NaN             NaN
             NaN             NaN             NaN
             NaN             NaN             NaN
             NaN             NaN             NaN
             NaN             NaN             NaN
