Na47 P16 S64
1.0
13.676637 -0.002069 0.000001
-0.002103 13.680175 -0.000316
-0.000138 0.000138 14.092274
Na P S
47 16 64
direct
0.548510 0.747101 0.723084 Na
0.999807 0.250637 0.206363 Na
0.998891 0.250489 0.705977 Na
0.999247 0.750668 0.211175 Na
0.976203 0.753067 0.718664 Na
0.500198 0.249365 0.206684 Na
0.501104 0.249514 0.706367 Na
0.500764 0.749342 0.210784 Na
0.249355 0.999776 0.293059 Na
0.249208 0.998751 0.792999 Na
0.250800 0.500319 0.293889 Na
0.250575 0.501525 0.793768 Na
0.749169 0.999114 0.289698 Na
0.746840 0.975777 0.782225 Na
0.750650 0.500804 0.288863 Na
0.753373 0.523956 0.781456 Na
0.252438 0.999579 0.042989 Na
0.245332 0.998456 0.544158 Na
0.247624 0.500117 0.044107 Na
0.254530 0.502268 0.545144 Na
0.752574 0.999867 0.037607 Na
0.745007 0.999429 0.538319 Na
0.747360 0.500421 0.036486 Na
0.755131 0.499840 0.537333 Na
0.500226 0.252131 0.456607 Na
0.501798 0.245923 0.955186 Na
0.500234 0.752318 0.465142 Na
0.500098 0.745453 0.960255 Na
0.999767 0.247889 0.456015 Na
0.998197 0.254080 0.955012 Na
0.999778 0.747687 0.463613 Na
0.999897 0.754544 0.962315 Na
0.995101 0.996903 0.501910 Na
0.005287 0.009417 0.001298 Na
0.009642 0.494430 0.498704 Na
0.996655 0.503575 0.998085 Na
0.490756 0.004909 0.498791 Na
0.504220 0.995777 0.998212 Na
0.504503 0.503795 0.501992 Na
0.493845 0.491242 0.001415 Na
0.249862 0.250316 0.249978 Na
0.249796 0.250400 0.750005 Na
0.250316 0.749870 0.250815 Na
0.256580 0.749821 0.749706 Na
0.750151 0.249692 0.249127 Na
0.750197 0.249600 0.750323 Na
0.749696 0.750123 0.249972 Na
0.499895 0.499403 0.250209 P
0.500350 0.497632 0.752797 P
0.499418 0.000065 0.249953 P
0.497482 0.999732 0.747222 P
0.000684 0.499871 0.249856 P
0.002600 0.499961 0.747218 P
-0.000013 0.000632 0.250104 P
0.999556 0.002660 0.752795 P
0.250010 0.250079 0.000038 P
0.249897 0.250205 0.499873 P
0.250119 0.749656 0.001264 P
0.249911 0.750425 0.500386 P
0.749982 0.249928 0.999481 P
0.750084 0.249802 0.498680 P
0.749874 0.750342 0.002413 P
0.750091 0.749571 0.497493 P
0.153370 0.174031 0.082899 S
0.152939 0.174370 0.582169 S
0.152599 0.675089 0.084326 S
0.154138 0.674708 0.583525 S
0.654122 0.173126 0.082929 S
0.652874 0.174983 0.581455 S
0.654404 0.673025 0.085861 S
0.654554 0.670338 0.577529 S
0.346798 0.325864 0.082974 S
0.346838 0.325810 0.582353 S
0.347395 0.824832 0.084044 S
0.346039 0.826687 0.582551 S
0.845716 0.326984 0.082864 S
0.847329 0.324833 0.581291 S
0.845590 0.827055 0.086155 S
0.845299 0.828270 0.578506 S
0.174062 0.347042 0.417128 S
0.174201 0.347106 0.917881 S
0.172694 0.845617 0.416615 S
0.175486 0.846380 0.917943 S
0.675173 0.346990 0.415615 S
0.674355 0.345979 0.916635 S
0.672776 0.845164 0.414111 S
0.671057 0.846516 0.922526 S
0.325722 0.153574 0.416880 S
0.325657 0.153318 0.917481 S
0.327011 0.654515 0.417222 S
0.325190 0.651916 0.919251 S
0.825030 0.152386 0.415867 S
0.825790 0.153585 0.917027 S
0.827540 0.654687 0.413508 S
0.828275 0.655156 0.921238 S
0.097098 0.423974 0.166883 S
0.102273 0.421547 0.669808 S
0.096613 0.924735 0.167249 S
0.092461 0.921866 0.670369 S
0.595895 0.423497 0.166718 S
0.598126 0.424794 0.668617 S
0.595752 0.924187 0.167297 S
0.588881 0.925693 0.658354 S
0.403248 0.075813 0.166580 S
0.398269 0.078324 0.669417 S
0.402925 0.575326 0.167767 S
0.407407 0.578835 0.670815 S
0.903752 0.076710 0.167030 S
0.901323 0.075347 0.669021 S
0.904703 0.575740 0.166791 S
0.911249 0.573605 0.657914 S
0.075943 0.096914 0.333216 S
0.078385 0.102088 0.830177 S
0.076632 0.596045 0.333132 S
0.074994 0.597768 0.831592 S
0.575222 0.096917 0.332707 S
0.578593 0.093163 0.829067 S
0.575902 0.595529 0.332978 S
0.574378 0.588409 0.842409 S
0.424248 0.403007 0.333440 S
0.421593 0.398117 0.830187 S
0.423375 0.903911 0.333095 S
0.424384 0.902756 0.831846 S
0.924589 0.403175 0.332493 S
0.921435 0.406643 0.829057 S
0.924103 0.904518 0.333015 S
0.926243 0.911074 0.842134 S
