Li15 Fe16 P16 O64
1.0
10.426221 -0.000800 0.005455
-0.000920 12.142298 0.000742
0.003354 0.000687 9.521327
Li Fe P O
15 16 16 64
direct
0.499267 0.346413 0.745977 Li
0.497602 0.497456 0.245851 Li
0.497272 0.003859 0.248038 Li
0.497022 0.005754 0.756679 Li
0.999822 0.252143 0.502949 Li
0.000613 0.251618 0.001666 Li
0.006378 0.744876 0.496580 Li
0.001081 0.746793 0.995346 Li
0.496886 0.252889 0.244860 Li
0.497688 0.745768 0.248753 Li
0.496290 0.740721 0.758402 Li
0.001017 0.002867 0.995402 Li
0.006277 0.005222 0.496442 Li
0.000806 0.498523 0.001589 Li
0.999890 0.498265 0.502884 Li
0.779482 0.127484 0.262677 Fe
0.780612 0.126261 0.764025 Fe
0.779446 0.622671 0.262999 Fe
0.779812 0.623423 0.763725 Fe
0.283788 0.126452 0.487952 Fe
0.282054 0.126700 0.985768 Fe
0.284292 0.623378 0.488660 Fe
0.282309 0.622809 0.985747 Fe
0.219432 0.374994 0.236287 Fe
0.222834 0.375356 0.738714 Fe
0.220584 0.874981 0.236576 Fe
0.219385 0.875094 0.736052 Fe
0.716751 0.375330 0.010664 Fe
0.717525 0.375617 0.516051 Fe
0.715265 0.874827 0.015997 Fe
0.719704 0.874794 0.507751 Fe
0.595362 0.123984 0.041634 P
0.595354 0.121693 0.539373 P
0.595599 0.626595 0.041952 P
0.595334 0.628374 0.538949 P
0.093743 0.123660 0.208578 P
0.093974 0.124335 0.707700 P
0.093848 0.626468 0.208986 P
0.093947 0.626003 0.707873 P
0.405504 0.374175 0.458092 P
0.405986 0.374918 0.959010 P
0.408391 0.875110 0.459944 P
0.404996 0.874899 0.958680 P
0.906842 0.374954 0.292027 P
0.907294 0.374944 0.792958 P
0.904724 0.875085 0.293304 P
0.899191 0.874916 0.791773 P
0.596736 0.122590 0.377965 O
0.600248 0.119604 0.881116 O
0.596540 0.627503 0.377296 O
0.601428 0.632298 0.881914 O
0.096849 0.122612 0.370178 O
0.095850 0.122921 0.869149 O
0.097053 0.627577 0.370585 O
0.095967 0.627118 0.869351 O
0.402926 0.374737 0.121953 O
0.398709 0.372377 0.617407 O
0.403045 0.875026 0.120369 O
0.403380 0.875439 0.620301 O
0.904838 0.374854 0.130640 O
0.903670 0.375018 0.631230 O
0.901463 0.874951 0.133143 O
0.887327 0.875045 0.629193 O
0.955404 0.122222 0.147405 O
0.956085 0.122543 0.645302 O
0.955507 0.627747 0.147788 O
0.956098 0.627625 0.645550 O
0.457028 0.124313 0.103048 O
0.459100 0.120185 0.602524 O
0.457105 0.625579 0.103015 O
0.459178 0.630623 0.601300 O
0.044289 0.374866 0.355502 O
0.044976 0.374879 0.854914 O
0.041524 0.875166 0.356493 O
0.039374 0.875158 0.845143 O
0.544448 0.374794 0.397822 O
0.543701 0.374159 0.901395 O
0.550369 0.875235 0.401528 O
0.542755 0.875231 0.897093 O
0.665392 0.022920 0.112842 O
0.666018 0.015589 0.602003 O
0.665941 0.524244 0.107267 O
0.674493 0.531293 0.602545 O
0.162703 0.226033 0.142313 O
0.163621 0.226537 0.641623 O
0.165121 0.727824 0.141653 O
0.165471 0.727492 0.640040 O
0.336131 0.272434 0.387926 O
0.332339 0.273563 0.894852 O
0.340582 0.773574 0.390135 O
0.334009 0.773174 0.892191 O
0.836049 0.476755 0.358501 O
0.836499 0.476557 0.859607 O
0.829368 0.974344 0.363487 O
0.831670 0.976957 0.860129 O
0.335640 0.476343 0.390052 O
0.329911 0.474972 0.896393 O
0.340606 0.976605 0.389825 O
0.333550 0.976378 0.892046 O
0.835699 0.273310 0.358709 O
0.836502 0.273132 0.859316 O
0.829511 0.775833 0.363763 O
0.832034 0.772764 0.860149 O
0.665704 0.226166 0.107302 O
0.672532 0.219693 0.604352 O
0.665118 0.727573 0.114381 O
0.666009 0.734834 0.601428 O
0.165101 0.022278 0.141427 O
0.165674 0.023028 0.639682 O
0.162900 0.524088 0.142970 O
0.163855 0.524014 0.641581 O
