Li16 Co18 O36                           
   1.00000000000000     
     8.0737719999999999    0.0625180000000000    2.3323980000000000
     3.6481029999999999    7.2014319999999996    2.3302529999999999
     0.0682600000000000    0.0083340000000000    9.8854480000000002
   Li   Co   O 
    16    18    36
Direct
  0.7084703891419504  0.5873002421223998  0.4935885418618203
  0.3338165194931797  0.3317703222736485 -0.0004717510852653
  0.3338938818493969  0.3323589411314390  0.4992742889850891
  0.3333822653412858  0.6658169265417032  0.0004141081366926
  0.3435259487131205  0.6568927362675897  0.5008571387325532
  0.3340360188730752 -0.0010500783562062  0.9989098105389205
  0.3291206659640942  0.0033268918375269  0.4983936087070374
  0.6671087996349601  0.3319577624879452  0.9995548493074745
  0.6657909623576409  0.6667748876753075 -0.0006894138832300
  0.6669176174456622 -0.0013325844666468  0.9986232418989227
  0.6676874850296775  0.0034558633980171  0.4981239004362956
  0.0013329323947535  0.3309676088471162 -0.0006819633944886
  1.0000883731429993  0.6661412635880235 -0.0002062658102241
  0.9981219834895412  0.6563452367708763  0.5002713547901992
  0.0007615380419355 -0.0014166571116518  0.9997031324378667
  0.9824991650974865  0.0342825504663493  0.4993124062764918
  0.1678643489473609  0.1689800251393852  0.2485694715086232
  0.1673209716125962  0.1640765579297007  0.7480634450027452
  0.1656981880508741  0.5004754157850299  0.2487571209743156
  0.1664994890488370  0.4974755994534509  0.7548749038524188
  0.1659962237563711  0.8345577982305113  0.2498327601199370
  0.1674598759846635  0.8295256923586193  0.7521422532685604
  0.5013930540823049  0.1688388638914139  0.2450665960915990
  0.5013275576088408  0.1642908547204488  0.7488637575324866
  0.5004738356500897  0.5006175292991093  0.2492212226473376
  0.5002907333659278  0.4960334389165384  0.7524710987711938
  0.5005961513698898  0.8360346807733943  0.2486120562307523
  0.5013132661675496  0.8293391130642744  0.7484123471787129
  0.8329581172857164  0.1687671330479121  0.2482945835075072
  0.8349229372318691  0.1631112213958883  0.7507805291561890
  0.8331625149447184  0.4999956368769223  0.2468135654208565
  0.8356186959955140  0.4961182788615287  0.7524575007810212
  0.8327141952053091  0.8354463260422090  0.2469147895827192
  0.8342947090056473  0.8289751088283894  0.7510287533406684
  0.2590347309130542  0.2541738741874979  0.3525487553206131
  0.2546774283779077  0.2488224215796607  0.8598097122871629
  0.2530018755665242  0.5873706453128308  0.3581219131665033
  0.2538906293555205  0.5840562617939343  0.8638463738246612
  0.2533024071399894  0.9230409224199289  0.3575359681519242
  0.2550485007996921  0.9179523984533153  0.8588975006255352
  0.5863128291897581  0.2539305861050695  0.3524134171959549
  0.5871539464754829  0.2491853134812927  0.8606405402915448
  0.5867072460118350  0.5915151616775467  0.3530349134661037
  0.5870081327258236  0.5848490157831394  0.8607934326771181
  0.5867500810358229  0.9257697857483349  0.3537472881306054
  0.5864940404139024  0.9174404708070548  0.8581890370884804
  0.9227259194408978  0.2560914624573072  0.3484635514135349
  0.9228046731127010  0.2491066571788117  0.8606560823109599
  0.9191088155570737  0.5914287601721654  0.3520672582015174
  0.9191676391730758  0.5840574859340893  0.8635873771578054
  0.9188041760778101  0.9226859194778977  0.3568624488894356
  0.9202392946786594  0.9168756400713430  0.8609628501162513
  0.0809679046415734  0.0800374524059519  0.1396466862402820
  0.0812854024178001  0.0717451178697699  0.6450948334097768
  0.0807071983135376  0.4138446895261048  0.1379869185734266
  0.0815606859851316  0.4118067614221361  0.6467540389571841
  0.0805354065015249  0.7473171273713288  0.1393699622198256
  0.0811755902808517  0.7410198565502659  0.6448308121334988
  0.4138074163684397  0.0809733280932160  0.1366600100645622
  0.4146430702905227  0.0766751715571388  0.6393831128795333
  0.4127932387375444  0.4160026820610271  0.1381842265940133
  0.4089800835491317  0.4115409729953936  0.6470812441713035
  0.4127958703949867  0.7477304742071594  0.1402626645813791
  0.4134205004290961  0.7406788241930915  0.6429754133175740
  0.7488507186052636  0.0811104446989588  0.1360616285697203
  0.7490209551525427  0.0721201095896177  0.6453985497339476
  0.7459510316755704  0.4138776492088480  0.1378154817511018
  0.7456751045929587  0.4064897211502856  0.6539876926212137
  0.7463884346884903  0.7479112999623130  0.1376220955885004
  0.7492101194630365  0.7404890122010359  0.6425786862670529
 
             NaN             NaN             NaN
             NaN             NaN             NaN
             NaN             NaN             NaN
             NaN             NaN             NaN
             NaN             NaN             NaN
             NaN             NaN             NaN
             NaN             NaN             NaN
             NaN             NaN             NaN
             NaN             NaN             NaN
             NaN             NaN             NaN
             NaN             NaN             NaN
             NaN             NaN             NaN
             NaN             NaN             NaN
             NaN             NaN             NaN
             NaN             NaN             NaN
             NaN             NaN             NaN
             NaN             NaN             NaN
             NaN             NaN             NaN
             NaN             NaN             NaN
             NaN             NaN             NaN
             NaN             NaN             NaN
             NaN             NaN             NaN
             NaN             NaN             NaN
             NaN             NaN             NaN
             NaN             NaN             NaN
             NaN             NaN             NaN
             NaN             NaN             NaN
             NaN             NaN             NaN
             NaN             NaN             NaN
             NaN             NaN             NaN
             NaN             NaN             NaN
             NaN             NaN             NaN
             NaN             NaN             NaN
             NaN             NaN             NaN
             NaN             NaN             NaN
             NaN             NaN             NaN
             NaN             NaN             NaN
             NaN             NaN             NaN
             NaN             NaN             NaN
             NaN             NaN             NaN
             NaN             NaN             NaN
             NaN             NaN             NaN
             NaN             NaN             NaN
             NaN             NaN             NaN
             NaN             NaN             NaN
             NaN             NaN             NaN
             NaN             NaN             NaN
             NaN             NaN             NaN
             NaN             NaN             NaN
             NaN             NaN             NaN
             NaN             NaN             NaN
             NaN             NaN             NaN
             NaN             NaN             NaN
             NaN             NaN             NaN
             NaN             NaN             NaN
             NaN             NaN             NaN
             NaN             NaN             NaN
             NaN             NaN             NaN
             NaN             NaN             NaN
             NaN             NaN             NaN
             NaN             NaN             NaN
             NaN             NaN             NaN
             NaN             NaN             NaN
             NaN             NaN             NaN
             NaN             NaN             NaN
             NaN             NaN             NaN
             NaN             NaN             NaN
             NaN             NaN             NaN
             NaN             NaN             NaN
             NaN             NaN             NaN
