Li16 Co18 O36
1.0
8.073772 0.062518 2.332398
3.648103 7.201432 2.330253
0.068260 0.008334 9.885448
Li Co O
16 18 36
direct
0.712129 0.588163 0.482815 Li
0.333931 0.333067 0.000069 Li
0.331289 0.333682 0.499985 Li
0.333634 0.666847 0.000559 Li
0.342463 0.659500 0.501372 Li
0.334263 0.000039 -0.000377 Li
0.326686 0.007515 0.499219 Li
0.667261 0.333505 -0.000095 Li
0.666615 0.667239 0.000430 Li
0.666999 0.000166 0.999138 Li
0.667959 1.005008 0.498305 Li
0.000441 0.333501 0.000593 Li
0.999965 0.666805 0.000644 Li
0.996469 0.655511 0.500687 Li
0.000363 0.000138 -0.000056 Li
0.987261 0.028796 0.500179 Li
0.166071 0.169195 0.250324 Co
0.166067 0.165439 0.749462 Co
0.165953 0.500683 0.249695 Co
0.166178 0.498234 0.754070 Co
0.165719 0.834737 0.250093 Co
0.166486 0.830640 0.752337 Co
0.500744 0.168618 0.245981 Co
0.500895 0.165272 0.748766 Co
0.499513 0.500883 0.250197 Co
0.499632 0.498366 0.751188 Co
0.499220 0.835657 0.250130 Co
0.500426 0.831285 0.748050 Co
0.832775 0.168841 0.248826 Co
0.834030 0.165905 0.749611 Co
0.832326 0.500952 0.252091 Co
0.834394 0.498550 0.750320 Co
0.832356 0.835447 0.247736 Co
0.833847 0.830512 0.750637 Co
0.258462 0.254474 0.353698 O
0.254344 0.250430 0.860281 O
0.252540 0.587903 0.358820 O
0.253442 0.584967 0.863578 O
0.252187 0.923198 0.358742 O
0.254311 0.919034 0.859519 O
0.586011 0.254226 0.353923 O
0.586732 0.251601 0.859615 O
0.585000 0.591529 0.355716 O
0.586589 0.586790 0.859792 O
0.586359 0.925180 0.355187 O
0.586229 0.918767 0.858227 O
0.921356 0.255355 0.351290 O
0.920653 0.252253 0.860191 O
0.919685 0.592882 0.353448 O
0.918564 0.585425 0.862659 O
0.918620 0.922895 0.357095 O
0.919098 0.919024 0.860857 O
0.080583 0.080604 0.140240 O
0.080948 0.073273 0.645424 O
0.079137 0.414546 0.140433 O
0.081201 0.412570 0.646448 O
0.080357 0.747457 0.139887 O
0.080747 0.742508 0.644410 O
0.412735 0.081113 0.138041 O
0.413243 0.078510 0.639908 O
0.412930 0.415728 0.138555 O
0.409549 0.412622 0.645690 O
0.412600 0.747694 0.140998 O
0.411945 0.743390 0.642781 O
0.748168 0.081575 0.136607 O
0.748503 0.074757 0.643920 O
0.745998 0.415157 0.140427 O
0.743982 0.410641 0.651246 O
0.745776 0.747146 0.140022 O
0.748112 0.743498 0.641788 O
