Li46 P16 O64
1.0
10.651608 -0.006349 -0.017863
-0.007413 12.449602 -0.009890
-0.016826 -0.008001 10.080111
Li P O
46 16 64
direct
0.286946 0.249848 0.135541 Li
0.664595 0.251883 0.600300 Li
0.662308 0.748994 0.098358 Li
0.663543 0.751446 0.599854 Li
0.164653 0.495229 0.150189 Li
0.164574 0.499426 0.651344 Li
0.164165 -0.004048 0.151882 Li
0.164950 -0.000603 0.651527 Li
0.338109 0.001309 0.399426 Li
0.338873 0.001965 0.906094 Li
0.340540 0.498123 0.394756 Li
0.338840 0.495550 0.908080 Li
0.832481 0.249183 0.345563 Li
0.832582 0.249008 0.855022 Li
0.837085 0.748278 0.349411 Li
0.837009 0.748719 0.849465 Li
0.339812 0.252429 0.390632 Li
0.339544 0.254391 0.911436 Li
0.338120 0.749567 0.399074 Li
0.337992 0.750309 0.903863 Li
0.837864 0.002260 0.348479 Li
0.837832 0.002200 0.850086 Li
0.833190 0.499963 0.348548 Li
0.833170 0.499795 0.851314 Li
0.651513 0.489662 0.094099 Li
0.664984 0.502382 0.597752 Li
0.663977 1.001507 0.099975 Li
0.663408 1.001495 0.599887 Li
0.164955 0.251782 0.650423 Li
0.164242 0.750848 0.151052 Li
0.164377 0.751489 0.651809 Li
0.923029 0.371290 0.148827 Li
0.924340 0.374589 0.649831 Li
0.924795 0.875502 0.149522 Li
0.926232 0.875840 0.649473 Li
0.428782 0.375355 0.603513 Li
0.430988 0.876047 0.103139 Li
0.427734 0.876410 0.601035 Li
0.075882 0.127866 0.345677 Li
0.075847 0.127281 0.855512 Li
0.074245 0.622845 0.350264 Li
0.074708 0.623351 0.852663 Li
0.572953 0.130788 0.394522 Li
0.572284 0.135322 0.911223 Li
0.573249 0.622381 0.399116 Li
0.570866 0.622261 0.898466 Li
0.914068 0.123110 0.099073 P
0.913426 0.124573 0.597461 P
0.909671 0.624810 0.097852 P
0.912507 0.626152 0.597752 P
0.406690 0.116536 0.151394 P
0.411025 0.124466 0.653298 P
0.407636 0.630316 0.150709 P
0.409808 0.627346 0.652791 P
0.088102 0.375366 0.404361 P
0.086022 0.375941 0.901799 P
0.088754 0.874313 0.404503 P
0.088918 0.874229 0.903452 P
0.591747 0.376984 0.350294 P
0.586745 0.375111 0.835168 P
0.591837 0.874674 0.348431 P
0.591227 0.875082 0.846476 P
0.841831 0.020549 0.148368 O
0.843272 0.021794 0.647882 O
0.838973 0.523202 0.147450 O
0.843241 0.524660 0.650326 O
0.331699 0.210590 0.093645 O
0.341023 0.225887 0.600680 O
0.344249 0.738715 0.107268 O
0.341121 0.730716 0.601688 O
0.157104 0.272494 0.356561 O
0.155796 0.273830 0.850625 O
0.157836 0.771541 0.353633 O
0.158918 0.771804 0.852742 O
0.660357 0.480314 0.407385 O
0.654339 0.477311 0.893916 O
0.661016 0.977422 0.399668 O
0.662547 0.976056 0.898173 O
0.158588 0.477432 0.352769 O
0.155791 0.478224 0.849740 O
0.158515 0.976393 0.354590 O
0.159295 0.976527 0.853776 O
0.660454 0.274191 0.405898 O
0.655161 0.271998 0.881520 O
0.660761 0.772064 0.400685 O
0.659328 0.771124 0.896130 O
0.852098 0.225898 0.153148 O
0.844369 0.226451 0.649061 O
0.840563 0.728137 0.148169 O
0.842716 0.729025 0.647777 O
0.339246 0.008387 0.110382 O
0.341839 0.020848 0.601808 O
0.328420 0.537323 0.095029 O
0.340270 0.525991 0.598933 O
0.542887 0.112651 0.099236 O
0.548390 0.124211 0.600276 O
0.544884 0.627066 0.096827 O
0.547961 0.628485 0.602289 O
0.052463 0.116632 0.148263 O
0.051106 0.123679 0.650465 O
0.047252 0.625433 0.151004 O
0.050432 0.627070 0.649665 O
0.454037 0.376004 0.405467 O
0.445909 0.375379 0.870027 O
0.453974 0.874684 0.399827 O
0.453533 0.875301 0.897682 O
0.950219 0.376445 0.352584 O
0.947933 0.375501 0.848827 O
0.950849 0.874203 0.352063 O
0.951627 0.874439 0.849237 O
0.597178 0.379523 0.200066 O
0.597458 0.380126 0.680017 O
0.594245 0.873306 0.193600 O
0.591600 0.875588 0.690996 O
0.084675 0.377555 0.056001 O
0.088160 0.377113 0.559829 O
0.086742 0.872701 0.058302 O
0.088943 0.874238 0.559817 O
0.408565 0.123070 0.307642 O
0.410045 0.123916 0.808116 O
0.410868 0.626525 0.306514 O
0.407845 0.626943 0.807755 O
0.912973 0.124478 0.442333 O
0.911570 0.123877 0.943156 O
0.911642 0.625280 0.442561 O
0.910349 0.625506 0.942318 O
