Li7 Mn16 O32                            
   1.00000000000000     
     8.1529679999999995    0.0001090000000000   -0.0000970000000000
     0.0001090000000000    8.1529430000000005   -0.0000530000000000
    -0.0000970000000000   -0.0000530000000000    8.1529480000000003
   Li   Mn   O 
     7    16    32
Direct
  0.1888457004194846  0.5611509485147538  0.6888489668620859
  0.8763824563857872  0.8736208590144131  0.8742276209084691
  0.1272544659613861  0.1274017160547504  0.1225988752038276
  0.8763821285341887  0.3757718986877890  0.3763784770852110
  0.3742307641276097  0.8736209398116129  0.3763788381455420
  0.6225949054102330  0.1274020104010170  0.6272584501408663
  0.6225946627725620  0.6227416077305340  0.1225984236153274
  0.5000488861380137  0.2499508986478656  0.2478902731046890
  0.2501974434192750  0.4998018814618455  0.2482007657510333
  0.2504108729760905  0.2482547761179507  0.4997989408700034
  0.5017450987751013  0.4995900289822934  0.4997990270919711
  0.5017455513688518  0.7502009897086277  0.7504090316549036
  0.7482010627526849  0.4998029085509982  0.7501973243992545
  0.7518109113639271  0.7502725817712046  0.4997273309564925
  0.2501966551397800  0.0017991057219404  0.7501970981275543
  0.2504095438287441  0.7502003206492558  1.0017450103234060
  0.5000494129760600  0.0021105179028699  1.0000492071251432
  0.7500137054813424  0.9999863052275003  0.2500134097813488
  0.7478899771732211  0.2499510005200837  1.0000488735068662
 -0.0002015083658436  0.2482543526791146  0.7504107707885269
 -0.0002010478605025  0.4995896508178214  1.0017452297164968
  0.9997269614297597  0.7502726096128161  0.2518106886630889
  0.9997272179274956  0.9981884577250194  0.4997275258706509
  0.7375213126444177  0.0124778706824725  0.0129992897872465
  0.0128036031958811  0.7371967697701233  0.0139297657326658
  0.0127265233879330  0.0117769166757990  0.7368603865826129
  0.7382236437831001  0.7372753337080267  0.7368609379471216
  0.2634777545788556  0.9880550689838250  0.9871466928253967
  0.9862945332346613  0.2625220511357935  0.9874772720157350
  0.9871648870233194  0.9873732039391467  0.2626273900742853
  0.2634776561475051  0.2628527523986862  0.2619461382567917
  0.7382234434659143  0.5131379469773363  0.5127256445156634
  0.0128035063347008  0.2360714051963475  0.5128037208131285
  0.0127264860651724  0.5131382546288137  0.2382220319777313
  0.7375212382021507  0.2370011686627442  0.2375209331034379
  0.2655797600222865  0.4844205338589662  0.4860953933464598
  0.9860435472571580  0.7639562031022687  0.4860430997742403
  0.9860949784035463  0.4844193835220882  0.7655811545585278
  0.2655801419703386  0.7639045017253583  0.7655803842520043
  0.2368615157894353  0.0117761677134017  0.5127263899708793
  0.5139293947320899  0.7371967546145443  0.5128038202032184
  0.5129994019358578  0.0124787859784942  0.2375199740715160
  0.2368618123569320  0.7372747933376470  0.2382230339641342
  0.7626258599988275  0.9873744520350396  0.4871652086399610
  0.4874777356412964  0.2625217748697583  0.4862942026392452
  0.4871456191432989  0.9880545945426810  0.7634790888194873
  0.7619454801896901  0.2628531137502800  0.7634781134649931
  0.2341176337246814  0.5158817318180000  0.0135576166769014
  0.5150422330286779  0.2349576634837087  0.0150423866559099
  0.5135594439053530  0.5158834522671673  0.7341164168067407
  0.2341179570969592  0.2364427951326012  0.7341184038070563
  0.7619456716004056  0.4865225712724403  0.9871463810539081
  0.4874777734967332  0.7637049905240821  0.9874774499715299
  0.4871458418842015  0.4865217371550308  0.2619467527140625
  0.7626261010752537  0.7628333272372654  0.2626262682700093
 
             NaN             NaN             NaN
             NaN             NaN             NaN
             NaN             NaN             NaN
             NaN             NaN             NaN
             NaN             NaN             NaN
             NaN             NaN             NaN
             NaN             NaN             NaN
             NaN             NaN             NaN
             NaN             NaN             NaN
             NaN             NaN             NaN
             NaN             NaN             NaN
             NaN             NaN             NaN
             NaN             NaN             NaN
             NaN             NaN             NaN
             NaN             NaN             NaN
             NaN             NaN             NaN
             NaN             NaN             NaN
             NaN             NaN             NaN
             NaN             NaN             NaN
             NaN             NaN             NaN
             NaN             NaN             NaN
             NaN             NaN             NaN
             NaN             NaN             NaN
             NaN             NaN             NaN
             NaN             NaN             NaN
             NaN             NaN             NaN
             NaN             NaN             NaN
             NaN             NaN             NaN
             NaN             NaN             NaN
             NaN             NaN             NaN
             NaN             NaN             NaN
             NaN             NaN             NaN
             NaN             NaN             NaN
             NaN             NaN             NaN
             NaN             NaN             NaN
             NaN             NaN             NaN
             NaN             NaN             NaN
             NaN             NaN             NaN
             NaN             NaN             NaN
             NaN             NaN             NaN
             NaN             NaN             NaN
             NaN             NaN             NaN
             NaN             NaN             NaN
             NaN             NaN             NaN
             NaN             NaN             NaN
             NaN             NaN             NaN
             NaN             NaN             NaN
             NaN             NaN             NaN
             NaN             NaN             NaN
             NaN             NaN             NaN
             NaN             NaN             NaN
             NaN             NaN             NaN
             NaN             NaN             NaN
             NaN             NaN             NaN
             NaN             NaN             NaN
