Li7 Mn16 O32
1.0
8.152968 0.000109 -0.000097
0.000109 8.152943 -0.000053
-0.000097 -0.000053 8.152948
Li Mn O
7 16 32
direct
0.188857 0.561144 0.688858 Li
0.875668 0.874329 0.874334 Li
0.127027 0.127029 0.122973 Li
0.875668 0.375665 0.375671 Li
0.374331 0.874330 0.375671 Li
0.622974 0.127028 0.627025 Li
0.622972 0.622975 0.122972 Li
0.499959 0.250040 0.248696 Mn
0.250047 0.499953 0.249149 Mn
0.250047 0.250498 0.501300 Mn
0.499503 0.499953 0.501300 Mn
0.499504 0.748701 0.750047 Mn
0.749150 0.499953 0.750048 Mn
0.750514 0.750066 0.499935 Mn
0.250048 0.000849 0.750048 Mn
0.250048 0.748699 0.999502 Mn
0.499959 0.001304 0.999960 Mn
0.750058 0.999941 0.250059 Mn
0.748694 0.250040 0.999959 Mn
0.001299 0.250497 0.750047 Mn
0.001301 0.499953 0.999503 Mn
0.999937 0.750064 0.250514 Mn
0.999932 0.999484 0.499932 Mn
0.737382 0.012616 0.013046 O
0.012766 0.737234 0.013090 O
0.012765 0.012661 0.736808 O
0.737339 0.737235 0.736805 O
0.263296 0.987167 0.986845 O
0.987025 0.263153 0.986844 O
0.987146 0.987289 0.262710 O
0.263296 0.263153 0.262835 O
0.737340 0.513193 0.512766 O
0.012765 0.236913 0.512768 O
0.012765 0.513194 0.237339 O
0.737381 0.236954 0.237381 O
0.263821 0.486180 0.486501 O
0.986623 0.763375 0.486622 O
0.986501 0.486181 0.763819 O
0.263821 0.763501 0.763819 O
0.236807 0.012660 0.512767 O
0.513089 0.737235 0.512767 O
0.513046 0.012617 0.237382 O
0.236805 0.737234 0.237339 O
0.762709 0.987290 0.487146 O
0.486845 0.263154 0.487024 O
0.486846 0.987168 0.763296 O
0.762835 0.263154 0.763295 O
0.235233 0.514767 0.014662 O
0.514621 0.235379 0.014622 O
0.514663 0.514769 0.735232 O
0.235231 0.235338 0.735232 O
0.762833 0.486705 0.986845 O
0.486846 0.762975 0.986844 O
0.486846 0.486705 0.262833 O
0.762711 0.762853 0.262711 O
