Li46 P16 O64                            
   1.00000000000000     
    10.6479090000000003   -0.0045790000000000   -0.0070070000000000
    -0.0053620000000000   12.4465629999999994   -0.0021070000000000
    -0.0066360000000000   -0.0017230000000000   10.0834899999999994
   Li   P    O 
    46    16    64
Direct
  0.5157327615944302  0.2940119823248536  0.0718263499043176
  0.6625893594686741  0.2508959017877017  0.5994101963037904
  0.6627844476169282  0.7497382437741766  0.0989244365510874
  0.6631229368160724  0.7510043394495033  0.5991055913182211
  0.1656294987768414  0.4897181818899004  0.1531796158163600
  0.1625903788818419  0.5010173983833311  0.6517594326303124
  0.1656998847056257 -0.0045864679440828  0.1507288632257900
  0.1625720979660999  0.0009945757176482  0.6516911033255472
  0.3370941034699225  0.0011972071753101  0.4013480347562850
  0.3372051884475782  0.0010006178065783  0.9029638132380829
  0.3378120611807913  0.4983466407282641  0.3950329987236026
  0.3349735186634253  0.4959354255713309  0.9098015406214151
  0.8340330365197922  0.2476670220641599  0.3457007194105198
  0.8331555183099554  0.2495434671672887  0.8591754891936102
  0.8375859272687983  0.7489966992087969  0.3486674717130201
  0.8373242089325930  0.7485462720790148  0.8498992120252117
  0.3349388724130806  0.2504416154749310  0.3879958131190228
  0.3271288104399885  0.2509817870251488  0.9079155067661249
  0.3371410863000835  0.7487995605426850  0.3997664909764333
  0.3369649041910204  0.7488192229797533  0.9031983968580140
  0.8387933056759259  0.0024015746598656  0.3472014332330026
  0.8382310800019878  0.0016571776674466  0.8500506323063319
  0.8354408942068886  0.4989861753255732  0.3488032851367943
  0.8354196700738227  0.5006408848773570  0.8511577543464406
  0.6591230246377981  0.4954726097124342  0.0988908861381347
  0.6626402715597940  0.5008627374871802  0.5988230826458607
  0.6658489267171795  0.9990534932893489  0.1006802799356099
  0.6635882482888016  0.0001054159351154  0.5992912242324516
  0.1609044636003933  0.2527741571710163  0.6477117905652596
  0.1635907053413297  0.7490728314661511  0.1520705213073008
  0.1633357522930765  0.7514490580714571  0.6510867842613517
  0.9325972144201095  0.3641227313854861  0.1528824771006996
  0.9223528271222202  0.3747915413236552  0.6511783387009389
  0.9265183027066238  0.8765157331754533  0.1495078266603926
  0.9263306676012867  0.8761663793242427  0.6491183473702857
  0.4243182365204428  0.3737019194884183  0.5989601528919882
  0.4292008260187462  0.8761947418322955  0.1016725353909155
  0.4262625755843797  0.8756444052408118  0.6011265809878683
  0.0772067749750630  0.1341562216276658  0.3343104856226806
  0.0731956472019505  0.1294387181014549  0.8602458810872327
  0.0736384509147272  0.6215069081672677  0.3508259350674670
  0.0741362332929694  0.6230866934004582  0.8522053185088587
  0.5740295646028248  0.1276858149022449  0.3938934681568861
  0.5775654486744235  0.1252228470038012  0.9057572547615100
  0.5731629710325855  0.6233149305803267  0.3991853314921927
  0.5711017319930033  0.6226864131073162  0.8993765196524015
  0.9135316982603503  0.1199482316138228  0.0996786426882787
  0.9113656815952201  0.1245755533921641  0.5976694609616136
  0.9098672819643422  0.6249551407553448  0.0992218516314957
  0.9102391159836898  0.6267780122523936  0.5973374824931800
  0.4118270518955444  0.1173162328447179  0.1506616885664451
  0.4110256998750491  0.1246007118779179  0.6543221697246937
  0.4081106071418602  0.6297031839066071  0.1514919497485826
  0.4099825065710714  0.6257125826570609  0.6530491045690112
  0.0874213171141686  0.3747463141792917  0.4098790902402212
  0.0841486406434702  0.3782880811041374  0.9004748712215171
  0.0898725375592806  0.8740316883961148  0.4042581229493969
  0.0893847111294511  0.8733649517332654  0.9029782965051226
  0.5893075189139854  0.3764298516967960  0.3502145801076986
  0.5869975178497523  0.3754327263279679  0.8399148486316036
  0.5904118410390159  0.8741559977556497  0.3483419608401654
  0.5899657386059867  0.8739700872472127  0.8456207733715698
  0.8379710805322841  0.0177995667197239  0.1473681503951525
  0.8417261762174735  0.0211386770746078  0.6479697482669996
  0.8378244151691131  0.5241816401096324  0.1499006297697526
  0.8395941827932930  0.5257553371945669  0.6499656660149197
  0.3534670527796459  0.2196825822328644  0.0927422341102460
  0.3413850997497737  0.2266516489877216  0.6035746902224162
  0.3444136375859165  0.7376642523375851  0.1070059294813439
  0.3410698857810863  0.7290279146590352  0.6024482447027142
  0.1569794372135211  0.2705605963767818  0.3728788479531900
  0.1537175419125399  0.2753611087223938  0.8496990074530851
  0.1578074537711181  0.7699027040768258  0.3550600399209609
  0.1593498758698643  0.7711846688175910  0.8509650030951873
  0.6587475709492510  0.4790888249656174  0.4046924313014178
  0.6565483678758499  0.4778118117115004  0.8936404672672269
  0.6600393459573948  0.9766234903535304  0.3993469935403560
  0.6607948725170039  0.9754692576622406  0.8964570219633403
  0.1583871001832801  0.4761157480425736  0.3553798256510196
  0.1560300208601027  0.4793061996722361  0.8454295202635354
  0.1615326407463929  0.9745999737554664  0.3531880243625289
  0.1590133214615189  0.9760922940066102  0.8532054751625343
  0.6583976413372717  0.2737514453245553  0.4028999669629051
  0.6534878553580235  0.2720671028278427  0.8896828512910513
  0.6597584181111860  0.7714477963471016  0.3997481852598801
  0.6586995672628162  0.7706811949592313  0.8960908288224528
  0.8550433772818302  0.2230225847994771  0.1569921324280997
  0.8400523791653072  0.2259467332194288  0.6488075577401964
  0.8406966114495549  0.7289436172413207  0.1481266718007826
  0.8409722871139714  0.7300649290208790  0.6471196121168159
  0.3406535131648014  0.0136507050288930  0.1037708093375816
  0.3413727941539899  0.0214181694443913  0.6030096232125277
  0.3297985442850026  0.5358949083724736  0.0968755688996848
  0.3407137941051246  0.5242310417142279  0.5994925536995804
  0.5502327380043952  0.1136460676106501  0.1018285044602261
  0.5485154811656434  0.1239336585749582  0.6007748242537367
  0.5458567317812867  0.6267084651777755  0.0979411233185711
  0.5481437221628265  0.6269188232727803  0.6018716959050069
  0.0506528284115581  0.1075284148518008  0.1455328672621289
  0.0481128214198505  0.1246373876729904  0.6527095073165341
  0.0469691558852592  0.6250883188447519  0.1527989770185576
  0.0478615458303323  0.6278802662852656  0.6494457177260572
  0.4517845593314123  0.3750602285223285  0.4042361244971141
  0.4499478606855537  0.3738351516945810  0.8919691846634569
  0.4527268362102594  0.8741496628604299  0.4007851936612760
  0.4522582267752840  0.8742213244524017  0.8972190580864248
  0.9503040763429924  0.3753775136679882  0.3549622612754292
  0.9466117931452673  0.3765208164736311  0.8446349112805068
  0.9520114177092651  0.8743791834229402  0.3518839280707173
  0.9517590039142476  0.8736539985835721  0.8497351279118524
  0.5915766484979865  0.3805166814035297  0.1981451557553717
  0.5889688138534184  0.3780794143549187  0.6849116063094454
  0.5913364010307198  0.8730195117389252  0.1935147192842050
  0.5900421741446588  0.8743355446437264  0.6903587886276500
  0.0800688845428048  0.3847762366481318  0.0522419678298980
  0.0834444686929910  0.3819143749553625  0.5652020268711702
  0.0887766144978052  0.8706038486506809  0.0576383489090999
  0.0894320199954617  0.8749012998141368  0.5596696441434471
  0.4096258474622566  0.1209017827413375  0.3066860584027701
  0.4111692686094203  0.1235433095804006  0.8093227051618312
  0.4111344911631504  0.6262270018614005  0.3072369211951403
  0.4087405585277433  0.6248404357063032  0.8080558861332835
  0.9120955573098168  0.1242644154628468  0.4427676856430287
  0.9076845027962025  0.1232638913793373  0.9433768039401411
  0.9097895671524991  0.6254058090221969  0.4422398325205494
  0.9104896414939232  0.6252856990228677  0.9436081064427908
 
             NaN             NaN             NaN
             NaN             NaN             NaN
             NaN             NaN             NaN
             NaN             NaN             NaN
             NaN             NaN             NaN
             NaN             NaN             NaN
             NaN             NaN             NaN
             NaN             NaN             NaN
             NaN             NaN             NaN
             NaN             NaN             NaN
             NaN             NaN             NaN
             NaN             NaN             NaN
             NaN             NaN             NaN
             NaN             NaN             NaN
             NaN             NaN             NaN
             NaN             NaN             NaN
             NaN             NaN             NaN
             NaN             NaN             NaN
             NaN             NaN             NaN
             NaN             NaN             NaN
             NaN             NaN             NaN
             NaN             NaN             NaN
             NaN             NaN             NaN
             NaN             NaN             NaN
             NaN             NaN             NaN
             NaN             NaN             NaN
             NaN             NaN             NaN
             NaN             NaN             NaN
             NaN             NaN             NaN
             NaN             NaN             NaN
             NaN             NaN             NaN
             NaN             NaN             NaN
             NaN             NaN             NaN
             NaN             NaN             NaN
             NaN             NaN             NaN
             NaN             NaN             NaN
             NaN             NaN             NaN
             NaN             NaN             NaN
             NaN             NaN             NaN
             NaN             NaN             NaN
             NaN             NaN             NaN
             NaN             NaN             NaN
             NaN             NaN             NaN
             NaN             NaN             NaN
             NaN             NaN             NaN
             NaN             NaN             NaN
             NaN             NaN             NaN
             NaN             NaN             NaN
             NaN             NaN             NaN
             NaN             NaN             NaN
             NaN             NaN             NaN
             NaN             NaN             NaN
             NaN             NaN             NaN
             NaN             NaN             NaN
             NaN             NaN             NaN
             NaN             NaN             NaN
             NaN             NaN             NaN
             NaN             NaN             NaN
             NaN             NaN             NaN
             NaN             NaN             NaN
             NaN             NaN             NaN
             NaN             NaN             NaN
             NaN             NaN             NaN
             NaN             NaN             NaN
             NaN             NaN             NaN
             NaN             NaN             NaN
             NaN             NaN             NaN
             NaN             NaN             NaN
             NaN             NaN             NaN
             NaN             NaN             NaN
             NaN             NaN             NaN
             NaN             NaN             NaN
             NaN             NaN             NaN
             NaN             NaN             NaN
             NaN             NaN             NaN
             NaN             NaN             NaN
             NaN             NaN             NaN
             NaN             NaN             NaN
             NaN             NaN             NaN
             NaN             NaN             NaN
             NaN             NaN             NaN
             NaN             NaN             NaN
             NaN             NaN             NaN
             NaN             NaN             NaN
             NaN             NaN             NaN
             NaN             NaN             NaN
             NaN             NaN             NaN
             NaN             NaN             NaN
             NaN             NaN             NaN
             NaN             NaN             NaN
             NaN             NaN             NaN
             NaN             NaN             NaN
             NaN             NaN             NaN
             NaN             NaN             NaN
             NaN             NaN             NaN
             NaN             NaN             NaN
             NaN             NaN             NaN
             NaN             NaN             NaN
             NaN             NaN             NaN
             NaN             NaN             NaN
             NaN             NaN             NaN
             NaN             NaN             NaN
             NaN             NaN             NaN
             NaN             NaN             NaN
             NaN             NaN             NaN
             NaN             NaN             NaN
             NaN             NaN             NaN
             NaN             NaN             NaN
             NaN             NaN             NaN
             NaN             NaN             NaN
             NaN             NaN             NaN
             NaN             NaN             NaN
             NaN             NaN             NaN
             NaN             NaN             NaN
             NaN             NaN             NaN
             NaN             NaN             NaN
             NaN             NaN             NaN
             NaN             NaN             NaN
             NaN             NaN             NaN
             NaN             NaN             NaN
             NaN             NaN             NaN
             NaN             NaN             NaN
             NaN             NaN             NaN
             NaN             NaN             NaN
             NaN             NaN             NaN
             NaN             NaN             NaN
