Li46 P16 O64
1.0
10.647909 -0.004579 -0.007007
-0.005362 12.446563 -0.002107
-0.006636 -0.001723 10.083490
Li P O
46 16 64
direct
0.532127 0.251090 0.111965 Li
0.665247 0.250020 0.599467 Li
0.662660 0.749178 0.098714 Li
0.663469 0.750906 0.599215 Li
0.165946 0.490922 0.151204 Li
0.163712 0.500393 0.651700 Li
0.165617 0.000136 0.149770 Li
0.164517 0.000712 0.651276 Li
0.338325 0.002142 0.398856 Li
0.337990 0.002247 0.905349 Li
0.339990 0.497458 0.395087 Li
0.336436 0.495813 0.907611 Li
0.835422 0.248154 0.348323 Li
0.833479 0.249343 0.852315 Li
0.837801 0.748731 0.348997 Li
0.837305 0.748928 0.849554 Li
0.338583 0.252933 0.383434 Li
0.335250 0.256171 0.914164 Li
0.337765 0.749199 0.398978 Li
0.337222 0.749715 0.903604 Li
0.838326 0.001846 0.347777 Li
0.837417 0.001519 0.849355 Li
0.835820 0.499681 0.348239 Li
0.833792 0.500445 0.851616 Li
0.653859 0.493500 0.096739 Li
0.665344 0.501165 0.598510 Li
0.662614 0.998108 0.098411 Li
0.663879 1.000007 0.599793 Li
0.164139 0.253177 0.648332 Li
0.163904 0.750885 0.151365 Li
0.164353 0.752044 0.651132 Li
0.928362 0.368182 0.151098 Li
0.922867 0.375694 0.650477 Li
0.925648 0.875825 0.149211 Li
0.927182 0.875987 0.648997 Li
0.429331 0.373687 0.604822 Li
0.429904 0.875925 0.102964 Li
0.426669 0.876223 0.600448 Li
0.077587 0.131567 0.340808 Li
0.075346 0.129735 0.857647 Li
0.074926 0.622234 0.349935 Li
0.074532 0.623549 0.852610 Li
0.573294 0.128045 0.397571 Li
0.570725 0.129933 0.905491 Li
0.573340 0.622398 0.399215 Li
0.570272 0.622520 0.899027 Li
0.909693 0.121206 0.098340 P
0.913089 0.124085 0.597522 P
0.909950 0.625054 0.098481 P
0.912031 0.627123 0.597492 P
0.410838 0.119369 0.150711 P
0.411200 0.124749 0.653499 P
0.407586 0.629997 0.151046 P
0.410132 0.626351 0.652523 P
0.088258 0.374647 0.407363 P
0.084305 0.377507 0.900665 P
0.089875 0.875008 0.403333 P
0.089299 0.874809 0.903406 P
0.593847 0.375662 0.350461 P
0.586561 0.375362 0.838619 P
0.591285 0.874161 0.348374 P
0.589946 0.874413 0.845454 P
0.836853 0.018326 0.146115 O
0.843125 0.020962 0.647773 O
0.838486 0.523851 0.148741 O
0.841854 0.526138 0.650548 O
0.340001 0.214804 0.094239 O
0.342810 0.226849 0.601448 O
0.344244 0.738344 0.107376 O
0.341378 0.729539 0.600976 O
0.158002 0.270883 0.368026 O
0.154596 0.275314 0.849881 O
0.158295 0.771476 0.353478 O
0.159288 0.772456 0.852199 O
0.661657 0.479131 0.406109 O
0.654121 0.477802 0.895819 O
0.660986 0.976530 0.399730 O
0.660365 0.976218 0.896278 O
0.158907 0.476188 0.353541 O
0.155004 0.479363 0.847098 O
0.160303 0.976451 0.352423 O
0.159119 0.977416 0.853518 O
0.661630 0.272649 0.405848 O
0.653887 0.272906 0.892434 O
0.660285 0.771348 0.399992 O
0.658961 0.771256 0.896123 O
0.842850 0.223634 0.151467 O
0.842592 0.225524 0.649120 O
0.840702 0.728731 0.148156 O
0.842313 0.730314 0.646934 O
0.344255 0.011484 0.107188 O
0.341851 0.021595 0.601300 O
0.329220 0.536803 0.095195 O
0.341264 0.524616 0.599069 O
0.549740 0.116061 0.100662 O
0.549379 0.123523 0.601588 O
0.545369 0.627052 0.097750 O
0.548541 0.627140 0.601994 O
0.045775 0.115032 0.149827 O
0.050180 0.124187 0.651324 O
0.047271 0.625635 0.151686 O
0.049695 0.628364 0.649575 O
0.455694 0.375546 0.402735 O
0.445342 0.376193 0.870425 O
0.453493 0.874438 0.400187 O
0.452300 0.874515 0.896875 O
0.951033 0.374558 0.352294 O
0.946496 0.375992 0.845607 O
0.951847 0.874868 0.351223 O
0.951818 0.874578 0.849752 O
0.602865 0.376421 0.199123 O
0.600894 0.376753 0.683763 O
0.592906 0.872941 0.193559 O
0.590581 0.874500 0.690158 O
0.080236 0.382154 0.053306 O
0.084356 0.380765 0.562571 O
0.088068 0.873492 0.058183 O
0.089917 0.875393 0.558720 O
0.412361 0.122643 0.307119 O
0.409868 0.123557 0.808284 O
0.410774 0.625961 0.306795 O
0.408024 0.626535 0.807429 O
0.912922 0.124050 0.442503 O
0.908298 0.123809 0.942462 O
0.911623 0.625529 0.442357 O
0.910342 0.625687 0.942935 O
