Li16 Co18 O36                           
   1.00000000000000     
     8.0633520000000001    0.0216390000000000    2.3671690000000001
     3.6626080000000001    7.1811160000000003    2.3717779999999999
     0.0313660000000000    0.0121200000000000    9.8894839999999995
   Li   Co   O 
    16    18    36
Direct
  0.7064438543678573  0.3744051448960150  0.4930844487519748
  0.3344419767195773  0.3337403813919907 -0.0009865625712013
  0.3297285004378486  0.3349067740986846  0.4986807589277755
  0.3342428461948631  0.6676665808260915 -0.0000419667920282
  0.3435027854667622  0.6651122728461379  0.5004286551361965
  0.3341791304715376  0.0006579893553592 -0.0008361147601581
  0.3340023171580968  0.0012107197352600  0.4988850603734420
  0.6676645995950951  0.3345370577185324 -0.0006207962732378
  0.6663299462546852  0.6682124946256215 -0.0003214490769821
  0.6670578939557018  0.0009816996310688  0.9992701259946496
  0.6685871919490654  0.9961451988619827  0.4986446183808257
  0.0017092594343942  0.3330158907777336 -0.0004706246474959
  1.0009840643912016  0.6673116173248225  0.0000488936721884
  0.9839042683347995  0.6499605978074100  0.5003619499324443
  0.0008930586298712  0.0007510360532884  0.0000944264544182
  0.9980923569243705  0.0108684682455370  0.5001868611717525
  0.1665192424007691  0.1695017481984788  0.2497881100683865
  0.1659450198144665  0.1657335496402167  0.7479903424384945
  0.1675731330217536  0.5006023557410085  0.2476263000603035
  0.1677479675403303  0.4992673790250991  0.7526097489745509
  0.1661225360755487  0.8344438111446661  0.2499696561483055
  0.1657808752425181  0.8313780598880556  0.7528304284926530
  0.5014356082550698  0.1698004271563069  0.2446251061329589
  0.5010252807308467  0.1655737088934378  0.7484041840399812
  0.5008988886345555  0.5013373334850666  0.2482809944455366
  0.4996105948281350  0.4994081995191554  0.7511292740778407
  0.5006111266584320  0.8352764892426657  0.2499631052767206
  0.5007644207685937  0.8317569661512995  0.7475925270681265
  0.8335574675401261  0.1688207928739096  0.2478916668035995
  0.8344551894010144  0.1647258948214848  0.7511074918295326
  0.8344652993033025  0.5024855971354349  0.2489058441631428
  0.8348412972090909  0.4994651034857581  0.7506161009032914
  0.8323654823062460  0.8357733791674673  0.2475295600367415
  0.8344194528172680  0.8322939227633789  0.7529652469068225
  0.2596288460209072  0.2547479178558620  0.3523308875089876
  0.2546575124879847  0.2509560248671248  0.8584719753538754
  0.2537639062352030  0.5871237988844242  0.3571783157396590
  0.2539281496623926  0.5846991592821736  0.8631456682569502
  0.2535085345654013  0.9221530485278815  0.3587637921333612
  0.2544364570605646  0.9195423031126668  0.8591507596683303
  0.5870873228882516  0.2546944238408457  0.3538608393254385
  0.5864381875558875  0.2515317769905046  0.8597513987506882
  0.5871151014000201  0.5886650085151972  0.3538823586350246
  0.5867559471452890  0.5871510629633313  0.8598106467941932
  0.5865036945009273  0.9279235992006811  0.3523436962754629
  0.5859224160548027  0.9196840888767948  0.8587004048921280
  0.9204507187257913  0.2551946534101964  0.3537716028901248
  0.9216230843366131  0.2519086111434669  0.8601198244157416
  0.9235225383115463  0.5915880591879485  0.3483677550193067
  0.9207371474747601  0.5853681788234998  0.8621595520860348
  0.9190815024626534  0.9219179289805831  0.3569750366866540
  0.9194789960305573  0.9192603296003553  0.8634439421802413
  0.0810456641122923  0.0810175806055761  0.1400292087902020
  0.0800876576160389  0.0736681329166309  0.6453765919752306
  0.0809297515747536  0.4144219549072626  0.1383558914611512
  0.0811042044844678  0.4139837039552777  0.6457109175220084
  0.0806120402086129  0.7486546646171405  0.1391099223552139
  0.0799682657384923  0.7453460326513245  0.6446004072783512
  0.4128446301377674  0.0812556838943104  0.1382946261601993
  0.4134720001099739  0.0791051542331077  0.6390894304513062
  0.4142660143922451  0.4169887940389800  0.1361984139419927
  0.4130431408611676  0.4134863370257021  0.6426149160192176
  0.4128619660096669  0.7489750098792424  0.1403510131097735
  0.4082994798416209  0.7454959603141929  0.6454035443034666
  0.7487675720940415  0.0823175183197045  0.1361072368297319
  0.7487295040786439  0.0776531399412529  0.6428848074254794
  0.7475546423970655  0.4155683592461494  0.1384501867775869
  0.7449768926757799  0.4099803003815048  0.6533550798459191
  0.7459558964996575  0.7490270709066309  0.1385699937638078
  0.7492858189004969  0.7461776834148452  0.6458746556022070
 
             NaN             NaN             NaN
             NaN             NaN             NaN
             NaN             NaN             NaN
             NaN             NaN             NaN
             NaN             NaN             NaN
             NaN             NaN             NaN
             NaN             NaN             NaN
             NaN             NaN             NaN
             NaN             NaN             NaN
             NaN             NaN             NaN
             NaN             NaN             NaN
             NaN             NaN             NaN
             NaN             NaN             NaN
             NaN             NaN             NaN
             NaN             NaN             NaN
             NaN             NaN             NaN
             NaN             NaN             NaN
             NaN             NaN             NaN
             NaN             NaN             NaN
             NaN             NaN             NaN
             NaN             NaN             NaN
             NaN             NaN             NaN
             NaN             NaN             NaN
             NaN             NaN             NaN
             NaN             NaN             NaN
             NaN             NaN             NaN
             NaN             NaN             NaN
             NaN             NaN             NaN
             NaN             NaN             NaN
             NaN             NaN             NaN
             NaN             NaN             NaN
             NaN             NaN             NaN
             NaN             NaN             NaN
             NaN             NaN             NaN
             NaN             NaN             NaN
             NaN             NaN             NaN
             NaN             NaN             NaN
             NaN             NaN             NaN
             NaN             NaN             NaN
             NaN             NaN             NaN
             NaN             NaN             NaN
             NaN             NaN             NaN
             NaN             NaN             NaN
             NaN             NaN             NaN
             NaN             NaN             NaN
             NaN             NaN             NaN
             NaN             NaN             NaN
             NaN             NaN             NaN
             NaN             NaN             NaN
             NaN             NaN             NaN
             NaN             NaN             NaN
             NaN             NaN             NaN
             NaN             NaN             NaN
             NaN             NaN             NaN
             NaN             NaN             NaN
             NaN             NaN             NaN
             NaN             NaN             NaN
             NaN             NaN             NaN
             NaN             NaN             NaN
             NaN             NaN             NaN
             NaN             NaN             NaN
             NaN             NaN             NaN
             NaN             NaN             NaN
             NaN             NaN             NaN
             NaN             NaN             NaN
             NaN             NaN             NaN
             NaN             NaN             NaN
             NaN             NaN             NaN
             NaN             NaN             NaN
             NaN             NaN             NaN
