Li7 Mn16 O32                            
   1.00000000000000     
     8.3874069999999996    0.0669620000000000   -0.0018250000000000
     0.0353990000000000    8.1837409999999995    0.0155070000000000
    -0.0175620000000000   -0.0175860000000000    8.2508169999999996
   Li   Mn   O 
     7    16    32
Direct
  0.1849166574202323  0.5638054485310582  0.6795555639490689
  0.8794746900204895  0.8710590250299788  0.8801798600761571
  0.1202086640028145  0.1273860001317998  0.1245293168811104
  0.8839158307667225  0.3701957073025181  0.3819494610248688
  0.3816195300482350  0.8743440765097569  0.3819247200596442
  0.6156953286167917  0.1285474403362260  0.6281357479627944
  0.6197932732022090  0.6236631226194906  0.1170667569934110
  0.5051745874964658  0.2534539956112997  0.2474656228862199
  0.2559239722987112  0.4959358496220619  0.2464263283230130
  0.2574008187562470  0.2452815774842398  0.5025020999346949
  0.5082306505953941  0.4949956456286925  0.4990759714355518
  0.5003433455851867  0.7471421640401735  0.7535355421768999
  0.7590219749452872  0.5006587567859339  0.7383306147053356
  0.7460452717664255  0.7530227405885684  0.4973857732889154
  0.2445647372128041  1.0030467927052302  0.7606101805179403
  0.2491855327564620  0.7474757763262259  0.0034100671172879
  0.4957970950529393  0.0063067997180374  0.0035256863528084
  0.7446943105872209  1.0029395698925403  0.2545689100551782
  0.7521427196201258  0.2498179441953486 -0.0009200323475048
 -0.0002736470231603  0.2458861981132057  0.7481407373728428
  0.0037731910180924  0.4962430466669388  0.9997436895649613
 -0.0027392545539623  0.7478923374724979  0.2538770669958834
 -0.0027918444522517  0.9981089769729089  0.5025147278613193
  0.7518916370686139  0.0114028618628919  0.0256424505449446
  0.0180188297632346  0.7301439701946500  0.0179818550561962
  0.0134200192003357  0.0123877915748119  0.7423826194624249
  0.7492903554247335  0.7344323209430634  0.7312833375719140
  0.2413358397499643  0.9775179963227063  0.9919980347405373
  0.9845568251736340  0.2638893970997884  0.9831876687915176
  0.9730966287841418  0.9931436711888947  0.2666331238735613
  0.2764651194968567  0.2648949612270541  0.2425977117805572
  0.7576811024533295  0.5196605650020222  0.5096748513605139
  0.0173598610897501  0.2333398937868431  0.5190333793683357
  0.0252844953115522  0.5006564274781560  0.2338242452955516
  0.7322630596755257  0.2350373271277731  0.2591317049104443
  0.2577801185617160  0.4799446652108582  0.4770803291124172
  0.9733470944534888  0.7637094156928025  0.4831367548462870
  0.9923253175300875  0.4816332905146538  0.7640345738782183
  0.2534719396741587  0.7641529273318437  0.7723367266648283
  0.2540456090053660  0.0123694646720189  0.5296960744008480
  0.5170107466041607  0.7336251358982250  0.5191659790703981
  0.5145745096212313  0.0183227274878787  0.2383107275361531
  0.2523697061289732  0.7301692928590963  0.2349738750576632
  0.7388469153613624  0.9820938380802959  0.4863758499277693
  0.4919750570655786  0.2611888105704672  0.4793435106191864
  0.4719792533382423  0.0007553722002126  0.7733939637475011
  0.7739901096696702  0.2673202334667767  0.7399121426139085
  0.2357226072915524  0.5138081298642815  0.0130548457723063
  0.5263717444244619  0.2432950787417135  0.0208588379144510
  0.5367584075638682  0.4994411557674669  0.7312835660061340
  0.2221842355967410  0.2315361743107262  0.7587329593201093
  0.7718214241571624  0.4939678377159246  0.9762777445596021
  0.4774538744866252  0.7598030850256866  0.9858614697907448
  0.4863692470230375  0.4863174625067770  0.2578685328003769
  0.7431368622159250  0.7677506774141796  0.2660991369326848
 
             NaN             NaN             NaN
             NaN             NaN             NaN
             NaN             NaN             NaN
             NaN             NaN             NaN
             NaN             NaN             NaN
             NaN             NaN             NaN
             NaN             NaN             NaN
             NaN             NaN             NaN
             NaN             NaN             NaN
             NaN             NaN             NaN
             NaN             NaN             NaN
             NaN             NaN             NaN
             NaN             NaN             NaN
             NaN             NaN             NaN
             NaN             NaN             NaN
             NaN             NaN             NaN
             NaN             NaN             NaN
             NaN             NaN             NaN
             NaN             NaN             NaN
             NaN             NaN             NaN
             NaN             NaN             NaN
             NaN             NaN             NaN
             NaN             NaN             NaN
             NaN             NaN             NaN
             NaN             NaN             NaN
             NaN             NaN             NaN
             NaN             NaN             NaN
             NaN             NaN             NaN
             NaN             NaN             NaN
             NaN             NaN             NaN
             NaN             NaN             NaN
             NaN             NaN             NaN
             NaN             NaN             NaN
             NaN             NaN             NaN
             NaN             NaN             NaN
             NaN             NaN             NaN
             NaN             NaN             NaN
             NaN             NaN             NaN
             NaN             NaN             NaN
             NaN             NaN             NaN
             NaN             NaN             NaN
             NaN             NaN             NaN
             NaN             NaN             NaN
             NaN             NaN             NaN
             NaN             NaN             NaN
             NaN             NaN             NaN
             NaN             NaN             NaN
             NaN             NaN             NaN
             NaN             NaN             NaN
             NaN             NaN             NaN
             NaN             NaN             NaN
             NaN             NaN             NaN
             NaN             NaN             NaN
             NaN             NaN             NaN
             NaN             NaN             NaN
