Li7 Mn16 O32                            
   1.00000000000000     
     8.3874069999999996    0.0669620000000000   -0.0018250000000000
     0.0353990000000000    8.1837409999999995    0.0155070000000000
    -0.0175620000000000   -0.0175860000000000    8.2508169999999996
   Li   Mn   O 
     7    16    32
Direct
  0.1430267185960269  0.6060971139043149  0.6391800528805029
  0.8812473456844376  0.8687381902687398  0.8831991809958374
  0.1247559105576748  0.1259911880110445  0.1272781105919574
  0.8851984241204331  0.3680867231660955  0.3830625186870597
  0.3854227064879559  0.8740641576913758  0.3836997877210152
  0.6195487473010978  0.1244023802139291  0.6300480282976721
  0.6227488136225047  0.6209004990657055  0.1196749240400051
  0.5076305855069181  0.2451356745893231  0.2516208493402409
  0.2612515054404787  0.4929947750984469  0.2490795553113861
  0.2583093470962949  0.2466567690560969  0.5056002458515465
  0.5081329266331635  0.4916608917839232  0.5004029928456194
  0.5000779540016569  0.7470539506026819  0.7563670315639560
  0.7603712394865579  0.4983573483941410  0.7480943278272129
  0.7487310778303761  0.7510484161168078  0.5068089672129164
  0.2464736681991643  0.9986469147172452  0.7621005447393022
  0.2531031787236020  0.7482415921349849  0.0001564638606111
  0.4984700627727448  0.0056971413800408  0.0033577325343392
  0.7482775458826566 -0.0035285091477205  0.2582300741069582
  0.7550267646059652  0.2459796491185040  0.0042391303547275
  0.0005436892335159  0.2458431512175507  0.7504283089083914
  0.0064661127933014  0.4933305296037024  0.9990522393710184
  1.0021194706595880  0.7440094867603750  0.2587050866547748
  1.0005082078966883 -0.0061731946324545  0.5080582503562520
  0.7556735058125901  0.0077262691437987  0.0296759582399886
  0.0226100746654249  0.7292963852059006  0.0201378711702360
  0.0156560312012830  0.0112505823776757  0.7439998667954750
  0.7493733325782667  0.7285498988688771  0.7355981959630654
  0.2437067976719608  0.9758054023180276  0.9933339005622055
  0.9887950020315920  0.2631220834350020  0.9845568838811136
  0.9783887045770215 -0.0169014054691574  0.2700187499295690
  0.2802333914114724  0.2627023079974685  0.2479936965667861
  0.7569018944363384  0.5148283142896075  0.5131681019225308
  0.0171560080856693  0.2298053538236594  0.5202085148742063
  0.0308278272419759  0.5023541500172964  0.2376282408690837
  0.7360842356482545  0.2290333153578517  0.2627686868892113
  0.2612453747755263  0.4802148762998307  0.4785904228301065
  0.9793615570293536  0.7561859592491349  0.4917968924252770
  0.9908148074101883  0.4802720803598698  0.7630303822623573
  0.2553917399133826  0.7642776813697266  0.7727547851062694
  0.2553915110655892  0.0125146667438220  0.5313257248032497
  0.5192643836377878  0.7313523242342423  0.5219204608946164
  0.5187448416019458  0.0129238602009040  0.2400784302836644
  0.2603895657318055  0.7284558960678493  0.2349658908184341
  0.7425961722120819  0.9765348719286226  0.4906340598175188
  0.4971035962969050  0.2595702808520224  0.4831345851216785
  0.4736710674900332  1.0011192229213677  0.7742981982976956
  0.7749091196679871  0.2623681428639995  0.7434899768147050
  0.2409781727019175  0.5118429533091226  0.0149507479030355
  0.5302929595690087  0.2398446565580705  0.0256469722816694
  0.5353106321444031  0.4949170511086483  0.7343586294996902
  0.2252419653313852  0.2312951587403830  0.7596256168781275
  0.7729738450157789  0.4903907823556267  0.9789163161076022
  0.4812582504161144  0.7586388179227455  0.9858443677578996
  0.4914439952041852  0.4814507051033783  0.2606583691496877
  0.7463902210537492  0.7630470814387474  0.2722532435966794
 
             NaN             NaN             NaN
             NaN             NaN             NaN
             NaN             NaN             NaN
             NaN             NaN             NaN
             NaN             NaN             NaN
             NaN             NaN             NaN
             NaN             NaN             NaN
             NaN             NaN             NaN
             NaN             NaN             NaN
             NaN             NaN             NaN
             NaN             NaN             NaN
             NaN             NaN             NaN
             NaN             NaN             NaN
             NaN             NaN             NaN
             NaN             NaN             NaN
             NaN             NaN             NaN
             NaN             NaN             NaN
             NaN             NaN             NaN
             NaN             NaN             NaN
             NaN             NaN             NaN
             NaN             NaN             NaN
             NaN             NaN             NaN
             NaN             NaN             NaN
             NaN             NaN             NaN
             NaN             NaN             NaN
             NaN             NaN             NaN
             NaN             NaN             NaN
             NaN             NaN             NaN
             NaN             NaN             NaN
             NaN             NaN             NaN
             NaN             NaN             NaN
             NaN             NaN             NaN
             NaN             NaN             NaN
             NaN             NaN             NaN
             NaN             NaN             NaN
             NaN             NaN             NaN
             NaN             NaN             NaN
             NaN             NaN             NaN
             NaN             NaN             NaN
             NaN             NaN             NaN
             NaN             NaN             NaN
             NaN             NaN             NaN
             NaN             NaN             NaN
             NaN             NaN             NaN
             NaN             NaN             NaN
             NaN             NaN             NaN
             NaN             NaN             NaN
             NaN             NaN             NaN
             NaN             NaN             NaN
             NaN             NaN             NaN
             NaN             NaN             NaN
             NaN             NaN             NaN
             NaN             NaN             NaN
             NaN             NaN             NaN
             NaN             NaN             NaN
