Li16 Co18 O36                           
   1.00000000000000     
     8.1740840000000006   -0.0010960000000000    2.4260880000000000
     3.7318069999999999    7.2757470000000000    2.4123760000000001
     0.0121900000000000   -0.0112940000000000    9.9846350000000008
   Li   Co   O 
    16    18    36
Direct
  0.2889283219028252  0.4199037078384474  0.5080581863726814
  0.3332836156792557  0.3332869084567624  0.0007934703434127
  0.3329250296065390  0.6676626444709253  1.0001226581512854
  0.3332512137674944  1.0002666084200502  0.0006218518732046
  0.3321128844963624  0.9960019846229182  0.5015299722779641
  0.6669429774235681  0.3338885080827018  0.9995969632877969
  0.6567197195271588  0.3420644696100881  0.4990504497531875
  0.6664570429952714  0.6672028701067543  0.0005545095958323
  0.6660198661372391  0.6673993229298656  0.5007536371009353
  0.6660852065826484  1.0000060758148666  0.0010424253455843
  0.6710716496780051  0.9959759529471948  0.5016669835725661
  0.9995857345884530  0.3335580135599454  1.0003404494126260
  0.0034213113225305  0.3435293225224614  0.4993005896582334
 -0.0006680546786828  0.6672584535694660  0.0008894887670725
  0.0001277238137263  1.0005047223276085  0.9997919927108523
  0.0207576758695939  0.9587904235071133  0.4998775839202631
  0.1656144758779090  0.1697384609686164  0.2476199079631632
  0.1673778109446014  0.1651421518677730  0.7527428800871540
  0.1652351239837291  0.5028348930811382  0.2475338600397519
  0.1660640793661299  0.5002828884012874  0.7532066330439280
  0.1655216905052220  0.8360239879040526  0.2487945007402400
  0.1675775966866616  0.8321214873601788  0.7522218836907355
  0.4983695459817833  0.1689767653914946  0.2510909940042357
  0.5001551559652022  0.1651333710595105  0.7527879846559850
  0.4999489972353903  0.5028078405687134  0.2474958962437229
  0.4999760219138796  0.5003095724943073  0.7508604625299237
  0.4985679536242480  0.8346632914163100  0.2507588863665952
  0.4992942309599526  0.8321192503116946  0.7556100476769908
  0.8325562407839491  0.1697084969411331  0.2476176267665751
  0.8341781917791409  0.1662562335630727  0.7496425295410266
  0.8334676203901609  0.5023108273185992  0.2457704539241046
  0.8335926927658944  0.5003765908554737  0.7507812849078156
  0.8326399892571177  0.8347111980205967  0.2508117364489199
  0.8331988715645346  0.8321548012574900  0.7521954080090445
  0.2507614596492740  0.2578961345891247  0.3553166730219731
  0.2536208870962501  0.2527374903966415  0.8616011405714189
  0.2551477955241089  0.5926037237622582  0.3447584119514264
  0.2544727204860052  0.5865824663192692  0.8612792357513309
  0.2510905537218553  0.9275285135435399  0.3528895341971624
  0.2516529527451626  0.9200684739685161  0.8636951907718045
  0.5871708267557051  0.2579562514129502  0.3554044186692211
  0.5883159941831918  0.2535210185986815  0.8590784198651806
  0.5913899012200997  0.5876525037188099  0.3519394202368262
  0.5877423152245665  0.5844059027209347  0.8611657279305391
  0.5856015934962429  0.9219604241005008  0.3594851436129120
  0.5866078514802687  0.9201555083588291  0.8637208832704515
  0.9194045198798827  0.2583964285577193  0.3532430742497296
  0.9196492546259804  0.2535235396853582  0.8588311198135852
  0.9190965361041101  0.5876646302377503  0.3520420895099227
  0.9190416252408455  0.5867179882131291  0.8610689182706484
  0.9188765953869112  0.9275676734531777  0.3529894039738806
  0.9196128912256872  0.9215694057131752  0.8599094742367447
  0.0792972707425156  0.0818482786905985  0.1389455108069956
  0.0816679691028919  0.0773498605034225  0.6438416852242377
  0.0805911709105647  0.4150463224405009  0.1367202285144918
  0.0805335830384269  0.4085909817430973  0.6485076051462080
  0.0774650922114871  0.7493377471303845  0.1397375741515068
  0.0774722955738376  0.7443890296655999  0.6530563119552075
  0.4133521907700574  0.0809202557696561  0.1420047872313208
  0.4139283088171287  0.0745978018054253  0.6484858560432246
  0.4134181213691206  0.4131528687484264  0.1398793304721446
  0.4134576236658932  0.4085452417823652  0.6485914538519796
  0.4131730227948464  0.7492169110239126  0.1398641580815853
  0.4142144973329180  0.7468230127029406  0.6491139655511936
  0.7445322857383558  0.0808127095933375  0.1417994392871445
  0.7464359799119901  0.0773661385616757  0.6437689683867004
  0.7465926202633218  0.4149074273386353  0.1367999856698821
  0.7467641861491727  0.4132430639246201  0.6419056351138558
  0.7450123555073656  0.7498093059674805  0.1407025932570836
  0.7408805595651728  0.7468318602047780  0.6491308193624699
 
             NaN             NaN             NaN
             NaN             NaN             NaN
             NaN             NaN             NaN
             NaN             NaN             NaN
             NaN             NaN             NaN
             NaN             NaN             NaN
             NaN             NaN             NaN
             NaN             NaN             NaN
             NaN             NaN             NaN
             NaN             NaN             NaN
             NaN             NaN             NaN
             NaN             NaN             NaN
             NaN             NaN             NaN
             NaN             NaN             NaN
             NaN             NaN             NaN
             NaN             NaN             NaN
             NaN             NaN             NaN
             NaN             NaN             NaN
             NaN             NaN             NaN
             NaN             NaN             NaN
             NaN             NaN             NaN
             NaN             NaN             NaN
             NaN             NaN             NaN
             NaN             NaN             NaN
             NaN             NaN             NaN
             NaN             NaN             NaN
             NaN             NaN             NaN
             NaN             NaN             NaN
             NaN             NaN             NaN
             NaN             NaN             NaN
             NaN             NaN             NaN
             NaN             NaN             NaN
             NaN             NaN             NaN
             NaN             NaN             NaN
             NaN             NaN             NaN
             NaN             NaN             NaN
             NaN             NaN             NaN
             NaN             NaN             NaN
             NaN             NaN             NaN
             NaN             NaN             NaN
             NaN             NaN             NaN
             NaN             NaN             NaN
             NaN             NaN             NaN
             NaN             NaN             NaN
             NaN             NaN             NaN
             NaN             NaN             NaN
             NaN             NaN             NaN
             NaN             NaN             NaN
             NaN             NaN             NaN
             NaN             NaN             NaN
             NaN             NaN             NaN
             NaN             NaN             NaN
             NaN             NaN             NaN
             NaN             NaN             NaN
             NaN             NaN             NaN
             NaN             NaN             NaN
             NaN             NaN             NaN
             NaN             NaN             NaN
             NaN             NaN             NaN
             NaN             NaN             NaN
             NaN             NaN             NaN
             NaN             NaN             NaN
             NaN             NaN             NaN
             NaN             NaN             NaN
             NaN             NaN             NaN
             NaN             NaN             NaN
             NaN             NaN             NaN
             NaN             NaN             NaN
             NaN             NaN             NaN
             NaN             NaN             NaN
