Li16 Co18 O36
1.0
8.174084 -0.001096 2.426088
3.731807 7.275747 2.412376
0.012190 -0.011294 9.984635
Li Co O
16 18 36
direct
0.284172 0.419535 0.518012 Li
0.332932 0.333439 0.000057 Li
0.333236 0.667180 0.999779 Li
0.333229 0.999636 0.000344 Li
0.332375 -0.004682 0.501423 Li
0.667004 0.333888 0.999441 Li
0.657325 0.340568 0.498556 Li
0.666633 0.666434 0.000119 Li
0.668971 0.666413 0.500345 Li
0.666352 0.999598 1.000444 Li
0.673668 0.993016 0.501065 Li
0.999845 0.333560 -0.000118 Li
0.006601 0.346191 0.498771 Li
1.000134 0.666174 0.000132 Li
0.000630 -0.000140 0.999833 Li
0.017661 0.963081 0.499319 Li
0.166193 0.168271 0.247924 Co
0.167240 0.165008 0.752013 Co
0.165959 0.501471 0.248703 Co
0.166992 0.499640 0.749892 Co
0.166209 0.833783 0.249625 Co
0.167428 0.831834 0.751841 Co
0.499157 0.167636 0.250693 Co
0.500220 0.165251 0.751431 Co
0.500046 0.501325 0.248184 Co
0.500083 0.499666 0.750118 Co
0.499187 0.833589 0.250553 Co
0.499305 0.831806 0.754687 Co
0.833297 0.168480 0.247252 Co
0.834181 0.165880 0.749258 Co
0.833810 0.501283 0.245970 Co
0.833918 0.499772 0.750096 Co
0.833287 0.833580 0.250534 Co
0.833522 0.831813 0.751237 Co
0.251927 0.256159 0.355290 O
0.253862 0.253198 0.859674 O
0.256348 0.589446 0.347015 O
0.254407 0.585822 0.859520 O
0.251921 0.925179 0.353772 O
0.251989 0.919467 0.862976 O
0.588221 0.256171 0.354833 O
0.588162 0.253288 0.858015 O
0.590963 0.586904 0.352552 O
0.587440 0.584583 0.860423 O
0.586458 0.920974 0.358727 O
0.586870 0.919928 0.862169 O
0.919833 0.257213 0.352781 O
0.919737 0.253214 0.858168 O
0.919341 0.586941 0.351884 O
0.920255 0.586249 0.859174 O
0.919277 0.926523 0.352640 O
0.919719 0.921072 0.859100 O
0.080156 0.080287 0.139423 O
0.081426 0.076950 0.643970 O
0.081015 0.413789 0.137706 O
0.080261 0.407484 0.648499 O
0.078531 0.747430 0.140702 O
0.078091 0.744836 0.651467 O
0.413612 0.079674 0.142106 O
0.413623 0.074716 0.647549 O
0.413495 0.412206 0.140615 O
0.414079 0.408567 0.646928 O
0.413245 0.747554 0.140870 O
0.413869 0.746134 0.648179 O
0.745213 0.079600 0.141561 O
0.746586 0.077037 0.643319 O
0.746901 0.414076 0.137048 O
0.746767 0.412678 0.641985 O
0.745458 0.748556 0.140767 O
0.741001 0.746282 0.648601 O
