Mg1 Ti16 S32                            
   1.00000000000000     
     9.9109090000000002    0.0061820000000000    0.0043180000000000
    -0.0026640000000000    9.9113039999999994    0.0006020000000000
    -0.0034440000000000   -0.0011320000000000    9.9140850000000000
   Mg   Ti   S 
     1    16    32
Direct
  0.4025918826630474  0.3473801040934227  0.8443943050439110
  0.2497729061744688  0.7514613805444109 -0.0015089180583577
  0.5002908827983862  0.9910583707290899  0.0057574605168268
  0.7589795307526653  0.2496606553079727  0.0057838770752218
  0.9985500499345820  0.5002475295939292 -0.0014993855824706
  0.5032531823876025  0.2467557265829811  0.2655575917224144
  0.2494442247771513  0.5005251385697479  0.2497719650381094
  0.2417790697123260  0.2496148952338768  0.4876533350399139
  0.5003672597444749  0.5082253563833951  0.4876546393462338
  0.5033820490653668  0.7681671500625838  0.7447391023759035
  0.7595743657618760  0.5086003474855154  0.7468375132944569
  0.7522218477920355  0.7522683440865394  0.4955087192646909
  0.2413820030718965  0.9903842123674809  0.7468397047451204
  0.7517048833935901  0.9983099088933205  0.2493199348835929
  0.9818478410112457  0.2467314943616438  0.7447922826166543
  1.0000019868496461  0.7499709579907111  0.2481123301028246
  0.9977365641255238  0.9977911852837633  0.4955310077354700
  0.7465098957232429  0.0035224495091977  0.0030291396690143
  0.0049768000671602  0.7450354815996284 -0.0000779110206397
 -0.0031141650278732  0.0008311857686072  0.7436296858433694
  0.7492348478505844  0.7531094483189962  0.7436211153244200
  0.2521611080276152  0.9948352718851646  0.9951283297931131
  0.9984902831658270  0.2515148427083245  0.9924867084389329
  0.9976198967261644  0.9955660968700959  0.2500140372560773
  0.2552683548809340  0.2517731911222685  0.2489467310430271
  0.7468394724465234  0.5057024724209734  0.5009583709259414
 -0.0029421554125762  0.2460140515731149  0.4989258670726983
  0.0049004048030347  0.5017378907745692  0.2430148106049181
  0.7487140970833950  0.2463957948041649  0.2502462482692279
  0.2523986824900317  0.4976053950230614  0.4928539974199391
  0.9978471483792494  0.7521798713588178  0.4934561708857957
  0.9988491417190157  0.4944147702115934  0.7497597064071174
  0.2556459914623594  0.7511687281086595  0.7497428308078122
  0.2443247745793789  0.0031786049706602  0.5009540801293670
  0.5040091172272324  0.7529728430149656  0.4989213131351005
  0.5036202788419547  0.0013004842375389  0.2502776290001476
  0.2482740338154813  0.7450849598730307  0.2430088929369527
  0.7526128377654908  0.9974297161718488  0.4946008677131459
  0.4916919987186824  0.2583427448773425  0.5044598870371484
  0.4915235795543301  1.0069650049741090  0.7560209235587663
  0.7430863898195772  0.2584731718173093  0.7559982492030815
  0.2496029802150863  0.5003840503354403 -0.0014278544000178
  0.5103476326542778  0.2396957396303158  0.0187656014931068
  0.5110599489286205  0.5213224601929369  0.7365392705891630
  0.2287773497071926  0.2389398324833907  0.7365619939231990
  0.7551451047251968  0.4978488640011420  0.9951318080476408
  0.4985218932763780  0.7515699461387579  0.9924756331042173
  0.4982315111857248  0.4947430665865980  0.2489356602351684
  0.7544445910300661  0.7524186249239464  0.2500081093568453
 
             NaN             NaN             NaN
             NaN             NaN             NaN
             NaN             NaN             NaN
             NaN             NaN             NaN
             NaN             NaN             NaN
             NaN             NaN             NaN
             NaN             NaN             NaN
             NaN             NaN             NaN
             NaN             NaN             NaN
             NaN             NaN             NaN
             NaN             NaN             NaN
             NaN             NaN             NaN
             NaN             NaN             NaN
             NaN             NaN             NaN
             NaN             NaN             NaN
             NaN             NaN             NaN
             NaN             NaN             NaN
             NaN             NaN             NaN
             NaN             NaN             NaN
             NaN             NaN             NaN
             NaN             NaN             NaN
             NaN             NaN             NaN
             NaN             NaN             NaN
             NaN             NaN             NaN
             NaN             NaN             NaN
             NaN             NaN             NaN
             NaN             NaN             NaN
             NaN             NaN             NaN
             NaN             NaN             NaN
             NaN             NaN             NaN
             NaN             NaN             NaN
             NaN             NaN             NaN
             NaN             NaN             NaN
             NaN             NaN             NaN
             NaN             NaN             NaN
             NaN             NaN             NaN
             NaN             NaN             NaN
             NaN             NaN             NaN
             NaN             NaN             NaN
             NaN             NaN             NaN
             NaN             NaN             NaN
             NaN             NaN             NaN
             NaN             NaN             NaN
             NaN             NaN             NaN
             NaN             NaN             NaN
             NaN             NaN             NaN
             NaN             NaN             NaN
             NaN             NaN             NaN
             NaN             NaN             NaN
