Mg1 Ti16 S32
1.0
9.910909 0.006182 0.004318
-0.002664 9.911304 0.000602
-0.003444 -0.001132 9.914085
Mg Ti S
1 16 32
direct
0.406430 0.343599 0.749893 Mg
0.248897 0.752190 0.003864 Ti
0.500488 -0.004570 0.005023 Ti
0.754584 0.249488 0.004943 Ti
0.997621 0.500867 0.003643 Ti
0.500540 0.249567 0.249512 Ti
0.248966 0.500894 0.249523 Ti
0.245591 0.247306 0.492449 Ti
0.502766 0.504674 0.492529 Ti
0.502747 0.752672 0.750150 Ti
0.754859 0.504546 0.750005 Ti
0.751048 0.751073 0.498856 Ti
0.245519 -0.004852 0.750080 Ti
0.750829 -0.000744 0.250603 Ti
0.997357 0.247194 0.749961 Ti
0.999273 0.750665 0.250691 Ti
0.999030 0.998951 0.498817 Ti
0.746828 0.003228 0.004246 S
0.003111 0.746812 0.003990 S
0.001925 0.002566 0.747559 S
0.747442 0.748131 0.747581 S
0.253061 0.996735 0.996604 S
0.997922 0.252827 0.996469 S
0.996875 0.996959 0.253431 S
0.253226 0.252943 0.250740 S
0.747701 0.503999 0.503462 S
0.001795 0.246667 0.503580 S
0.003205 0.502934 0.247736 S
0.746579 0.247342 0.248151 S
0.253911 0.496066 0.495700 S
0.996872 0.753142 0.497209 S
0.998340 0.495917 0.753509 S
0.254072 0.751686 0.753608 S
0.246136 0.002314 0.503531 S
0.503327 0.748351 0.503672 S
0.502768 0.003534 0.248224 S
0.246997 0.746659 0.247848 S
0.753015 0.997103 0.497125 S
0.495741 0.254403 0.495826 S
0.495637 0.997361 0.754103 S
0.752664 0.254414 0.754009 S
0.246263 0.503675 0.003299 S
0.504333 0.245718 0.003194 S
0.504565 0.504010 0.744962 S
0.246034 0.245438 0.744937 S
0.753206 0.496960 0.996521 S
0.497125 0.752120 0.996589 S
0.496970 0.496860 0.250770 S
0.753005 0.753256 0.253438 S
