Li48 P16 O64                            
   1.00000000000000     
    10.5971883987633806    0.0014191395256733    0.0038682315272649
     0.0016549987423344   12.2899172487833948    0.0035788600167580
     0.0036148123877368    0.0028565514539724    9.9910585109150674
   Li   P    O 
    47    16    64
Direct
  0.4242860953780723  0.3758873805222561  0.1032512909023008
  0.6638998947604835  0.2508680461496007  0.1001320671409924
  0.6628413310858312  0.2505549921488742  0.5988483700954764
  0.6640427351255210  0.7497945176553472  0.0993739626053515
  0.6633711104413357  0.7507948114468609  0.5985437854422110
  0.1650237997699943  0.4940638246510299  0.1535879600677731
  0.1636280717433831  0.5023296614821794  0.6510496412652507
  0.1660892533345061  0.0018801342014314  0.1490244839628838
  0.1630425308603947  0.0005649799314695  0.6509934126866570
  0.3365214361312694  0.0015535819989415  0.4008829189380559
  0.3364831526436664  0.0011420278219680  0.9004277504594426
  0.3366967291490424  0.5003878282391515  0.4008780479580522
  0.3346666211379483  0.5011834674638662  0.9009865004281694
  0.8365912243612385  0.2480760526820678  0.3505434750949983
  0.8355120609788150  0.2490805348843125  0.8485015194547514
  0.8366481807264685  0.7493406762431704  0.3486993837268846
  0.8366465506885378  0.7491990365527010  0.8493389756525239
  0.3365126200346829  0.2494609998062156  0.3967844963152170
  0.3331368481350509  0.2493666530480720  0.9038690124612270
  0.3363404061457917  0.7491577311473102  0.4006541535544519
  0.3362256838104277  0.7490399585979791  0.9007620430515322
  0.8367705450627060  0.0009845695731862  0.3490316927153427
  0.8363784792837489  0.0007094139869376  0.8482019065846125
  0.8366956485767958  0.5005303480787916  0.3484329578331896
  0.8355927277695983  0.5017421598889349  0.8489035750544688
  0.6645079803201233  0.4986780680238265  0.0993745241888652
  0.6631639585039305  0.4995740221623184  0.5989220217224108
  0.6634767110739700  0.9947762118837469  0.0963154397055512
  0.6637207946333956  0.9985833912470354  0.5991575828744709
  0.1625537258640454  0.2513956939381802  0.6458102097106803
  0.1640083060317839  0.7504008984623943  0.1509388066084839
  0.1636253379138805  0.7520992559616506  0.6502559869959333
  0.9311306473575834  0.3701556309194005  0.1519663755815045
  0.9213459218356781  0.3762498971640398  0.6490719338326125
  0.9268838601789269  0.8744639509648060  0.1482303698334825
  0.9261052443708861  0.8755950769898794  0.6486213849873113
  0.4255115932247442  0.3748544756770277  0.6009739865099063
  0.4256887175861789  0.8744135581085475  0.1009435832028934
  0.4252513473859949  0.8752346198232224  0.6008723795853683
  0.0769735917057592  0.1298087810560845  0.3427760955814948
  0.0743515217305367  0.1269435313857183  0.8550694546737539
  0.0746475240674241  0.6245492311900298  0.3509164459445390
  0.0740767816152768  0.6260293721631972  0.8505309267829283
  0.5753149760239381  0.1246657911331142  0.3991258824654084
  0.5745626678585617  0.1243625863268273  0.8982986661694613
  0.5742124233526819  0.6247089870778127  0.3985294263977701
  0.5735885248313596  0.6246692008464496  0.8991660690222540
  0.9085904326586896  0.1227530640676713  0.0969086172720638
  0.9111272078951831  0.1248640522203317  0.5966846776212469
  0.9121087144930036  0.6239086517817595  0.0972635955748964
  0.9105362584142893  0.6263125309840845  0.5962873269835463
  0.4151534261601805  0.1244162618156899  0.1525921493102054
  0.4112708559167463  0.1252963998342798  0.6537158388735562
  0.4111465652830588  0.6249827356392977  0.1532817985131859
  0.4110650581899013  0.6251645458550088  0.6530953203358180
  0.0880252171715564  0.3750372234140820  0.4087026890517148
  0.0866329429504889  0.3773094937234155  0.9005846071530889
  0.0895131809578206  0.8756145525936679  0.4024082794655132
  0.0893350313454278  0.8753521071465937  0.9033373732802145
  0.5893813274263207  0.3750345249063510  0.3468645867976890
  0.5881005860472128  0.3752573420273365  0.8467802599715526
  0.5888315591568474  0.8745708491579179  0.3467704033315751
  0.5885471694114464  0.8742361549180480  0.8458198574384791
  0.8364018555018552  0.0190868284379314  0.1460575554868234
  0.8410226859653152  0.0211163283883178  0.6479605195398140
  0.8418102757725521  0.5205019190431269  0.1485825520515322
  0.8396244826496773  0.5234395030943795  0.6483353632215736
  0.3550371860010731  0.2297899278143626  0.0977086520135290
  0.3419138869724420  0.2291219098074054  0.6023841315094016
  0.3414632603592772  0.7287588659346836  0.1018332895192634
  0.3409645744655638  0.7288051096803607  0.6018225083735306
  0.1587285802847755  0.2687968929091107  0.3734388700556434
  0.1571009671570791  0.2734221832460995  0.8510418099047677
  0.1589192843969216  0.7712376723941410  0.3521227177826719
  0.1593858010879957  0.7719121658820894  0.8512733321608702
  0.6594718442287174  0.4785419380387872  0.3984503059258113
  0.6585384338201564  0.4785367432408722  0.8982111721927653
  0.6591412590139168  0.9779620127192615  0.3980178820099186
  0.6588647815740917  0.9778519919063655  0.8963804218232245
  0.1593111119757659  0.4767364799554786  0.3537819594324568
  0.1580407197552097  0.4800009731636746  0.8474811739920779
  0.1602470672758730  0.9785682242802058  0.3508306420751343
  0.1588992860904972  0.9792262788761292  0.8521556847801766
  0.6591170165761470  0.2712772879230448  0.3984044960221325
  0.6573980588508858  0.2713618013734995  0.8988318881082136
  0.6588074821479184  0.7708571631807241  0.3979696326531238
  0.6587559010153886  0.7708249761376078  0.8976945212385375
  0.8402340200567693  0.2266492795321814  0.1499998044839275
  0.8397223041471440  0.2282450121623115  0.6472824294304628
  0.8419220345575128  0.7278710063550015  0.1481073861726162
  0.8407031933355184  0.7302716947169904  0.6469194820859762
  0.3437134243785501  0.0219099163780750  0.1006820886586882
  0.3408782630609269  0.0218987984053984  0.6021735535941335
  0.3408637039619305  0.5216745622821590  0.1019390552189840
  0.3412136769962092  0.5216423584988920  0.6015119989511354
  0.5548923292588982  0.1211022435271090  0.1029979175730315
  0.5497137880453324  0.1245752786475054  0.6015972857805508
  0.5495903424813753  0.6246195540718474  0.1013153966178459
  0.5493679213196900  0.6251534997077720  0.6009633295707698
  0.0443455477621962  0.1173160417191267  0.1511211063971660
  0.0484922675934972  0.1258528372979224  0.6511475110561669
  0.0503166028262353  0.6240663081370197  0.1496488383309818
  0.0486732284422919  0.6270061665198473  0.6485697111493489
  0.4510456271353225  0.3751995439763218  0.3988523411599841
  0.4495077656401801  0.3758862771971670  0.8977262518592762
  0.4505167100119122  0.8749987102093899  0.3990200759252622
  0.4503903351027826  0.8746157864327763  0.8984285648152039
  0.9510086001841054  0.3736306144647715  0.3529083619367044
  0.9487258003331891  0.3756607153344818  0.8463263832238379
  0.9512469457546823  0.8755444084836095  0.3498947044847846
  0.9508546456232236  0.8750457479286908  0.8515980267767788
  0.5901758373530906  0.3751930878641772  0.1907023184686400
  0.5896932871995010  0.3750114996919129  0.6905144528640851
  0.5889642031651704  0.8737576183619068  0.1904993327983857
  0.5887071049050961  0.8741731858081147  0.6896401799766325
  0.0840565525340541  0.3817829454992308  0.0548347388640413
  0.0840483782245163  0.3813285757409477  0.5649528066861441
  0.0905576025461565  0.8748487611872375  0.0595255066839412
  0.0893969780928784  0.8761175801165370  0.5587631182830923
  0.4125806171977844  0.1244797530501530  0.3087141100706525
  0.4105853852243962  0.1252684233242855  0.8099494295729027
  0.4104763709756749  0.6249430110871323  0.3095868265757003
  0.4103870448038400  0.6249853894191583  0.8093675710455376
  0.9117930430313912  0.1244430438177818  0.4406373134685700
  0.9080993021367076  0.1250473556794707  0.9406202487610359
  0.9105841891290405  0.6251884174350448  0.4400023458656214
  0.9113777944519597  0.6245937017093454  0.9408686960851466
 
  0.00000000E+00  0.00000000E+00  0.00000000E+00
  0.00000000E+00  0.00000000E+00  0.00000000E+00
  0.00000000E+00  0.00000000E+00  0.00000000E+00
  0.00000000E+00  0.00000000E+00  0.00000000E+00
  0.00000000E+00  0.00000000E+00  0.00000000E+00
  0.00000000E+00  0.00000000E+00  0.00000000E+00
  0.00000000E+00  0.00000000E+00  0.00000000E+00
  0.00000000E+00  0.00000000E+00  0.00000000E+00
  0.00000000E+00  0.00000000E+00  0.00000000E+00
  0.00000000E+00  0.00000000E+00  0.00000000E+00
  0.00000000E+00  0.00000000E+00  0.00000000E+00
  0.00000000E+00  0.00000000E+00  0.00000000E+00
  0.00000000E+00  0.00000000E+00  0.00000000E+00
  0.00000000E+00  0.00000000E+00  0.00000000E+00
  0.00000000E+00  0.00000000E+00  0.00000000E+00
  0.00000000E+00  0.00000000E+00  0.00000000E+00
  0.00000000E+00  0.00000000E+00  0.00000000E+00
  0.00000000E+00  0.00000000E+00  0.00000000E+00
  0.00000000E+00  0.00000000E+00  0.00000000E+00
  0.00000000E+00  0.00000000E+00  0.00000000E+00
  0.00000000E+00  0.00000000E+00  0.00000000E+00
  0.00000000E+00  0.00000000E+00  0.00000000E+00
  0.00000000E+00  0.00000000E+00  0.00000000E+00
  0.00000000E+00  0.00000000E+00  0.00000000E+00
  0.00000000E+00  0.00000000E+00  0.00000000E+00
  0.00000000E+00  0.00000000E+00  0.00000000E+00
  0.00000000E+00  0.00000000E+00  0.00000000E+00
  0.00000000E+00  0.00000000E+00  0.00000000E+00
  0.00000000E+00  0.00000000E+00  0.00000000E+00
  0.00000000E+00  0.00000000E+00  0.00000000E+00
  0.00000000E+00  0.00000000E+00  0.00000000E+00
  0.00000000E+00  0.00000000E+00  0.00000000E+00
  0.00000000E+00  0.00000000E+00  0.00000000E+00
  0.00000000E+00  0.00000000E+00  0.00000000E+00
  0.00000000E+00  0.00000000E+00  0.00000000E+00
  0.00000000E+00  0.00000000E+00  0.00000000E+00
  0.00000000E+00  0.00000000E+00  0.00000000E+00
  0.00000000E+00  0.00000000E+00  0.00000000E+00
  0.00000000E+00  0.00000000E+00  0.00000000E+00
  0.00000000E+00  0.00000000E+00  0.00000000E+00
  0.00000000E+00  0.00000000E+00  0.00000000E+00
  0.00000000E+00  0.00000000E+00  0.00000000E+00
  0.00000000E+00  0.00000000E+00  0.00000000E+00
  0.00000000E+00  0.00000000E+00  0.00000000E+00
  0.00000000E+00  0.00000000E+00  0.00000000E+00
  0.00000000E+00  0.00000000E+00  0.00000000E+00
  0.00000000E+00  0.00000000E+00  0.00000000E+00
  0.00000000E+00  0.00000000E+00  0.00000000E+00
  0.00000000E+00  0.00000000E+00  0.00000000E+00
  0.00000000E+00  0.00000000E+00  0.00000000E+00
  0.00000000E+00  0.00000000E+00  0.00000000E+00
  0.00000000E+00  0.00000000E+00  0.00000000E+00
  0.00000000E+00  0.00000000E+00  0.00000000E+00
  0.00000000E+00  0.00000000E+00  0.00000000E+00
  0.00000000E+00  0.00000000E+00  0.00000000E+00
  0.00000000E+00  0.00000000E+00  0.00000000E+00
  0.00000000E+00  0.00000000E+00  0.00000000E+00
  0.00000000E+00  0.00000000E+00  0.00000000E+00
  0.00000000E+00  0.00000000E+00  0.00000000E+00
  0.00000000E+00  0.00000000E+00  0.00000000E+00
  0.00000000E+00  0.00000000E+00  0.00000000E+00
  0.00000000E+00  0.00000000E+00  0.00000000E+00
  0.00000000E+00  0.00000000E+00  0.00000000E+00
  0.00000000E+00  0.00000000E+00  0.00000000E+00
  0.00000000E+00  0.00000000E+00  0.00000000E+00
  0.00000000E+00  0.00000000E+00  0.00000000E+00
  0.00000000E+00  0.00000000E+00  0.00000000E+00
  0.00000000E+00  0.00000000E+00  0.00000000E+00
  0.00000000E+00  0.00000000E+00  0.00000000E+00
  0.00000000E+00  0.00000000E+00  0.00000000E+00
  0.00000000E+00  0.00000000E+00  0.00000000E+00
  0.00000000E+00  0.00000000E+00  0.00000000E+00
  0.00000000E+00  0.00000000E+00  0.00000000E+00
  0.00000000E+00  0.00000000E+00  0.00000000E+00
  0.00000000E+00  0.00000000E+00  0.00000000E+00
  0.00000000E+00  0.00000000E+00  0.00000000E+00
  0.00000000E+00  0.00000000E+00  0.00000000E+00
  0.00000000E+00  0.00000000E+00  0.00000000E+00
  0.00000000E+00  0.00000000E+00  0.00000000E+00
  0.00000000E+00  0.00000000E+00  0.00000000E+00
  0.00000000E+00  0.00000000E+00  0.00000000E+00
  0.00000000E+00  0.00000000E+00  0.00000000E+00
  0.00000000E+00  0.00000000E+00  0.00000000E+00
  0.00000000E+00  0.00000000E+00  0.00000000E+00
  0.00000000E+00  0.00000000E+00  0.00000000E+00
  0.00000000E+00  0.00000000E+00  0.00000000E+00
  0.00000000E+00  0.00000000E+00  0.00000000E+00
  0.00000000E+00  0.00000000E+00  0.00000000E+00
  0.00000000E+00  0.00000000E+00  0.00000000E+00
  0.00000000E+00  0.00000000E+00  0.00000000E+00
  0.00000000E+00  0.00000000E+00  0.00000000E+00
  0.00000000E+00  0.00000000E+00  0.00000000E+00
  0.00000000E+00  0.00000000E+00  0.00000000E+00
  0.00000000E+00  0.00000000E+00  0.00000000E+00
  0.00000000E+00  0.00000000E+00  0.00000000E+00
  0.00000000E+00  0.00000000E+00  0.00000000E+00
  0.00000000E+00  0.00000000E+00  0.00000000E+00
  0.00000000E+00  0.00000000E+00  0.00000000E+00
  0.00000000E+00  0.00000000E+00  0.00000000E+00
  0.00000000E+00  0.00000000E+00  0.00000000E+00
  0.00000000E+00  0.00000000E+00  0.00000000E+00
  0.00000000E+00  0.00000000E+00  0.00000000E+00
  0.00000000E+00  0.00000000E+00  0.00000000E+00
  0.00000000E+00  0.00000000E+00  0.00000000E+00
  0.00000000E+00  0.00000000E+00  0.00000000E+00
  0.00000000E+00  0.00000000E+00  0.00000000E+00
  0.00000000E+00  0.00000000E+00  0.00000000E+00
  0.00000000E+00  0.00000000E+00  0.00000000E+00
  0.00000000E+00  0.00000000E+00  0.00000000E+00
  0.00000000E+00  0.00000000E+00  0.00000000E+00
  0.00000000E+00  0.00000000E+00  0.00000000E+00
  0.00000000E+00  0.00000000E+00  0.00000000E+00
  0.00000000E+00  0.00000000E+00  0.00000000E+00
  0.00000000E+00  0.00000000E+00  0.00000000E+00
  0.00000000E+00  0.00000000E+00  0.00000000E+00
  0.00000000E+00  0.00000000E+00  0.00000000E+00
  0.00000000E+00  0.00000000E+00  0.00000000E+00
  0.00000000E+00  0.00000000E+00  0.00000000E+00
  0.00000000E+00  0.00000000E+00  0.00000000E+00
  0.00000000E+00  0.00000000E+00  0.00000000E+00
  0.00000000E+00  0.00000000E+00  0.00000000E+00
  0.00000000E+00  0.00000000E+00  0.00000000E+00
  0.00000000E+00  0.00000000E+00  0.00000000E+00
  0.00000000E+00  0.00000000E+00  0.00000000E+00
  0.00000000E+00  0.00000000E+00  0.00000000E+00
  0.00000000E+00  0.00000000E+00  0.00000000E+00
  0.00000000E+00  0.00000000E+00  0.00000000E+00
