Li47 P16 O64
1.0
10.597188 0.001419 0.003868
0.001655 12.289917 0.003579
0.003615 0.002857 9.991059
Li P O
47 16 64
direct
0.424286 0.375887 0.103251 Li
0.663900 0.250868 0.100132 Li
0.662841 0.250555 0.598848 Li
0.664043 0.749795 0.099374 Li
0.663371 0.750795 0.598544 Li
0.165024 0.494064 0.153588 Li
0.163628 0.502330 0.651050 Li
0.166089 0.001880 0.149024 Li
0.163043 0.000565 0.650993 Li
0.336521 0.001554 0.400883 Li
0.336483 0.001142 0.900428 Li
0.336697 0.500388 0.400878 Li
0.334667 0.501183 0.900987 Li
0.836591 0.248076 0.350543 Li
0.835512 0.249081 0.848502 Li
0.836648 0.749341 0.348699 Li
0.836647 0.749199 0.849339 Li
0.336513 0.249461 0.396784 Li
0.333137 0.249367 0.903869 Li
0.336340 0.749158 0.400654 Li
0.336226 0.749040 0.900762 Li
0.836771 0.000985 0.349032 Li
0.836378 0.000709 0.848202 Li
0.836696 0.500530 0.348433 Li
0.835593 0.501742 0.848904 Li
0.664508 0.498678 0.099375 Li
0.663164 0.499574 0.598922 Li
0.663477 0.994776 0.096315 Li
0.663721 0.998583 0.599158 Li
0.162554 0.251396 0.645810 Li
0.164008 0.750401 0.150939 Li
0.163625 0.752099 0.650256 Li
0.931131 0.370156 0.151966 Li
0.921346 0.376250 0.649072 Li
0.926884 0.874464 0.148230 Li
0.926105 0.875595 0.648621 Li
0.425512 0.374854 0.600974 Li
0.425689 0.874414 0.100944 Li
0.425251 0.875235 0.600872 Li
0.076974 0.129809 0.342776 Li
0.074352 0.126944 0.855069 Li
0.074648 0.624549 0.350916 Li
0.074077 0.626029 0.850531 Li
0.575315 0.124666 0.399126 Li
0.574563 0.124363 0.898299 Li
0.574212 0.624709 0.398529 Li
0.573589 0.624669 0.899166 Li
0.908590 0.122753 0.096909 P
0.911127 0.124864 0.596685 P
0.912109 0.623909 0.097264 P
0.910536 0.626313 0.596287 P
0.415153 0.124416 0.152592 P
0.411271 0.125296 0.653716 P
0.411147 0.624983 0.153282 P
0.411065 0.625165 0.653095 P
0.088025 0.375037 0.408703 P
0.086633 0.377309 0.900585 P
0.089513 0.875615 0.402408 P
0.089335 0.875352 0.903337 P
0.589381 0.375035 0.346865 P
0.588101 0.375257 0.846780 P
0.588832 0.874571 0.346770 P
0.588547 0.874236 0.845820 P
0.836402 0.019087 0.146058 O
0.841023 0.021116 0.647961 O
0.841810 0.520502 0.148583 O
0.839624 0.523440 0.648335 O
0.355037 0.229790 0.097709 O
0.341914 0.229122 0.602384 O
0.341463 0.728759 0.101833 O
0.340965 0.728805 0.601823 O
0.158729 0.268797 0.373439 O
0.157101 0.273422 0.851042 O
0.158919 0.771238 0.352123 O
0.159386 0.771912 0.851273 O
0.659472 0.478542 0.398450 O
0.658538 0.478537 0.898211 O
0.659141 0.977962 0.398018 O
0.658865 0.977852 0.896380 O
0.159311 0.476736 0.353782 O
0.158041 0.480001 0.847481 O
0.160247 0.978568 0.350831 O
0.158899 0.979226 0.852156 O
0.659117 0.271277 0.398404 O
0.657398 0.271362 0.898832 O
0.658807 0.770857 0.397970 O
0.658756 0.770825 0.897695 O
0.840234 0.226649 0.150000 O
0.839722 0.228245 0.647282 O
0.841922 0.727871 0.148107 O
0.840703 0.730272 0.646919 O
0.343713 0.021910 0.100682 O
0.340878 0.021899 0.602174 O
0.340864 0.521675 0.101939 O
0.341214 0.521642 0.601512 O
0.554892 0.121102 0.102998 O
0.549714 0.124575 0.601597 O
0.549590 0.624620 0.101315 O
0.549368 0.625153 0.600963 O
0.044346 0.117316 0.151121 O
0.048492 0.125853 0.651148 O
0.050317 0.624066 0.149649 O
0.048673 0.627006 0.648570 O
0.451046 0.375200 0.398852 O
0.449508 0.375886 0.897726 O
0.450517 0.874999 0.399020 O
0.450390 0.874616 0.898429 O
0.951009 0.373631 0.352908 O
0.948726 0.375661 0.846326 O
0.951247 0.875544 0.349895 O
0.950855 0.875046 0.851598 O
0.590176 0.375193 0.190702 O
0.589693 0.375011 0.690514 O
0.588964 0.873758 0.190499 O
0.588707 0.874173 0.689640 O
0.084057 0.381783 0.054835 O
0.084048 0.381329 0.564953 O
0.090558 0.874849 0.059526 O
0.089397 0.876118 0.558763 O
0.412581 0.124480 0.308714 O
0.410585 0.125268 0.809949 O
0.410476 0.624943 0.309587 O
0.410387 0.624985 0.809368 O
0.911793 0.124443 0.440637 O
0.908099 0.125047 0.940620 O
0.910584 0.625188 0.440002 O
0.911378 0.624594 0.940869 O
