Mg7 Sc16 Se32                           
   1.00000000000000     
    11.2079219999999999    0.0000010000000000    0.0000010000000000
     0.0000010000000000   11.2079210000000007    0.0000000000000000
     0.0000010000000000    0.0000000000000000   11.2079219999999999
   Mg   Sc   Se
     7    16    32
Direct
  0.5242228977291040  0.5242229147811406  0.5242232266889815
  0.6248856532526487  0.1277967608802922  0.1277972786885017
  0.1277966556334882  0.6248855735068529  0.1277974118375334
  0.1277970899495098  0.1277971748913053  0.6248860685611339
  0.3760797476860149  0.8733153846718029  0.8733152509570522
  0.8733154203144435  0.3760795982694007  0.8733155095640416
  0.8733154547261286  0.8733157131374806  0.3760802700424257
  0.9938032656674243  0.7501700348522792  0.7501708673840441
  0.7501697941080514  0.9938033005019475  0.7501708767782727
  0.7501699159778683  0.7501701717614816  0.9938032163013752
 -0.0000038023932334 -0.0000041699983960 -0.0000046240373593
  0.0067957818249204  0.2499403458989783  0.2499403722602808
  0.2499403970066913  0.0067956103023105  0.2499405340975431
  0.2499406711071941  0.2499403785825560  0.0067957391924885
  0.7482760861916795  0.5008450562842388  0.2533679493182330
  0.7482765811647573  0.2533687539889708  0.5008440191989100
  0.0089316467953053  0.5001566920123899  0.5001566813904852
  0.2533686720181106  0.5008449240809177  0.7482765226297740
  0.2533684569990763  0.7482761720451342  0.5008442720393519
  0.5008449736185346  0.7482759010310992  0.2533683019302032
  0.5001564874011379  0.0089319355089349  0.5001563675089689
  0.5008453338640165  0.2533688057581648  0.7482763024454056
  0.5001560808121646  0.5001562896784757  0.0089320605949579
  0.7571448321226728  0.9933862046275318  0.9933868470368854
  0.9933859713733286  0.7571445236048749  0.9933867263892354
  0.9933859015143609  0.9933860860300331  0.7571443199879593
  0.7563454017041998  0.7563454835632251  0.7563456522110693
  0.2426358236823965  0.0067600939117514  0.0067601811092330
  0.0067604067815332  0.2426354616899758  0.0067599795130196
  0.0067600615083297  0.0067598584572501  0.2426351211775872
  0.2438359528613027  0.2438357925428033  0.2438360223802898
  0.7592026256219682  0.4957091683488669  0.4957082266626064
  0.9928410418122217  0.2584826809371145  0.4931460896091089
  0.9928405633714302  0.4931461488954121  0.2584828130195097
  0.7614245500050355  0.2578210938631997  0.2578201754165458
  0.2536165901022089  0.5074570217607007  0.5074573256759102
  0.0096649168574149  0.7421725495938536  0.5069290858380654
  0.0096651191169365  0.5069284703099268  0.7421727222940836
  0.2392912181413883  0.7437712154324136  0.7437706326496207
  0.2584824241971487  0.9928407945510145  0.4931461890546085
  0.4957089498039939  0.7592027429308044  0.4957086196631301
  0.4931461864974269  0.9928405003077434  0.2584825584334588
  0.2578210640968536  0.7614243180666980  0.2578203815532270
  0.7421723143413356  0.0096650814799034  0.5069290359547423
  0.5074573097881041  0.2536166936055748  0.5074570296867413
  0.5069282934898597  0.0096652509116249  0.7421724354753469
  0.7437714929840964  0.2392912601828746  0.7437704052483608
  0.2584822869850034  0.4931462266865013  0.9928410336601631
  0.4931465039837576  0.2584824439860384  0.9928408612914971
  0.4957092218810200  0.4957092528761584  0.7592031687085061
  0.2578213043952826  0.2578209184007959  0.7614245442341053
  0.7421719817949527  0.5069285333136246  0.0096645731387913
  0.5069282799241573  0.7421722553668523  0.0096648011796658
  0.5074568297411930  0.5074567023826468  0.2536164954649943
  0.7437711488081749  0.7437712068798261  0.2392911517748305
 
             NaN             NaN             NaN
             NaN             NaN             NaN
             NaN             NaN             NaN
             NaN             NaN             NaN
             NaN             NaN             NaN
             NaN             NaN             NaN
             NaN             NaN             NaN
             NaN             NaN             NaN
             NaN             NaN             NaN
             NaN             NaN             NaN
             NaN             NaN             NaN
             NaN             NaN             NaN
             NaN             NaN             NaN
             NaN             NaN             NaN
             NaN             NaN             NaN
             NaN             NaN             NaN
             NaN             NaN             NaN
             NaN             NaN             NaN
             NaN             NaN             NaN
             NaN             NaN             NaN
             NaN             NaN             NaN
             NaN             NaN             NaN
             NaN             NaN             NaN
             NaN             NaN             NaN
             NaN             NaN             NaN
             NaN             NaN             NaN
             NaN             NaN             NaN
             NaN             NaN             NaN
             NaN             NaN             NaN
             NaN             NaN             NaN
             NaN             NaN             NaN
             NaN             NaN             NaN
             NaN             NaN             NaN
             NaN             NaN             NaN
             NaN             NaN             NaN
             NaN             NaN             NaN
             NaN             NaN             NaN
             NaN             NaN             NaN
             NaN             NaN             NaN
             NaN             NaN             NaN
             NaN             NaN             NaN
             NaN             NaN             NaN
             NaN             NaN             NaN
             NaN             NaN             NaN
             NaN             NaN             NaN
             NaN             NaN             NaN
             NaN             NaN             NaN
             NaN             NaN             NaN
             NaN             NaN             NaN
             NaN             NaN             NaN
             NaN             NaN             NaN
             NaN             NaN             NaN
             NaN             NaN             NaN
             NaN             NaN             NaN
             NaN             NaN             NaN
