Na47 P16 S64                            
   1.00000000000000     
    13.7392149999999997   -0.0021580000000000    0.0000160000000000
    -0.0022010000000000   13.7429159999999992   -0.0007130000000000
    -0.0001380000000000   -0.0003540000000000   14.2068180000000002
   Na   P    S 
    47    16    64
Direct
  0.5460095449409224  0.7467460984250920  0.7245379886364987
  0.9997409626452693  0.2508244410007023  0.2047530048801107
  0.9990195072767136  0.2505200985540768  0.7043803152526138
  0.9988526808578797  0.7507280614075000  0.2095436062153055
  0.9763269848325464  0.7534879279829028  0.7164908633688896
  0.5002431591821477  0.2492064931518883  0.2051056908034070
  0.5009971575998335  0.2496434396365004  0.7047032608091683
  0.5010010282606814  0.7492484154212562  0.2094260503130698
  0.2490815348585045  0.9995895288848828  0.2946864541244736
  0.2491648377445657  0.9986830536458271  0.7946462190721562
  0.2510215938508438  0.5004355056230025  0.2955856720891461
  0.2505423426066855  0.5015071487712959  0.7953875511480817
  0.7490416180397119  0.9988179142973905  0.2914615322498548
  0.7467052448458276  0.9760312844495829  0.7843276992766448
  0.7507447116520680  0.5011300044498697  0.2904874122548478
  0.7546460314297931  0.5238959617926326  0.7834734524931619
  0.2525686715994624  0.9996038714485636  0.0444943907639583
  0.2446957965028247  0.9979825155238444  0.5456453776094889
  0.2472637587311723  0.5000753650729663  0.0456408975699958
  0.2553438169537756  0.5030391107231011  0.5470330397254841
  0.7528163564713566  0.9998611385781828  0.0394642947811334
  0.7449885227930153  0.9993407198659909  0.5396252397444243
  0.7469110852554195  0.5004988743308090  0.0382070435736992
  0.7562174068570755  0.4997426661945994  0.5385195634941553
  0.5002127492962813  0.2524484969092669  0.4550265496242289
  0.5020304399030024  0.2456554486490106  0.9536166157625772
  0.5001579167838202  0.7526701139791072  0.4637642737034895
  0.5000329880837526  0.7448695362369691  0.9611020912867048
  0.9997986968447776  0.2476196633017977  0.4545682767789216
  0.9978713320437151  0.2544047569447798  0.9533082719444650
  0.9999811273941930  0.7472500946308571  0.4618070695872234
  0.9995226307474923  0.7548903796342330  0.9606655958249064
  0.9938543902176207  0.9954819638909811  0.5019515799663594
  0.0047647695639341  0.0097099771032418  0.0010660909984992
  0.0102398721296382  0.4948965631206477  0.4989112028281397
  0.9953004748714278  0.5044977257060310  0.9979708511900540
  0.4898857235675322  0.0046240551639514  0.4985653767248550
  0.5054930862054547  0.9949322725147951  0.9981815950197159
  0.5056053395040578  0.5051774380587162  0.5020562233907953
  0.4937284189755573  0.4906112934971887  0.0019423374208500
  0.2498179708348545  0.2503145690628159  0.2500169038211695
  0.2496614548070610  0.2504885312893563  0.7500204877412102
  0.2502540977706857  0.7497106245615086  0.2508727028282465
  0.2594301945831958  0.7494365357847741  0.7487065642120498
  0.7502214028727181  0.2496841070365932  0.2491504865609073
  0.7502934795379801  0.2494819098124097  0.7508077563868696
  0.7496130342330787  0.7502672230103542  0.2497463796946775
  0.4997057660015187  0.4991780990164614  0.2500419941425562
  0.5007854340378444  0.4973244489233721  0.7531420194825458
  0.4991989554004235  0.0003471230191607  0.2500619980500360
  0.4973284848924564  0.0002911313659624  0.7471052239117029
  0.0009523562383507  0.4995945390466616  0.2500761839787344
  0.0028716335475565  0.4998350783304701  0.7472891954061183
  0.0001520349183366  0.0009479388959903  0.2498385276154309
  0.9995549584100942  0.0031243059504575  0.7527055261950508
  0.2499749813842840  0.2501094106945629  0.9999996207341653
  0.2498698258161411  0.2503296239190576  0.4999670778791057
  0.2502126952016255  0.7494605467194901  0.0011085600822227
  0.2499448096329715  0.7506083948695945  0.5001705506549925
  0.7499299465150671  0.2498046530767084  0.9995615149249701
  0.7499789893265216  0.2498042346065716  0.4988941919333740
  0.7496774088627092  0.7499519130009205  0.0025725104634517
  0.7507690061751049  0.7496514007410653  0.4963092357652314
  0.1537115332501315  0.1744284255794781  0.0822757159386214
  0.1533112391898470  0.1748580556388362  0.5816632014859806
  0.1528787192043026  0.6754659746081941  0.0835611447462341
  0.1546644359128848  0.6752491455011835  0.5830419578242356
  0.6545041845680188  0.1733617865893962  0.0826050380621268
  0.6530245388710156  0.1755495043257156  0.5809413271089525
  0.6543282739501706  0.6735438658066002  0.0856969323590704
  0.6552802242822082  0.6699700170471630  0.5748850972471331
  0.3464957427003696  0.3254752422755018  0.0823352112526123
  0.3466052117187743  0.3255958863577462  0.5819176256322720
  0.3471221321305862  0.8245124984887937  0.0832387030704922
  0.3460360678284999  0.8263390473933327  0.5814630650471244
  0.8453352587482570  0.3266677753851752  0.0824127781717081
  0.8471139641670717  0.3243362813358246  0.5808695271465965
  0.8449509978972003  0.8268125407980733  0.0857790336108479
  0.8460732800139539  0.8279686741882273  0.5763383754401588
  0.1744929395737742  0.3468101870401554  0.4178224605546959
  0.1746472977219966  0.3468934798406238  0.9184481197013241
  0.1727642202315778  0.8451124885658672  0.4169223415516541
  0.1760019030485864  0.8456072899324099  0.9180624132310768
  0.6756772645914140  0.3467559898239756  0.4163279776007087
  0.6748338155384559  0.3455855257373628  0.9174190149913670
  0.6733092989571929  0.8449892166426096  0.4139763810483359
  0.6710353230561594  0.8458128878942190  0.9230113383551384
  0.3253687005013148  0.1539830799978503  0.4176108255052497
  0.3252295857490211  0.1536692697178808  0.9179330524699836
  0.3266788846311499  0.6549156075625433  0.4174903100145073
  0.3251365611313375  0.6519305945973741  0.9199613327827763
  0.8246188292373660  0.1525021190624400  0.4168060773007838
  0.8253252217792877  0.1535527494832820  0.9177952925540538
  0.8277072226948405  0.6550668638729462  0.4126749423901188
  0.8282901143801382  0.6545706004245346  0.9231516911846569
  0.0971906884861369  0.4241615534124392  0.1676443497323703
  0.1026926108574102  0.4220907233894309  0.6705901606125053
  0.0964954960585445  0.9253176564870955  0.1675620752661615
  0.0924776535767222  0.9230528470058914  0.6708365739213065
  0.5953553991060190  0.4235718070398562  0.1671764892390968
  0.5979179677811501  0.4252380674526677  0.6690705954746718
  0.5951130665674711  0.9249704274415791  0.1680129587576573
  0.5890937775989613  0.9283824786911055  0.6580116973217045
  0.4030706476341877  0.0756295319923126  0.1673494015399584
  0.3974599950671873  0.0780465861762920  0.6704661687916982
  0.4028218072528631  0.5746998779757675  0.1682139394353896
  0.4098074668250646  0.5805831729933502  0.6724490652222883
  0.9042350667490524  0.0766396430938272  0.1673929281749409
  0.9014210510171949  0.0751567437793597  0.6695392350810039
  0.9052632641483314  0.5748898914785485  0.1676223194516311
  0.9116816089130921  0.5728035154427218  0.6586760427341787
  0.0756853019890116  0.0970391917597127  0.3323633241660886
  0.0777667736865766  0.1025519134278454  0.8293944637980815
  0.0765916033512539  0.5954215613798297  0.3326851103509441
  0.0745283565275443  0.5974552161407516  0.8311625022638509
  0.5746299904955521  0.0969342262939961  0.3321636622755619
  0.5774228053530237  0.0935257463184982  0.8285980317124810
  0.5750489691190950  0.5949693144656791  0.3321092559669623
  0.5748563465423899  0.5857706676986822  0.8439824499705040
  0.4244136775789542  0.4028815570335595  0.3326219306914453
  0.4215451313247200  0.3978121030655544  0.8289138991414902
  0.4234955499237074  0.9044565305955530  0.3326608214050282
  0.4259642767502640  0.9019590673427729  0.8304441800298932
  0.9252001457917487  0.4030891760033484  0.3320586617054815
  0.9222962941627202  0.4063105583026356  0.8282817455255866
  0.9248563324403776  0.9050940229505002  0.3320780305503277
  0.9271093217194704  0.9114722204411123  0.8413170738843405
 
             NaN             NaN             NaN
             NaN             NaN             NaN
             NaN             NaN             NaN
             NaN             NaN             NaN
             NaN             NaN             NaN
             NaN             NaN             NaN
             NaN             NaN             NaN
             NaN             NaN             NaN
             NaN             NaN             NaN
             NaN             NaN             NaN
             NaN             NaN             NaN
             NaN             NaN             NaN
             NaN             NaN             NaN
             NaN             NaN             NaN
             NaN             NaN             NaN
             NaN             NaN             NaN
             NaN             NaN             NaN
             NaN             NaN             NaN
             NaN             NaN             NaN
             NaN             NaN             NaN
             NaN             NaN             NaN
             NaN             NaN             NaN
             NaN             NaN             NaN
             NaN             NaN             NaN
             NaN             NaN             NaN
             NaN             NaN             NaN
             NaN             NaN             NaN
             NaN             NaN             NaN
             NaN             NaN             NaN
             NaN             NaN             NaN
             NaN             NaN             NaN
             NaN             NaN             NaN
             NaN             NaN             NaN
             NaN             NaN             NaN
             NaN             NaN             NaN
             NaN             NaN             NaN
             NaN             NaN             NaN
             NaN             NaN             NaN
             NaN             NaN             NaN
             NaN             NaN             NaN
             NaN             NaN             NaN
             NaN             NaN             NaN
             NaN             NaN             NaN
             NaN             NaN             NaN
             NaN             NaN             NaN
             NaN             NaN             NaN
             NaN             NaN             NaN
             NaN             NaN             NaN
             NaN             NaN             NaN
             NaN             NaN             NaN
             NaN             NaN             NaN
             NaN             NaN             NaN
             NaN             NaN             NaN
             NaN             NaN             NaN
             NaN             NaN             NaN
             NaN             NaN             NaN
             NaN             NaN             NaN
             NaN             NaN             NaN
             NaN             NaN             NaN
             NaN             NaN             NaN
             NaN             NaN             NaN
             NaN             NaN             NaN
             NaN             NaN             NaN
             NaN             NaN             NaN
             NaN             NaN             NaN
             NaN             NaN             NaN
             NaN             NaN             NaN
             NaN             NaN             NaN
             NaN             NaN             NaN
             NaN             NaN             NaN
             NaN             NaN             NaN
             NaN             NaN             NaN
             NaN             NaN             NaN
             NaN             NaN             NaN
             NaN             NaN             NaN
             NaN             NaN             NaN
             NaN             NaN             NaN
             NaN             NaN             NaN
             NaN             NaN             NaN
             NaN             NaN             NaN
             NaN             NaN             NaN
             NaN             NaN             NaN
             NaN             NaN             NaN
             NaN             NaN             NaN
             NaN             NaN             NaN
             NaN             NaN             NaN
             NaN             NaN             NaN
             NaN             NaN             NaN
             NaN             NaN             NaN
             NaN             NaN             NaN
             NaN             NaN             NaN
             NaN             NaN             NaN
             NaN             NaN             NaN
             NaN             NaN             NaN
             NaN             NaN             NaN
             NaN             NaN             NaN
             NaN             NaN             NaN
             NaN             NaN             NaN
             NaN             NaN             NaN
             NaN             NaN             NaN
             NaN             NaN             NaN
             NaN             NaN             NaN
             NaN             NaN             NaN
             NaN             NaN             NaN
             NaN             NaN             NaN
             NaN             NaN             NaN
             NaN             NaN             NaN
             NaN             NaN             NaN
             NaN             NaN             NaN
             NaN             NaN             NaN
             NaN             NaN             NaN
             NaN             NaN             NaN
             NaN             NaN             NaN
             NaN             NaN             NaN
             NaN             NaN             NaN
             NaN             NaN             NaN
             NaN             NaN             NaN
             NaN             NaN             NaN
             NaN             NaN             NaN
             NaN             NaN             NaN
             NaN             NaN             NaN
             NaN             NaN             NaN
             NaN             NaN             NaN
             NaN             NaN             NaN
             NaN             NaN             NaN
             NaN             NaN             NaN
             NaN             NaN             NaN
