Li15 Fe16 P16 O64
1.0
10.426514 0.000354 0.005588
0.000418 12.142322 -0.000297
0.003519 -0.000274 9.521448
Li Fe P O
15 16 16 64
direct
0.499277 0.403529 0.745948 Li
0.496928 0.497170 0.244937 Li
0.497729 0.004197 0.248754 Li
0.496401 0.009141 0.758360 Li
0.999865 0.251762 0.502820 Li
0.000802 0.251467 0.001558 Li
0.006280 0.744868 0.496579 Li
0.000960 0.747144 0.995517 Li
0.497572 0.252607 0.245758 Li
0.497239 0.746109 0.248026 Li
0.496909 0.744107 0.756721 Li
0.001130 0.003207 0.995231 Li
0.006348 0.005201 0.496467 Li
0.000627 0.498399 0.001699 Li
0.999853 0.497921 0.502977 Li
0.779495 0.127265 0.262834 Fe
0.779798 0.126562 0.763683 Fe
0.779453 0.622460 0.262826 Fe
0.780641 0.623710 0.764053 Fe
0.284284 0.126612 0.488610 Fe
0.282355 0.127179 0.985699 Fe
0.283799 0.623554 0.488000 Fe
0.282019 0.623287 0.985845 Fe
0.219426 0.375135 0.236302 Fe
0.222825 0.374696 0.738724 Fe
0.220574 0.875081 0.236579 Fe
0.219374 0.874993 0.736059 Fe
0.716749 0.374753 0.010667 Fe
0.717519 0.374317 0.516036 Fe
0.715269 0.875148 0.015978 Fe
0.719694 0.875157 0.507753 Fe
0.595579 0.123463 0.041903 P
0.595327 0.121577 0.538936 P
0.595425 0.626072 0.041680 P
0.595373 0.628234 0.539398 P
0.093902 0.123641 0.208890 P
0.093924 0.124098 0.707824 P
0.093673 0.626444 0.208665 P
0.094012 0.625774 0.707745 P
0.405496 0.375831 0.458075 P
0.405976 0.375100 0.959018 P
0.408387 0.874794 0.459945 P
0.404966 0.875006 0.958673 P
0.906841 0.375004 0.292025 P
0.907291 0.375049 0.792980 P
0.904723 0.874806 0.293318 P
0.899194 0.875016 0.791762 P
0.596639 0.122477 0.377289 O
0.601315 0.117849 0.881838 O
0.596692 0.627351 0.377995 O
0.600424 0.630516 0.881192 O
0.097006 0.122464 0.370496 O
0.095913 0.122928 0.869300 O
0.096847 0.627450 0.370254 O
0.095934 0.627133 0.869190 O
0.402919 0.375233 0.121957 O
0.398709 0.377528 0.617395 O
0.403000 0.874854 0.120360 O
0.403372 0.874450 0.620304 O
0.904850 0.375181 0.130644 O
0.903668 0.374991 0.631252 O
0.901462 0.874810 0.133155 O
0.887336 0.874796 0.629187 O
0.955595 0.122213 0.147620 O
0.956087 0.122476 0.645465 O
0.955321 0.627747 0.147535 O
0.956114 0.627561 0.645418 O
0.457111 0.124319 0.103043 O
0.459133 0.119221 0.601201 O
0.457064 0.625591 0.103000 O
0.459154 0.629678 0.602618 O
0.044274 0.375219 0.355518 O
0.044966 0.375131 0.854933 O
0.041520 0.874778 0.356490 O
0.039370 0.874830 0.845134 O
0.544431 0.375223 0.397797 O
0.543693 0.376151 0.901409 O
0.550362 0.874819 0.401539 O
0.542733 0.874794 0.897107 O
0.665233 0.022508 0.114210 O
0.666031 0.015151 0.601456 O
0.665852 0.523938 0.107384 O
0.672625 0.530266 0.604344 O
0.162807 0.226113 0.142922 O
0.163831 0.226116 0.641604 O
0.164914 0.727881 0.141508 O
0.165682 0.727113 0.639753 O
0.335607 0.273697 0.390016 O
0.330167 0.274929 0.896372 O
0.340780 0.773221 0.389841 O
0.333659 0.773473 0.892032 O
0.835570 0.476546 0.358807 O
0.836496 0.476839 0.859395 O
0.829532 0.974085 0.363681 O
0.831999 0.977165 0.860081 O
0.336150 0.477618 0.387958 O
0.332063 0.476339 0.894895 O
0.340426 0.976253 0.390121 O
0.333865 0.976677 0.892181 O
0.836170 0.273098 0.358376 O
0.836497 0.273417 0.859582 O
0.829343 0.775575 0.363582 O
0.831697 0.772978 0.860171 O
0.665821 0.225856 0.107212 O
0.674365 0.218698 0.602604 O
0.665293 0.727173 0.112986 O
0.666010 0.734374 0.601967 O
0.165326 0.022351 0.141583 O
0.165468 0.022639 0.639962 O
0.162766 0.524152 0.142365 O
0.163655 0.523603 0.641575 O
