Li46 P16 O64                            
   1.00000000000000     
    10.5830629999999992    0.0000080000000000   -0.0072820000000000
     0.0000060000000000   12.3425860000000007   -0.0037820000000000
    -0.0068620000000000   -0.0030700000000000    9.9864560000000004
   Li   P    O 
    46    16    64
Direct
  0.2473413370881287  0.3279563365781964  0.1626940775429704
  0.6661807668102323  0.2475002893558106  0.6048495673146040
  0.6596399863024630  0.7466660699324414  0.0983714193666981
  0.6638537052282639  0.7507168865622793  0.5998513701367262
  0.1567676990362939  0.5121551906310701  0.1479149313261100
  0.1649469085338089  0.5007718028602679  0.6512330199685311
  0.1657674272384807  0.9943811454239282  0.1529375211132502
  0.1639510423531005  0.9994426124717319  0.6518081827425298
  0.3369173688323921  0.9994047390273894  0.4014832529990879
  0.3374645998698629  0.9991515842419019  0.9007761712916804
  0.3371031298584790  0.5023702539654684  0.4019256352396150
  0.3390325523722818  0.4968859359382979  0.9076531246595344
  0.8378431652619711  0.2495408654147323  0.3475698537064944
  0.8370508985355202  0.2498384160868008  0.8548523205436600
  0.8356066740426029  0.7486154396796413  0.3493165505732017
  0.8358342243108686  0.7490286380463024  0.8487351316292262
  0.3396728729087115  0.2448092336827175  0.4072534909803717
  0.3401645260354428  0.2485698619734726  0.9004511805437712
  0.3371527659412580  0.7485053788719427  0.4005966033695403
  0.3360896656578244  0.7474907321435841  0.9017185497556305
  0.8385694273183191  0.0018282605075370  0.3510375297754150
  0.8364464911192141  0.0012258893751986  0.8464873166212629
  0.8362796408337864  0.4999776218706810  0.3460006591515062
  0.8365801004447202  0.4998300588938323  0.8522047312639682
  0.6581603536165718  0.4885437125169480  0.0932231706645719
  0.6673282625220343  0.5027826469094377  0.5974415446655342
  0.6662162100308271  0.9952547527465887  0.0984342189594934
  0.6645832512185520  0.9985459038854029  0.5983930310466579
  0.1646184159563938  0.2517791626264963  0.6527128978236940
  0.1634523712273911  0.7518573482532601  0.1517847776125210
  0.1642534838311958  0.7517818952994905  0.6508974894789554
  0.9338828572815727  0.3734658630410242  0.1449618216737378
  0.9278677047717561  0.3754554650986912  0.6522068866409494
  0.9238377399545903  0.8731852365235541  0.1491050147477373
  0.9256843563882343  0.8752918577682938  0.6483750720869174
  0.4217067783055731  0.3755813701280224  0.6098231212596074
  0.4272971477369450  0.8708085594981355  0.1013815967733812
  0.4261442871394647  0.8742598250848880  0.6013063903571112
  0.0805376875967639  0.1309598113228325  0.3417852868446258
  0.0778193231083860  0.1270452449561814  0.8562031413573770
  0.0732399189647755  0.6271047374606233  0.3536138538124250
  0.0741793002626751  0.6251790694265162  0.8500137086805136
  0.5762224024872870  0.1236427906065668  0.3938108850885984
  0.5777517418738058  0.1276305009328007  0.9071644966177490
  0.5744266515742996  0.6250609099638782  0.3989944962987679
  0.5734776461097185  0.6218125835642987  0.8982977618444654
  0.9135399046651782  0.1216949516209151  0.0966568703827545
  0.9147521503902422  0.1259982317180564  0.5963198185457843
  0.9073878016557659  0.6258797479614046  0.0967982413336337
  0.9119332708189081  0.6251911320027247  0.5968802838566365
  0.4114550617412022  0.1185501732143890  0.1526211437143084
  0.4128683190365226  0.1228714208328058  0.6539098209906647
  0.4083947977285605  0.6228394596365390  0.1530955633755280
  0.4113046603546268  0.6251680244834888  0.6538740357379199
  0.0918371365951710  0.3772080450955991  0.4025343421019978
  0.0931100938741258  0.3770993685773426  0.9046514088516283
  0.0891270085838919  0.8752754200472815  0.4039072131980492
  0.0883302037551808  0.8747730048711766  0.9032325123969642
  0.5887844169585513  0.3748627199211801  0.3508216774258358
  0.5882055987364043  0.3735931254708733  0.8351664487543821
  0.5896307310827440  0.8736331070477102  0.3469616114708198
  0.5892845064555441  0.8733193695262883  0.8465397477931405
  0.8389985717244482  0.0214508079314050  0.1491927739886323
  0.8427904438940736  0.0228891643367452  0.6457874953064578
  0.8399974082122588  0.5209390626219945  0.1462312915483005
  0.8438732732348221  0.5219312631312745  0.6506602230333191
  0.3453221124518963  0.2185937862321312  0.0920881143657649
  0.3424502800441868  0.2267088711707157  0.6038607045819890
  0.3417256437620493  0.7291129310629573  0.1038595945951315
  0.3416341697448156  0.7287589960554105  0.6027947625207697
  0.1675146256410657  0.2772463694009308  0.3502147860308680
  0.1610320065220919  0.2737319745485719  0.8513650126046587
  0.1593389627156686  0.7718511791362801  0.3532447095803649
  0.1584015694729110  0.7714552384509222  0.8521820452428183
  0.6588993829623321  0.4779299684862253  0.4021734176908798
  0.6571594849490485  0.4742334141192506  0.8946626247684761
  0.6600471733996770  0.9770946474510158  0.3972769821407949
  0.6606717411282983  0.9755623200539888  0.8983742620515514
  0.1594511011179302  0.4814953735286723  0.3502831381839521
  0.1597478922945764  0.4802015118479916  0.8480482539180282
  0.1595598653260220  0.9780706258636448  0.3526917610711247
  0.1591817104814816  0.9778297183600464  0.8531067507270760
  0.6590650120138278  0.2713034861644354  0.4002877028503975
  0.6562992886446591  0.2673763372896866  0.8753006714381137
  0.6591478786647400  0.7706553751125302  0.3997400081521684
  0.6578055027342196  0.7689984701406386  0.8969357916534364
  0.8583501023566217  0.2286481570299215  0.1529176122673278
  0.8449547907279057  0.2293103461650564  0.6480386104671300
  0.8355177872267162  0.7281730820161899  0.1478209280917734
  0.8416032912312905  0.7284255412278012  0.6477857732280096
  0.3402997576885475  0.0145043545166904  0.1046242727024412
  0.3418598988325077  0.0203841450681597  0.6015301100913925
  0.3314859788127248  0.5240820346744471  0.1032199067795941
  0.3415059685642708  0.5225696343705601  0.6002367530072873
  0.5481690219198945  0.1123453190780972  0.1000601830738604
  0.5503383073871752  0.1237143529365554  0.5986518936976745
  0.5462253613724792  0.6199259523911882  0.0984945724111350
  0.5499995702645156  0.6257413877544696  0.6022297756405532
  0.0513464246559008  0.1141686251737083  0.1473754191614274
  0.0523507545650322  0.1253181118311322  0.6509421176359406
  0.0450049935048649  0.6298292752168017  0.1516443560481747
  0.0511379050664712  0.6265597512435681  0.6467957717112995
  0.4497836434825392  0.3739967896788934  0.4015514619742183
  0.4465682346554978  0.3728811804031976  0.8724325192773896
  0.4510910447115868  0.8743010298154862  0.3989324752558155
  0.4507637973384706  0.8736335390989537  0.8986313286492076
  0.9534789181530777  0.3747373493458658  0.3501021648517745
  0.9521213361802816  0.3753244559190825  0.8588128750918899
  0.9506626667863523  0.8746390842767335  0.3508699513415180
  0.9500131262674033  0.8751661263778397  0.8501511795656559
  0.5882136827586250  0.3729672068794719  0.1958973607085043
  0.5944679170968826  0.3792583814474035  0.6784832207143229
  0.5902668758640012  0.8719502215065458  0.1907189273253308
  0.5899353901948267  0.8745460391193681  0.6901229264752319
  0.1007425082545568  0.3812819217071590  0.0606512594390142
  0.0914053844689115  0.3766772996734376  0.5588720171216406
  0.0874985000859462  0.8738973782975664  0.0596300603944946
  0.0890950738869972  0.8755272849726849  0.5601960494968585
  0.4095431987608340  0.1233827240082677  0.3087092788950193
  0.4135136473227747  0.1216668103022022  0.8096593293835038
  0.4116583687680572  0.6241539226509524  0.3098347787920153
  0.4099320677954225  0.6238655600566352  0.8099926436325273
  0.9157062601697684  0.1266855289559373  0.4399192955428253
  0.9098792436752386  0.1231553592646275  0.9407772252297512
  0.9090491366606638  0.6239428878467120  0.4404605424738033
  0.9097394989145897  0.6259459445034352  0.9404530272477740
 
             NaN             NaN             NaN
             NaN             NaN             NaN
             NaN             NaN             NaN
             NaN             NaN             NaN
             NaN             NaN             NaN
             NaN             NaN             NaN
             NaN             NaN             NaN
             NaN             NaN             NaN
             NaN             NaN             NaN
             NaN             NaN             NaN
             NaN             NaN             NaN
             NaN             NaN             NaN
             NaN             NaN             NaN
             NaN             NaN             NaN
             NaN             NaN             NaN
             NaN             NaN             NaN
             NaN             NaN             NaN
             NaN             NaN             NaN
             NaN             NaN             NaN
             NaN             NaN             NaN
             NaN             NaN             NaN
             NaN             NaN             NaN
             NaN             NaN             NaN
             NaN             NaN             NaN
             NaN             NaN             NaN
             NaN             NaN             NaN
             NaN             NaN             NaN
             NaN             NaN             NaN
             NaN             NaN             NaN
             NaN             NaN             NaN
             NaN             NaN             NaN
             NaN             NaN             NaN
             NaN             NaN             NaN
             NaN             NaN             NaN
             NaN             NaN             NaN
             NaN             NaN             NaN
             NaN             NaN             NaN
             NaN             NaN             NaN
             NaN             NaN             NaN
             NaN             NaN             NaN
             NaN             NaN             NaN
             NaN             NaN             NaN
             NaN             NaN             NaN
             NaN             NaN             NaN
             NaN             NaN             NaN
             NaN             NaN             NaN
             NaN             NaN             NaN
             NaN             NaN             NaN
             NaN             NaN             NaN
             NaN             NaN             NaN
             NaN             NaN             NaN
             NaN             NaN             NaN
             NaN             NaN             NaN
             NaN             NaN             NaN
             NaN             NaN             NaN
             NaN             NaN             NaN
             NaN             NaN             NaN
             NaN             NaN             NaN
             NaN             NaN             NaN
             NaN             NaN             NaN
             NaN             NaN             NaN
             NaN             NaN             NaN
             NaN             NaN             NaN
             NaN             NaN             NaN
             NaN             NaN             NaN
             NaN             NaN             NaN
             NaN             NaN             NaN
             NaN             NaN             NaN
             NaN             NaN             NaN
             NaN             NaN             NaN
             NaN             NaN             NaN
             NaN             NaN             NaN
             NaN             NaN             NaN
             NaN             NaN             NaN
             NaN             NaN             NaN
             NaN             NaN             NaN
             NaN             NaN             NaN
             NaN             NaN             NaN
             NaN             NaN             NaN
             NaN             NaN             NaN
             NaN             NaN             NaN
             NaN             NaN             NaN
             NaN             NaN             NaN
             NaN             NaN             NaN
             NaN             NaN             NaN
             NaN             NaN             NaN
             NaN             NaN             NaN
             NaN             NaN             NaN
             NaN             NaN             NaN
             NaN             NaN             NaN
             NaN             NaN             NaN
             NaN             NaN             NaN
             NaN             NaN             NaN
             NaN             NaN             NaN
             NaN             NaN             NaN
             NaN             NaN             NaN
             NaN             NaN             NaN
             NaN             NaN             NaN
             NaN             NaN             NaN
             NaN             NaN             NaN
             NaN             NaN             NaN
             NaN             NaN             NaN
             NaN             NaN             NaN
             NaN             NaN             NaN
             NaN             NaN             NaN
             NaN             NaN             NaN
             NaN             NaN             NaN
             NaN             NaN             NaN
             NaN             NaN             NaN
             NaN             NaN             NaN
             NaN             NaN             NaN
             NaN             NaN             NaN
             NaN             NaN             NaN
             NaN             NaN             NaN
             NaN             NaN             NaN
             NaN             NaN             NaN
             NaN             NaN             NaN
             NaN             NaN             NaN
             NaN             NaN             NaN
             NaN             NaN             NaN
             NaN             NaN             NaN
             NaN             NaN             NaN
             NaN             NaN             NaN
             NaN             NaN             NaN
             NaN             NaN             NaN
             NaN             NaN             NaN
