Mg7 Mn16 O32                            
   1.00000000000000     
     8.1738090000000003    0.0000110000000000   -0.0001610000000000
     0.0000190000000000    9.3577689999999993   -0.0000320000000000
    -0.0001500000000000   -0.0000730000000000    8.1740159999999999
   Mg   Mn   O 
     7    16    32
Direct
  0.5886365460258418  0.6564435169785544  0.1613555538091677
  0.3759751267786091  0.3762612148117379  0.8788235776351093
  0.8712214979911977  0.3762628798788368  0.3739659864710535
  0.8754018414536402  0.8758550192555592  0.8745687607908094
  0.6215597485036569  0.1238460449155272  0.6205652724487392
  0.1281877083942701  0.6241438293036673  0.6218044103401408
  0.1294324184082546  0.1238011137826253  0.1284325589530446
  0.9967835535791442  0.2518993851653271  0.7531967242691349
  0.0048819589628519  0.7509320868413406  0.2513438161488975
  0.4996498086707704  0.2463665647672390  0.2503880572989503
  0.4986203847835279  0.7509291165588740  0.7451376076765570
  0.2509858968001549  0.0042339117789181  0.7474949842927656
  0.2447625166143584  0.4981631616432626  0.2486720684285461
  0.7493355235293254  0.0011959929830077  0.2489530169805472
  0.7488779583536576  0.5019519842019526  0.7558453612696313
  0.2448313263992699  0.2542739431778219  0.5051541746579951
  0.2476678646170449  0.7502340665492332 -0.0018886898070950
  0.7491718796801119  0.2515374660714887  1.0008434911347388
  0.7518925346125553  0.7501568358991650  0.5023739044605544
  0.0023908074932654  0.0042590444577634  0.4989936007386488
  0.9941922230073553  0.5019844186972354  1.0011402679069545
  0.5010467681543257  0.0012812209638090  0.0005990608344233
  0.5014096129448775  0.4980912357486653  0.5053008517673071
  0.2352918385964507  0.0470440580567555  0.5146644844572624
  0.2332781966457964  0.4974365709292377  0.0125748360228124
  0.7391231902392181  0.0029479054999779  0.0108760647634350
  0.7374634873972927  0.4973801445262403  0.5167737220882267
  0.0104984630889660  0.2555567181871474  0.5154178595428496
  0.0123541110623482  0.7500847676042689  0.0140304714284345
  0.5115427555951776  0.2490155536919604  0.0134535415201304
  0.5180876435213482  0.7111597208634870  0.5123631038522815
  0.0142927905769381  0.0020892868322719  0.7356755572609122
  0.0113632742003189  0.4991788293829173  0.2387413278241546
  0.5179633935126355  0.0191345358139909  0.2319729222767025
  0.5112794247405927  0.4991158077149384  0.7386611065196732
  0.2345695942448102  0.2555666330262805  0.7394687303483078
  0.2376812667164952  0.7113575277684479  0.2318724080628883
  0.7365585921440576  0.2489938326602563  0.2384779504589915
  0.7359488955953084  0.7500706410769759  0.7376527842491029
  0.7641378677313109  0.9970056421269179  0.4883179893586204
  0.7588798121828599  0.5006225254236533  0.9911477556770257
  0.2616646233108242  0.9970382825922339  0.9857486712299957
  0.2584673318482487  0.4778300333456849  0.4915572401601213
  0.9919340958415906  0.7545055331408680  0.4878453570832227
  0.9868227474678559  0.2500591051331293  0.9891816453052868
  0.4829080847864282  0.7588818216895205  0.9845602577660052
  0.4854281935568328  0.2672773483316058  0.4907227619880473
  0.9905838324546344  0.9971421989890900  0.2635497722112453
  0.9858628402152992  0.5016728333777263  0.7641325913279727
  0.4864310722031703  0.9971444979610786  0.7593416445438639
  0.4812252378975160  0.4937545343611802  0.2688728591742892
  0.7654148064495027  0.7588658203167459  0.2671348175299307
  0.7608123310419646  0.2500602619502538  0.7631797081031183
  0.2621347145453815  0.7544980096491409  0.7580688673595605
  0.2593685667184746  0.2671247439778934  0.2646249399336333
 
             NaN             NaN             NaN
             NaN             NaN             NaN
             NaN             NaN             NaN
             NaN             NaN             NaN
             NaN             NaN             NaN
             NaN             NaN             NaN
             NaN             NaN             NaN
             NaN             NaN             NaN
             NaN             NaN             NaN
             NaN             NaN             NaN
             NaN             NaN             NaN
             NaN             NaN             NaN
             NaN             NaN             NaN
             NaN             NaN             NaN
             NaN             NaN             NaN
             NaN             NaN             NaN
             NaN             NaN             NaN
             NaN             NaN             NaN
             NaN             NaN             NaN
             NaN             NaN             NaN
             NaN             NaN             NaN
             NaN             NaN             NaN
             NaN             NaN             NaN
             NaN             NaN             NaN
             NaN             NaN             NaN
             NaN             NaN             NaN
             NaN             NaN             NaN
             NaN             NaN             NaN
             NaN             NaN             NaN
             NaN             NaN             NaN
             NaN             NaN             NaN
             NaN             NaN             NaN
             NaN             NaN             NaN
             NaN             NaN             NaN
             NaN             NaN             NaN
             NaN             NaN             NaN
             NaN             NaN             NaN
             NaN             NaN             NaN
             NaN             NaN             NaN
             NaN             NaN             NaN
             NaN             NaN             NaN
             NaN             NaN             NaN
             NaN             NaN             NaN
             NaN             NaN             NaN
             NaN             NaN             NaN
             NaN             NaN             NaN
             NaN             NaN             NaN
             NaN             NaN             NaN
             NaN             NaN             NaN
             NaN             NaN             NaN
             NaN             NaN             NaN
             NaN             NaN             NaN
             NaN             NaN             NaN
             NaN             NaN             NaN
             NaN             NaN             NaN
