Mg7 Mn16 O32
1.0
8.173809 0.000011 -0.000161
0.000019 9.357769 -0.000032
-0.000150 -0.000073 8.174016
Mg Mn O
7 16 32
direct
0.590369 0.657918 0.159631 Mg
0.375573 0.375210 0.875583 Mg
0.874426 0.375206 0.374407 Mg
0.874437 0.874711 0.875562 Mg
0.620947 0.123109 0.620954 Mg
0.128935 0.626961 0.621059 Mg
0.129054 0.123091 0.129055 Mg
-0.000906 0.249299 0.750909 Mn
1.001525 0.749527 0.250309 Mn
0.501789 0.249766 0.248202 Mn
0.499679 0.749497 0.748482 Mn
0.250194 1.000511 0.748075 Mn
0.248205 0.500326 0.247904 Mn
0.748512 1.000577 0.250642 Mn
0.750984 0.500657 0.751275 Mn
0.247750 0.249852 0.502242 Mn
0.250627 0.749525 0.001839 Mn
0.751371 0.249212 0.998631 Mn
0.748162 0.749505 0.499364 Mn
0.001913 1.000517 0.499806 Mn
0.998741 0.500672 -0.000963 Mn
0.499359 1.000580 1.001471 Mn
0.502125 0.500266 0.501824 Mn
0.234590 1.031963 0.515414 O
0.236346 0.498252 0.012092 O
0.737042 0.003028 0.012962 O
0.737916 0.498237 0.513662 O
0.011878 0.252210 0.513762 O
0.012966 0.748461 0.013047 O
0.513839 0.250081 0.011964 O
0.515483 0.717220 0.515407 O
0.012872 1.000966 0.737122 O
0.011990 0.498247 0.236240 O
0.515474 0.034057 0.234515 O
0.513778 0.498229 0.738016 O
0.236249 0.252219 0.738093 O
0.234579 0.717437 0.234488 O
0.738016 0.250087 0.236157 O
0.736933 0.748481 0.737010 O
0.762218 -0.003135 0.487273 O
0.762491 0.496473 0.987510 O
0.262730 -0.003122 0.987747 O
0.262675 0.486433 0.487354 O
0.987750 0.753529 0.487138 O
0.988052 0.248700 0.987762 O
0.486813 0.758004 0.987419 O
0.487203 0.263469 0.487469 O
0.987986 -0.003113 0.262979 O
0.987876 0.500881 0.762129 O
0.487032 -0.003129 0.761989 O
0.486995 0.481998 0.263033 O
0.762563 0.758005 0.263207 O
0.762232 0.248708 0.761957 O
0.262871 0.753514 0.762238 O
0.262563 0.263352 0.262832 O
