Na47 P16 S64                            
   1.00000000000000     
    13.6785840000000007   -0.0041360000000000    0.0000080000000000
    -0.0041740000000000   13.6856550000000006   -0.0002820000000000
    -0.0001090000000000    0.0001480000000000   14.0837599999999998
   Na   P    S 
    47    16    64
Direct
  0.5654847196266258  0.7514859722768136  0.7372989670359472
  0.9997130200270923  0.2505677716317369  0.2065913507992117
  0.9993067918074590  0.2504921611529793  0.7059902160939178
  0.9986245004493419  0.7508038447131260  0.2112075140078676
  0.9799630041471235  0.7528463420131032  0.7176144641945110
  0.5001523472859163  0.2493778799827868  0.2075006887475477
  0.5011221132864883  0.2498870604777451  0.7065166815305950
  0.5006816766672698  0.7494600977809713  0.2119690511419306
  0.2493681039155112  0.9996524460691485  0.2919209586739283
  0.2494906060596086  0.9978558425523977  0.7925230584623626
  0.2509179982520544  0.5004376937106948  0.2940166373330681
  0.2507879079755490  0.5021754074779894  0.7933794752523238
  0.7490682725044924  0.9989451730126400  0.2904839384478885
  0.7476959389845609  0.9799691139735306  0.7835008776155611
  0.7506983201493481  0.5010100887844359  0.2886360510618190
  0.7543317990766033  0.5205204239478394  0.7819377242153644
  0.2518321336564949  0.9993783217391364  0.0420462519986052
  0.2444407028800290  0.9991619235046809  0.5427573476362135
  0.2468116185260380  0.4999042281000764  0.0444312652958918
  0.2557633153309048  0.5039250269295306  0.5459846704973179
  0.7512517968131972 -0.0003194145876797  0.0377476854100145
  0.7462573444764842  0.9996201059388393  0.5381510500496183
  0.7463528408816050  0.4999840327021600  0.0360368271821431
  0.7564366450053118  0.4997337449059953  0.5363336761773270
  0.5005177426573970  0.2523840827306401  0.4570179046073264
  0.5013370035715439  0.2464620693896274  0.9556133179457031
  0.5006915276048644  0.7521205768488800  0.4684926790360316
  0.4988966036560225  0.7443369799636561  0.9655292322699757
  1.0000390537576882  0.2481067530417774  0.4560110045797299
  0.9982512167667255  0.2534812958791939  0.9551877305518353
  1.0004229517436551  0.7475273687739805  0.4640037993701905
  0.9999685910426579  0.7539392386301849  0.9616283946738259
  0.9946424602658513  0.9970533030815208  0.5016469866691144
  0.0039899180520418  0.0094634305983171  0.0009719984135337
  0.0102724141692218  0.4947120472641391  0.4987983545015066
  0.9964817821621437  0.5027918260539667  0.9980747266911497
  0.4890141612779180  0.0050397039099924  0.4978190908765782
  0.5037946983815956  0.9960355692391788  0.9976581975899200
  0.5050167768024868  0.5042395659579259  0.5026170708378180
  0.4910205890079661  0.4892567719333746  0.0031123664354460
  0.2495744892071007  0.2507946388034428  0.2500399267133177
  0.2497620554410031  0.2508893448018663  0.7499462980095514
  0.2503886200431343  0.7495427169165139  0.2508156297862605
  0.2691225423913658  0.7487971913680703  0.7489708186857892
  0.7505553451365303  0.2492638381796750  0.2490445971318539
  0.7505305533722928  0.2491982994736480  0.7502749126632593
  0.7491422407849860  0.7505422565029970  0.2487829532315882
  0.4999641512734579  0.4996278556175015  0.2504907363259014
  0.5011088104513607  0.4974998494256499  0.7538431633902423
  0.4996101576621841 -0.0000974672368130  0.2495117306577714
  0.4973089087509830  1.0005401893224748  0.7465168921482527
  0.0005936234379386  0.4999561141385496  0.2498586289673784
  0.0030269436250889  0.4995449975045547  0.7473350669033877
  0.9996320704894107  0.0005906591525875  0.2497353588654850
  0.9998662377345608  0.0029862231763051  0.7524604415503071
  0.2499741905872863  0.2500612293437899  0.0001691316032205
  0.2500383569067353  0.2508860762844197  0.4996037535077130
  0.2502348308364326  0.7489619856364225  0.0013125137271080
  0.2501407815324218  0.7516331280579908  0.5000526920321300
  0.7498928470622974  0.2493375443183493  0.9994038764454100
  0.7503974405499427  0.2498957331013640  0.4987304572519994
  0.7494543200136706  0.7489454618783155  0.0000513658242645
  0.7514759577261675  0.7495030045471559  0.4974464151437488
  0.1536393857410020  0.1739168660681488  0.0832553620927320
  0.1532296933598000  0.1748589552905345  0.5819311708549458
  0.1523336578458327  0.6750849536578124  0.0845053561463516
  0.1556635664731761  0.6762550196967889  0.5851022984778446
  0.6538916077570882  0.1731047048537001  0.0831227634025616
  0.6532169691645610  0.1751399605421547  0.5814645124385035
  0.6539315734658319  0.6730201703169526  0.0848589505994589
  0.6563160661889990  0.6699053290925783  0.5778448870896461
  0.3468171073415182  0.3258933078252114  0.0832438645836952
  0.3469867059298914  0.3264980247614696  0.5822103112885423
  0.3468453941079533  0.8251451703598736  0.0842080190341967
  0.3465968910311418  0.8288842562012438  0.5805686908163286
  0.8457256425777208  0.3267052005977664  0.0824995032639809
  0.8476703872896431  0.3249180364182136  0.5813227784006038
  0.8443439602228677  0.8270913066325745  0.0835119005150922
  0.8468301876055190  0.8282197314124021  0.5780574313200587
  0.1740954519549851  0.3476107995388790  0.4169330850110765
  0.1741574591900526  0.3471271220955092  0.9181617633569193
  0.1718013465926029  0.8454448448160621  0.4156165116871781
  0.1763892396818488  0.8444497616174207  0.9162756239828509
  0.6755240568072710  0.3469104735264298  0.4154438970418941
  0.6744681495384275  0.3451488731640638  0.9163208410614526
  0.6732355531900033  0.8445729393744489  0.4143043332295664
  0.6700151174158575  0.8438361736754600  0.9185494163307338
  0.3258732935995497  0.1543185571755340  0.4164682132863156
  0.3255997501780355  0.1535429828475177  0.9173727192956299
  0.3269940258383565  0.6550614297665669  0.4172919441855044
  0.3261607878094929  0.6504363347352667  0.9208961923736559
  0.8253973133606527  0.1524008406800372  0.4159687663741339
  0.8256409425125211  0.1524955591991173  0.9172558956742088
  0.8281834402893220  0.6547404021133090  0.4128000017975249
  0.8285564110665279  0.6532250822389534  0.9206348432404382
  0.0968571825092159  0.4238555999566475  0.1668719090928666
  0.1028443656180965  0.4215793532227566  0.6695968629594216
  0.0957002801167917  0.9246678018060673  0.1662878195334019
  0.0928516195130996  0.9232279899552204  0.6695385528125271
  0.5956843696814389  0.4235306101285501  0.1668509350691318
  0.5986350209892383  0.4249308234141106  0.6690836850112797
  0.5961392073693673  0.9239563841889318  0.1669356383327031
  0.5897194359522483  0.9291486540809257  0.6565068361948628
  0.4037098023460656  0.0757407714322663  0.1659316447250638
  0.3975318343785336  0.0788740002929605  0.6694824323148937
  0.4028024947341810  0.5754843696902349  0.1681250198180862
  0.4111394032170290  0.5823723950091406  0.6726525105702236
  0.9030945162031159  0.0768235816284203  0.1671117568398187
  0.9012259595418052  0.0759089413820386  0.6692071660197270
  0.9047345142505889  0.5757151822651012  0.1665772070808963
  0.9114307370204369  0.5732307864669143  0.6584222902530034
  0.0759638025565358  0.0965776622272896  0.3329428009647725
  0.0787151310662934  0.1022120620666680  0.8302198178655739
  0.0767664212508855  0.5960683798229635  0.3330485837421323
  0.0752195728555199  0.5971613199603718  0.8318464643291085
  0.5752942890651229  0.0965508866747055  0.3326506244854495
  0.5774968811631178  0.0937518313177288  0.8294112373901473
  0.5760602010055424  0.5958457860534367  0.3330303458874652
  0.5757701032083306  0.5840702376184613  0.8472061522072371
  0.4243833623818249  0.4033473399055309  0.3339270012163073
  0.4206546408599048  0.3975771683446359  0.8291782643153527
  0.4235321803201945  0.9036902823091862  0.3325201254460990
  0.4259990672319425  0.9013375220910388  0.8302255663219340
  0.9244334518720057  0.4033843737121719  0.3326011989108204
  0.9222899321849973  0.4055317244178053  0.8289783011957254
  0.9239698402485212  0.9043518091020305  0.3326689090431282
  0.9268223911752005  0.9108043989575383  0.8413880326357087
 
             NaN             NaN             NaN
             NaN             NaN             NaN
             NaN             NaN             NaN
             NaN             NaN             NaN
             NaN             NaN             NaN
             NaN             NaN             NaN
             NaN             NaN             NaN
             NaN             NaN             NaN
             NaN             NaN             NaN
             NaN             NaN             NaN
             NaN             NaN             NaN
             NaN             NaN             NaN
             NaN             NaN             NaN
             NaN             NaN             NaN
             NaN             NaN             NaN
             NaN             NaN             NaN
             NaN             NaN             NaN
             NaN             NaN             NaN
             NaN             NaN             NaN
             NaN             NaN             NaN
             NaN             NaN             NaN
             NaN             NaN             NaN
             NaN             NaN             NaN
             NaN             NaN             NaN
             NaN             NaN             NaN
             NaN             NaN             NaN
             NaN             NaN             NaN
             NaN             NaN             NaN
             NaN             NaN             NaN
             NaN             NaN             NaN
             NaN             NaN             NaN
             NaN             NaN             NaN
             NaN             NaN             NaN
             NaN             NaN             NaN
             NaN             NaN             NaN
             NaN             NaN             NaN
             NaN             NaN             NaN
             NaN             NaN             NaN
             NaN             NaN             NaN
             NaN             NaN             NaN
             NaN             NaN             NaN
             NaN             NaN             NaN
             NaN             NaN             NaN
             NaN             NaN             NaN
             NaN             NaN             NaN
             NaN             NaN             NaN
             NaN             NaN             NaN
             NaN             NaN             NaN
             NaN             NaN             NaN
             NaN             NaN             NaN
             NaN             NaN             NaN
             NaN             NaN             NaN
             NaN             NaN             NaN
             NaN             NaN             NaN
             NaN             NaN             NaN
             NaN             NaN             NaN
             NaN             NaN             NaN
             NaN             NaN             NaN
             NaN             NaN             NaN
             NaN             NaN             NaN
             NaN             NaN             NaN
             NaN             NaN             NaN
             NaN             NaN             NaN
             NaN             NaN             NaN
             NaN             NaN             NaN
             NaN             NaN             NaN
             NaN             NaN             NaN
             NaN             NaN             NaN
             NaN             NaN             NaN
             NaN             NaN             NaN
             NaN             NaN             NaN
             NaN             NaN             NaN
             NaN             NaN             NaN
             NaN             NaN             NaN
             NaN             NaN             NaN
             NaN             NaN             NaN
             NaN             NaN             NaN
             NaN             NaN             NaN
             NaN             NaN             NaN
             NaN             NaN             NaN
             NaN             NaN             NaN
             NaN             NaN             NaN
             NaN             NaN             NaN
             NaN             NaN             NaN
             NaN             NaN             NaN
             NaN             NaN             NaN
             NaN             NaN             NaN
             NaN             NaN             NaN
             NaN             NaN             NaN
             NaN             NaN             NaN
             NaN             NaN             NaN
             NaN             NaN             NaN
             NaN             NaN             NaN
             NaN             NaN             NaN
             NaN             NaN             NaN
             NaN             NaN             NaN
             NaN             NaN             NaN
             NaN             NaN             NaN
             NaN             NaN             NaN
             NaN             NaN             NaN
             NaN             NaN             NaN
             NaN             NaN             NaN
             NaN             NaN             NaN
             NaN             NaN             NaN
             NaN             NaN             NaN
             NaN             NaN             NaN
             NaN             NaN             NaN
             NaN             NaN             NaN
             NaN             NaN             NaN
             NaN             NaN             NaN
             NaN             NaN             NaN
             NaN             NaN             NaN
             NaN             NaN             NaN
             NaN             NaN             NaN
             NaN             NaN             NaN
             NaN             NaN             NaN
             NaN             NaN             NaN
             NaN             NaN             NaN
             NaN             NaN             NaN
             NaN             NaN             NaN
             NaN             NaN             NaN
             NaN             NaN             NaN
             NaN             NaN             NaN
             NaN             NaN             NaN
             NaN             NaN             NaN
             NaN             NaN             NaN
             NaN             NaN             NaN
