Na47 P16 S64
1.0
13.678584 -0.004136 0.000008
-0.004174 13.685655 -0.000282
-0.000109 0.000148 14.083760
Na P S
47 16 64
direct
0.569801 0.747707 0.726959 Na
0.999834 0.250546 0.206457 Na
0.999049 0.250419 0.705938 Na
0.999356 0.750573 0.211290 Na
0.979603 0.752628 0.718128 Na
0.500170 0.249456 0.207104 Na
0.500945 0.249584 0.706714 Na
0.500656 0.749436 0.210507 Na
0.249441 0.999764 0.292388 Na
0.248977 0.998769 0.792013 Na
0.250882 0.500412 0.294047 Na
0.250599 0.501787 0.793549 Na
0.749092 0.999103 0.290454 Na
0.747185 0.978759 0.783656 Na
0.750564 0.500732 0.288791 Na
0.753235 0.520694 0.782119 Na
0.252456 0.999413 0.042019 Na
0.245323 0.998973 0.543143 Na
0.247668 0.499985 0.044255 Na
0.254397 0.502478 0.545117 Na
0.752502 1.000002 0.038683 Na
0.745204 0.998977 0.539266 Na
0.747371 0.500587 0.036445 Na
0.755071 0.499567 0.537294 Na
0.500193 0.251828 0.457172 Na
0.501541 0.246506 0.955541 Na
0.500201 0.751989 0.466816 Na
0.500085 0.746102 0.957883 Na
0.999800 0.248190 0.455988 Na
0.998455 0.253498 0.955190 Na
0.999809 0.748017 0.463761 Na
0.999912 0.753895 0.961995 Na
0.994910 0.997648 0.501693 Na
0.004500 0.008699 0.001057 Na
0.009154 0.494923 0.498944 Na
0.997166 0.502438 0.998304 Na
0.491638 0.003745 0.499112 Na
0.504580 0.996272 0.998550 Na
0.504297 0.503720 0.501856 Na
0.493763 0.492602 0.001295 Na
0.249713 0.250606 0.249958 Na
0.249604 0.250806 0.750012 Na
0.250614 0.749735 0.250661 Na
0.263132 0.749654 0.749778 Na
0.750300 0.249400 0.249229 Na
0.750390 0.249195 0.750284 Na
0.749399 0.750259 0.249939 Na
0.499893 0.499499 0.250275 P
0.500438 0.498006 0.752410 P
0.499517 0.000045 0.250056 P
0.497700 0.999734 0.747632 P
0.000688 0.499841 0.249850 P
0.002466 0.499659 0.747619 P
-0.000111 0.000589 0.250063 P
0.999382 0.002587 0.752399 P
0.250023 0.250155 0.000021 P
0.249806 0.250407 0.499803 P
0.250238 0.749308 0.001109 P
0.249826 0.750847 0.500193 P
0.749972 0.249850 0.999543 P
0.750178 0.249599 0.498780 P
0.749756 0.750691 0.002093 P
0.750177 0.749149 0.497714 P
0.153533 0.173916 0.082918 S
0.152891 0.174469 0.582115 S
0.152645 0.674997 0.084338 S
0.154478 0.675124 0.583852 S
0.653989 0.173267 0.083030 S
0.653071 0.174781 0.581697 S
0.654200 0.673328 0.085325 S
0.654641 0.669787 0.577592 S
0.346800 0.325866 0.083069 S
0.346682 0.325899 0.582466 S
0.347341 0.824835 0.083767 S
0.345866 0.827664 0.581897 S
0.845686 0.326953 0.082888 S
0.847339 0.324847 0.581362 S
0.845804 0.826840 0.085904 S
0.845040 0.827427 0.579551 S
0.173984 0.347286 0.417137 S
0.174128 0.347214 0.917991 S
0.172398 0.845495 0.416077 S
0.175789 0.845446 0.917108 S
0.675180 0.346544 0.415554 S
0.674426 0.345758 0.916469 S
0.672816 0.844949 0.414611 S
0.671227 0.847495 0.922520 S
0.325589 0.153939 0.416639 S
0.325584 0.153638 0.917194 S
0.327001 0.654774 0.417277 S
0.325557 0.651161 0.919713 S
0.825238 0.152223 0.416056 S
0.825865 0.153377 0.917259 S
0.827801 0.654763 0.413415 S
0.827437 0.655870 0.919933 S
0.097149 0.423830 0.167030 S
0.102029 0.421706 0.669675 S
0.096286 0.924759 0.166929 S
0.092378 0.922558 0.669521 S
0.595725 0.423667 0.166540 S
0.597850 0.424647 0.668199 S
0.596070 0.924214 0.167565 S
0.589455 0.925036 0.659729 S
0.403540 0.075741 0.166422 S
0.399057 0.078026 0.668887 S
0.402796 0.575369 0.167969 S
0.407361 0.578846 0.670410 S
0.903581 0.076757 0.167156 S
0.901054 0.075632 0.669000 S
0.904843 0.575649 0.166536 S
0.910802 0.573560 0.658847 S
0.075998 0.096779 0.333174 S
0.078150 0.101654 0.830292 S
0.076593 0.596015 0.333162 S
0.074929 0.597128 0.832212 S
0.575159 0.096885 0.332987 S
0.578354 0.093781 0.829349 S
0.575971 0.595622 0.332994 S
0.575108 0.588508 0.841796 S
0.424385 0.403051 0.333616 S
0.421801 0.398745 0.830310 S
0.423408 0.903898 0.333094 S
0.423829 0.903918 0.832743 S
0.924459 0.403295 0.332553 S
0.921695 0.405830 0.829333 S
0.924037 0.904467 0.333061 S
0.926132 0.910451 0.841249 S
