Li47 P16 O64
1.0
10.594989 -0.000848 -0.011623
-0.000979 12.391910 -0.001264
-0.010970 -0.001011 10.022025
Li P O
47 16 64
direct
0.598810 0.282089 0.097776 Li
0.665066 0.250595 0.599509 Li
0.662873 0.750169 0.098744 Li
0.663761 0.750894 0.599489 Li
0.164542 0.497716 0.149939 Li
0.164824 0.498668 0.651309 Li
0.163990 0.997782 0.151256 Li
0.164534 0.998849 0.651336 Li
0.337373 0.000943 0.399864 Li
0.337189 0.000933 0.903482 Li
0.339503 0.498927 0.396400 Li
0.338630 0.496996 0.907068 Li
0.834527 0.249065 0.347238 Li
0.833946 0.249047 0.851880 Li
0.836872 0.748582 0.349279 Li
0.836695 0.748850 0.849152 Li
0.339391 0.251138 0.396541 Li
0.338492 0.252343 0.906836 Li
0.337448 0.749123 0.399745 Li
0.337122 0.749321 0.903117 Li
0.836979 0.001691 0.349044 Li
0.836877 0.001528 0.849380 Li
0.835097 0.500803 0.348912 Li
0.834149 0.500568 0.850416 Li
0.655887 0.495154 0.097573 Li
0.665188 0.500595 0.598394 Li
0.663411 1.000898 0.099501 Li
0.663670 1.000004 0.599447 Li
0.164308 0.251541 0.149537 Li
0.164795 0.251297 0.651249 Li
0.164228 0.751188 0.150934 Li
0.164420 0.751106 0.651565 Li
0.921958 0.374528 0.148248 Li
0.924674 0.374750 0.649486 Li
0.924701 0.875267 0.149395 Li
0.925819 0.875229 0.649136 Li
0.428302 0.375256 0.604455 Li
0.428924 0.875349 0.102139 Li
0.426578 0.875286 0.600906 Li
0.075065 0.125846 0.349957 Li
0.075312 0.125874 0.852577 Li
0.074991 0.623981 0.350554 Li
0.075155 0.623891 0.852343 Li
0.573993 0.127526 0.397811 Li
0.572974 0.128002 0.902172 Li
0.573951 0.623502 0.399313 Li
0.572250 0.623491 0.899150 Li
0.911526 0.124866 0.097498 P
0.912740 0.124648 0.597139 P
0.910300 0.625124 0.097185 P
0.912594 0.625513 0.597356 P
0.408282 0.120439 0.152100 P
0.410872 0.124505 0.653226 P
0.409037 0.628530 0.151924 P
0.410665 0.625851 0.653252 P
0.088471 0.375137 0.403124 P
0.086955 0.375017 0.902987 P
0.088572 0.874795 0.403841 P
0.088436 0.874782 0.903660 P
0.591678 0.375713 0.349527 P
0.587609 0.374826 0.840197 P
0.590447 0.875062 0.347488 P
0.589766 0.875170 0.846167 P
0.841665 0.021503 0.148384 O
0.842580 0.021541 0.647845 O
0.839512 0.522816 0.147700 O
0.843015 0.523146 0.649566 O
0.332637 0.217062 0.097130 O
0.341266 0.226926 0.600427 O
0.343392 0.735602 0.105710 O
0.341416 0.729329 0.601594 O
0.158282 0.272288 0.351949 O
0.156854 0.272302 0.851648 O
0.158162 0.771849 0.352561 O
0.158566 0.771871 0.852879 O
0.660605 0.479122 0.404147 O
0.655690 0.477484 0.896790 O
0.659828 0.978188 0.399161 O
0.659769 0.977838 0.897800 O
0.158599 0.477979 0.352176 O
0.156906 0.477800 0.851734 O
0.158234 0.977679 0.352903 O
0.158701 0.977576 0.852917 O
0.660484 0.272246 0.403413 O
0.655715 0.271606 0.892024 O
0.659923 0.772011 0.399383 O
0.659198 0.771868 0.897327 O
0.843057 0.227405 0.148761 O
0.843355 0.227069 0.649293 O
0.840953 0.728569 0.148089 O
0.842513 0.728634 0.647972 O
0.341762 0.013501 0.106447 O
0.341550 0.021036 0.601351 O
0.333049 0.532099 0.097381 O
0.341201 0.523540 0.600043 O
0.546070 0.121098 0.099405 O
0.549528 0.124293 0.601914 O
0.547442 0.626761 0.099096 O
0.549534 0.626541 0.602519 O
0.050358 0.123392 0.149048 O
0.051351 0.124057 0.649102 O
0.048670 0.625166 0.149739 O
0.051170 0.625864 0.649254 O
0.453366 0.375260 0.402824 O
0.446771 0.374656 0.877790 O
0.451917 0.874947 0.398885 O
0.451251 0.875096 0.897082 O
0.949898 0.375473 0.351224 O
0.948255 0.375091 0.850778 O
0.949919 0.874827 0.351922 O
0.950229 0.874883 0.850465 O
0.597561 0.377090 0.196629 O
0.597754 0.376829 0.684692 O
0.592677 0.874855 0.191731 O
0.591014 0.875265 0.690135 O
0.086569 0.375030 0.058784 O
0.089080 0.375077 0.559227 O
0.087670 0.874466 0.059437 O
0.089409 0.874717 0.559826 O
0.409917 0.123967 0.308580 O
0.409019 0.124221 0.808939 O
0.410954 0.625949 0.308309 O
0.408694 0.625694 0.809012 O
0.911739 0.124990 0.441204 O
0.910963 0.124455 0.941284 O
0.911588 0.625096 0.441411 O
0.910281 0.625337 0.941084 O
