Mg1 Ti16 S32                            
   1.00000000000000     
    10.0336780000000001   -0.0221430000000000    0.0052650000000000
    -0.0221470000000000   10.0346770000000003   -0.0052090000000000
     0.0054030000000000   -0.0051870000000000   10.0573960000000007
   Mg   Ti   S 
     1    16    32
Direct
  0.3471249654341448  0.4029039064679604  0.8459788907584251
  0.2501576855880526  0.7589267042341347  0.0055515672843262
  0.4999838792148645  0.9988233626961849 -0.0023466663311267
  0.7511701136642968  0.2500129770500276 -0.0023655465619287
  0.9910442027420735  0.4998472704660291  0.0055099384587180
  0.5002296545116897  0.2497561117977324  0.2489556709473814
  0.2473336439915023  0.5026612738805271  0.2656756001221006
  0.2501107611986995  0.2421898954831520  0.4888397915609392
  0.5078481444410201  0.4998410032018809  0.4888637199969382
  0.5082206482723635  0.7590915889583231  0.7475374397811844
  0.7679067165793635  0.5027476974040825  0.7448782448865688
  0.7517515048008185  0.7519433072879254  0.4953195465250195
  0.2472083900567893  0.9820137450188980  0.7448896618216727
  0.7496712202977345  1.0003168461063054  0.2470700867509890
  0.9908934305568963  0.2418209536439819  0.7475369634063751
  0.9980381500716712  0.7519399625784379  0.2491892907068519
  0.9980153834184938  0.9982089487847915  0.4953455087090649
  0.7443091247887439  0.0057062888004464  0.0000496568082754
  0.0044232316248982  0.7455539201980457  0.0037871739046520
  0.0016212326240713 -0.0025661828392037  0.7425423335081388
  0.7525932206781979  0.7483882798671506  0.7425478150021627
  0.2520828525667792  0.9978060680508402  0.9913173187173857
  0.9940488045177518  0.2526032315212108  0.9944876337474605
  0.9952295073948337  0.9973230584497261  0.2504082125101565
  0.2521199170671461  0.2556778524799508  0.2502209160679214
  0.7522299858678176  0.5044147845748799  0.4998019177844736
  0.0043816207925373  0.2438726687569903  0.5022510839304417
  0.0017735627708335  0.5042880832277332  0.2495218865307727
  0.7445515414151607  0.2478632727314643  0.2416549725087204
  0.2589288790283477  0.4910472285085412  0.5042136592460942
  0.9965724177977178  0.7534446965090249  0.4934795861496089
  1.0069359693499447  0.4909952755179345  0.7568650134675231
  0.2590285019461890  0.7430011975567136  0.7568776107565304
  0.2455914137823472 -0.0022236969182963  0.4997546328171513
  0.5061268892121641  0.7455813178419169  0.5022982082989410
  0.5021116716793164  0.0054844531020332  0.2416313652932448
  0.2457567587029308  0.7482477320374867  0.2495668263658332
  0.7527767069223271  0.9972152014291257  0.4920467940265305
  0.4973546831720034  0.2526385328445601  0.4915422876903474
  0.4942434510657802  0.9981122712363318  0.7500866287451462
  0.7518982370051139  0.2557885511584360  0.7501155082501823
  0.2392076168225582  0.5108212834112454  0.0195235684751528
  0.5005336320433632  0.2494673101720148 -0.0011726971418614
  0.5210319583433600  0.5107680597347735  0.7366465074337437
  0.2392903112543609  0.2289061732247703  0.7366603850777588
  0.7521481613856166  0.4978984432534911  0.9913254953317562
  0.4974210895345501  0.7559842903477989  0.9944878593603304
  0.4943854150849366  0.4979152979211894  0.2502124088712467
  0.7526673628917795  0.7547944167610020  0.2504161329961162
 
             NaN             NaN             NaN
             NaN             NaN             NaN
             NaN             NaN             NaN
             NaN             NaN             NaN
             NaN             NaN             NaN
             NaN             NaN             NaN
             NaN             NaN             NaN
             NaN             NaN             NaN
             NaN             NaN             NaN
             NaN             NaN             NaN
             NaN             NaN             NaN
             NaN             NaN             NaN
             NaN             NaN             NaN
             NaN             NaN             NaN
             NaN             NaN             NaN
             NaN             NaN             NaN
             NaN             NaN             NaN
             NaN             NaN             NaN
             NaN             NaN             NaN
             NaN             NaN             NaN
             NaN             NaN             NaN
             NaN             NaN             NaN
             NaN             NaN             NaN
             NaN             NaN             NaN
             NaN             NaN             NaN
             NaN             NaN             NaN
             NaN             NaN             NaN
             NaN             NaN             NaN
             NaN             NaN             NaN
             NaN             NaN             NaN
             NaN             NaN             NaN
             NaN             NaN             NaN
             NaN             NaN             NaN
             NaN             NaN             NaN
             NaN             NaN             NaN
             NaN             NaN             NaN
             NaN             NaN             NaN
             NaN             NaN             NaN
             NaN             NaN             NaN
             NaN             NaN             NaN
             NaN             NaN             NaN
             NaN             NaN             NaN
             NaN             NaN             NaN
             NaN             NaN             NaN
             NaN             NaN             NaN
             NaN             NaN             NaN
             NaN             NaN             NaN
             NaN             NaN             NaN
             NaN             NaN             NaN
