Mg1 Ti16 S32
1.0
10.033678 -0.022143 0.005265
-0.022147 10.034677 -0.005209
0.005403 -0.005187 10.057396
Mg Ti S
1 16 32
direct
0.343629 0.406373 0.749755 Mg
0.248639 0.753648 0.005314 Ti
0.501496 -0.001873 0.003749 Ti
0.751895 0.248492 0.003726 Ti
0.996340 0.501341 0.005287 Ti
0.501160 0.248864 0.250440 Ti
0.249320 0.500668 0.250161 Ti
0.248374 0.246657 0.492436 Ti
0.503343 0.501644 0.492469 Ti
0.503993 0.754097 0.750020 Ti
0.752311 0.502371 0.750033 Ti
0.750995 0.751252 0.498707 Ti
0.247627 -0.002311 0.750035 Ti
0.750679 -0.000674 0.249933 Ti
0.995907 0.246001 0.750006 Ti
0.998827 0.751157 0.249712 Ti
0.998754 0.998979 0.498688 Ti
0.746905 0.003085 0.004019 S
0.002934 0.747029 0.004199 S
0.003013 0.002477 0.746432 S
0.747520 0.746993 0.746452 S
0.253966 0.997443 0.994903 S
0.996294 0.254238 0.995114 S
0.996363 0.996791 0.254179 S
0.253259 0.251440 0.253690 S
0.747536 0.504167 0.505162 S
0.003283 0.245394 0.504895 S
1.000134 0.505293 0.246223 S
0.748931 0.245107 0.246109 S
0.255563 0.494433 0.499462 S
0.996171 0.753812 0.495801 S
0.996559 0.495399 0.754403 S
0.254587 0.753447 0.754385 S
0.245856 0.002451 0.505156 S
0.504586 0.746738 0.504905 S
0.504888 0.001150 0.246130 S
0.244649 0.749816 0.246197 S
0.753624 0.996384 0.496126 S
0.495474 0.254559 0.497985 S
0.495752 0.997413 0.754082 S
0.752585 0.254239 0.754060 S
0.243801 0.506194 1.000536 S
0.505356 0.244662 0.002292 S
0.504573 0.504913 0.745213 S
0.245101 0.245417 0.745230 S
0.752562 0.496010 0.994894 S
0.495739 0.753723 0.995127 S
0.498596 0.496798 0.253669 S
0.753142 0.753646 0.254190 S
