Li47 P16 O64                            
   1.00000000000000     
    10.4375719999999994    0.0008540000000000   -0.0065870000000000
     0.0009840000000000   12.1510029999999993   -0.0041920000000000
    -0.0062020000000000   -0.0033650000000000    9.7978959999999997
   Li   P    O 
    47    16    64
Direct
  0.4455023689769987  0.3529189244122409  0.0915225477620542
  0.6645081688391307  0.2503669984022108  0.6044883878227866
  0.6650248955495692  0.7508148452158093  0.0975209433590581
  0.6647861327091538  0.7523672645239169  0.5987885114330816
  0.1665606087720998  0.4981902760710401  0.1512961363366701
  0.1647266400044342  0.4994715884473577  0.6522634437208870
  0.1644463402304536  0.9942993511164279  0.1550998628111633
  0.1645649415590523  0.9980718267386450  0.6519483812288848
  0.3359397907811838 -0.0002547931246075  0.4031790750571026
  0.3365842623409976  0.0000252765251997  0.9019821448935458
  0.3364592570846222  0.5010451362256846  0.3999856306937128
  0.3377431609911488  0.4984617553130871  0.9058078126096293
  0.8338591848264538  0.2494870020666174  0.3463729217712377
  0.8374453230047173  0.2495253686581217  0.8513242818296400
  0.8362340199694007  0.7490806158937655  0.3480387141558599
  0.8363510298488045  0.7492643917836765  0.8477794054346662
  0.3354971930736675  0.2489115057441968  0.4020320653058079
  0.3338405728010910  0.2470197876008373  0.8986634830460218
  0.3365189866615618  0.7490243736113411  0.4017884575470778
  0.3362530093171007  0.7485374557209801  0.9024419553827050
  0.8361965271558809  0.0012185936654030  0.3488037098702684
  0.8356303225444536  0.0012901683162826  0.8474803664904862
  0.8348749203376008  0.5017275259842344  0.3478842995674531
  0.8360942959303943  0.5010711290573917  0.8480561581287488
  0.6653874040367388  0.4960906117106790  0.0955023480467175
  0.6648122980113144  0.5031732825956198  0.5996607805218717
  0.6656977729401363  0.0018216310674759  0.1001413715424992
  0.6639877202151744  0.0006152846057561  0.5972968191674842
  0.1646918350883986  0.2515377790396651  0.1511802794385049
  0.1632260966002039  0.2505628741877119  0.6517764865639861
  0.1651199077839146  0.7499141875432931  0.1514417475846994
  0.1641301746645526  0.7507307940111557  0.6528750419156785
  0.9215670957819527  0.3768348197739154  0.1465033961499737
  0.9236958183239700  0.3754281140119666  0.6491794523227161
  0.9235359261911372  0.8745550304312969  0.1491973867574948
  0.9235440664362566  0.8753943983659564  0.6487554460925382
  0.4199852865095985  0.3758953706248699  0.6008767886995738
  0.4260437769489041  0.8732053030892443  0.1008739520178039
  0.4247270387027542  0.8752101161794382  0.6015298942710029
  0.0772534477794327  0.1242378944763327  0.3523901558271630
  0.0773573708737765  0.1242621279057142  0.8501940602928830
  0.0763773047951881  0.6245519864148036  0.3503227142343551
  0.0770527563856119  0.6243275539898783  0.8519423528010330
  0.5762451666500591  0.1267560931246957  0.3952030761532447
  0.5792250992057515  0.1292349616696488  0.9074918564441942
  0.5766682190823567  0.6265099309513728  0.4005998200866779
  0.5761923261376939  0.6248425314423022  0.8986230008142053
  0.9153713574760460  0.1239375262872105  0.0954841766215167
  0.9126450973274837  0.1251977313733437  0.5950608988498450
  0.9122308077491238  0.6254463009875684  0.0952265806824337
  0.9125393193419591  0.6253759572840660  0.5954362187378719
  0.4090016876806534  0.1205852263005373  0.1544785658071482
  0.4121114403537264  0.1245569507779401  0.6547639706229907
  0.4135271684465142  0.6238177314729685  0.1543670981218402
  0.4113589678151743  0.6258206763768110  0.6550202988575919
  0.0877633889399837  0.3753809545265772  0.4045086674949897
  0.0883121991056757  0.3751945441340706  0.9046511835591846
  0.0880298747005616  0.8740955964296121  0.4052129491928871
  0.0881375148205702  0.8745958106817689  0.9047414682012218
  0.5888668662883036  0.3769180485574489  0.3501684454461724
  0.5885111358960663  0.3744062824268292  0.8391382773980266
  0.5891096767442373  0.8753917656015170  0.3453302594486301
  0.5891516849198811  0.8756355510453974  0.8455518514446985
  0.8437389678224597  0.0218672573805099  0.1481092907717412
  0.8416785658457991  0.0219815479428785  0.6466247875877786
  0.8411888138262890  0.5225628347199375  0.1470855928450086
  0.8421539168779155  0.5221810361587661  0.6475830586075386
  0.3387576367771114  0.2231102013874648  0.0994236718702947
  0.3405862363119112  0.2280329998072121  0.6039389442658264
  0.3431893185195934  0.7280685265361213  0.1035552961196868
  0.3412840028067466  0.7298136157109033  0.6043484207297301
  0.1571648472474569  0.2714144629152484  0.3523695358508898
  0.1572533305234135  0.2711354382109232  0.8522949589160486
  0.1584719217854726  0.7708789715482582  0.3528902444209555
  0.1583815717610755  0.7709049302646437  0.8535864737153559
  0.6586750071512124  0.4803568099418460  0.4033172821183766
  0.6581943239285841  0.4769065137299173  0.8946605159476169
  0.6586419427024506  0.9794730396150199  0.3965423785502442
  0.6593398989469466  0.9786335847500504  0.8984940783614724
  0.1585767505510621  0.4783679355962486  0.3526731328125161
  0.1597864106761533  0.4780705108630052  0.8530105533861208
  0.1585233771566212  0.9776983709978175  0.3544965088138193
  0.1588931226905007  0.9778074022466691  0.8531790385442888
  0.6588151472818430  0.2734161663657012  0.4017935348160812
  0.6601638324506346  0.2690915793489736  0.8767432796214550
  0.6597544141200505  0.7723166342427928  0.3980076278774747
  0.6590140561018921  0.7714511723879167  0.8961592887847600
  0.8549574236964914  0.2295733165812911  0.1507464018021109
  0.8438887793911642  0.2289795353823378  0.6474811843912710
  0.8424848220595043  0.7291956212542893  0.1469589171870093
  0.8422578173337968  0.7290009864445055  0.6468011300372151
  0.3384230960445276  0.0161033062462940  0.1053240239771746
  0.3416332647573124  0.0209825288963379  0.6031344988759244
  0.3434352426927333  0.5206121435611472  0.1028831916766265
  0.3411626523420023  0.5230500367017827  0.6011159624827148
  0.5459894254991171  0.1187368367702055  0.1018973182153499
  0.5499517176651715  0.1255298013741444  0.6003561764027310
  0.5523568023100833  0.6246350537405263  0.1018267319689315
  0.5504768125998752  0.6273748700121158  0.6039790217523502
  0.0554127724256614  0.1214626931142917  0.1459773003798222
  0.0518074454021983  0.1239667717021400  0.6466685980411134
  0.0512666513515451  0.6245874814890086  0.1470235161236709
  0.0513192048497858  0.6250660728465801  0.6478085629752606
  0.4494817228131488  0.3749376743662786  0.4010841914767329
  0.4506852284693418  0.3712903312595893  0.8942047470335460
  0.4502216383273682  0.8748130534369599  0.3973251172158241
  0.4501158565932792  0.8747378028927263  0.8971913646797660
  0.9486377259782868  0.3759538996534588  0.3531376545647372
  0.9494646283391663  0.3761591659797479  0.8525432192550707
  0.9492719059257840  0.8747641292381638  0.3527670685497775
  0.9493874582617401  0.8751861449348712  0.8521279166164581
  0.5909218770083703  0.3795769756064484  0.1944416530344004
  0.5853225057458847  0.3803617788933265  0.6818585473230017
  0.5906485242311129  0.8747890740162816  0.1880706250904547
  0.5900550200852861  0.8765692411571463  0.6881526345188184
  0.0890013295297368  0.3751017314684858  0.0618487219433106
  0.0893217482168574  0.3751856154692572  0.5618570548830383
  0.0882027723160909  0.8739976481411335  0.0620960947527443
  0.0886192551387035  0.8739023346519568  0.5624733884990989
  0.4075487834416930  0.1240043507581423  0.3118965556172780
  0.4125534584130504  0.1239428282197947  0.8119516924085401
  0.4130391696298684  0.6248709918755734  0.3119818600955223
  0.4101927421882008  0.6238388080530517  0.8123845062002342
  0.9114001926104739  0.1254284989112758  0.4377255707591646
  0.9129268006800156  0.1240687438365678  0.9384733501624487
  0.9117055684807880  0.6251022026555659  0.4380701204244103
  0.9111599261999270  0.6252788005850904  0.9378439653155473
 
             NaN             NaN             NaN
             NaN             NaN             NaN
             NaN             NaN             NaN
             NaN             NaN             NaN
             NaN             NaN             NaN
             NaN             NaN             NaN
             NaN             NaN             NaN
             NaN             NaN             NaN
             NaN             NaN             NaN
             NaN             NaN             NaN
             NaN             NaN             NaN
             NaN             NaN             NaN
             NaN             NaN             NaN
             NaN             NaN             NaN
             NaN             NaN             NaN
             NaN             NaN             NaN
             NaN             NaN             NaN
             NaN             NaN             NaN
             NaN             NaN             NaN
             NaN             NaN             NaN
             NaN             NaN             NaN
             NaN             NaN             NaN
             NaN             NaN             NaN
             NaN             NaN             NaN
             NaN             NaN             NaN
             NaN             NaN             NaN
             NaN             NaN             NaN
             NaN             NaN             NaN
             NaN             NaN             NaN
             NaN             NaN             NaN
             NaN             NaN             NaN
             NaN             NaN             NaN
             NaN             NaN             NaN
             NaN             NaN             NaN
             NaN             NaN             NaN
             NaN             NaN             NaN
             NaN             NaN             NaN
             NaN             NaN             NaN
             NaN             NaN             NaN
             NaN             NaN             NaN
             NaN             NaN             NaN
             NaN             NaN             NaN
             NaN             NaN             NaN
             NaN             NaN             NaN
             NaN             NaN             NaN
             NaN             NaN             NaN
             NaN             NaN             NaN
             NaN             NaN             NaN
             NaN             NaN             NaN
             NaN             NaN             NaN
             NaN             NaN             NaN
             NaN             NaN             NaN
             NaN             NaN             NaN
             NaN             NaN             NaN
             NaN             NaN             NaN
             NaN             NaN             NaN
             NaN             NaN             NaN
             NaN             NaN             NaN
             NaN             NaN             NaN
             NaN             NaN             NaN
             NaN             NaN             NaN
             NaN             NaN             NaN
             NaN             NaN             NaN
             NaN             NaN             NaN
             NaN             NaN             NaN
             NaN             NaN             NaN
             NaN             NaN             NaN
             NaN             NaN             NaN
             NaN             NaN             NaN
             NaN             NaN             NaN
             NaN             NaN             NaN
             NaN             NaN             NaN
             NaN             NaN             NaN
             NaN             NaN             NaN
             NaN             NaN             NaN
             NaN             NaN             NaN
             NaN             NaN             NaN
             NaN             NaN             NaN
             NaN             NaN             NaN
             NaN             NaN             NaN
             NaN             NaN             NaN
             NaN             NaN             NaN
             NaN             NaN             NaN
             NaN             NaN             NaN
             NaN             NaN             NaN
             NaN             NaN             NaN
             NaN             NaN             NaN
             NaN             NaN             NaN
             NaN             NaN             NaN
             NaN             NaN             NaN
             NaN             NaN             NaN
             NaN             NaN             NaN
             NaN             NaN             NaN
             NaN             NaN             NaN
             NaN             NaN             NaN
             NaN             NaN             NaN
             NaN             NaN             NaN
             NaN             NaN             NaN
             NaN             NaN             NaN
             NaN             NaN             NaN
             NaN             NaN             NaN
             NaN             NaN             NaN
             NaN             NaN             NaN
             NaN             NaN             NaN
             NaN             NaN             NaN
             NaN             NaN             NaN
             NaN             NaN             NaN
             NaN             NaN             NaN
             NaN             NaN             NaN
             NaN             NaN             NaN
             NaN             NaN             NaN
             NaN             NaN             NaN
             NaN             NaN             NaN
             NaN             NaN             NaN
             NaN             NaN             NaN
             NaN             NaN             NaN
             NaN             NaN             NaN
             NaN             NaN             NaN
             NaN             NaN             NaN
             NaN             NaN             NaN
             NaN             NaN             NaN
             NaN             NaN             NaN
             NaN             NaN             NaN
             NaN             NaN             NaN
             NaN             NaN             NaN
             NaN             NaN             NaN
             NaN             NaN             NaN
