Li47 P16 O64                            
   1.00000000000000     
    10.5889059999999997   -0.0004060000000000   -0.0102000000000000
    -0.0004700000000000   12.4007839999999998    0.0006090000000000
    -0.0096440000000000    0.0004860000000000   10.0202190000000009
   Li   P    O 
    47    16    64
Direct
  0.1888162924406796  0.2740262926796544  0.1559499828703306
  0.6557514168448924  0.2530382956828551  0.0983995163986669
  0.6669485488352915  0.2493199903036084  0.5980326373289823
  0.6609704380567658  0.7489951546492205  0.0981960405419684
  0.6637406322365751  0.7501550918667678  0.5994135001754254
  0.1617397237150424  0.5053074292787364  0.1490389264506745
  0.1656923243817777  0.4999689274622390  0.6503946167253990
  0.1648636497896805  1.0007185311620195  0.1491941962103086
  0.1647773941447310  1.0000165767314739  0.6516229262106122
  0.3378857148619374  0.0008247788361067  0.3987129718542591
  0.3377007114089834  0.0003506161817106  0.9034093379178973
  0.3406716468076352  0.4985609136807542  0.3958066163477298
  0.3392312434527102  0.4964139014169815  0.9087107602432611
  0.8365140567764463  0.2491303855196330  0.3479695986444498
  0.8346320658330917  0.2493977813968704  0.8514613312395669
  0.8364003134073780  0.7488355265886643  0.3490232746229726
  0.8365631419896231  0.7493204274150822  0.8488093677593306
  0.3434218761436965  0.2501030546370280  0.4011944653883667
  0.3412104392871202  0.2527938061745364  0.9059194693693911
  0.3378954604891337  0.7488557941873828  0.3997392443338401
  0.3366876631533767  0.7486888734132203  0.9031935344303518
  0.8385188785405873  0.0022910008623349  0.3488951593949257
  0.8372612102914183  0.0015411576337429  0.8482884157093499
  0.8360479421141130  0.5001642429239231  0.3471394024106474
  0.8343960374217494  0.5009402279373122  0.8519754404999427
  0.6543573883286840  0.4950743787877530  0.0975703559031074
  0.6668184656526912  0.4998908072911116  0.5981415302423945
  0.6642836518100026  0.9976030945439676  0.0985849386578273
  0.6647850015601947  0.9988797897769343  0.5987606437324884
  0.1659611146737681  0.2522335785051328  0.6520621112566706
  0.1645939949688107  0.7536546152966909  0.1518219138218047
  0.1648655194955179  0.7522423738654668  0.6505615935690866
  0.9262159144942551  0.3728227609049443  0.1472344706421558
  0.9257283003065823  0.3753156028862437  0.6510654474876949
  0.9244974109370373  0.8755098064669966  0.1490199715752268
  0.9263529470374564  0.8756050395095047  0.6484792290496020
  0.4303334169586412  0.3754313749347464  0.6074690737465561
  0.4287948361609809  0.8745179642207837  0.1021293269024947
  0.4263671770772903  0.8748341223734704  0.6003485894283608
  0.0774472897632551  0.1297524748648032  0.3443267984652645
  0.0765170074380003  0.1275853011198329  0.8555703415749634
  0.0745061961915427  0.6267847794347717  0.3520343570305010
  0.0749523332702886  0.6252919679269173  0.8507042654676104
  0.5756949177684523  0.1258766308882627  0.3980011726077949
  0.5736046366776082  0.1252574658944810  0.9001754302477921
  0.5743184904074505  0.6225998233841338  0.3993358533338149
  0.5716466043730328  0.6227671624184294  0.8986010866091969
  0.9113239541544170  0.1245660958842390  0.0968341756714753
  0.9145266526741095  0.1254059840519070  0.5971609767583257
  0.9093961516862559  0.6263513134223391  0.0970592388600603
  0.9126747500137343  0.6258238445483004  0.5970757955063161
  0.4118977279148235  0.1202346568681513  0.1517363777306163
  0.4120744841784819  0.1236368853363059  0.6533523076518372
  0.4079659992863960  0.6287462158422483  0.1519588816399496
  0.4110485371551525  0.6253876778947651  0.6530965600239845
  0.0903928257434124  0.3772392177804982  0.4030043145869615
  0.0888806570314014  0.3770019272805173  0.9031305125650362
  0.0892499734078471  0.8762647732114699  0.4033269163936437
  0.0886694792383818  0.8755450106315958  0.9033614378547042
  0.5936450347384036  0.3744477641292011  0.3494023126914933
  0.5878475670208725  0.3746811107721947  0.8396135724459122
  0.5906598673040576  0.8743164019528997  0.3475055514923583
  0.5895009125528543  0.8741594278605178  0.8453313432184094
  0.8410646310626992  0.0212488935808354  0.1475578622738923
  0.8437023437951688  0.0222284481850936  0.6466920260382406
  0.8404641988602999  0.5229580395568690  0.1469122955471742
  0.8442233018294542  0.5233885783776547  0.6505852267394863
  0.3388754986670868  0.2165496795607640  0.0941520148227277
  0.3428374238977321  0.2265355694008054  0.6015001569830656
  0.3435023130902444  0.7366947365509656  0.1064827728748755
  0.3418552659551354  0.7287856374746555  0.6011238266110777
  0.1642079845110407  0.2762921228785266  0.3518383440707209
  0.1585288553514121  0.2742729393685698  0.8520606347195567
  0.1591442330707010  0.7731674519402489  0.3531101755817668
  0.1587657155400392  0.7727423535476255  0.8523670285271512
  0.6620547093704731  0.4781300590273102  0.4038040200627773
  0.6553913315288150  0.4772972626280219  0.8967007061325412
  0.6608818002998600  0.9772039783803632  0.3985922723124493
  0.6599247303807458  0.9766884994421540  0.8968609666453339
  0.1581366744007024  0.4812376921031801  0.3525922807876353
  0.1569698855971638  0.4796400028876829  0.8493457750572890
  0.1587476595314038  0.9788658763825415  0.3516086525504160
  0.1591485572288389  0.9783363812636776  0.8530783120936987
  0.6621255323506726  0.2708635623033307  0.4039305337805679
  0.6548295573694101  0.2718975099901842  0.8969363955981100
  0.6597691343524692  0.7713060601273880  0.3997028961724878
  0.6588270375736960  0.7709399844218288  0.8964985464848650
  0.8402560537499008  0.2268882429402122  0.1473547200637809
  0.8445311603386526  0.2275246279659314  0.6495818195755182
  0.8382972815857422  0.7289372110635213  0.1475963517939004
  0.8425239636862628  0.7288008133664963  0.6477945977435308
  0.3453514896769774  0.0133603233322890  0.1060059806301343
  0.3420293742355072  0.0208712021089149  0.6009837442386208
  0.3299692135498472  0.5340268003734784  0.0974254637509189
  0.3421472146971737  0.5230779001831453  0.5994060208512768
  0.5511602642532714  0.1204260328156258  0.1009831469667102
  0.5507583127662390  0.1232036731321213  0.6017255753563530
  0.5462704435224479  0.6258105104409856  0.0983515782167044
  0.5502412079396022  0.6257436159937203  0.6028343592950981
  0.0495079379689522  0.1247088120294229  0.1485132500076505
  0.0525614191626428  0.1251653915563885  0.6506237053654538
  0.0474031998348136  0.6289015564857210  0.1507367925274693
  0.0517554390462701  0.6270892152931553  0.6475566293941604
  0.4552582143703633  0.3746155813640289  0.4023541279754425
  0.4456934853146000  0.3752873969496697  0.8703640533461355
  0.4521406068272169  0.8749208453144871  0.3991052273320427
  0.4510708027342263  0.8743390412512329  0.8965073851500237
  0.9523828247146954  0.3745756056470032  0.3492631918573922
  0.9490240467693479  0.3755176387336914  0.8538906229643306
  0.9505081515375752  0.8752173418688322  0.3512921538385245
  0.9504680211769633  0.8754446686865982  0.8498623518737795
  0.6023207167643552  0.3742763643696584  0.1964455733979787
  0.6030898720558346  0.3745690491637559  0.6841932001577704
  0.5923615193097268  0.8736588195261398  0.1917399153742887
  0.5908315438660557  0.8745715716574761  0.6893253229999203
  0.0910232650564591  0.3793741547009929  0.0590496700945383
  0.0895575146293280  0.3761404021174981  0.5589861730102375
  0.0877706082567372  0.8755766494657261  0.0591540388765370
  0.0898292435669523  0.8764722596966067  0.5593919123988317
  0.4119580309908271  0.1240529751767085  0.3082764331304269
  0.4106320042252524  0.1229330364211917  0.8090601532087678
  0.4112993834564819  0.6259247661334665  0.3084428670158752
  0.4084541419953719  0.6254703240832182  0.8088062417616299
  0.9147047929640284  0.1261819606519814  0.4411135912508939
  0.9100301420014640  0.1244356014973914  0.9405143788804997
  0.9104485080546036  0.6248984718208936  0.4411012005234081
  0.9104627420182925  0.6264463769001722  0.9409272332890243
 
             NaN             NaN             NaN
             NaN             NaN             NaN
             NaN             NaN             NaN
             NaN             NaN             NaN
             NaN             NaN             NaN
             NaN             NaN             NaN
             NaN             NaN             NaN
             NaN             NaN             NaN
             NaN             NaN             NaN
             NaN             NaN             NaN
             NaN             NaN             NaN
             NaN             NaN             NaN
             NaN             NaN             NaN
             NaN             NaN             NaN
             NaN             NaN             NaN
             NaN             NaN             NaN
             NaN             NaN             NaN
             NaN             NaN             NaN
             NaN             NaN             NaN
             NaN             NaN             NaN
             NaN             NaN             NaN
             NaN             NaN             NaN
             NaN             NaN             NaN
             NaN             NaN             NaN
             NaN             NaN             NaN
             NaN             NaN             NaN
             NaN             NaN             NaN
             NaN             NaN             NaN
             NaN             NaN             NaN
             NaN             NaN             NaN
             NaN             NaN             NaN
             NaN             NaN             NaN
             NaN             NaN             NaN
             NaN             NaN             NaN
             NaN             NaN             NaN
             NaN             NaN             NaN
             NaN             NaN             NaN
             NaN             NaN             NaN
             NaN             NaN             NaN
             NaN             NaN             NaN
             NaN             NaN             NaN
             NaN             NaN             NaN
             NaN             NaN             NaN
             NaN             NaN             NaN
             NaN             NaN             NaN
             NaN             NaN             NaN
             NaN             NaN             NaN
             NaN             NaN             NaN
             NaN             NaN             NaN
             NaN             NaN             NaN
             NaN             NaN             NaN
             NaN             NaN             NaN
             NaN             NaN             NaN
             NaN             NaN             NaN
             NaN             NaN             NaN
             NaN             NaN             NaN
             NaN             NaN             NaN
             NaN             NaN             NaN
             NaN             NaN             NaN
             NaN             NaN             NaN
             NaN             NaN             NaN
             NaN             NaN             NaN
             NaN             NaN             NaN
             NaN             NaN             NaN
             NaN             NaN             NaN
             NaN             NaN             NaN
             NaN             NaN             NaN
             NaN             NaN             NaN
             NaN             NaN             NaN
             NaN             NaN             NaN
             NaN             NaN             NaN
             NaN             NaN             NaN
             NaN             NaN             NaN
             NaN             NaN             NaN
             NaN             NaN             NaN
             NaN             NaN             NaN
             NaN             NaN             NaN
             NaN             NaN             NaN
             NaN             NaN             NaN
             NaN             NaN             NaN
             NaN             NaN             NaN
             NaN             NaN             NaN
             NaN             NaN             NaN
             NaN             NaN             NaN
             NaN             NaN             NaN
             NaN             NaN             NaN
             NaN             NaN             NaN
             NaN             NaN             NaN
             NaN             NaN             NaN
             NaN             NaN             NaN
             NaN             NaN             NaN
             NaN             NaN             NaN
             NaN             NaN             NaN
             NaN             NaN             NaN
             NaN             NaN             NaN
             NaN             NaN             NaN
             NaN             NaN             NaN
             NaN             NaN             NaN
             NaN             NaN             NaN
             NaN             NaN             NaN
             NaN             NaN             NaN
             NaN             NaN             NaN
             NaN             NaN             NaN
             NaN             NaN             NaN
             NaN             NaN             NaN
             NaN             NaN             NaN
             NaN             NaN             NaN
             NaN             NaN             NaN
             NaN             NaN             NaN
             NaN             NaN             NaN
             NaN             NaN             NaN
             NaN             NaN             NaN
             NaN             NaN             NaN
             NaN             NaN             NaN
             NaN             NaN             NaN
             NaN             NaN             NaN
             NaN             NaN             NaN
             NaN             NaN             NaN
             NaN             NaN             NaN
             NaN             NaN             NaN
             NaN             NaN             NaN
             NaN             NaN             NaN
             NaN             NaN             NaN
             NaN             NaN             NaN
             NaN             NaN             NaN
             NaN             NaN             NaN
             NaN             NaN             NaN
