Li48 P16 O64                            
   1.00000000000000     
    10.4901391180482175   -0.0002891199500989   -0.0021019425462779
    -0.0003140282653913   12.2768060192794177    0.0035855712916290
    -0.0019225248374092    0.0028915616325988    9.8923206371824275
   Li   P    O 
    46    16    64
Direct
  0.6557751161483196  0.2516275786087476  0.0989232068929979
  0.6657794431622150  0.2486040763767718  0.5981818177510974
  0.6636422288058128  0.7493562748397338  0.0981162733748135
  0.6638928233039394  0.7505535493515154  0.5981010679969501
  0.1669268738853233  0.4882795190923446  0.1528644138734450
  0.1638529260426438  0.5010074216423774  0.6521139299406116
  0.1667307774642524  0.0018659371106580  0.1498007964967201
  0.1646629207805717  0.0011226153684447  0.6527950175485771
  0.3377127040276307  0.0022868740266375  0.4006092351250672
  0.3367788206262716  0.0027595555123270  0.9064094443529314
  0.3391110614975616  0.4970673487048032  0.3966942933013300
  0.3348722600845164  0.4954172516616140  0.9089440649734399
  0.8368423625029919  0.2477630779774742  0.3478762604694339
  0.8336614294231737  0.2495456265392804  0.8486812831049875
  0.8375607314851834  0.7490138199359961  0.3472016178544308
  0.8369517931885184  0.7489449601278935  0.8479681718277448
  0.3376468894788189  0.2528773345971942  0.3833989259026822
  0.3325410277454210  0.2567912523545530  0.9161437419067866
  0.3370410920863165  0.7491484436351925  0.4007391485200884
  0.3362024544155062  0.7489962416930780  0.9055988489156306
  0.8377283888791069  0.0018177422496777  0.3456427040027279
  0.8364972907783255  0.0012685022230414  0.8473890598123504
  0.8367944166673595  0.4998152389835653  0.3466970564039400
  0.8336846784602017  0.5007659783574141  0.8496227075661267
  0.6563576146110961  0.4957789391039285  0.0970451009855253
  0.6658807101920132  0.5010518101824459  0.5981169328516032
  0.6620925233909531  0.9965567665177417  0.0964974183604710
  0.6644529653991142  0.9991534803639794  0.5989965025558632
  0.1637734227031302  0.2536855367820792  0.6470121871152017
  0.1644153106462483  0.7505220119655931  0.1527998879117263
  0.1648326297784735  0.7523742031102572  0.6521666020386334
  0.9271743346565344  0.3685665381080128  0.1512938314839616
  0.9188964584376293  0.3761155339913387  0.6491370438086719
  0.9242834734365175  0.8758008770785679  0.1490238581066166
  0.9257509992262811  0.8761539461213133  0.6487481959580705
  0.4275566501406018  0.3735090392671410  0.6066707093951536
  0.4282340138776490  0.8761179531235612  0.1023070176658862
  0.4242653765417117  0.8759674452545738  0.6008639410868923
  0.0802579742737279  0.1324270784250032  0.3375729089430735
  0.0772698707191068  0.1302170114544623  0.8584479664499440
  0.0774493911887149  0.6220293193177397  0.3495053633009775
  0.0766918738005344  0.6237610760883996  0.8517138148757155
  0.5760679666848745  0.1263874859144707  0.3994597849252415
  0.5718781393897174  0.1268910734955426  0.9027654140353434
  0.5754563765458798  0.6225736299440356  0.3997374716405702
  0.5719059245185107  0.6229523188785819  0.9000167145018239
  0.9080842427585836  0.1208548482531313  0.0955138055070464
  0.9135846750776224  0.1238099276097060  0.5951921998719243
  0.9112825551720078  0.6246567830475769  0.0962710429213800
  0.9124255301494273  0.6276171525256018  0.5952137066347376
  0.4130948472257217  0.1217121695217003  0.1531611346436250
  0.4115164827907520  0.1251672934173200  0.6551599230568996
  0.4086985866720951  0.6294050241764211  0.1537077306876569
  0.4107445920887329  0.6256402579941778  0.6546769680499480
  0.0874152035517355  0.3743118431278418  0.4098346444517489
  0.0832514947994198  0.3777781482894369  0.9004445265084726
  0.0895779438591262  0.8754920551756129  0.4044281132974490
  0.0887781906510767  0.8750262010901722  0.9051215124815428
  0.5939994347188744  0.3750097077079957  0.3495684084446751
  0.5862694263089807  0.3752902150258066  0.8391131909374465
  0.5902476730290545  0.8740252603795469  0.3473486451080419
  0.5885697634651024  0.8741938455574214  0.8444007820013439
  0.8349895163125680  0.0176242045272019  0.1434106955029861
  0.8432275749054909  0.0205537587745965  0.6459201486635351
  0.8391397503220688  0.5234209439413746  0.1470070248806152
  0.8414502835374051  0.5268955026196736  0.6489383696563209
  0.3442401364394740  0.2185349141719399  0.0980153416075282
  0.3439077992989326  0.2273109505013053  0.6014379474960094
  0.3448938949564493  0.7376933992471066  0.1089370563155327
  0.3419871419916589  0.7291023952521769  0.6026461627771909
  0.1575933111790491  0.2698968693048585  0.3746660716303793
  0.1541113681233597  0.2756349966418910  0.8490168081533298
  0.1579337078666967  0.7714542745010888  0.3546300948941550
  0.1588796753455455  0.7725206310321369  0.8532446523130162
  0.6621490264395860  0.4786655241071642  0.4042073527330672
  0.6536783656726399  0.4780508022015226  0.8959995475225284
  0.6604258306010209  0.9762778500694367  0.3991125177172421
  0.6585280694358175  0.9766902375499100  0.8948867842985351
  0.1584582221367299  0.4757917134274550  0.3549242600123961
  0.1548024069886580  0.4797454113599713  0.8465497657869818
  0.1602591287229629  0.9768616682790210  0.3525328106493077
  0.1584840598245378  0.9778525711087624  0.8545879022005778
  0.6620454428907010  0.2716925878499907  0.4045594391752445
  0.6532704030744227  0.2729891392905941  0.8969245024411663
  0.6595665841755789  0.7708568654032248  0.3987796484764061
  0.6583223162521534  0.7713279949888445  0.8960267835960138
  0.8382869474336516  0.2231056475249815  0.1485639938672634
  0.8420480319674297  0.2252546748953392  0.6467566873776391
  0.8418149533966215  0.7285721343528735  0.1464835440632726
  0.8426127053208674  0.7311432291197590  0.6449596709900973
  0.3467768496025201  0.0140516187087414  0.1070238602483329
  0.3422839674987088  0.0217074088549012  0.6030098926020884
  0.3311506118157155  0.5355803793967056  0.0977145125549441
  0.3421455056763918  0.5238524201592014  0.6003299795688903
  0.5536822228836584  0.1183993686287081  0.1036212255111693
  0.5508306373812744  0.1231418542546265  0.6046216372440298
  0.5473031857193433  0.6270417758467843  0.1008413707608753
  0.5498987143441525  0.6263450247561693  0.6044767745124773
  0.0436818725042016  0.1148072685988879  0.1475497461433690
  0.0505969708159455  0.1242290205350898  0.6499393135616103
  0.0489528904941849  0.6249402623761497  0.1495389099285305
  0.0504666094560022  0.6289634178846129  0.6472749901128481
  0.4557853937954306  0.3754938492645010  0.4017679383565209
  0.4442656826517748  0.3762059466437222  0.8685001184954402
  0.4521132496858371  0.8743748261633897  0.3995371177118585
  0.4504666197791991  0.8743261522584689  0.8960033678878006
  0.9500259608171149  0.3740347980390339  0.3530801607392391
  0.9452172275081949  0.3761965539419876  0.8439924160502272
  0.9510157114347351  0.8752440856512038  0.3524411156990155
  0.9506825827569401  0.8747245288613072  0.8517791992089840
  0.6038901505745073  0.3749859307527714  0.1964832078446932
  0.6028935000315698  0.3750691707015719  0.6834520956074357
  0.5918920230459932  0.8730232188824445  0.1914635042552106
  0.5896903246731355  0.8739069985796419  0.6882298958246693
  0.0776784905264236  0.3832731912870031  0.0534512830968481
  0.0816674805004567  0.3826263559292542  0.5659601009516422
  0.0885993854368365  0.8738196283106845  0.0608959605809787
  0.0900916622383718  0.8760554141385271  0.5608722620190960
  0.4146828206445932  0.1221118192253314  0.3106392382074503
  0.4090943539081593  0.1245614103678321  0.8110465738116943
  0.4112673966751714  0.6258116456135525  0.3104744120899738
  0.4079797819406537  0.6257273385384039  0.8105997258278137
  0.9137081488788752  0.1236179151591017  0.4391794836778402
  0.9066103847540603  0.1240292301809021  0.9386556877753733
  0.9118594459464333  0.6257178769893130  0.4390720401727464
  0.9109703755740810  0.6255513741166610  0.9397372060440929
 
  0.00000000E+00  0.00000000E+00  0.00000000E+00
  0.00000000E+00  0.00000000E+00  0.00000000E+00
  0.00000000E+00  0.00000000E+00  0.00000000E+00
  0.00000000E+00  0.00000000E+00  0.00000000E+00
  0.00000000E+00  0.00000000E+00  0.00000000E+00
  0.00000000E+00  0.00000000E+00  0.00000000E+00
  0.00000000E+00  0.00000000E+00  0.00000000E+00
  0.00000000E+00  0.00000000E+00  0.00000000E+00
  0.00000000E+00  0.00000000E+00  0.00000000E+00
  0.00000000E+00  0.00000000E+00  0.00000000E+00
  0.00000000E+00  0.00000000E+00  0.00000000E+00
  0.00000000E+00  0.00000000E+00  0.00000000E+00
  0.00000000E+00  0.00000000E+00  0.00000000E+00
  0.00000000E+00  0.00000000E+00  0.00000000E+00
  0.00000000E+00  0.00000000E+00  0.00000000E+00
  0.00000000E+00  0.00000000E+00  0.00000000E+00
  0.00000000E+00  0.00000000E+00  0.00000000E+00
  0.00000000E+00  0.00000000E+00  0.00000000E+00
  0.00000000E+00  0.00000000E+00  0.00000000E+00
  0.00000000E+00  0.00000000E+00  0.00000000E+00
  0.00000000E+00  0.00000000E+00  0.00000000E+00
  0.00000000E+00  0.00000000E+00  0.00000000E+00
  0.00000000E+00  0.00000000E+00  0.00000000E+00
  0.00000000E+00  0.00000000E+00  0.00000000E+00
  0.00000000E+00  0.00000000E+00  0.00000000E+00
  0.00000000E+00  0.00000000E+00  0.00000000E+00
  0.00000000E+00  0.00000000E+00  0.00000000E+00
  0.00000000E+00  0.00000000E+00  0.00000000E+00
  0.00000000E+00  0.00000000E+00  0.00000000E+00
  0.00000000E+00  0.00000000E+00  0.00000000E+00
  0.00000000E+00  0.00000000E+00  0.00000000E+00
  0.00000000E+00  0.00000000E+00  0.00000000E+00
  0.00000000E+00  0.00000000E+00  0.00000000E+00
  0.00000000E+00  0.00000000E+00  0.00000000E+00
  0.00000000E+00  0.00000000E+00  0.00000000E+00
  0.00000000E+00  0.00000000E+00  0.00000000E+00
  0.00000000E+00  0.00000000E+00  0.00000000E+00
  0.00000000E+00  0.00000000E+00  0.00000000E+00
  0.00000000E+00  0.00000000E+00  0.00000000E+00
  0.00000000E+00  0.00000000E+00  0.00000000E+00
  0.00000000E+00  0.00000000E+00  0.00000000E+00
  0.00000000E+00  0.00000000E+00  0.00000000E+00
  0.00000000E+00  0.00000000E+00  0.00000000E+00
  0.00000000E+00  0.00000000E+00  0.00000000E+00
  0.00000000E+00  0.00000000E+00  0.00000000E+00
  0.00000000E+00  0.00000000E+00  0.00000000E+00
  0.00000000E+00  0.00000000E+00  0.00000000E+00
  0.00000000E+00  0.00000000E+00  0.00000000E+00
  0.00000000E+00  0.00000000E+00  0.00000000E+00
  0.00000000E+00  0.00000000E+00  0.00000000E+00
  0.00000000E+00  0.00000000E+00  0.00000000E+00
  0.00000000E+00  0.00000000E+00  0.00000000E+00
  0.00000000E+00  0.00000000E+00  0.00000000E+00
  0.00000000E+00  0.00000000E+00  0.00000000E+00
  0.00000000E+00  0.00000000E+00  0.00000000E+00
  0.00000000E+00  0.00000000E+00  0.00000000E+00
  0.00000000E+00  0.00000000E+00  0.00000000E+00
  0.00000000E+00  0.00000000E+00  0.00000000E+00
  0.00000000E+00  0.00000000E+00  0.00000000E+00
  0.00000000E+00  0.00000000E+00  0.00000000E+00
  0.00000000E+00  0.00000000E+00  0.00000000E+00
  0.00000000E+00  0.00000000E+00  0.00000000E+00
  0.00000000E+00  0.00000000E+00  0.00000000E+00
  0.00000000E+00  0.00000000E+00  0.00000000E+00
  0.00000000E+00  0.00000000E+00  0.00000000E+00
  0.00000000E+00  0.00000000E+00  0.00000000E+00
  0.00000000E+00  0.00000000E+00  0.00000000E+00
  0.00000000E+00  0.00000000E+00  0.00000000E+00
  0.00000000E+00  0.00000000E+00  0.00000000E+00
  0.00000000E+00  0.00000000E+00  0.00000000E+00
  0.00000000E+00  0.00000000E+00  0.00000000E+00
  0.00000000E+00  0.00000000E+00  0.00000000E+00
  0.00000000E+00  0.00000000E+00  0.00000000E+00
  0.00000000E+00  0.00000000E+00  0.00000000E+00
  0.00000000E+00  0.00000000E+00  0.00000000E+00
  0.00000000E+00  0.00000000E+00  0.00000000E+00
  0.00000000E+00  0.00000000E+00  0.00000000E+00
  0.00000000E+00  0.00000000E+00  0.00000000E+00
  0.00000000E+00  0.00000000E+00  0.00000000E+00
  0.00000000E+00  0.00000000E+00  0.00000000E+00
  0.00000000E+00  0.00000000E+00  0.00000000E+00
  0.00000000E+00  0.00000000E+00  0.00000000E+00
  0.00000000E+00  0.00000000E+00  0.00000000E+00
  0.00000000E+00  0.00000000E+00  0.00000000E+00
  0.00000000E+00  0.00000000E+00  0.00000000E+00
  0.00000000E+00  0.00000000E+00  0.00000000E+00
  0.00000000E+00  0.00000000E+00  0.00000000E+00
  0.00000000E+00  0.00000000E+00  0.00000000E+00
  0.00000000E+00  0.00000000E+00  0.00000000E+00
  0.00000000E+00  0.00000000E+00  0.00000000E+00
  0.00000000E+00  0.00000000E+00  0.00000000E+00
  0.00000000E+00  0.00000000E+00  0.00000000E+00
  0.00000000E+00  0.00000000E+00  0.00000000E+00
  0.00000000E+00  0.00000000E+00  0.00000000E+00
  0.00000000E+00  0.00000000E+00  0.00000000E+00
  0.00000000E+00  0.00000000E+00  0.00000000E+00
  0.00000000E+00  0.00000000E+00  0.00000000E+00
  0.00000000E+00  0.00000000E+00  0.00000000E+00
  0.00000000E+00  0.00000000E+00  0.00000000E+00
  0.00000000E+00  0.00000000E+00  0.00000000E+00
  0.00000000E+00  0.00000000E+00  0.00000000E+00
  0.00000000E+00  0.00000000E+00  0.00000000E+00
  0.00000000E+00  0.00000000E+00  0.00000000E+00
  0.00000000E+00  0.00000000E+00  0.00000000E+00
  0.00000000E+00  0.00000000E+00  0.00000000E+00
  0.00000000E+00  0.00000000E+00  0.00000000E+00
  0.00000000E+00  0.00000000E+00  0.00000000E+00
  0.00000000E+00  0.00000000E+00  0.00000000E+00
  0.00000000E+00  0.00000000E+00  0.00000000E+00
  0.00000000E+00  0.00000000E+00  0.00000000E+00
  0.00000000E+00  0.00000000E+00  0.00000000E+00
  0.00000000E+00  0.00000000E+00  0.00000000E+00
  0.00000000E+00  0.00000000E+00  0.00000000E+00
  0.00000000E+00  0.00000000E+00  0.00000000E+00
  0.00000000E+00  0.00000000E+00  0.00000000E+00
  0.00000000E+00  0.00000000E+00  0.00000000E+00
  0.00000000E+00  0.00000000E+00  0.00000000E+00
  0.00000000E+00  0.00000000E+00  0.00000000E+00
  0.00000000E+00  0.00000000E+00  0.00000000E+00
  0.00000000E+00  0.00000000E+00  0.00000000E+00
  0.00000000E+00  0.00000000E+00  0.00000000E+00
  0.00000000E+00  0.00000000E+00  0.00000000E+00
  0.00000000E+00  0.00000000E+00  0.00000000E+00
  0.00000000E+00  0.00000000E+00  0.00000000E+00
  0.00000000E+00  0.00000000E+00  0.00000000E+00
  0.00000000E+00  0.00000000E+00  0.00000000E+00
