Mg8 Sc16 Se32                           
   1.00000000000000     
    11.2093772948895651    0.0000000718687376    0.0000005070768551
     0.0000000906927990   11.2093793579916010   -0.0000001382952207
     0.0000004718098606   -0.0000001361554946   11.2093784904681364
   Mg   Sc   Se
     7    16    32
Direct
  0.3773072068646144  0.3773072262986759  0.3773071686597262
  0.6250000121808839  0.1249999827621409  0.1250000030143568
  0.1249999913278046  0.6250000075620363  0.1249999968897129
  0.1250000122505597  0.1249999930219019  0.6250000016934081
  0.3773071850947147  0.8726927761755832  0.8726928151946396
  0.8726927912888911  0.3773072120922691  0.8726928198559634
  0.8726927973014469  0.8726927598551555  0.3773071486656647
  0.9938839043095555  0.7497598584576650  0.7497598138288666
  0.7497599121879333  0.9938840022536866  0.7497598214120913
  0.7497598578357412  0.7497598671208294  0.9938838551557083
  0.0001749957182895  0.0001749847672272  0.0001749771524473
  0.0001749925967118  0.2498250210843409  0.2498250217898601
  0.2498250162601678  0.0001749607568442  0.2498250325617377
  0.2498250442547203  0.2498250189913165  0.0001750028138758
  0.7497598613014205  0.5002401324025101  0.2561161570126345
  0.7497598831238221  0.2561159571880580  0.5002401434684103
  0.9938839350546402  0.5002401082452721  0.5002401683845932
  0.2561160382461694  0.5002401281837976  0.7497598736983591
  0.2561160773354203  0.7497598420233302  0.5002401548384654
  0.5002401138097525  0.7497598359998534  0.2561161265049918
  0.5002400971352614  0.9938840183727535  0.5002401557156091
  0.5002401053955694  0.2561159866878313  0.7497598568703268
  0.5002401862503163  0.5002401455229943  0.9938838544258815
  0.7581563012888708  0.9929293436194087  0.9929292985901839
  0.9929293463987108  0.7581563060995080  0.9929293155885901
  0.9929293477290528  0.9929293415906315  0.7581562743701014
  0.7565629863330159  0.7565630481578296  0.7565629616668730
  0.2430002136045815  0.0069998230143824  0.0069998268392908
  0.0069998162236544  0.2430001959638730  0.0069998190769667
  0.0069997964322326  0.0069998198146521  0.2430001849691479
  0.2430002087254977  0.2430001859071922  0.2430001952149112
  0.7565629866091612  0.4934369438309076  0.4934370451416612
  0.9929293459091824  0.2570706474563025  0.4918437123590351
  0.9929293411480486  0.4918437085008520  0.2570706774566673
  0.7581562895406506  0.2570706634074611  0.2570706696913589
  0.2400909677044751  0.5071420560627473  0.5071420672012792
  0.0099090153673060  0.7428579256147145  0.5071420342923574
  0.0099090207376236  0.5071420695610627  0.7428579533391968
  0.2400909730614984  0.7428579315374151  0.7428579505407882
  0.2570706504993865  0.9929293220191724  0.4918437117156316
  0.4934369917380437  0.7565630382354342  0.4934370187519335
  0.4918437075142137  0.9929293203969252  0.2570706803793357
  0.2570706411576040  0.7581562879235051  0.2570706667377749
  0.7428579391380978  0.0099090238875661  0.5071420505836244
  0.5071420498911721  0.2400909788034795  0.5071420600679417
  0.5071420726464666  0.0099090172977228  0.7428579489047848
  0.7428579397189239  0.2400909667583875  0.7428579362033574
  0.2570706721531906  0.4918436975469618  0.9929293455070365
  0.4918437256581853  0.2570706621429437  0.9929293382615754
  0.4934370043998371  0.4934369427216652  0.7565629712735458
  0.2570706431691008  0.2570706517086521  0.7581563024484481
  0.7428579622128950  0.5071420749027524  0.0099090567781914
  0.5071420407470484  0.7428579386817091  0.0099090228585155
  0.5071420458833060  0.5071420467357513  0.2400909482460918
  0.7428579481128210  0.7428579257608163  0.2400909469926304
 
  0.00000000E+00  0.00000000E+00  0.00000000E+00
  0.00000000E+00  0.00000000E+00  0.00000000E+00
  0.00000000E+00  0.00000000E+00  0.00000000E+00
  0.00000000E+00  0.00000000E+00  0.00000000E+00
  0.00000000E+00  0.00000000E+00  0.00000000E+00
  0.00000000E+00  0.00000000E+00  0.00000000E+00
  0.00000000E+00  0.00000000E+00  0.00000000E+00
  0.00000000E+00  0.00000000E+00  0.00000000E+00
  0.00000000E+00  0.00000000E+00  0.00000000E+00
  0.00000000E+00  0.00000000E+00  0.00000000E+00
  0.00000000E+00  0.00000000E+00  0.00000000E+00
  0.00000000E+00  0.00000000E+00  0.00000000E+00
  0.00000000E+00  0.00000000E+00  0.00000000E+00
  0.00000000E+00  0.00000000E+00  0.00000000E+00
  0.00000000E+00  0.00000000E+00  0.00000000E+00
  0.00000000E+00  0.00000000E+00  0.00000000E+00
  0.00000000E+00  0.00000000E+00  0.00000000E+00
  0.00000000E+00  0.00000000E+00  0.00000000E+00
  0.00000000E+00  0.00000000E+00  0.00000000E+00
  0.00000000E+00  0.00000000E+00  0.00000000E+00
  0.00000000E+00  0.00000000E+00  0.00000000E+00
  0.00000000E+00  0.00000000E+00  0.00000000E+00
  0.00000000E+00  0.00000000E+00  0.00000000E+00
  0.00000000E+00  0.00000000E+00  0.00000000E+00
  0.00000000E+00  0.00000000E+00  0.00000000E+00
  0.00000000E+00  0.00000000E+00  0.00000000E+00
  0.00000000E+00  0.00000000E+00  0.00000000E+00
  0.00000000E+00  0.00000000E+00  0.00000000E+00
  0.00000000E+00  0.00000000E+00  0.00000000E+00
  0.00000000E+00  0.00000000E+00  0.00000000E+00
  0.00000000E+00  0.00000000E+00  0.00000000E+00
  0.00000000E+00  0.00000000E+00  0.00000000E+00
  0.00000000E+00  0.00000000E+00  0.00000000E+00
  0.00000000E+00  0.00000000E+00  0.00000000E+00
  0.00000000E+00  0.00000000E+00  0.00000000E+00
  0.00000000E+00  0.00000000E+00  0.00000000E+00
  0.00000000E+00  0.00000000E+00  0.00000000E+00
  0.00000000E+00  0.00000000E+00  0.00000000E+00
  0.00000000E+00  0.00000000E+00  0.00000000E+00
  0.00000000E+00  0.00000000E+00  0.00000000E+00
  0.00000000E+00  0.00000000E+00  0.00000000E+00
  0.00000000E+00  0.00000000E+00  0.00000000E+00
  0.00000000E+00  0.00000000E+00  0.00000000E+00
  0.00000000E+00  0.00000000E+00  0.00000000E+00
  0.00000000E+00  0.00000000E+00  0.00000000E+00
  0.00000000E+00  0.00000000E+00  0.00000000E+00
  0.00000000E+00  0.00000000E+00  0.00000000E+00
  0.00000000E+00  0.00000000E+00  0.00000000E+00
  0.00000000E+00  0.00000000E+00  0.00000000E+00
  0.00000000E+00  0.00000000E+00  0.00000000E+00
  0.00000000E+00  0.00000000E+00  0.00000000E+00
  0.00000000E+00  0.00000000E+00  0.00000000E+00
  0.00000000E+00  0.00000000E+00  0.00000000E+00
  0.00000000E+00  0.00000000E+00  0.00000000E+00
  0.00000000E+00  0.00000000E+00  0.00000000E+00
