Li7 Mn16 O32
1.0
8.731010 -0.035878 0.034533
-0.033574 8.213898 -0.034437
0.034856 -0.031012 8.213815
Li Mn O
7 16 32
direct
0.140467 0.619611 0.630391 Li
0.362893 0.876872 0.373129 Li
0.863683 0.872441 0.872561 Li
0.141091 0.125059 0.124941 Li
0.863683 0.377440 0.377560 Li
0.633276 0.125679 0.625310 Li
0.633277 0.624691 0.124322 Li
0.505109 0.251956 0.250429 Mn
0.250621 0.498319 0.246554 Mn
0.251029 0.250925 0.501695 Mn
0.499432 0.502409 0.499472 Mn
0.499432 0.750529 0.747591 Mn
0.743375 0.498757 0.751242 Mn
0.750937 0.749428 0.500572 Mn
0.250622 0.003445 0.751681 Mn
0.251030 0.748307 0.999076 Mn
0.505110 0.999572 0.998045 Mn
0.753367 0.999156 0.250845 Mn
0.750115 0.248850 0.001151 Mn
0.995458 0.247598 0.748775 Mn
0.995459 0.501225 0.002400 Mn
0.001106 0.749930 0.250755 Mn
0.001107 0.999245 0.500069 Mn
0.731595 0.013213 0.011707 O
0.995525 0.733970 0.014825 O
0.994726 0.012825 0.734463 O
0.723976 0.737566 0.737920 O
0.281343 0.990545 0.989541 O
0.977441 0.259530 0.990471 O
0.005180 0.985143 0.264856 O
0.281341 0.260462 0.259455 O
0.723975 0.512079 0.512434 O
0.995526 0.235173 0.516028 O
0.994726 0.515538 0.237175 O
0.731596 0.238294 0.236788 O
0.275654 0.487615 0.485191 O
0.003742 0.764702 0.485299 O
0.996468 0.482827 0.767171 O
0.275655 0.764811 0.762384 O
0.224591 0.014114 0.512315 O
0.498298 0.737681 0.512319 O
0.502148 0.016215 0.233788 O
0.224590 0.737683 0.235888 O
0.776817 0.987700 0.487720 O
0.503035 0.265570 0.483179 O
0.504141 0.986936 0.764487 O
0.768121 0.260241 0.766197 O
0.214157 0.510977 0.013515 O
0.528411 0.236952 0.013047 O
0.497056 0.520305 0.729698 O
0.214156 0.236481 0.739027 O
0.768121 0.483803 0.989758 O
0.503035 0.766823 0.984433 O
0.504140 0.485513 0.263064 O
0.776816 0.762280 0.262300 O
