Li47 P16 O64                            
   1.00000000000000     
    10.4405429999999999   -0.0007920000000000   -0.0144280000000000
    -0.0009120000000000   12.2369859999999999   -0.0014720000000000
    -0.0136410000000000   -0.0011840000000000    9.8326720000000005
   Li   P    O 
    47    16    64
Direct
  0.5926197474026663  0.2678377051309444  0.0803737207298822
  0.6655576881147929  0.2506415078856693  0.5975788543846042
  0.6635208052446928  0.7508911117791168  0.0976750052568067
  0.6644009844254164  0.7513361283275901  0.5985770504973753
  0.1649674911928954  0.4973447798440383  0.1519433005969220
  0.1651163460069003  0.4986028783469750  0.6524009667622250
  0.1627212503084798  0.9963762961269128  0.1529186860887159
  0.1642372842127633  0.9989144397856998  0.6525201497030282
  0.3359024476524389  0.0002442812968839  0.4020632953374368
  0.3357958656023129  0.0006396038875050  0.9041320931538830
  0.3387055554567797  0.4996153810646991  0.3971347544758184
  0.3373821667087541  0.4972376706917723  0.9111363250288591
  0.8332502099862147  0.2493490361490164  0.3435129691651611
  0.8324723204429931  0.2495605476038978  0.8545789244247668
  0.8363531493974835  0.7486720697305194  0.3478070285183683
  0.8364587660286804  0.7486760997740893  0.8475551130223208
  0.3381981850256972  0.2514787454521332  0.3977841660127560
  0.3359607470571447  0.2531857849659340  0.9071522306073462
  0.3368129998065749  0.7497665608266674  0.4008558685604577
  0.3363625393573736  0.7493495838136838  0.9055295199132528
  0.8366480044634577  0.0023888733701599  0.3477369976330494
  0.8374002958588248  0.0012869875498292  0.8479127890130105
  0.8346897267097889  0.5010119789957523  0.3477535077794517
  0.8343104983499012  0.5011550438603540  0.8491052642554766
  0.6571141564274632  0.4987590383961430  0.0971555242426390
  0.6657712646251642  0.5021190756814431  0.5989366567156481
  0.6657263807872158  0.0020103777996754  0.0989712740618778
  0.6642206957782725  1.0000366413232300  0.5978974754492775
  0.1650540683501670  0.2521545360129117  0.1504046394709183
  0.1641974112920997  0.2512053928820950  0.6524433670407429
  0.1647050837822631  0.7509470252590116  0.1522756813346127
  0.1648197220730202  0.7512868989878800  0.6528382894755276
  0.9187601492121927  0.3742918192410224  0.1475557941498599
  0.9223065765335363  0.3744972321840799  0.6497682021638397
  0.9225636099266052  0.8755495148794260  0.1494475730904670
  0.9236397574341543  0.8752303432018905  0.6486734118642505
  0.4249565661563323  0.3758008922050438  0.6044076532183347
  0.4281809132010655  0.8753518261540179  0.1013950535360578
  0.4246715301488324  0.8752946239881789  0.6009897792484232
  0.0762742407947445  0.1260240074261658  0.3489230260808764
  0.0768419786748674  0.1255728190439238  0.8529904326350044
  0.0770739074639105  0.6240071382984889  0.3507304321326807
  0.0776725017186031  0.6239661186363950  0.8523243427715343
  0.5759913282808010  0.1276156624400507  0.3979339655779262
  0.5765087213214029  0.1230831728271311  0.8966388689894741
  0.5760156236138020  0.6247448339523274  0.4004724113583309
  0.5732504373732875  0.6245575480998745  0.8992787863070417
  0.9131693986051556  0.1253948522385117  0.0957922398167313
  0.9125274752621236  0.1249351168922013  0.5957634563476135
  0.9109999946529710  0.6255136427906230  0.0954763412326033
  0.9132676002175308  0.6256979915435547  0.5954682640923346
  0.4062692723959461  0.1187487219796944  0.1539649677821948
  0.4111330298373816  0.1248358288715742  0.6550144786427390
  0.4096173618968862  0.6296572919084278  0.1543716034502184
  0.4107711439107020  0.6261483675832629  0.6552029344350840
  0.0872429297123094  0.3751602562687902  0.4047082760425121
  0.0860332632247741  0.3751495793431575  0.9047990593614305
  0.0874150642871554  0.8747699910249885  0.4052741153492672
  0.0876590818304643  0.8744382016876230  0.9049985171547428
  0.5902834131281492  0.3775173645179924  0.3504176356063631
  0.5855991214000540  0.3763745077354446  0.8376222208433893
  0.5898960759946719  0.8757822403884864  0.3456534331789479
  0.5893274969926915  0.8750524724299477  0.8449927846104903
  0.8433088694469700  0.0219576707921915  0.1475698009171992
  0.8425857832062962  0.0214772152009712  0.6462900788218393
  0.8393087357020687  0.5233738419847154  0.1462927659662148
  0.8435465607626104  0.5232448882244208  0.6485511342616935
  0.3341839512469251  0.2168816634149496  0.0982545989546693
  0.3411925509693087  0.2270385776320679  0.6016781062452289
  0.3442504777481882  0.7375962344734277  0.1083933561585105
  0.3417615306705458  0.7298340121823896  0.6027510655014391
  0.1572029263723813  0.2723526367736124  0.3530333824452728
  0.1557247200289586  0.2722895811259877  0.8528851659736502
  0.1573739261492878  0.7718716404297261  0.3537365715239038
  0.1583377600949383  0.7716214168941110  0.8538921686411094
  0.6601485513229955  0.4801900597950521  0.4052102626758272
  0.6550638312250607  0.4784732738666881  0.8943887258687323
  0.6592218309406829  0.9791324525337678  0.3980190376253242
  0.6601667849044307  0.9776071471847895  0.8969043140003596
  0.1578745831709218  0.4781139550750527  0.3539997899787757
  0.1563849991754011  0.4777364017630619  0.8527404824727568
  0.1572657289745429  0.9777677229769016  0.3541927687091902
  0.1580228306500711  0.9772727696613883  0.8538313580729985
  0.6594259787453733  0.2732254531913950  0.4020943140690770
  0.6516438057541819  0.2725442539239032  0.8936093304027243
  0.6596444776207495  0.7728281098748397  0.3982534022379947
  0.6588978652253208  0.7716608322612932  0.8960229149579046
  0.8464560501815062  0.2281605012828140  0.1476337720663059
  0.8425471483116473  0.2269216739866549  0.6497945310879033
  0.8414892295637643  0.7290044745582028  0.1464700304682250
  0.8428824233174230  0.7286662962591056  0.6464645987914523
  0.3398766140223108  0.0120915345626219  0.1078169856737526
  0.3418213998012727  0.0210594638121472  0.6029491693244933
  0.3319329509417014  0.5345780655464163  0.0996012204322148
  0.3414863986008487  0.5240256353294614  0.6009097111543341
  0.5447776266056155  0.1200128005407286  0.0997925158311871
  0.5504702744983592  0.1246356357038935  0.6040681137306319
  0.5482580735881423  0.6280271774787958  0.1007978995899092
  0.5505807071749980  0.6271570244373177  0.6053689012265457
  0.0534218934965077  0.1225873544230595  0.1455571449464458
  0.0517046215248145  0.1242380742128696  0.6477145460280204
  0.0495915484882793  0.6250963045481998  0.1484510776595462
  0.0522770077634569  0.6259971767637208  0.6474126220276518
  0.4519230183365164  0.3759051142315838  0.4044420475918557
  0.4446741745085707  0.3757110350404574  0.8763500412253395
  0.4509077142858660  0.8754945624256045  0.3973221580839669
  0.4506304151155622  0.8754516445250334  0.8961733177187460
  0.9482982017675501  0.3759439396498042  0.3529696745107984
  0.9467312460356044  0.3753695443186498  0.8525979661415872
  0.9484287239067370  0.8749020657244105  0.3535756282323380
  0.9491404639281473  0.8745109177686581  0.8512519529135189
  0.5947206859697733  0.3812014933264051  0.1962673892591074
  0.5970624221975592  0.3766398379057018  0.6813726652554745
  0.5927178174410573  0.8759469485276959  0.1891349120357041
  0.5905354851076076  0.8756273337539101  0.6879364307818646
  0.0859069456479481  0.3752870227018273  0.0614203612446594
  0.0882873431832812  0.3748654059349156  0.5619171608870307
  0.0868894422461556  0.8738061893467196  0.0615997515453870
  0.0888672198675183  0.8746972074013730  0.5623345095836190
  0.4093614762635013  0.1226877123423150  0.3112706737599311
  0.4092143037060117  0.1245379229824826  0.8117110080377549
  0.4121263967528890  0.6269486646169813  0.3118099970178814
  0.4079732313488203  0.6257446409717480  0.8118116121326940
  0.9111405349973069  0.1260804929064894  0.4389498341690768
  0.9111569605637844  0.1241259014329240  0.9382793304064242
  0.9117873944474704  0.6251541822943307  0.4386090410996511
  0.9110176602241219  0.6255475594026866  0.9383795824126532
 
             NaN             NaN             NaN
             NaN             NaN             NaN
             NaN             NaN             NaN
             NaN             NaN             NaN
             NaN             NaN             NaN
             NaN             NaN             NaN
             NaN             NaN             NaN
             NaN             NaN             NaN
             NaN             NaN             NaN
             NaN             NaN             NaN
             NaN             NaN             NaN
             NaN             NaN             NaN
             NaN             NaN             NaN
             NaN             NaN             NaN
             NaN             NaN             NaN
             NaN             NaN             NaN
             NaN             NaN             NaN
             NaN             NaN             NaN
             NaN             NaN             NaN
             NaN             NaN             NaN
             NaN             NaN             NaN
             NaN             NaN             NaN
             NaN             NaN             NaN
             NaN             NaN             NaN
             NaN             NaN             NaN
             NaN             NaN             NaN
             NaN             NaN             NaN
             NaN             NaN             NaN
             NaN             NaN             NaN
             NaN             NaN             NaN
             NaN             NaN             NaN
             NaN             NaN             NaN
             NaN             NaN             NaN
             NaN             NaN             NaN
             NaN             NaN             NaN
             NaN             NaN             NaN
             NaN             NaN             NaN
             NaN             NaN             NaN
             NaN             NaN             NaN
             NaN             NaN             NaN
             NaN             NaN             NaN
             NaN             NaN             NaN
             NaN             NaN             NaN
             NaN             NaN             NaN
             NaN             NaN             NaN
             NaN             NaN             NaN
             NaN             NaN             NaN
             NaN             NaN             NaN
             NaN             NaN             NaN
             NaN             NaN             NaN
             NaN             NaN             NaN
             NaN             NaN             NaN
             NaN             NaN             NaN
             NaN             NaN             NaN
             NaN             NaN             NaN
             NaN             NaN             NaN
             NaN             NaN             NaN
             NaN             NaN             NaN
             NaN             NaN             NaN
             NaN             NaN             NaN
             NaN             NaN             NaN
             NaN             NaN             NaN
             NaN             NaN             NaN
             NaN             NaN             NaN
             NaN             NaN             NaN
             NaN             NaN             NaN
             NaN             NaN             NaN
             NaN             NaN             NaN
             NaN             NaN             NaN
             NaN             NaN             NaN
             NaN             NaN             NaN
             NaN             NaN             NaN
             NaN             NaN             NaN
             NaN             NaN             NaN
             NaN             NaN             NaN
             NaN             NaN             NaN
             NaN             NaN             NaN
             NaN             NaN             NaN
             NaN             NaN             NaN
             NaN             NaN             NaN
             NaN             NaN             NaN
             NaN             NaN             NaN
             NaN             NaN             NaN
             NaN             NaN             NaN
             NaN             NaN             NaN
             NaN             NaN             NaN
             NaN             NaN             NaN
             NaN             NaN             NaN
             NaN             NaN             NaN
             NaN             NaN             NaN
             NaN             NaN             NaN
             NaN             NaN             NaN
             NaN             NaN             NaN
             NaN             NaN             NaN
             NaN             NaN             NaN
             NaN             NaN             NaN
             NaN             NaN             NaN
             NaN             NaN             NaN
             NaN             NaN             NaN
             NaN             NaN             NaN
             NaN             NaN             NaN
             NaN             NaN             NaN
             NaN             NaN             NaN
             NaN             NaN             NaN
             NaN             NaN             NaN
             NaN             NaN             NaN
             NaN             NaN             NaN
             NaN             NaN             NaN
             NaN             NaN             NaN
             NaN             NaN             NaN
             NaN             NaN             NaN
             NaN             NaN             NaN
             NaN             NaN             NaN
             NaN             NaN             NaN
             NaN             NaN             NaN
             NaN             NaN             NaN
             NaN             NaN             NaN
             NaN             NaN             NaN
             NaN             NaN             NaN
             NaN             NaN             NaN
             NaN             NaN             NaN
             NaN             NaN             NaN
             NaN             NaN             NaN
             NaN             NaN             NaN
             NaN             NaN             NaN
             NaN             NaN             NaN
             NaN             NaN             NaN
