Li46 P16 O64
1.0
10.492455 -0.004748 -0.019022
-0.005506 12.284724 -0.007942
-0.017812 -0.006392 9.886382
Li P O
46 16 64
direct
0.348714 0.250678 0.130369 Li
0.665056 0.250766 0.599887 Li
0.663051 0.749197 0.097271 Li
0.663998 0.751203 0.598761 Li
0.165289 0.493832 0.152082 Li
0.164738 0.499592 0.652351 Li
0.164864 -0.002968 0.152464 Li
0.165099 -0.000476 0.652827 Li
0.337378 0.001211 0.401017 Li
0.337706 0.002388 0.907268 Li
0.339779 0.497891 0.396453 Li
0.337821 0.495434 0.909293 Li
0.832988 0.248906 0.344703 Li
0.832845 0.249038 0.852442 Li
0.836577 0.748388 0.347475 Li
0.836543 0.748765 0.847737 Li
0.338844 0.252326 0.391540 Li
0.338216 0.254899 0.913180 Li
0.337383 0.749539 0.400546 Li
0.337065 0.749908 0.905457 Li
0.837335 0.002305 0.346489 Li
0.837075 0.002061 0.847930 Li
0.833523 0.499994 0.346767 Li
0.833078 0.499961 0.849656 Li
0.653876 0.491553 0.094463 Li
0.665541 0.502558 0.597291 Li
0.664247 1.000397 0.098588 Li
0.663962 1.001056 0.598747 Li
0.164835 0.252145 0.650710 Li
0.164796 0.750553 0.152212 Li
0.164770 0.751673 0.652769 Li
0.921066 0.371543 0.148562 Li
0.921079 0.374923 0.649104 Li
0.923154 0.875442 0.149094 Li
0.924498 0.875851 0.648836 Li
0.426686 0.375020 0.605434 Li
0.429626 0.876176 0.102166 Li
0.425473 0.876207 0.601043 Li
0.078313 0.128386 0.343894 Li
0.078162 0.127482 0.855966 Li
0.076534 0.622817 0.349955 Li
0.076859 0.623537 0.852155 Li
0.575463 0.129390 0.395419 Li
0.574062 0.132781 0.910214 Li
0.575268 0.622688 0.399612 Li
0.572691 0.622571 0.899219 Li
0.913375 0.122922 0.096313 P
0.913954 0.124473 0.595315 P
0.910544 0.624740 0.095676 P
0.912961 0.626334 0.595399 P
0.408453 0.118132 0.153782 P
0.411482 0.124720 0.655110 P
0.408727 0.629798 0.153034 P
0.410383 0.626723 0.654763 P
0.087207 0.375123 0.406538 P
0.085346 0.376197 0.902898 P
0.088254 0.874576 0.405178 P
0.088253 0.874390 0.904964 P
0.591439 0.376276 0.349151 P
0.586557 0.375105 0.835291 P
0.590867 0.874615 0.347049 P
0.589979 0.875188 0.844957 P
0.841291 0.019960 0.145872 O
0.843628 0.021413 0.645852 O
0.839152 0.523220 0.145745 O
0.843198 0.525028 0.648706 O
0.334599 0.213141 0.096739 O
0.341725 0.226224 0.601579 O
0.344985 0.738144 0.108499 O
0.341648 0.730274 0.603065 O
0.156658 0.271939 0.360717 O
0.155696 0.274083 0.851435 O
0.157385 0.771476 0.354286 O
0.158381 0.771829 0.853719 O
0.660357 0.479990 0.405446 O
0.654124 0.477610 0.893954 O
0.660433 0.977368 0.398666 O
0.660905 0.976768 0.896684 O
0.157990 0.477232 0.354359 O
0.155675 0.478554 0.850463 O
0.158285 0.976629 0.354614 O
0.158687 0.976797 0.854744 O
0.660560 0.273551 0.405149 O
0.654726 0.272026 0.883989 O
0.659989 0.771769 0.399505 O
0.658687 0.771440 0.895464 O
0.849372 0.225503 0.150331 O
0.844248 0.226175 0.647612 O
0.841329 0.728285 0.146352 O
0.843119 0.729468 0.645773 O
0.340926 0.010190 0.110493 O
0.342153 0.020914 0.603403 O
0.329890 0.536293 0.097314 O
0.340947 0.525288 0.600131 O
0.545995 0.114111 0.102657 O
0.549596 0.123984 0.602682 O
0.546713 0.626971 0.099565 O
0.549245 0.627909 0.604686 O
0.051785 0.116909 0.146013 O
0.051894 0.123741 0.648777 O
0.048523 0.625041 0.149008 O
0.051355 0.627269 0.647332 O
0.453625 0.375791 0.404537 O
0.444893 0.375616 0.868155 O
0.452599 0.874675 0.398566 O
0.451809 0.875266 0.896199 O
0.949067 0.375979 0.353497 O
0.947016 0.375644 0.848747 O
0.949788 0.874454 0.352864 O
0.950393 0.874543 0.850784 O
0.597340 0.378040 0.197354 O
0.598719 0.379198 0.679194 O
0.593601 0.873321 0.191133 O
0.590904 0.875346 0.688535 O
0.082884 0.378407 0.057796 O
0.086305 0.377969 0.562992 O
0.086923 0.872930 0.060841 O
0.088915 0.874614 0.561569 O
0.409676 0.122721 0.311135 O
0.409960 0.124468 0.811034 O
0.411308 0.626493 0.309894 O
0.407756 0.626313 0.810771 O
0.913362 0.124558 0.439135 O
0.910982 0.123793 0.939379 O
0.911727 0.625286 0.439162 O
0.910783 0.625517 0.939123 O
