Mg15 Mn32 O64                           
   1.00000000000000     
    11.4342749999999995   -0.0007930000000000    0.0016610000000000
    -0.0005470000000000   11.4184629999999991    0.0000750000000000
     0.0002800000000000    0.0002630000000000    9.2389820000000000
   Mg   Mn   O 
    15    32    64
Direct
  0.5000770125132642  0.5977344965332059  0.5639535998805242
  1.0001185153158751  0.2423698640327332  0.7404910194412714
 -0.0000343592772259  0.7430690571546945  0.7411812930561604
  0.5000783648106477  0.2475382319460143  0.7467461444927179
  1.0001451088072411  0.4923036096640301  0.4942486835887097
  0.0000318683754428  0.9909929931320766  0.4958896313924704
  0.5000760071189199  0.9890279010834701  0.4920329310076700
  0.2479116231534764 -0.0049236820773374  0.2419464881201244
  0.2484549849517546  0.4914264435663094  0.2472415929687821
  0.7518526188672617 -0.0048346589628336  0.2418390331084986
  0.7516719586669570  0.4915112872426430  0.2473257698233605
  0.2483855639778479  0.2407049498692520  0.9907209025199100
  0.2518559360253609  0.7437683213657754  0.9884288372444540
  0.7519048340077077  0.2408110817192248  0.9910024647906440
  0.7482204493369693  0.7436505086799736  0.9883272127060974
  0.1250734516047535  0.2417633594056237  0.3711221718708178
  0.1235961083669729  0.7435260311173317  0.3667393735363610
  0.6249578752252921  0.2426864177804821  0.3677423536652229
  0.6278056579911103  0.7472878606667649  0.3580711853610574
  0.3755905937611879  0.2426079289302686  0.3677639977032779
  0.3717890373050298  0.7473671003167754  0.3574997981517004
  0.8757006279353761  0.2417803356173251  0.3716802787481357
  0.8756446169817741  0.7439832611600339  0.3666290425502158
  0.1255572007986152 -0.0076886095903824  0.8639904571236119
  0.1248074467916790  0.4914379420899955  0.8671351128522647
  0.6228353463520456  0.9921876776433034  0.8663437278706079
  0.6263331451347134  0.4939738808580800  0.8782516139210812
  0.3765949377572405  0.9921322882296000  0.8667232229434738
  0.3734152119828176  0.4930701304661523  0.8783825811506926
  0.8741854778512875 -0.0075527362953071  0.8642721482854376
  0.8754873646289297  0.4910396013919863  0.8672036152882597
  0.9999817143161798  0.1184660413840057  0.1162627845424596
  0.0000027500655159  0.6185429969001698  0.1166141303906600
  0.4997682226411890  0.1163948821580820  0.1163035885921359
  0.5002178024935823  0.6150127512108966  0.1223167425021546
  0.9995986161009031  0.3678027295444112  0.1195580593660768
  0.0002252030469551  0.8682859167788713  0.1144204234309670
  0.5000232668028279  0.3640482864166564  0.1241868315119253
  0.4999363903489683  0.8672306020460221  0.1115623095178775
  0.2540506555885513  0.3685254600282293  0.6180842511508667
  0.2563632692603342  0.8635344991726490  0.6179097657793016
  0.7461486543127935  0.3683634039197174  0.6181423743793162
  0.7438208127082336  0.8633370478042137  0.6179314415791916
  0.2518667957160233  0.1157835574703036  0.6179768049665374
  0.2498788892625693  0.6163376749480256  0.6168198984462717
  0.7481979231332975  0.1156684674367812  0.6178784000218421
  0.7500570164103427  0.6160064130272018  0.6170950509347271
  0.1400379685403215  0.2424288637721218  0.6149327214277608
  0.1390966254420611  0.7434151327709093  0.6144365438993079
  0.6347999911329053  0.2431639036176196  0.6136735177021969
  0.6326931236639225  0.7313645216430522  0.5916733802758374
  0.3653421843042549  0.2432397838322183  0.6135083603241838
  0.3672441919444621  0.7315573135956528  0.5916396180483231
  0.8602838907615937  0.2423216193060246  0.6150750805039944
  0.8608082528536209  0.7432895136633229  0.6143672984922900
  0.1401560500588980 -0.0098610686844356  0.6202581236855582
  0.1386036787329807  0.4900799823214033  0.6212665566056661
  0.6358665856842592  0.9903331280941273  0.6203522901195675
  0.6328376852738173  0.4964083138331281  0.6336033481809137
  0.3640515309387852  0.9904114190646013  0.6203156518302085
  0.3673221054055748  0.4964624819595188  0.6335767467846449
  0.8598137576030663 -0.0099248908827118  0.6202625361353015
  0.8615325961813396  0.4899872332385917  0.6213762980400086
 -0.0001126257300132  0.1051071419347916  0.8691059509300657
  1.0001695049896975  0.6046171752925910  0.8690304195004394
  0.4999074347452008  0.1087331522201149  0.8722260454246414
  0.5002667905496783  0.6017483653064121  0.9167627896718097
  1.0001452647518174  0.3789242619505816  0.8712599084091297
 -0.0002754836773061  0.8797923212343333  0.8691539314406259
  0.4999424541718671  0.3777854265003898  0.8995522388940405
  0.4998532363481952  0.8856148892966517  0.8859755714721251
  1.0003409162613974  0.3545171346363628  0.3661579892233636
 -0.0003438057730017  0.8561543292009617  0.3634354534504310
  0.5002140904647234  0.3525011187339674  0.3277775418782508
  0.4997649740258195  0.8576740744128429  0.3543677100548103
  1.0001905599417806  0.1287608426841364  0.3671313434237618
 -0.0002437746063344  0.6303132804047298  0.3648950562648011
  0.5003029838320804  0.1302934552342763  0.3658659175537343
  0.4997535260893651  0.6331287562467108  0.3401647001950541
  0.3864029916009971  0.9936162175982528  0.1167954943401088
  0.3897229604147011  0.4897415105360096  0.1245745605819094
  0.8871252003454613  0.9932819675987222  0.1122194736338565
  0.8868698977868253  0.4927345118187063  0.1149638818924216
  0.1126539444493879 -0.0063235508829636  0.1119500824659095
  0.1127129360743798  0.4930210631782943  0.1150975219731793
  0.6128606240493937  0.9928752392996373  0.1170078796880362
  0.6103932584522741  0.4898165166464828  0.1247989660203526
  0.3880233814701979  0.2436750673372781  0.1173760962242845
  0.3889544993523374  0.7385394518129952  0.1187300222847226
  0.8869082182467224  0.2429342219855138  0.1223889045049011
  0.8868221228819545  0.7438577675483946  0.1176906884581995
  0.1132947065802126  0.2425000715472684  0.1223927951578466
  0.1129087632769279  0.7433914494437751  0.1177422004127421
  0.6120204910407258  0.2435616490648228  0.1174020193363229
  0.6117262313138567  0.7377364934515551  0.1193133799027142
  0.2506703085585818  0.3542353267115274  0.3737311331836178
  0.2480727471353483  0.8579723325546912  0.3680157442965709
  0.7498536196453557  0.3544030098321929  0.3738010799562288
  0.7517268500417458  0.8581987376900050  0.3680805460658403
  0.2510388252420900  0.1297035772645183  0.3729418077077245
  0.2479032298302662  0.6323882379823830  0.3651713322704249
  0.7493743094601397  0.1298359250723392  0.3728788620690493
  0.7513687207573037  0.6324915484157210  0.3652355027744382
  0.2499919609094310  0.1050128867788545  0.8616689557382872
  0.2494426931437750  0.6041014113228407  0.8675857724046432
  0.7496517109694631  0.1051427813721487  0.8619157818918579
  0.7507847268129015  0.6039411699763808  0.8675411981231623
  0.2516434804998379  0.3797202503987213  0.8660918480703134
  0.2498886121767760  0.8789439352053405  0.8596749822171001
  0.7489612981579264  0.3794710068230075  0.8661379071352245
  0.7496635848743948  0.8790389709943213  0.8598107115527169
 
             NaN             NaN             NaN
             NaN             NaN             NaN
             NaN             NaN             NaN
             NaN             NaN             NaN
             NaN             NaN             NaN
             NaN             NaN             NaN
             NaN             NaN             NaN
             NaN             NaN             NaN
             NaN             NaN             NaN
             NaN             NaN             NaN
             NaN             NaN             NaN
             NaN             NaN             NaN
             NaN             NaN             NaN
             NaN             NaN             NaN
             NaN             NaN             NaN
             NaN             NaN             NaN
             NaN             NaN             NaN
             NaN             NaN             NaN
             NaN             NaN             NaN
             NaN             NaN             NaN
             NaN             NaN             NaN
             NaN             NaN             NaN
             NaN             NaN             NaN
             NaN             NaN             NaN
             NaN             NaN             NaN
             NaN             NaN             NaN
             NaN             NaN             NaN
             NaN             NaN             NaN
             NaN             NaN             NaN
             NaN             NaN             NaN
             NaN             NaN             NaN
             NaN             NaN             NaN
             NaN             NaN             NaN
             NaN             NaN             NaN
             NaN             NaN             NaN
             NaN             NaN             NaN
             NaN             NaN             NaN
             NaN             NaN             NaN
             NaN             NaN             NaN
             NaN             NaN             NaN
             NaN             NaN             NaN
             NaN             NaN             NaN
             NaN             NaN             NaN
             NaN             NaN             NaN
             NaN             NaN             NaN
             NaN             NaN             NaN
             NaN             NaN             NaN
             NaN             NaN             NaN
             NaN             NaN             NaN
             NaN             NaN             NaN
             NaN             NaN             NaN
             NaN             NaN             NaN
             NaN             NaN             NaN
             NaN             NaN             NaN
             NaN             NaN             NaN
             NaN             NaN             NaN
             NaN             NaN             NaN
             NaN             NaN             NaN
             NaN             NaN             NaN
             NaN             NaN             NaN
             NaN             NaN             NaN
             NaN             NaN             NaN
             NaN             NaN             NaN
             NaN             NaN             NaN
             NaN             NaN             NaN
             NaN             NaN             NaN
             NaN             NaN             NaN
             NaN             NaN             NaN
             NaN             NaN             NaN
             NaN             NaN             NaN
             NaN             NaN             NaN
             NaN             NaN             NaN
             NaN             NaN             NaN
             NaN             NaN             NaN
             NaN             NaN             NaN
             NaN             NaN             NaN
             NaN             NaN             NaN
             NaN             NaN             NaN
             NaN             NaN             NaN
             NaN             NaN             NaN
             NaN             NaN             NaN
             NaN             NaN             NaN
             NaN             NaN             NaN
             NaN             NaN             NaN
             NaN             NaN             NaN
             NaN             NaN             NaN
             NaN             NaN             NaN
             NaN             NaN             NaN
             NaN             NaN             NaN
             NaN             NaN             NaN
             NaN             NaN             NaN
             NaN             NaN             NaN
             NaN             NaN             NaN
             NaN             NaN             NaN
             NaN             NaN             NaN
             NaN             NaN             NaN
             NaN             NaN             NaN
             NaN             NaN             NaN
             NaN             NaN             NaN
             NaN             NaN             NaN
             NaN             NaN             NaN
             NaN             NaN             NaN
             NaN             NaN             NaN
             NaN             NaN             NaN
             NaN             NaN             NaN
             NaN             NaN             NaN
             NaN             NaN             NaN
             NaN             NaN             NaN
             NaN             NaN             NaN
             NaN             NaN             NaN
             NaN             NaN             NaN
