Mg15 Mn32 O64
1.0
11.434275 -0.000793 0.001661
-0.000547 11.418463 0.000075
0.000280 0.000263 9.238982
Mg Mn O
15 32 64
direct
0.499990 0.624853 0.624951 Mg
0.999719 0.250300 0.747047 Mg
1.000258 0.749977 0.748559 Mg
0.499717 0.253077 0.751938 Mg
0.999601 0.500236 0.501235 Mg
0.000118 -0.000074 0.502849 Mg
0.500089 -0.003181 0.498205 Mg
0.249147 0.000853 0.250613 Mg
0.249155 0.499169 0.252244 Mg
0.752150 0.000680 0.250469 Mg
0.749876 0.499347 0.252815 Mg
0.247918 0.249335 0.999467 Mg
0.250486 0.750724 0.997252 Mg
0.750897 0.249184 0.999253 Mg
0.751161 0.750860 0.997849 Mg
0.123895 0.249112 0.376740 Mn
0.124964 0.750987 0.375448 Mn
0.623530 0.251069 0.376167 Mn
0.626336 0.748782 0.372235 Mn
0.374442 0.250939 0.375582 Mn
0.373864 0.748766 0.371574 Mn
0.873730 0.249045 0.375920 Mn
0.876084 0.751095 0.375131 Mn
0.126117 0.001061 0.873717 Mn
0.123852 0.499094 0.874667 Mn
0.625456 0.998556 0.874458 Mn
0.626095 0.501203 0.878347 Mn
0.376393 0.998787 0.873963 Mn
0.373600 0.501134 0.878282 Mn
0.876010 1.000926 0.873318 Mn
0.874988 0.499191 0.874582 Mn
-0.000033 0.125032 0.124935 Mn
1.000048 0.625037 0.124974 Mn
0.499991 0.124821 0.125002 Mn
0.500280 0.624756 0.125092 Mn
0.998770 0.375073 0.126067 Mn
0.001973 0.875062 0.123885 Mn
0.499415 0.373773 0.127220 Mn
0.501047 0.875672 0.123275 Mn
0.251882 0.376184 0.625343 Mn
0.252350 0.873835 0.624336 Mn
0.747582 0.376198 0.625652 Mn
0.747850 0.874069 0.624583 Mn
0.252275 0.125006 0.625024 Mn
0.251679 0.624430 0.624950 Mn
0.747637 0.125055 0.625014 Mn
0.748286 0.625667 0.625091 Mn
0.138642 0.249565 0.621249 O
0.137689 0.750289 0.620693 O
0.634938 0.250411 0.620597 O
0.637884 0.749898 0.609561 O
0.364488 0.250447 0.620576 O
0.361990 0.749296 0.609719 O
0.860756 0.249719 0.621265 O
0.862668 0.750890 0.620851 O
0.139094 0.000346 0.628658 O
0.137131 0.499418 0.629061 O
0.635272 0.999671 0.629538 O
0.637937 0.500822 0.640309 O
0.364929 0.999687 0.629512 O
0.361955 0.500166 0.640314 O
0.861181 0.000588 0.628662 O
0.862208 0.499797 0.629192 O
0.000771 0.113763 0.877578 O
0.999571 0.612310 0.878118 O
0.500781 0.111975 0.878251 O
0.499905 0.612739 0.913510 O
0.999365 0.386236 0.878577 O
0.001025 0.888089 0.877189 O
0.499779 0.387533 0.892712 O
0.500735 0.887390 0.898956 O
0.998892 0.362059 0.372652 O
0.000603 0.864011 0.371291 O
0.499110 0.362321 0.351089 O
0.500137 0.862393 0.357467 O
0.999023 0.136383 0.372233 O
1.000357 0.637910 0.371762 O
0.499146 0.137758 0.371863 O
0.500227 0.637079 0.336638 O
0.388646 -0.001207 0.125242 O
0.389191 0.500727 0.126721 O
0.888152 0.999845 0.120574 O
0.886529 0.500135 0.122719 O
0.113770 0.000848 0.120358 O
0.112128 0.499487 0.122599 O
0.612599 -0.000619 0.125265 O
0.610425 0.500294 0.126704 O
0.387431 0.250333 0.124840 O
0.389963 0.749324 0.123436 O
0.886390 0.249512 0.129435 O
0.888228 0.750779 0.127370 O
0.111984 0.250088 0.129316 O
0.113791 0.749946 0.127257 O
0.611482 0.250758 0.124829 O
0.611196 0.748898 0.123493 O
0.249181 0.362045 0.378842 O
0.250594 0.862827 0.375695 O
0.748866 0.362118 0.379012 O
0.750043 0.862727 0.375678 O
0.250135 0.137367 0.379004 O
0.249475 0.637700 0.375534 O
0.748039 0.137261 0.378930 O
0.751056 0.637961 0.375791 O
0.251875 0.112757 0.871020 O
0.248982 0.612109 0.874236 O
0.749618 0.112472 0.871090 O
0.750469 0.612415 0.874397 O
0.249798 0.387395 0.874381 O
0.250933 0.887915 0.870959 O
0.749372 0.387265 0.874212 O
0.750792 0.887802 0.871105 O
