Mg15 Mn32 O64                           
   1.00000000000000     
    11.4342749999999995   -0.0007930000000000    0.0016610000000000
    -0.0005470000000000   11.4184629999999991    0.0000750000000000
     0.0002800000000000    0.0002630000000000    9.2389820000000000
   Mg   Mn   O 
    15    32    64
Direct
  0.5000771341686535  0.5984502449819971  0.5796920249498885
  0.0000315085498531  0.2299426196684806  0.7288511901676192
  0.9999292787806717  0.7307902707053959  0.7285188929397740
  0.5000292516115653  0.2357737148291836  0.7344411605790953
  1.0000678103936689  0.4794182292254190  0.4816303006448298
  0.9999448314244039  0.9775875090831457  0.4824746655926249
  0.5000077511755000  0.9770501832849041  0.4798523862594599
  0.2486624878733213  0.9818065050554928  0.2306225916652395
  0.2498972361373168  0.4788103464903635  0.2342380375602392
  0.7513435254805241  0.9817984459342934  0.2304754194031076
  0.7498746415423658  0.4787717806368763  0.2342462012916398
  0.2474823028653463  0.2283952026047082  0.9790801641605299
  0.2510335032210060  0.7317439317318131  0.9750218413257619
  0.7523466481298180  0.2282902640457194  0.9795145813625452
  0.7491099155564157  0.7317198286223300  0.9749730652126063
  0.1248861604285305  0.2297026777458294  0.3601270444516463
  0.1247898907987864  0.7303018471258051  0.3531672804561510
  0.6245804546664702  0.2301222418712490  0.3530054398392755
  0.6269344102292119  0.7323580662507566  0.3453297917009205
  0.3750646216968843  0.2301775220133855  0.3532880399598063
  0.3729433361534013  0.7323301727452579  0.3454834706675339
  0.8750619702517247  0.2302606980610693  0.3601572607239624
  0.8753490392742644  0.7302900910459901  0.3531579204957028
  0.1253484320942467  0.9802172498724575  0.8530300101516933
  0.1247520229001089  0.4795326024671006  0.8551829569639536
  0.6232858615838486  0.9808106336730213  0.8530752925467298
  0.6263381978152034  0.4802752646165133  0.8668502601847988
  0.3766304227391601  0.9807570675255982  0.8532061865524636
  0.3736371852007068  0.4802913689672032  0.8670100001906530
  0.8748121098116137  0.9802048710552143  0.8531500138164194
  0.8755395816624262  0.4796982266642131  0.8552046151567934
  0.9998903080197850  0.1048560144966323  0.1042091730230822
  1.0002356647041772  0.6048274681884912  0.1038858983877328
  0.4998210086528656  0.1060293442358311  0.1037116775891087
  0.4998835265954412  0.6040189298682810  0.1071262966986623
  1.0000957452563930  0.3547591407996435  0.1093888339130453
 -0.0000241423675720  0.8553968964491993  0.1027682386894660
  0.5010970877156707  0.3530938224569050  0.1084756144844709
  0.4997782247877089  0.8553498289221559  0.0966245759392412
  0.2542287933288687  0.3572100647329542  0.6050253065103068
  0.2555076051676871  0.8530233608326544  0.6059904521739315
  0.7457482833493939  0.3573982201452847  0.6051364997227143
  0.7445151293628816  0.8529985900420831  0.6058528805013349
  0.2511244272237233  0.1054181095585038  0.6064334955024157
  0.2497302462043152  0.6051436490034926  0.6047800743712813
  0.7489588012076017  0.1053744121390661  0.6062778386040728
  0.7503231980207771  0.6052151567172653  0.6046742278461227
  0.1395128178946307  0.2312435330130216  0.6029124005948144
  0.1392868266730167  0.7318076152737727  0.6017160301111660
  0.6349977317849548  0.2319443004090762  0.6017591225162426
  0.6331159878556570  0.7201689840837922  0.5829439463188206
  0.3649970138105371  0.2320961446832834  0.6017565119218834
  0.3668219385766828  0.7202355598924143  0.5831098966876765
  0.8605594348616924  0.2311035747652981  0.6029066199015343
  0.8606585745562477  0.7316369215546052  0.6017117881348848
  0.1395646399948755  0.9790965537914508  0.6082086866360181
  0.1386056251929403  0.4783824629537450  0.6087106292260125
  0.6366040048350562  0.9797399245482209  0.6078046668398894
  0.6328774777771335  0.4856302972010787  0.6247404380955620
  0.3634544434854222  0.9798743455400944  0.6078616674877632
  0.3671862151686495  0.4857855648814046  0.6247663229516882
  0.8604979970789882  0.9790505981851418  0.6080883194197102
  0.8613835904861411  0.4785008019944467  0.6086882962326345
 -0.0000410943830060  0.0929145459535105  0.8578097669634479
  0.0000001269227467  0.5926585017123204  0.8564768329418224
  0.5001182560519670  0.0978314428370751  0.8619048145212448
  0.5000035384422862  0.5884763309781839  0.8987342929466009
  0.0000012375562209  0.3666654845819448  0.8589247134893024
  0.0000409712350387  0.8672376170589332  0.8578062716847650
  0.5000035403005070  0.3636500414040781  0.8874402608743480
  0.4999037490561132  0.8748460837066787  0.8696739719131725
 -0.0000834959190910  0.3421027357389367  0.3541863863178335
  1.0000780541388923  0.8423524508325612  0.3511797659309802
  0.4996706647063257  0.3390204810844022  0.3118475580589775
  0.4999541022954291  0.8432646973936047  0.3453737449947606
  0.0001222623791360  0.1168576805739406  0.3553415575678563
  1.0000000384524015  0.6166296168480598  0.3521864582856949
  0.4999826849546286  0.1171757623226786  0.3516920779731536
  0.4999844524134305  0.6203154989672534  0.3228681332298168
  0.3870097278304315  0.9812797583005205  0.1040460974481348
  0.3900895967777741  0.4772813488151214  0.1090750063050264
  0.8874708483587996  0.9801002101445305  0.1008604491096509
  0.8872398585581625  0.4789528239720527  0.1031070332741058
  0.1124741345049024  0.9799779924558832  0.1007953205157532
  0.1127921734370717  0.4790421650400176  0.1031863547451232
  0.6132973782499853  0.9813962332549275  0.1041683179734418
  0.6093062447273855  0.4767526725616195  0.1091143917540829
  0.3887256325258032  0.2318807886745216  0.1044940104440805
  0.3885341232732838  0.7265101023417968  0.1037706622728680
  0.8869922804085364  0.2291781514137742  0.1109090605889415
  0.8868606434329083  0.7298005456002178  0.1057820850896562
  0.1128733390226167  0.2291730945671592  0.1110263698561175
  0.1129907623252066  0.7298813694697371  0.1058532519235811
  0.6115257503283654  0.2318145993197381  0.1041829197274347
  0.6112820660207233  0.7263407991384372  0.1037878333911274
  0.2501672287593443  0.3423253295288961  0.3615688879867592
  0.2487693959640877  0.8440621558282646  0.3565484912646302
  0.7499986912108069  0.3423143869883092  0.3617100936161854
  0.7512775963754179  0.8440725341610131  0.3564072452366235
  0.2507393098114266  0.1179519048509598  0.3604976681058319
  0.2487722226912292  0.6185093640298206  0.3539094055896508
  0.7489863193599531  0.1179712562727815  0.3605864152956373
  0.7512008384462450  0.6183814150839001  0.3538191608694261
  0.2495132577888176  0.0931261696041260  0.8499594141237899
  0.2494963428903259  0.5910778865186108  0.8557623180084241
  0.7505122377409078  0.0932505627080549  0.8499497319771120
  0.7506804628617982  0.5913549821764589  0.8557806151080048
  0.2509169360896121  0.3671319104221362  0.8541845210457563
  0.2497582626519975  0.8673195307853985  0.8470236745785050
  0.7492385667353886  0.3671827306490422  0.8540900505988857
  0.7501302014692851  0.8673055052904536  0.8469600590028199
 
             NaN             NaN             NaN
             NaN             NaN             NaN
             NaN             NaN             NaN
             NaN             NaN             NaN
             NaN             NaN             NaN
             NaN             NaN             NaN
             NaN             NaN             NaN
             NaN             NaN             NaN
             NaN             NaN             NaN
             NaN             NaN             NaN
             NaN             NaN             NaN
             NaN             NaN             NaN
             NaN             NaN             NaN
             NaN             NaN             NaN
             NaN             NaN             NaN
             NaN             NaN             NaN
             NaN             NaN             NaN
             NaN             NaN             NaN
             NaN             NaN             NaN
             NaN             NaN             NaN
             NaN             NaN             NaN
             NaN             NaN             NaN
             NaN             NaN             NaN
             NaN             NaN             NaN
             NaN             NaN             NaN
             NaN             NaN             NaN
             NaN             NaN             NaN
             NaN             NaN             NaN
             NaN             NaN             NaN
             NaN             NaN             NaN
             NaN             NaN             NaN
             NaN             NaN             NaN
             NaN             NaN             NaN
             NaN             NaN             NaN
             NaN             NaN             NaN
             NaN             NaN             NaN
             NaN             NaN             NaN
             NaN             NaN             NaN
             NaN             NaN             NaN
             NaN             NaN             NaN
             NaN             NaN             NaN
             NaN             NaN             NaN
             NaN             NaN             NaN
             NaN             NaN             NaN
             NaN             NaN             NaN
             NaN             NaN             NaN
             NaN             NaN             NaN
             NaN             NaN             NaN
             NaN             NaN             NaN
             NaN             NaN             NaN
             NaN             NaN             NaN
             NaN             NaN             NaN
             NaN             NaN             NaN
             NaN             NaN             NaN
             NaN             NaN             NaN
             NaN             NaN             NaN
             NaN             NaN             NaN
             NaN             NaN             NaN
             NaN             NaN             NaN
             NaN             NaN             NaN
             NaN             NaN             NaN
             NaN             NaN             NaN
             NaN             NaN             NaN
             NaN             NaN             NaN
             NaN             NaN             NaN
             NaN             NaN             NaN
             NaN             NaN             NaN
             NaN             NaN             NaN
             NaN             NaN             NaN
             NaN             NaN             NaN
             NaN             NaN             NaN
             NaN             NaN             NaN
             NaN             NaN             NaN
             NaN             NaN             NaN
             NaN             NaN             NaN
             NaN             NaN             NaN
             NaN             NaN             NaN
             NaN             NaN             NaN
             NaN             NaN             NaN
             NaN             NaN             NaN
             NaN             NaN             NaN
             NaN             NaN             NaN
             NaN             NaN             NaN
             NaN             NaN             NaN
             NaN             NaN             NaN
             NaN             NaN             NaN
             NaN             NaN             NaN
             NaN             NaN             NaN
             NaN             NaN             NaN
             NaN             NaN             NaN
             NaN             NaN             NaN
             NaN             NaN             NaN
             NaN             NaN             NaN
             NaN             NaN             NaN
             NaN             NaN             NaN
             NaN             NaN             NaN
             NaN             NaN             NaN
             NaN             NaN             NaN
             NaN             NaN             NaN
             NaN             NaN             NaN
             NaN             NaN             NaN
             NaN             NaN             NaN
             NaN             NaN             NaN
             NaN             NaN             NaN
             NaN             NaN             NaN
             NaN             NaN             NaN
             NaN             NaN             NaN
             NaN             NaN             NaN
             NaN             NaN             NaN
             NaN             NaN             NaN
             NaN             NaN             NaN
