Mg15 Mn32 O64                           
   1.00000000000000     
    11.4338429999999995   -0.0006760000000000    0.0026300000000000
    -0.0004330000000000   11.4179329999999997    0.0001590000000000
    -0.0004470000000000    0.0001160000000000    9.2393450000000001
   Mg   Mn   O 
    15    32    64
Direct
  0.5000454500658882  0.6319835687431919  0.6631014540227460
  0.9999904518229981  0.2446204954583326  0.7404209091517808
  0.0000592840693325  0.7452964850756320  0.7419508897217851
  0.4998844987051848  0.2473727576729253  0.7484168212348953
  1.0001580435415729  0.4959911703934812  0.4947829277028255
  0.9998940614462046  0.9945749545566189  0.4961719702338441
  0.4998438869532751  0.9885560818425233  0.4928835633915173
  0.2490439232187928  0.9948739041300975  0.2445518474200852
  0.2511815065313824  0.4932162540303607  0.2472070881224235
  0.7506910737182593  0.9949534796698729  0.2444866669511618
  0.7488617118395215  0.4931929145940289  0.2472563445218632
  0.2470437878276200  0.2397143102012897  0.9933778418299130
  0.2491856274291253  0.7443364921401263  0.9883560826638881
  0.7529940398763326  0.2408874050790986  0.9930829152072197
  0.7508269389933546  0.7454477225646423  0.9885152946572642
  0.1248916250784537  0.2459316963369460  0.3731990184082786
  0.1248751273763544  0.7467190971093083  0.3679300461196277
  0.6236128293228547  0.2434383803991782  0.3675832536258846
  0.6256279330482667  0.7421159894934105  0.3612143694131228
  0.3756576962221295  0.2434383811569460  0.3671776137496854
  0.3743755853149434  0.7421152030626220  0.3612330739847400
  0.8745264192570144  0.2455674895857307  0.3727880159280346
  0.8751184954715152  0.7467191575964045  0.3679101982831410
  0.1247138131748943  0.9934700515426582  0.8655184486682233
  0.1247298579635926  0.4919537172300618  0.8685020675940049
  0.6226905370588038  0.9930419633380291  0.8662541212934521
  0.6294639090498527  0.4901625602659724  0.8807943603631039
  0.3762678551555356  0.9922637796686250  0.8670572323621921
  0.3718998444716426  0.4890394948727942  0.8806498241792687
  0.8740257103209890  0.9947583503310544  0.8653706900552156
  0.8774677504756201  0.4940222829114717  0.8686939842293993
  0.9999547723317865  0.1217718749609501  0.1185186381307521
  0.0000628025790553  0.6218826829367200  0.1185196660090391
  0.4999866261938302  0.1161366068546549  0.1167273782986862
  0.5000539905230251  0.6176755187715327  0.1180691772228388
  0.0000151592588733  0.3717742382701649  0.1234309724484573
  0.9999638005272399  0.8720235495770997  0.1173068545286898
  0.5000444155299322  0.3637790689199917  0.1212230729233390
  0.4999325163739917  0.8669804746957397  0.1095221923836400
  0.2561552813312368  0.3717704822366356  0.6189230987176817
  0.2547245579995230  0.8666623847519714  0.6188229168766066
  0.7440676313364152  0.3719874788396844  0.6188853682205661
  0.7451398335608573  0.8666625686914506  0.6188175578078688
  0.2525230966823580  0.1192170509000309  0.6183207365950579
  0.2494399746670853  0.6178170937501947  0.6174922217062137
  0.7474150336507128  0.1193384032652430  0.6181876906788323
  0.7509588141569218  0.6180253736379380  0.6176974060292453
  0.1407899423955163  0.2456472435280483  0.6156745047316649
  0.1385107270559216  0.7449212224836326  0.6145275220967790
  0.6339057133086041  0.2462409723014508  0.6145040087651459
  0.6341167223683426  0.7360336260270312  0.6026844491048967
  0.3661229775594942  0.2460510129002821  0.6141666024488873
  0.3659756993548000  0.7360123300661429  0.6027159910777434
  0.8591767048279634  0.2457283505230236  0.6156897392830992
  0.8616538659379351  0.7451955886243516  0.6143917286723465
  0.1398785562002028  0.9932435630626069  0.6207795824364374
  0.1389992538676135  0.4917042596808700  0.6214521106801975
  0.6359016009695861  0.9933922938705030  0.6210545015135142
  0.6327177262049473  0.5015318177164039  0.6450620912431876
  0.3638165544857688  0.9932642946458031  0.6211677663932994
  0.3676591922296352  0.5013746615803495  0.6441836191577187
  0.8598282752150815  0.9933451566770216  0.6207390018226558
  0.8613449836807608  0.4919810069285918  0.6213635967309676
  0.9997386561239874  0.1076714161817159  0.8703225206189774
  0.0014774888668245  0.6067306353446893  0.8698967330131432
  0.4994166269383873  0.1085802916526977  0.8732979305902501
  0.5005165490830150  0.5992278486504701  0.8953137354866282
  0.0003436094365782  0.3804003967226617  0.8721082871036216
  0.9991965691849001  0.8819801127558827  0.8707458096906225
  0.5001967007583393  0.3737133248265057  0.9037184715039269
  0.4997413035405027  0.8855654961095348  0.8805831486027728
  0.9997336785781316  0.3586582097683790  0.3674945800778923
  1.0000059720186618  0.8595019429277976  0.3643974766055807
  0.4998567806622234  0.3526743039572210  0.3236998841506457
  0.4999622972861426  0.8529697909219545  0.3606956519588896
  0.9997755384446574  0.1335022062137408  0.3692064550485336
  1.0000161715473350  0.6338587055455701  0.3661233051486966
  0.4996665965513640  0.1302316904570879  0.3665509970135494
  0.4999883800786826  0.6311738844423128  0.3216122906358004
  0.3869075997973283  0.9926942789103539  0.1172067688208740
  0.3901309633398956  0.4904839198552523  0.1191040709989147
  0.8870593687482963  0.9968368412238768  0.1147497774426810
  0.8871899916552725  0.4959861742348537  0.1177220791160531
  0.1127409910175353  0.9968002732451835  0.1147146158188122
  0.1129794317937848  0.4957764135476024  0.1176915418939755
  0.6127783724678005  0.9926902743781989  0.1172675782302648
  0.6100310131950217  0.4904450767376556  0.1188813492804963
  0.3878165697621720  0.2430605547416277  0.1174230656013298
  0.3885734358522648  0.7388988231996884  0.1130892326855976
  0.8871380769302827  0.2461155444849434  0.1250957273863449
  0.8872432590869631  0.7467233690391649  0.1203506546132155
  0.1127253873054256  0.2460288534269711  0.1250869015300863
  0.1128113342303563  0.7467022027221005  0.1203020746795303
  0.6121787828543164  0.2431950630235926  0.1172939439175395
  0.6114357181824523  0.7389662492517513  0.1132202798880907
  0.2517545523503233  0.3566736568158205  0.3747987610143727
  0.2513253385794635  0.8570508281750647  0.3706676408715911
  0.7478109939742511  0.3565998737725686  0.3749081135191504
  0.7486682595868388  0.8570843048228539  0.3705786660141503
  0.2499722732669022  0.1320215936778014  0.3734883602711683
  0.2483369479272369  0.6322148490552593  0.3688289431970549
  0.7493951225272358  0.1319261470582745  0.3736241696812101
  0.7516191906725833  0.6322450136980403  0.3687990423995181
  0.2496687724747216  0.1055648993534031  0.8627378787940504
  0.2487494371259926  0.6031317917652934  0.8707275188717173
  0.7492744668299522  0.1066901920848495  0.8625380433438188
  0.7531330778550741  0.6049284960057320  0.8700968350999621
  0.2495995952318233  0.3780473729084483  0.8686448141605120
  0.2486040320952638  0.8800491681463561  0.8607502004574239
  0.7518127357537959  0.3799480644678191  0.8692574161669463
  0.7505298542347308  0.8811024121325163  0.8606957671199074
 
             NaN             NaN             NaN
             NaN             NaN             NaN
             NaN             NaN             NaN
             NaN             NaN             NaN
             NaN             NaN             NaN
             NaN             NaN             NaN
             NaN             NaN             NaN
             NaN             NaN             NaN
             NaN             NaN             NaN
             NaN             NaN             NaN
             NaN             NaN             NaN
             NaN             NaN             NaN
             NaN             NaN             NaN
             NaN             NaN             NaN
             NaN             NaN             NaN
             NaN             NaN             NaN
             NaN             NaN             NaN
             NaN             NaN             NaN
             NaN             NaN             NaN
             NaN             NaN             NaN
             NaN             NaN             NaN
             NaN             NaN             NaN
             NaN             NaN             NaN
             NaN             NaN             NaN
             NaN             NaN             NaN
             NaN             NaN             NaN
             NaN             NaN             NaN
             NaN             NaN             NaN
             NaN             NaN             NaN
             NaN             NaN             NaN
             NaN             NaN             NaN
             NaN             NaN             NaN
             NaN             NaN             NaN
             NaN             NaN             NaN
             NaN             NaN             NaN
             NaN             NaN             NaN
             NaN             NaN             NaN
             NaN             NaN             NaN
             NaN             NaN             NaN
             NaN             NaN             NaN
             NaN             NaN             NaN
             NaN             NaN             NaN
             NaN             NaN             NaN
             NaN             NaN             NaN
             NaN             NaN             NaN
             NaN             NaN             NaN
             NaN             NaN             NaN
             NaN             NaN             NaN
             NaN             NaN             NaN
             NaN             NaN             NaN
             NaN             NaN             NaN
             NaN             NaN             NaN
             NaN             NaN             NaN
             NaN             NaN             NaN
             NaN             NaN             NaN
             NaN             NaN             NaN
             NaN             NaN             NaN
             NaN             NaN             NaN
             NaN             NaN             NaN
             NaN             NaN             NaN
             NaN             NaN             NaN
             NaN             NaN             NaN
             NaN             NaN             NaN
             NaN             NaN             NaN
             NaN             NaN             NaN
             NaN             NaN             NaN
             NaN             NaN             NaN
             NaN             NaN             NaN
             NaN             NaN             NaN
             NaN             NaN             NaN
             NaN             NaN             NaN
             NaN             NaN             NaN
             NaN             NaN             NaN
             NaN             NaN             NaN
             NaN             NaN             NaN
             NaN             NaN             NaN
             NaN             NaN             NaN
             NaN             NaN             NaN
             NaN             NaN             NaN
             NaN             NaN             NaN
             NaN             NaN             NaN
             NaN             NaN             NaN
             NaN             NaN             NaN
             NaN             NaN             NaN
             NaN             NaN             NaN
             NaN             NaN             NaN
             NaN             NaN             NaN
             NaN             NaN             NaN
             NaN             NaN             NaN
             NaN             NaN             NaN
             NaN             NaN             NaN
             NaN             NaN             NaN
             NaN             NaN             NaN
             NaN             NaN             NaN
             NaN             NaN             NaN
             NaN             NaN             NaN
             NaN             NaN             NaN
             NaN             NaN             NaN
             NaN             NaN             NaN
             NaN             NaN             NaN
             NaN             NaN             NaN
             NaN             NaN             NaN
             NaN             NaN             NaN
             NaN             NaN             NaN
             NaN             NaN             NaN
             NaN             NaN             NaN
             NaN             NaN             NaN
             NaN             NaN             NaN
             NaN             NaN             NaN
             NaN             NaN             NaN
             NaN             NaN             NaN
