Mg1 Ti16 S32                            
   1.00000000000000     
     9.8638499999999993   -0.0020400000000000    0.0015480000000000
    -0.0020390000000000    9.8638309999999993   -0.0015470000000000
     0.0015390000000000   -0.0015380000000000    9.8658300000000008
   Mg   Ti   S 
     1    16    32
Direct
  0.3113206825961941  0.4386797793833300  0.8094210367365422
  0.2508695444550811  0.7601195432377557  0.0106288132162946
  0.5019436669301625  1.0001849195324113 -0.0001306154298310
  0.7498147445376288  0.2480558204229487 -0.0001307785972893
  0.9898802817948884  0.4991298775858221  0.0106286506052282
  0.5020271907184871  0.2479721784188496  0.2491075617024376
  0.2471880779044936  0.5028113877367952  0.2701753022021877
  0.2499446610406781  0.2365444305021256  0.4878426828668062
  0.5134552163135350  0.5000546905646615  0.4878425731360835
  0.5133511180343988  0.7605862215497602  0.7481787009643328
  0.7718124258078893  0.5029292924330425  0.7447554497548595
  0.7521209546946591  0.7532754833713383  0.4939118738894673
  0.2470705806059398  0.9781863590449648  0.7447555980040655
  0.7503502491202276  0.9996492880658741  0.2473307251453430
  0.9894135936686458  0.2366490287898747  0.7481786048343122
  0.9969318910652045  0.7530677092866892  0.2487320104226736
  0.9967240149968015  0.9978785216779992  0.4939120592680998
  0.7463780820503045  0.0036211465300985 -0.0014082401302615
  0.0039588171893325  0.7460412688118940  0.0031538116091396
 -0.0000150864546278 -0.0058767154645551  0.7436518023155207
  0.7558762052475164  0.7500154369397064  0.7436516691650640
  0.2510849402023220  0.9983847088958449  0.9923001518938428
  0.9952239610637237  0.2510363617793622  0.9962237539574170
  0.9959279639771971  0.9987949164308274  0.2483542996481274
  0.2512701221511773  0.2553415600116577  0.2495984002667111
  0.7557858710698048  0.5036206857988158  0.4976636453801733
  0.0036120899472643  0.2440169050483057  0.5012414508687770
  0.0000579473160684  0.5035976381418695  0.2532033040071674
  0.7466350637333264  0.2486763988286077  0.2441085373048055
  0.2597623225887759  0.4902378635354850  0.5090722270676387
  0.9974726593978197  0.7525268332627966  0.4944979358763979
  1.0109964653616159  0.4901094687746356  0.7573038437436626
  0.2598906608293823  0.7390026764000233  0.7573037872572099
  0.2463787318643915 -0.0057864580702481  0.4976638842233791
  0.5059834488170760  0.7463879944197243  0.5012414541980077
  0.5013235099027835  0.0033638859479407  0.2441088718404114
  0.2464016664623325  0.7499418806314608  0.2532032836051251
  0.7512111140275498  0.9987889783811041  0.4929409260653707
  0.4987100048974984  0.2512893993264674  0.4933634556337455
  0.4946822179412146  0.9985804922620615  0.7487026923743323
  0.7514193944266702  0.2553171701399197  0.7487023985730338
  0.2417521593143839  0.5082472554426838  0.0233250279530898
  0.5011250360084896  0.2488749358681879 -0.0007655492148292
  0.5252430441082439  0.5084815296405556  0.7394502475926634
  0.2415177695200872  0.2247561017606339  0.7394500997249698
  0.7516153895669797  0.4989150044829938  0.9922999957228745
  0.4989626218775965  0.7547752519151291  0.9962235762632909
  0.4946573342384930  0.4987295106332296  0.2495984817035855
  0.7512049796881749  0.7540709680832218  0.2483540605068322
 
             NaN             NaN             NaN
             NaN             NaN             NaN
             NaN             NaN             NaN
             NaN             NaN             NaN
             NaN             NaN             NaN
             NaN             NaN             NaN
             NaN             NaN             NaN
             NaN             NaN             NaN
             NaN             NaN             NaN
             NaN             NaN             NaN
             NaN             NaN             NaN
             NaN             NaN             NaN
             NaN             NaN             NaN
             NaN             NaN             NaN
             NaN             NaN             NaN
             NaN             NaN             NaN
             NaN             NaN             NaN
             NaN             NaN             NaN
             NaN             NaN             NaN
             NaN             NaN             NaN
             NaN             NaN             NaN
             NaN             NaN             NaN
             NaN             NaN             NaN
             NaN             NaN             NaN
             NaN             NaN             NaN
             NaN             NaN             NaN
             NaN             NaN             NaN
             NaN             NaN             NaN
             NaN             NaN             NaN
             NaN             NaN             NaN
             NaN             NaN             NaN
             NaN             NaN             NaN
             NaN             NaN             NaN
             NaN             NaN             NaN
             NaN             NaN             NaN
             NaN             NaN             NaN
             NaN             NaN             NaN
             NaN             NaN             NaN
             NaN             NaN             NaN
             NaN             NaN             NaN
             NaN             NaN             NaN
             NaN             NaN             NaN
             NaN             NaN             NaN
             NaN             NaN             NaN
             NaN             NaN             NaN
             NaN             NaN             NaN
             NaN             NaN             NaN
             NaN             NaN             NaN
             NaN             NaN             NaN
