Mg1 Ti16 S32
1.0
9.863850 -0.002040 0.001548
-0.002039 9.863831 -0.001547
0.001539 -0.001538 9.865830
Mg Ti S
1 16 32
direct
0.312355 0.437645 0.749715 Mg
0.248992 0.757131 0.008151 Ti
0.502220 -0.001796 0.004699 Ti
0.751795 0.247778 0.004701 Ti
0.992868 0.501006 0.008150 Ti
0.501945 0.248054 0.249654 Ti
0.249327 0.500673 0.249904 Ti
0.247406 0.242545 0.490197 Ti
0.507454 0.502592 0.490196 Ti
0.507098 0.757363 0.750394 Ti
0.752325 0.502224 0.750251 Ti
0.750982 0.752100 0.497827 Ti
0.247776 -0.002326 0.750251 Ti
0.750774 0.999226 0.250624 Ti
0.992636 0.242902 0.750394 Ti
0.997763 0.752236 0.251042 Ti
0.997898 0.999016 0.497827 Ti
0.747704 0.002296 0.003285 S
0.002627 0.747374 0.004115 S
0.001915 1.000329 0.747677 S
0.749671 0.748085 0.747677 S
0.252494 -0.000618 0.997205 S
0.996771 0.252810 0.997102 S
0.997305 0.997725 0.252235 S
0.252543 0.252675 0.249304 S
0.749649 0.503005 0.502718 S
0.002073 0.245990 0.502873 S
0.002447 0.502487 0.249793 S
0.747804 0.247421 0.248539 S
0.254340 0.495660 0.495151 S
0.997345 0.752654 0.497235 S
0.996418 0.495671 0.754186 S
0.254329 0.753582 0.754186 S
0.246995 1.000351 0.502717 S
0.504010 0.747927 0.502874 S
0.502579 0.002196 0.248538 S
0.247510 0.747555 0.249794 S
0.752172 0.997828 0.497376 S
0.496617 0.253384 0.495296 S
0.496806 -0.000821 0.752972 S
0.750820 0.253194 0.752972 S
0.245484 0.504518 0.004154 S
0.503437 0.246563 0.003290 S
0.504622 0.504772 0.744919 S
0.245228 0.245378 0.744918 S
0.750619 0.497506 0.997206 S
0.497189 0.753231 0.997103 S
0.497325 0.497457 0.249304 S
0.752275 0.752695 0.252235 S
