Na47 P16 S64
1.0
14.004467 -0.002480 -0.000070
-0.002516 14.008002 -0.000022
-0.000047 -0.000061 14.427920
Na P S
47 16 64
direct
0.549332 0.746128 0.721598 Na
0.999839 0.251144 0.203886 Na
0.999156 0.250149 0.703374 Na
0.998735 0.751029 0.209681 Na
0.973327 0.753908 0.716694 Na
0.500166 0.248851 0.204222 Na
0.500852 0.249852 0.703779 Na
0.501266 0.748972 0.209988 Na
0.248726 0.999680 0.295278 Na
0.249496 0.998887 0.795370 Na
0.251453 0.500263 0.296418 Na
0.250230 0.501534 0.796451 Na
0.748662 0.998639 0.291216 Na
0.746007 0.972630 0.784171 Na
0.751153 0.501430 0.290078 Na
0.754267 0.526938 0.783099 Na
0.253057 0.999463 0.045242 Na
0.243942 0.997664 0.546598 Na
0.247075 0.500327 0.046543 Na
0.255817 0.503075 0.547987 Na
0.753214 0.999918 0.039281 Na
0.743426 0.999039 0.539339 Na
0.746661 0.500290 0.037984 Na
0.756808 0.500232 0.537949 Na
0.999624 0.247415 0.453641 Na
0.997465 0.255066 0.952149 Na
0.999871 0.747128 0.461780 Na
0.999574 0.755818 0.961437 Na
0.500375 0.252586 0.454033 Na
0.502533 0.244932 0.952388 Na
0.500125 0.752875 0.464258 Na
0.500428 0.744180 0.960476 Na
0.992758 0.995252 0.502128 Na
0.004843 0.010786 0.001338 Na
0.011578 0.495143 0.498558 Na
0.995127 0.505100 0.997768 Na
0.489160 0.004513 0.498678 Na
0.505854 0.994301 0.998034 Na
0.506481 0.505091 0.502253 Na
0.494179 0.489812 0.001607 Na
0.249798 0.250337 0.249956 Na
0.249780 0.250691 0.750022 Na
0.250232 0.749569 0.250845 Na
0.258598 0.749956 0.748977 Na
0.750205 0.249671 0.249087 Na
0.750232 0.249298 0.751146 Na
0.749771 0.750438 0.249976 Na
-0.000100 0.001414 0.250062 P
0.999557 0.002968 0.752642 P
0.001496 0.499789 0.249748 P
0.002880 0.499787 0.747290 P
0.498651 0.000156 0.249929 P
0.497278 0.999887 0.747438 P
0.499941 0.498640 0.250243 P
0.500282 0.497349 0.752788 P
0.249946 0.250124 0.000105 P
0.249936 0.250237 0.499807 P
0.250073 0.749772 0.001365 P
0.249775 0.750306 0.499635 P
0.750053 0.249872 0.000033 P
0.750065 0.249765 0.498696 P
0.749926 0.750222 0.004191 P
0.750219 0.749697 0.495628 P
0.154981 0.174537 0.081975 S
0.154663 0.175072 0.581293 S
0.153778 0.676149 0.083378 S
0.155300 0.675275 0.581584 S
0.655747 0.173452 0.082442 S
0.654078 0.175892 0.580400 S
0.655857 0.673414 0.086490 S
0.655970 0.670762 0.574403 S
0.345099 0.325337 0.082114 S
0.345354 0.325195 0.581307 S
0.346060 0.823764 0.083390 S
0.344285 0.825960 0.580974 S
0.844176 0.326671 0.082300 S
0.845921 0.323849 0.580374 S
0.844312 0.826672 0.086474 S
0.844440 0.828014 0.575013 S
0.174607 0.345443 0.418046 S
0.174749 0.345571 0.918894 S
0.173023 0.843940 0.416847 S
0.176397 0.845217 0.919120 S
0.676360 0.345779 0.416514 S
0.675219 0.344424 0.918048 S
0.672986 0.843834 0.413724 S
0.671446 0.845234 0.925683 S
0.325072 0.155200 0.417725 S
0.324952 0.155065 0.918372 S
0.326831 0.656074 0.417710 S
0.324363 0.653426 0.920345 S
0.823959 0.153582 0.416835 S
0.825082 0.154931 0.918576 S
0.827156 0.656156 0.412870 S
0.827800 0.656117 0.924463 S
0.096360 0.424326 0.167841 S
0.101545 0.422145 0.671292 S
0.094779 0.926271 0.167826 S
0.090715 0.922557 0.671362 S
0.594621 0.423327 0.167919 S
0.596910 0.425906 0.669615 S
0.593660 0.925267 0.168285 S
0.587004 0.926646 0.659072 S
0.404033 0.075363 0.167525 S
0.399142 0.077595 0.670893 S
0.404730 0.573927 0.168474 S
0.409048 0.578226 0.671986 S
0.904990 0.076984 0.168239 S
0.902395 0.074366 0.670015 S
0.906835 0.574536 0.167631 S
0.913227 0.572578 0.658456 S
0.075338 0.096064 0.332275 S
0.077756 0.101257 0.828651 S
0.076881 0.594742 0.331701 S
0.073827 0.596396 0.830762 S
0.573791 0.095263 0.332011 S
0.578141 0.091659 0.827922 S
0.574889 0.593371 0.332077 S
0.573388 0.586480 0.841998 S
0.424796 0.403724 0.332419 S
0.422162 0.398994 0.828818 S
0.423192 0.905354 0.331900 S
0.425545 0.904174 0.831257 S
0.926071 0.404946 0.331859 S
0.921945 0.408086 0.827756 S
0.925031 0.906533 0.331874 S
0.927243 0.912946 0.841495 S
