Na47 P16 S64
1.0
13.739215 -0.002158 0.000016
-0.002201 13.742916 -0.000713
-0.000138 -0.000354 14.206818
Na P S
47 16 64
direct
0.548079 0.746685 0.721327 Na
0.999766 0.250788 0.204698 Na
0.998965 0.250418 0.704386 Na
0.998959 0.750772 0.209468 Na
0.975947 0.753497 0.716726 Na
0.500235 0.249206 0.204920 Na
0.501030 0.249590 0.704677 Na
0.501021 0.749238 0.209156 Na
0.249167 0.999644 0.294803 Na
0.249270 0.998754 0.794643 Na
0.250982 0.500360 0.295588 Na
0.250533 0.501450 0.795391 Na
0.749042 0.998844 0.291366 Na
0.746398 0.975554 0.784090 Na
0.750811 0.501155 0.290591 Na
0.753823 0.524256 0.783360 Na
0.252683 0.999619 0.044628 Na
0.244865 0.998117 0.546084 Na
0.247373 0.500143 0.045666 Na
0.255062 0.502583 0.547037 Na
0.752955 0.999792 0.039314 Na
0.744393 0.998947 0.539700 Na
0.746975 0.500485 0.038295 Na
0.755700 0.500309 0.538741 Na
0.500210 0.252383 0.454908 Na
0.502111 0.245493 0.953241 Na
0.500305 0.752721 0.463372 Na
0.500539 0.744936 0.959126 Na
0.999771 0.247604 0.454469 Na
0.997927 0.254509 0.953125 Na
0.999706 0.747261 0.461764 Na
0.999454 0.755064 0.960862 Na
0.993960 0.995365 0.501941 Na
0.005084 0.009643 0.001053 Na
0.010011 0.494695 0.498914 Na
0.995245 0.504580 0.998025 Na
0.490365 0.004696 0.499029 Na
0.505591 0.994825 0.998183 Na
0.505646 0.505256 0.502064 Na
0.494054 0.490952 0.001220 Na
0.249870 0.250240 0.249993 Na
0.249839 0.250394 0.750033 Na
0.250231 0.749796 0.250819 Na
0.257178 0.749828 0.749111 Na
0.750145 0.249771 0.249118 Na
0.750140 0.249616 0.750893 Na
0.749745 0.750205 0.249956 Na
0.499638 0.499136 0.250013 P
0.500424 0.497444 0.752798 P
0.499120 0.000362 0.250186 P
0.497358 0.999753 0.747326 P
0.001000 0.499571 0.250036 P
0.002750 0.499958 0.747248 P
0.000266 0.000939 0.249859 P
0.999503 0.002841 0.752706 P
0.249977 0.250088 0.999876 P
0.249922 0.250170 0.500100 P
0.250072 0.749677 0.001113 P
0.249903 0.750403 0.500187 P
0.750055 0.249915 0.999665 P
0.750066 0.249814 0.498848 P
0.749915 0.750332 0.003183 P
0.750125 0.749579 0.496640 P
0.153545 0.174566 0.082157 S
0.153171 0.174871 0.581799 S
0.152752 0.675512 0.083510 S
0.154284 0.675082 0.582579 S
0.654589 0.173381 0.082567 S
0.653101 0.175417 0.580963 S
0.654627 0.673527 0.086090 S
0.654462 0.670815 0.575868 S
0.346525 0.325376 0.082235 S
0.346646 0.325290 0.581931 S
0.347098 0.824381 0.083351 S
0.345776 0.826251 0.581718 S
0.845398 0.326705 0.082487 S
0.847045 0.324414 0.580833 S
0.845480 0.826609 0.086272 S
0.845531 0.827844 0.576714 S
0.174581 0.346748 0.417880 S
0.174685 0.346909 0.918300 S
0.172953 0.845223 0.416968 S
0.175858 0.846153 0.918446 S
0.675639 0.346847 0.416418 S
0.674833 0.345769 0.917513 S
0.673267 0.845013 0.413860 S
0.671494 0.846611 0.924131 S
0.325190 0.153732 0.417697 S
0.325108 0.153526 0.917973 S
0.326744 0.654904 0.417570 S
0.324777 0.652235 0.919725 S
0.824547 0.152631 0.416617 S
0.825382 0.153826 0.917814 S
0.827049 0.654812 0.413266 S
0.827833 0.655027 0.922863 S
0.097236 0.424168 0.167647 S
0.102348 0.422175 0.670381 S
0.096750 0.925426 0.167704 S
0.092475 0.922568 0.671152 S
0.595320 0.423589 0.167137 S
0.597805 0.425177 0.669042 S
0.595185 0.925035 0.168186 S
0.588702 0.926200 0.659324 S
0.403089 0.075607 0.167404 S
0.398218 0.077660 0.670037 S
0.402823 0.574656 0.168228 S
0.407375 0.578084 0.671661 S
0.904357 0.076626 0.167368 S
0.901639 0.074959 0.669384 S
0.905252 0.574887 0.167659 S
0.911458 0.573127 0.658826 S
0.075689 0.097024 0.332437 S
0.077717 0.102152 0.829563 S
0.076543 0.595422 0.332708 S
0.074544 0.597338 0.831225 S
0.574581 0.097044 0.332229 S
0.577964 0.093287 0.828274 S
0.575071 0.595025 0.332059 S
0.573938 0.588189 0.841553 S
0.424461 0.402913 0.332681 S
0.422262 0.398030 0.829659 S
0.423484 0.904529 0.332738 S
0.424841 0.903186 0.831590 S
0.925257 0.403029 0.331984 S
0.922069 0.406526 0.828186 S
0.924897 0.905028 0.332024 S
0.926669 0.911302 0.841172 S
