Na6 P2 S8                               
   1.00000000000000     
    13.6902662792422447   -0.0165380746146906    0.0000472220621730
    -0.0166023656666344   13.7185346299394428   -0.0000800042575789
     0.0000649211777326    0.0002055742416456   14.0326733297145303
   Na   P    S 
    47    16    64
Direct
  0.6975483271763494  0.7513465402359145  0.7502097579298592
  0.0000015571428165  0.2499996973348289  0.2070220176905906
  0.9999973442532095  0.2499978306970405  0.7057024543762296
  0.0000102468364247  0.7500000880156819  0.2119773546477077
  0.0000033741312890  0.7499968851303578  0.7149127900596781
  0.5000027326183343  0.2500015755803489  0.2096194742393678
  0.4999955058505137  0.2500001972583092  0.7087918715697299
  0.5000090512307267  0.7500010377317423  0.2088416642554947
  0.2499568518882072  0.9996969931756539  0.2883628022529692
  0.2475928500872300  0.9988793252036174  0.7860981824871800
  0.2513695615178193  0.5009697220150002  0.2949930639798595
  0.2507436374698102  0.5033621939500392  0.7922325536843005
  0.7486302601973875  0.9990307293576066  0.2949927150907783
  0.7492550317022619  0.9966483213290616  0.7922391035485390
  0.7500475432042109  0.5002995535258847  0.2883607866589415
  0.7524067805480570  0.5011211414470012  0.7860997196030937
  0.2525640393366970  0.9984176419425452  0.0361957523239198
  0.2452688891644925  0.0020739652466588  0.5370500386360177
  0.2479339706638868  0.4991935302272310  0.0451462252955750
  0.2536037176003560  0.5037360495326411  0.5449536842354732
  0.7520691286469159  0.0008087027290102  0.0451403877097647
  0.7463842866813621  0.9962635640455275  0.5449503072233668
  0.7474419830963654  0.5015839804803619  0.0361965294480413
  0.7547126389541319  0.4979297351701746  0.5370556642936890
  0.4999965756559419  0.2500123355285950  0.4605587622281178
  0.5000016824203755  0.2500022937547257  0.9576733883732942
  0.4999997496076816  0.7500103304710564  0.4768562937675611
  0.5000030079739304  0.7499947111085206  0.9436538278707758
  0.0000005380948878  0.2499969076659667  0.4558311537079121
  0.0000030856649289  0.2500007930386161  0.9562550167567991
  0.9999978772701468  0.7499962601294996  0.4646462107321270
  0.9999988348809126  0.7499991781479238  0.9600792070222397
  0.9937632666181955  0.0021134867961408  0.5003899280094046
  0.9997749565105920  0.0043878629797049  0.9996119893348023
  0.0062282080433036  0.4978823992527381  0.5003812538115682
  0.0002309524215889  0.4956134623111197  0.9996173149930385
  0.4969320096631762  0.9967568107298277  0.5010361423952787
  0.5067353227570521  0.9992421861574883  0.0005758798018292
  0.5030620115250457  0.5032665115241670  0.5010397917697134
  0.4932736099489006  0.5007604526030178  0.0005770017933031
  0.2488191490462128  0.2523470617295303  0.2498394471114764
  0.2484515152049127  0.2532398620737908  0.7500521967498273
  0.2524038209742017  0.7489265959994569  0.2497364327256690
  0.3024474238380463  0.7486557369065778  0.7502069149668031
  0.7511891508583304  0.2476542206039980  0.2498394617039992
  0.7515471865118215  0.2467666274371325  0.7500511188053949
  0.7476202854885301  0.7510756219379360  0.2497384473852478
  0.4998844696718834  0.5000740000741999  0.2506709657476023
  0.5009677137816908  0.5002521676183420  0.7500920133915656
  0.5001148273953149  0.9999265888980347  0.2506716257232355
  0.4990080439407478  0.9997448434441552  0.7500933429453767
  0.0007095481605575  0.4996635227793149  0.2498185793804737
  0.0016657571129457  0.4978462793606866  0.7500260413840465
  0.9992999707166916  0.0003334290616408  0.2498168576691597
  0.9983383256657206  0.0021517297414917  0.7500211523329057
  0.2501023112801519  0.2506105534725123  0.9999202887803946
  0.2492630958877839  0.2516208959106834  0.4993874212205469
  0.2509507139907257  0.7472221406156621  0.0001802888612019
  0.2493107874425604  0.7533804245570010  0.4990369408756976
  0.7499079643380071  0.2493868206383354  0.9999199596008594
  0.7507399787322484  0.2483799741758190  0.4993827970560574
  0.7490527951693196  0.7527802967669288  0.0001785495593225
  0.7506916175944482  0.7466169763708166  0.4990403105273913
  0.1545080779900658  0.1732268326093589  0.0830324903095416
  0.1526017127390347  0.1750621978739204  0.5817938944051591
  0.1529169913304003  0.6744444345630427  0.0844105757164257
  0.1565236132965637  0.6776235343725645  0.5858187524142977
  0.6531881258015275  0.1741170711583067  0.0836339574803944
  0.6542554607967617  0.1735674494062565  0.5831478610572489
  0.6529766028649391  0.6751454739138651  0.0821070970629449
  0.6551652359184317  0.6664807749127206  0.5779709826324222
  0.3468119582537383  0.3258794012136050  0.0836414578459497
  0.3457444822001179  0.3264337758252935  0.5831494673035493
  0.3470215545206443  0.8248508974522224  0.0821110081499654
  0.3448269412021645  0.8335246653516535  0.5779720534401918
  0.8455031226270862  0.3267706013335641  0.0830320634868045
  0.8474000851387942  0.3249345339142806  0.5817903509801923
  0.8470900058216415  0.8255546931690603  0.0844019566853333
  0.8434827353893297  0.8223740344763115  0.5858148691901235
  0.1735162426551682  0.3487509045700463  0.4171880100288519
  0.1736956042248110  0.3478631819530520  0.9186498252147288
  0.1706225861497757  0.8447624038526058  0.4128488506831474
  0.1776027992468059  0.8398440918176746  0.9121004930292784
  0.6752181974310005  0.3438697485525140  0.4151853539579093
  0.6748507896724902  0.3444297592622334  0.9154693035755912
  0.6730597660100130  0.8436624226019518  0.4176122918301530
  0.6722424789952441  0.8533736290777512  0.9224836657362374
  0.3247865008190089  0.1561312761364846  0.4151927669887812
  0.3251447985714719  0.1555607716645966  0.9154683549917948
  0.3269402000614292  0.6563266156101975  0.4176110612834876
  0.3277587146077963  0.6466315016557687  0.9224846766886543
  0.8264889728841496  0.1512432541512112  0.4171912394474546
  0.8263124995658444  0.1521305066433882  0.9186475466865573
  0.8293697818095893  0.6552235929842283  0.4128558326357208
  0.8224062958209970  0.6601514273552809  0.9121054640724608
  0.0974503559373971  0.4229646079696323  0.1679149709852226
  0.1005620471811923  0.4226580602961576  0.6688762707751934
  0.0943275181580745  0.9249011752383609  0.1650047664207221
  0.0918809466361381  0.9267082400693809  0.6644310080665576
  0.5947068845580290  0.4246921610127643  0.1654726685973529
  0.5961954773784512  0.4237636842239354  0.6656962601547960
  0.5979792361452425  0.9243748213269001  0.1691743794147698
  0.5928963952693351  0.9210945848743748  0.6679795413504621
  0.4052916737530765  0.0753056337063995  0.1654756510519704
  0.4037805943852391  0.0762378723959003  0.6657115464342809
  0.4020203470142434  0.5756276633296409  0.1691748308222358
  0.4070849386263191  0.5789135984418365  0.6679814780296525
  0.9025578502178959  0.0770356416359945  0.1679155186200845
  0.8994404694082618  0.0773451713142208  0.6688744088383984
  0.9056859856866595  0.5751037045218652  0.1650080637129676
  0.9081185192896157  0.5732904850830636  0.6644435439369474
  0.0763270540990817  0.0959685703776785  0.3329219255728475
  0.0767404136702510  0.0990470953008895  0.8309868530151192
  0.0763606533500294  0.5958335819781126  0.3333412002089773
  0.0745390798791448  0.5932898785528451  0.8359356713437265
  0.5747799141691630  0.0966945129222907  0.3346688193312417
  0.5769185264004193  0.0974854962050031  0.8310453987276318
  0.5763850856682069  0.5961808595161173  0.3330890015794381
  0.5794934253837951  0.5891070081000365  0.8381167105166227
  0.4252084865169650  0.4033154081300907  0.3346726530768862
  0.4230459642577316  0.4025135700921041  0.8310483512752782
  0.4236100523720054  0.9038198903296149  0.3330914172063331
  0.4204949152795550  0.9108904778050260  0.8381223390303987
  0.9236793265705714  0.4040164671147863  0.3329133599157998
  0.9232585001224010  0.4009488445335592  0.8309909404827565
  0.9236416977137907  0.9041617464277607  0.3333370959939899
  0.9254644096265494  0.9067120520032717  0.8359385283878282
