Na47 P16 S64
1.0
13.690266 -0.016538 0.000047
-0.016602 13.718535 -0.000080
0.000065 0.000206 14.032673
Na P S
47 16 64
direct
0.697548 0.751347 0.750210 Na
1.000002 0.250000 0.207022 Na
0.999997 0.249998 0.705702 Na
1.000010 0.750000 0.211977 Na
1.000003 0.749997 0.714913 Na
0.500003 0.250002 0.209619 Na
0.499996 0.250000 0.708792 Na
0.500009 0.750001 0.208842 Na
0.249957 0.999697 0.288363 Na
0.247593 0.998879 0.786098 Na
0.251370 0.500970 0.294993 Na
0.250744 0.503362 0.792233 Na
0.748630 0.999031 0.294993 Na
0.749255 0.996648 0.792239 Na
0.750048 0.500300 0.288361 Na
0.752407 0.501121 0.786100 Na
0.252564 0.998418 0.036196 Na
0.245269 1.002074 0.537050 Na
0.247934 0.499194 0.045146 Na
0.253604 0.503736 0.544954 Na
0.752069 1.000809 0.045140 Na
0.746384 0.996264 0.544950 Na
0.747442 0.501584 0.036197 Na
0.754713 0.497930 0.537056 Na
0.499997 0.250012 0.460559 Na
0.500002 0.250002 0.957673 Na
0.500000 0.750010 0.476856 Na
0.500003 0.749995 0.943654 Na
1.000001 0.249997 0.455831 Na
1.000003 0.250001 0.956255 Na
0.999998 0.749996 0.464646 Na
0.999999 0.749999 0.960079 Na
0.993763 1.002113 0.500390 Na
-0.000225 0.004388 -0.000388 Na
0.006228 0.497882 0.500381 Na
1.000231 0.495613 0.999617 Na
0.496932 -0.003243 0.501036 Na
0.506735 0.999242 1.000576 Na
0.503062 0.503267 0.501040 Na
0.493274 0.500760 0.000577 Na
0.248819 0.252347 0.249839 Na
0.248452 0.253240 0.750052 Na
0.252404 0.748927 0.249736 Na
0.302447 0.748656 0.750207 Na
0.751189 0.247654 0.249839 Na
0.751547 0.246767 0.750051 Na
0.747620 0.751076 0.249738 Na
0.499884 0.500074 0.250671 P
0.500968 0.500252 0.750092 P
0.500115 -0.000073 0.250672 P
0.499008 0.999745 0.750093 P
0.000710 0.499664 0.249819 P
0.001666 0.497846 0.750026 P
-0.000700 0.000333 0.249817 P
0.998338 0.002152 0.750021 P
0.250102 0.250611 -0.000080 P
0.249263 0.251621 0.499387 P
0.250951 0.747222 0.000180 P
0.249311 0.753380 0.499037 P
0.749908 0.249387 0.999920 P
0.750740 0.248380 0.499383 P
0.749053 0.752780 0.000179 P
0.750692 0.746617 0.499040 P
0.154508 0.173227 0.083032 S
0.152602 0.175062 0.581794 S
0.152917 0.674444 0.084411 S
0.156524 0.677624 0.585819 S
0.653188 0.174117 0.083634 S
0.654255 0.173567 0.583148 S
0.652977 0.675145 0.082107 S
0.655165 0.666481 0.577971 S
0.346812 0.325879 0.083641 S
0.345744 0.326434 0.583149 S
0.347022 0.824851 0.082111 S
0.344827 0.833525 0.577972 S
0.845503 0.326771 0.083032 S
0.847400 0.324935 0.581790 S
0.847090 0.825555 0.084402 S
0.843483 0.822374 0.585815 S
0.173516 0.348751 0.417188 S
0.173696 0.347863 0.918650 S
0.170623 0.844762 0.412849 S
0.177603 0.839844 0.912100 S
0.675218 0.343870 0.415185 S
0.674851 0.344430 0.915469 S
0.673060 0.843662 0.417612 S
0.672242 0.853374 0.922484 S
0.324787 0.156131 0.415193 S
0.325145 0.155561 0.915468 S
0.326940 0.656327 0.417611 S
0.327759 0.646632 0.922485 S
0.826489 0.151243 0.417191 S
0.826312 0.152131 0.918648 S
0.829370 0.655224 0.412856 S
0.822406 0.660151 0.912105 S
0.097450 0.422965 0.167915 S
0.100562 0.422658 0.668876 S
0.094328 0.924901 0.165005 S
0.091881 0.926708 0.664431 S
0.594707 0.424692 0.165473 S
0.596195 0.423764 0.665696 S
0.597979 0.924375 0.169174 S
0.592896 0.921095 0.667980 S
0.405292 0.075306 0.165476 S
0.403781 0.076238 0.665712 S
0.402020 0.575628 0.169175 S
0.407085 0.578914 0.667981 S
0.902558 0.077036 0.167916 S
0.899440 0.077345 0.668874 S
0.905686 0.575104 0.165008 S
0.908119 0.573290 0.664444 S
0.076327 0.095969 0.332922 S
0.076740 0.099047 0.830987 S
0.076361 0.595834 0.333341 S
0.074539 0.593290 0.835936 S
0.574780 0.096695 0.334669 S
0.576919 0.097485 0.831045 S
0.576385 0.596181 0.333089 S
0.579493 0.589107 0.838117 S
0.425208 0.403315 0.334673 S
0.423046 0.402514 0.831048 S
0.423610 0.903820 0.333091 S
0.420495 0.910890 0.838122 S
0.923679 0.404016 0.332913 S
0.923259 0.400949 0.830991 S
0.923642 0.904162 0.333337 S
0.925464 0.906712 0.835939 S
