Li46 P16 O64                            
   1.00000000000000     
    10.5813109999999995    0.0057860000000000   -0.0025590000000000
     0.0067500000000000   12.3376310000000000   -0.0000030000000000
    -0.0024330000000000   -0.0000250000000000    9.9940999999999995
   Li   P    O 
    46    16    64
Direct
  0.4491502113985325  0.3597431996675021  0.0923826773570906
  0.6621819163412697  0.2501607680839303  0.6038739670274501
  0.6656338465620634  0.7491725621712161  0.0992170953531019
  0.6637677940906203  0.7513758683909397  0.5992664907643147
  0.1694102327640466  0.4904149776895510  0.1530236626289216
  0.1639727605231813  0.5016800901553887  0.6510304806710048
  0.1673382403572553  0.9943373693279745  0.1540298743505760
  0.1630934126799721  0.9988489370932518  0.6515915565924635
  0.3366620778215065  0.0002300480918343  0.4030442777690211
  0.3370310521685005  1.0000248697464684  0.8995176265363196
  0.3379442786659465  0.4996526765640886  0.3979725332368129
  0.3362673242984688  0.4986553094083004  0.9038551574613692
  0.8349463602232056  0.2477133606180877  0.3503409941139015
  0.8363559713075833  0.2487725544105805  0.8523891020829811
  0.8374615285383422  0.7483343688664154  0.3495730352226777
  0.8373434983621021  0.7482937922188552  0.8495623173014626
  0.3362213273077455  0.2494947690487549  0.3939487541296324
  0.3321021125297230  0.2478850774092248  0.9007034051788015
  0.3371410057742843  0.7480204122549169  0.4006771939744054
  0.3369587798100790  0.7478069317652467  0.9011142431967841
  0.8367331475568565  0.0001741048340824  0.3511634101175055
  0.8365020417654188  0.0004418418237205  0.8480305455832479
  0.8357493501138430  0.5009770209960996  0.3494811516424469
  0.8362641396141584  0.5012919554377795  0.8486541305966135
  0.6676386118070953  0.4956071940808566  0.0969486537693459
  0.6634097252027173  0.5023843111304709  0.6000260282658072
  0.6669048852071138  0.9951087414943904  0.0965564212741346
  0.6628828480788975  0.9993452633090709  0.5993770596998328
  0.1614010097313596  0.2501612518942036  0.6454961531056194
  0.1653898025827392  0.7482427266023252  0.1510120652473745
  0.1635297523220208  0.7510848773226636  0.6516964394655388
  0.9279368476642688  0.3732754329377659  0.1504742578360715
  0.9203516825637632  0.3757417403222862  0.6488493788493597
  0.9270551607496367  0.8726446751599438  0.1501270790063956
  0.9254334266435418  0.8750355252058141  0.6492538039865960
  0.4223870446161660  0.3752469616502986  0.5983382807802983
  0.4275488030013194  0.8720722542860634  0.1004849087757562
  0.4253206747482395  0.8747839206233727  0.6015248901503044
  0.0774659728332403  0.1266218624100476  0.3461951373110733
  0.0756617563237403  0.1256297699221949  0.8546047152696595
  0.0756632575928367  0.6224743478072063  0.3503836233861132
  0.0754136279016143  0.6244669692911469  0.8518062658817354
  0.5760698315346245  0.1263284614689041  0.3965385939280730
  0.5775720102639712  0.1276638969287820  0.9038874217815781
  0.5749997860787582  0.6248753683388333  0.3998489062519546
  0.5741678111958491  0.6235458602603368  0.8986660548488026
  0.9128483235934168  0.1206574583180891  0.0980353689022583
  0.9113359540220779  0.1241079524199573  0.5971035386057102
  0.9136153789189927  0.6236752300428831  0.0977393988361882
  0.9114050092222115  0.6260407451249300  0.5969937775319041
  0.4128260843349386  0.1191991404907248  0.1523900290473656
  0.4108453736221264  0.1247874178978596  0.6533931876336476
  0.4134815602420109  0.6235661512941815  0.1523007335008776
  0.4106422390942906  0.6253256880760970  0.6532081851493681
  0.0876209139739115  0.3739778887290944  0.4084094159017932
  0.0863104950946552  0.3765958753950666  0.9004682070277329
  0.0893754560259340  0.8736349238763831  0.4041462332680366
  0.0892285900859922  0.8742335902293644  0.9040641455008539
  0.5907947599022297  0.3764393108478299  0.3500239106480852
  0.5888439168310546  0.3740101106170253  0.8406306695629679
  0.5895331613113635  0.8744222349570768  0.3471082834828876
  0.5894789267700287  0.8739634209063920  0.8461131895790811
  0.8386538825930961  0.0197335506923198  0.1489537573554348
  0.8408119173162595  0.0210149638288232  0.6485003076228233
  0.8426537437409531  0.5214222184005218  0.1497172244919993
  0.8402167631243400  0.5239065875585477  0.6491682007566513
  0.3560162534711849  0.2248723070313961  0.0945460541564329
  0.3406395606833434  0.2281040792304214  0.6021070789438049
  0.3434278833562425  0.7276580734904233  0.1019007204104329
  0.3406388712751828  0.7292043467521534  0.6032252354892497
  0.1565905051148353  0.2670880226892806  0.3727490930275379
  0.1560362663996113  0.2724081950707766  0.8512658377880579
  0.1588014184833138  0.7698678956011791  0.3530971207148163
  0.1592684004678799  0.7709933754559327  0.8525910119185427
  0.6601679693772421  0.4790761104268163  0.4050671639952148
  0.6591078880948217  0.4757400483740618  0.8957790280281166
  0.6589927933620485  0.9777816281821764  0.3985110030840755
  0.6602142609216545  0.9766668369198463  0.8973370559867100
  0.1598935891593015  0.4743648952935253  0.3529952600594854
  0.1590440922669949  0.4781989198322313  0.8474740647853161
  0.1604889791024003  0.9761975151371599  0.3531482955056007
  0.1589521371499703  0.9775179342759138  0.8529074376443651
  0.6595513217906344  0.2726344934982666  0.4019179741006663
  0.6585548554891906  0.2681014179001847  0.8785002049901061
  0.6597858048613244  0.7711857095079225  0.3984737737255888
  0.6592933276783967  0.7703066539706948  0.8970453008667026
  0.8568723920967798  0.2267571535825650  0.1558786426539595
  0.8410156124645900  0.2275102257823480  0.6475203404961570
  0.8439894268165721  0.7276499622320223  0.1486417339871855
  0.8414626266871323  0.7298701953228153  0.6470316105346793
  0.3394426916145212  0.0176480498216030  0.1021634833502520
  0.3405988080146727  0.0213761629907037  0.6023058436602591
  0.3440356977416486  0.5207705499984708  0.1005853498738459
  0.3408265543970620  0.5229536808274939  0.5993485234356692
  0.5501130368978346  0.1128173959739160  0.1000144421512181
  0.5488835540617186  0.1246966827890298  0.5999234404316349
  0.5522256384305818  0.6243222825510534  0.1003259337913098
  0.5493275594063418  0.6268238387528957  0.6018920753685477
  0.0500237203723853  0.1125025438861291  0.1505930291916098
  0.0491786728591638  0.1241767042469985  0.6513196224957659
  0.0523068303173605  0.6228475560380807  0.1494194050805684
  0.0495831140582677  0.6263636213265105  0.6498566792787978
  0.4513250356711389  0.3745554021819342  0.4003607740170591
  0.4513156356297860  0.3721907698852061  0.8957875527217765
  0.4508103188788217  0.8741965224277901  0.3987330856454875
  0.4510443286851801  0.8741442635902303  0.8986888866003163
  0.9498749408318881  0.3736886022175848  0.3538634883579628
  0.9484822494168210  0.3755562244757435  0.8454936978088710
  0.9509439955237367  0.8744918737782074  0.3513377672371356
  0.9505032938030014  0.8744179458714624  0.8522844712800014
  0.5939908639469030  0.3805149311135934  0.1959268585190095
  0.5854748807243246  0.3799172346893553  0.6845873555459087
  0.5907273047730603  0.8736523419040207  0.1907662506451359
  0.5892377036646622  0.8746626141763875  0.6899490984526615
  0.0829595593845730  0.3814085630574464  0.0545931220530787
  0.0843468207504621  0.3803771139920988  0.5646194469074947
  0.0900757809912224  0.8732151774119067  0.0603714453204417
  0.0891000730524512  0.8742748215606007  0.5603490748731884
  0.4102122393659298  0.1223434499298360  0.3080892054092560
  0.4107179333207231  0.1244030926442309  0.8094802106594561
  0.4125108869570836  0.6241672591625095  0.3088114789868018
  0.4097214154625521  0.6232809116849150  0.8094909030816559
  0.9118188312599054  0.1234256397295845  0.4410946643626602
  0.9099737540103804  0.1232681930765880  0.9424334016853905
  0.9118531685484093  0.6245997036082884  0.4407245725267382
  0.9119431724817925  0.6239828445663095  0.9413403059286556
 
             NaN             NaN             NaN
             NaN             NaN             NaN
             NaN             NaN             NaN
             NaN             NaN             NaN
             NaN             NaN             NaN
             NaN             NaN             NaN
             NaN             NaN             NaN
             NaN             NaN             NaN
             NaN             NaN             NaN
             NaN             NaN             NaN
             NaN             NaN             NaN
             NaN             NaN             NaN
             NaN             NaN             NaN
             NaN             NaN             NaN
             NaN             NaN             NaN
             NaN             NaN             NaN
             NaN             NaN             NaN
             NaN             NaN             NaN
             NaN             NaN             NaN
             NaN             NaN             NaN
             NaN             NaN             NaN
             NaN             NaN             NaN
             NaN             NaN             NaN
             NaN             NaN             NaN
             NaN             NaN             NaN
             NaN             NaN             NaN
             NaN             NaN             NaN
             NaN             NaN             NaN
             NaN             NaN             NaN
             NaN             NaN             NaN
             NaN             NaN             NaN
             NaN             NaN             NaN
             NaN             NaN             NaN
             NaN             NaN             NaN
             NaN             NaN             NaN
             NaN             NaN             NaN
             NaN             NaN             NaN
             NaN             NaN             NaN
             NaN             NaN             NaN
             NaN             NaN             NaN
             NaN             NaN             NaN
             NaN             NaN             NaN
             NaN             NaN             NaN
             NaN             NaN             NaN
             NaN             NaN             NaN
             NaN             NaN             NaN
             NaN             NaN             NaN
             NaN             NaN             NaN
             NaN             NaN             NaN
             NaN             NaN             NaN
             NaN             NaN             NaN
             NaN             NaN             NaN
             NaN             NaN             NaN
             NaN             NaN             NaN
             NaN             NaN             NaN
             NaN             NaN             NaN
             NaN             NaN             NaN
             NaN             NaN             NaN
             NaN             NaN             NaN
             NaN             NaN             NaN
             NaN             NaN             NaN
             NaN             NaN             NaN
             NaN             NaN             NaN
             NaN             NaN             NaN
             NaN             NaN             NaN
             NaN             NaN             NaN
             NaN             NaN             NaN
             NaN             NaN             NaN
             NaN             NaN             NaN
             NaN             NaN             NaN
             NaN             NaN             NaN
             NaN             NaN             NaN
             NaN             NaN             NaN
             NaN             NaN             NaN
             NaN             NaN             NaN
             NaN             NaN             NaN
             NaN             NaN             NaN
             NaN             NaN             NaN
             NaN             NaN             NaN
             NaN             NaN             NaN
             NaN             NaN             NaN
             NaN             NaN             NaN
             NaN             NaN             NaN
             NaN             NaN             NaN
             NaN             NaN             NaN
             NaN             NaN             NaN
             NaN             NaN             NaN
             NaN             NaN             NaN
             NaN             NaN             NaN
             NaN             NaN             NaN
             NaN             NaN             NaN
             NaN             NaN             NaN
             NaN             NaN             NaN
             NaN             NaN             NaN
             NaN             NaN             NaN
             NaN             NaN             NaN
             NaN             NaN             NaN
             NaN             NaN             NaN
             NaN             NaN             NaN
             NaN             NaN             NaN
             NaN             NaN             NaN
             NaN             NaN             NaN
             NaN             NaN             NaN
             NaN             NaN             NaN
             NaN             NaN             NaN
             NaN             NaN             NaN
             NaN             NaN             NaN
             NaN             NaN             NaN
             NaN             NaN             NaN
             NaN             NaN             NaN
             NaN             NaN             NaN
             NaN             NaN             NaN
             NaN             NaN             NaN
             NaN             NaN             NaN
             NaN             NaN             NaN
             NaN             NaN             NaN
             NaN             NaN             NaN
             NaN             NaN             NaN
             NaN             NaN             NaN
             NaN             NaN             NaN
             NaN             NaN             NaN
             NaN             NaN             NaN
             NaN             NaN             NaN
             NaN             NaN             NaN
             NaN             NaN             NaN
             NaN             NaN             NaN
