Li46 P16 O64                            
   1.00000000000000     
    10.5813109999999995    0.0057860000000000   -0.0025590000000000
     0.0067500000000000   12.3376310000000000   -0.0000030000000000
    -0.0024330000000000   -0.0000250000000000    9.9940999999999995
   Li   P    O 
    46    16    64
Direct
  0.4629180167899143  0.3406305564396402  0.0869148003790878
  0.6620993119792024  0.2499065331078391  0.6030113540270011
  0.6642770065565956  0.7490658285858915  0.0988228156400747
  0.6634317742210671  0.7511251312342782  0.5993876449620485
  0.1684929579242881  0.4912401119113672  0.1533798689865995
  0.1638371831532209  0.5019448092397998  0.6509656616346986
  0.1675980511345825  0.9943436336349811  0.1536711915655278
  0.1629865342365968  0.9990421106269665  0.6517416147562822
  0.3364455504738753  0.0001071709593154  0.4025995284245092
  0.3367163892542335 -0.0000602721086797  0.9006520861310207
  0.3377552052078717  0.4997506978366986  0.3980723317961455
  0.3364289385250382  0.4980576065419442  0.9059591659907296
  0.8344922996037698  0.2480767618211643  0.3503951492201213
  0.8349387066939498  0.2490234220529009  0.8528461355165156
  0.8367268576708129  0.7483620685143776  0.3496209297785631
  0.8367580861392184  0.7484361886871279  0.8492457973336041
  0.3362446389078541  0.2492871087660454  0.3929955102014567
  0.3306797864627430  0.2475522497729671  0.9016460017120400
  0.3366944416790525  0.7484822353543956  0.4006289650431609
  0.3365943592108807  0.7483528332590548  0.9018942560785408
  0.8364495915865071  0.0005363821561237  0.3515299895781914
  0.8359741279232540  0.0005367545913295  0.8476524663678796
  0.8349671848045928  0.5011972443336459  0.3489318724158915
  0.8351942332706572  0.5016317829213888  0.8489088686501891
  0.6646709807344812  0.4958627149572220  0.0968778581193602
  0.6633911546759191  0.5021865702333334  0.5998149442392635
  0.6652356049891449  0.9956915084048609  0.0974526916642188
  0.6627988934923580  0.9992871673709366  0.5990557020206910
  0.1613903204366953  0.2504058666591544  0.6455120130936773
  0.1645189376564397  0.7490599550371966  0.1511926665186304
  0.1634073637363378  0.7514209167826653  0.6516910686360290
  0.9271432081629066  0.3739429938892321  0.1500907234857096
  0.9200332589890794  0.3758836049469410  0.6494350175389152
  0.9257247328477262  0.8727097567705201  0.1500536563717048
  0.9249745481819830  0.8751876067021882  0.6489856117345983
  0.4224137232108097  0.3751607974713364  0.5995462966788648
  0.4279423494283760  0.8731935098103162  0.1009327487408775
  0.4253198931500488  0.8747940224614390  0.6016310787501286
  0.0776454524316961  0.1270673323469776  0.3462060387279430
  0.0752147829575514  0.1257802921997929  0.8546974314533160
  0.0751800656070376  0.6229576963769037  0.3506910526942547
  0.0750628185700714  0.6248134376102773  0.8517915884509702
  0.5753846787938486  0.1258875675072764  0.3952606471300257
  0.5773520762001728  0.1273812826067357  0.9053158642598581
  0.5742945789485914  0.6248074305696462  0.3998491678250526
  0.5731523722356434  0.6235488326737321  0.8984730301178059
  0.9121017818890853  0.1208187651400407  0.0979110932523779
  0.9112900195103599  0.1244692571693152  0.5971347604099743
  0.9122413280914249  0.6238935502507508  0.0976658085609329
  0.9112033272588926  0.6261056451332987  0.5969117323181429
  0.4119652822184900  0.1178893100347466  0.1519803956920014
  0.4106916589212306  0.1245352910129324  0.6536089002108290
  0.4114930836551881  0.6255194037800660  0.1523550075629410
  0.4101958603101121  0.6253564631236354  0.6535511497196353
  0.0873512452519403  0.3744446239155614  0.4083957298193041
  0.0855691948570302  0.3769322677869792  0.9005553988165500
  0.0887276674396200  0.8739572717948326  0.4041443370394467
  0.0884889645853511  0.8745462699437976  0.9040171560489952
  0.5904456243121712  0.3763898096910259  0.3506275748613115
  0.5885437113801310  0.3740359292604510  0.8399252444263007
  0.5894809768550603  0.8741770051399438  0.3474115559882250
  0.5893957220327386  0.8739179320220453  0.8458937684823177
  0.8380518888207875  0.0201182245465616  0.1492178379472196
  0.8407974141667627  0.0212891521496554  0.6482060435898802
  0.8410736416348906  0.5215393653439213  0.1490613130969542
  0.8402863003415151  0.5239524362810574  0.6493567287411437
  0.3517365184145659  0.2217921552072670  0.0939870543212699
  0.3403683912241460  0.2279531536604743  0.6025981243759245
  0.3433035204346313  0.7312203040218132  0.1039423171774724
  0.3403645873033049  0.7292190891659200  0.6031420416682991
  0.1564206595598475  0.2675716736404167  0.3729118736825462
  0.1550115712495900  0.2726181630466634  0.8515474231674116
  0.1581387932953392  0.7701971512956132  0.3532062102017631
  0.1587700013448987  0.7712807860537686  0.8529472167997040
  0.6598098802012778  0.4791668545577693  0.4051678135036003
  0.6580047208682784  0.4762943562644463  0.8951037764654614
  0.6591114861342896  0.9775146165580677  0.3986969469345439
  0.6602529062503973  0.9764227881136869  0.8974270824873810
  0.1594655920916075  0.4749791106570985  0.3534453851325413
  0.1582457263298664  0.4783362726084342  0.8473355630747151
  0.1596638149310964  0.9765529383422104  0.3530836070096480
  0.1583886079311763  0.9777930004739287  0.8530652430956428
  0.6592481858055625  0.2724787547836321  0.4022616259539213
  0.6578875542479611  0.2687368859379984  0.8807285978704550
  0.6594828391842381  0.7708789617756815  0.3990385476228055
  0.6588927003830359  0.7700622137037166  0.8967495466039146
  0.8567425316906440  0.2271554634749689  0.1557594252529064
  0.8409664275735925  0.2277416218671101  0.6478844317349330
  0.8424594958775674  0.7277914195780709  0.1484578013748566
  0.8412453143010201  0.7299060863789156  0.6469305601069013
  0.3395899839022986  0.0150754598294230  0.1031604699196272
  0.3403035193825952  0.0212534159032805  0.6023485810650293
  0.3389012933519331  0.5255407443571880  0.0992957347887073
  0.3405052234847556  0.5229047976198299  0.5997440784351272
  0.5497018713005255  0.1126063614304107  0.1009337556095623
  0.5486229402262501  0.1244913447867523  0.5998935506845071
  0.5501098164373369  0.6248089675672663  0.0997352818889742
  0.5489492942087583  0.6266461231891239  0.6023245276854106
  0.0492925955031480  0.1128646765828696  0.1507131322938802
  0.0491520563544858  0.1245392391909554  0.6513449786878091
  0.0506827006895397  0.6232734389863556  0.1500390161999162
  0.0494912780615658  0.6266518338838335  0.6494971815148161
  0.4511757653664631  0.3744983700007711  0.4013730323636763
  0.4507017495446033  0.3719340604811107  0.8944530642588112
  0.4508304524294313  0.8741834443142137  0.3991894033284342
  0.4509342156456072  0.8742084509524237  0.8981020903142611
  0.9497683339806384  0.3739538006811746  0.3533049329773418
  0.9475811485640285  0.3757395648093163  0.8461361476325869
  0.9502574336061183  0.8746515972901238  0.3513773296894125
  0.9499644020239456  0.8746092415778610  0.8516553865278936
  0.5939497745496155  0.3801919433578327  0.1966269898515090
  0.5863884974048242  0.3793293999279387  0.6839211559228467
  0.5909555219421880  0.8731990082693888  0.1912047450069183
  0.5894594056950282  0.8746901776388604  0.6897145039042267
  0.0824168152719667  0.3819269341392508  0.0546878296689432
  0.0837744225322663  0.3805739963999240  0.5645914543727307
  0.0885498683921506  0.8736722601578164  0.0603051308173663
  0.0886198968300498  0.8746357092204793  0.5603385737435584
  0.4094678834295822  0.1218242620699977  0.3081569139655711
  0.4105846978393721  0.1241180835829488  0.8096528510425555
  0.4117772945189277  0.6246965469451441  0.3089751199251968
  0.4088973821545902  0.6235998041482146  0.8097624813823525
  0.9118162248964656  0.1240279587263134  0.4411197184581509
  0.9093065001933255  0.1233638250376992  0.9424043658860317
  0.9113280779227247  0.6245622009940569  0.4406399204836701
  0.9113609556021518  0.6242929551478039  0.9412629654085605
 
             NaN             NaN             NaN
             NaN             NaN             NaN
             NaN             NaN             NaN
             NaN             NaN             NaN
             NaN             NaN             NaN
             NaN             NaN             NaN
             NaN             NaN             NaN
             NaN             NaN             NaN
             NaN             NaN             NaN
             NaN             NaN             NaN
             NaN             NaN             NaN
             NaN             NaN             NaN
             NaN             NaN             NaN
             NaN             NaN             NaN
             NaN             NaN             NaN
             NaN             NaN             NaN
             NaN             NaN             NaN
             NaN             NaN             NaN
             NaN             NaN             NaN
             NaN             NaN             NaN
             NaN             NaN             NaN
             NaN             NaN             NaN
             NaN             NaN             NaN
             NaN             NaN             NaN
             NaN             NaN             NaN
             NaN             NaN             NaN
             NaN             NaN             NaN
             NaN             NaN             NaN
             NaN             NaN             NaN
             NaN             NaN             NaN
             NaN             NaN             NaN
             NaN             NaN             NaN
             NaN             NaN             NaN
             NaN             NaN             NaN
             NaN             NaN             NaN
             NaN             NaN             NaN
             NaN             NaN             NaN
             NaN             NaN             NaN
             NaN             NaN             NaN
             NaN             NaN             NaN
             NaN             NaN             NaN
             NaN             NaN             NaN
             NaN             NaN             NaN
             NaN             NaN             NaN
             NaN             NaN             NaN
             NaN             NaN             NaN
             NaN             NaN             NaN
             NaN             NaN             NaN
             NaN             NaN             NaN
             NaN             NaN             NaN
             NaN             NaN             NaN
             NaN             NaN             NaN
             NaN             NaN             NaN
             NaN             NaN             NaN
             NaN             NaN             NaN
             NaN             NaN             NaN
             NaN             NaN             NaN
             NaN             NaN             NaN
             NaN             NaN             NaN
             NaN             NaN             NaN
             NaN             NaN             NaN
             NaN             NaN             NaN
             NaN             NaN             NaN
             NaN             NaN             NaN
             NaN             NaN             NaN
             NaN             NaN             NaN
             NaN             NaN             NaN
             NaN             NaN             NaN
             NaN             NaN             NaN
             NaN             NaN             NaN
             NaN             NaN             NaN
             NaN             NaN             NaN
             NaN             NaN             NaN
             NaN             NaN             NaN
             NaN             NaN             NaN
             NaN             NaN             NaN
             NaN             NaN             NaN
             NaN             NaN             NaN
             NaN             NaN             NaN
             NaN             NaN             NaN
             NaN             NaN             NaN
             NaN             NaN             NaN
             NaN             NaN             NaN
             NaN             NaN             NaN
             NaN             NaN             NaN
             NaN             NaN             NaN
             NaN             NaN             NaN
             NaN             NaN             NaN
             NaN             NaN             NaN
             NaN             NaN             NaN
             NaN             NaN             NaN
             NaN             NaN             NaN
             NaN             NaN             NaN
             NaN             NaN             NaN
             NaN             NaN             NaN
             NaN             NaN             NaN
             NaN             NaN             NaN
             NaN             NaN             NaN
             NaN             NaN             NaN
             NaN             NaN             NaN
             NaN             NaN             NaN
             NaN             NaN             NaN
             NaN             NaN             NaN
             NaN             NaN             NaN
             NaN             NaN             NaN
             NaN             NaN             NaN
             NaN             NaN             NaN
             NaN             NaN             NaN
             NaN             NaN             NaN
             NaN             NaN             NaN
             NaN             NaN             NaN
             NaN             NaN             NaN
             NaN             NaN             NaN
             NaN             NaN             NaN
             NaN             NaN             NaN
             NaN             NaN             NaN
             NaN             NaN             NaN
             NaN             NaN             NaN
             NaN             NaN             NaN
             NaN             NaN             NaN
             NaN             NaN             NaN
             NaN             NaN             NaN
             NaN             NaN             NaN
             NaN             NaN             NaN
             NaN             NaN             NaN
             NaN             NaN             NaN
