Li46 P16 O64                            
   1.00000000000000     
    10.4254750000000005    0.0153730000000000    0.0010570000000000
     0.0170310000000000   12.1728459999999998    0.0056570000000000
     0.0004540000000000    0.0043740000000000    9.8113109999999999
   Li   P    O 
    46    16    64
Direct
  0.5826238844227275  0.2696769264283690  0.0776243892220381
  0.6643215352647230  0.2490990960538861  0.5981882243138111
  0.6645290956420787  0.7499177267542899  0.0982593724672880
  0.6638030531793767  0.7510355394660517  0.5979303328397461
  0.1681559976899391  0.4898009649754708  0.1550817443138559
  0.1643222924128788  0.5014494081655937  0.6525631889372780
  0.1645762663630576  0.9958487074243725  0.1538229872770545
  0.1628638927216927  0.9990190284610559  0.6528358627447028
  0.3341566225268420  0.9999473547887719  0.4048982669135269
  0.3342887639486731  0.0006674065558306  0.9007875886687511
  0.3370390497033935  0.4999621903115211  0.3997276860326886
  0.3354205293098126  0.4976044006721602  0.9091264890092637
  0.8338525828485884  0.2484103297996362  0.3483178713575835
  0.8313087307416068  0.2495663696706194  0.8515782662993517
  0.8361655395407602  0.7485609351502528  0.3483775139234249
  0.8359454207703418  0.7484192557424973  0.8476899211296490
  0.3366514423591586  0.2518158506165617  0.3946377755719066
  0.3314986741681686  0.2539913078967985  0.9061378659061092
  0.3352811242915619  0.7493410402783334  0.4020380668393673
  0.3353895549628947  0.7491964693800065  0.9039095570609291
  0.8353592321090122  0.0012986332298377  0.3500309510466613
  0.8358322715685064  0.0003544838051977  0.8459590451885782
  0.8348718890332992  0.5015933271234336  0.3476168763580292
  0.8333820833014898  0.5020415291423826  0.8484969933917191
  0.6599073346283161  0.4989488187769180  0.0963532557476632
  0.6654096644640888  0.5030882008695201  0.5995574449049624
  0.6655181340261562  0.9951487583739207  0.0944138591450724
  0.6635661488914633  0.9982941038724488  0.5981176735237345
  0.1621387126016803  0.2502463537170934  0.6473509560807471
  0.1631818483350931  0.7493715903943039  0.1525443867341126
  0.1637534892083088  0.7516176804509567  0.6528780647346477
  0.9227286263639529  0.3736243112867769  0.1506578411225355
  0.9168544138305926  0.3754794827109426  0.6498348535683944
  0.9228924058531323  0.8736987312124832  0.1499246314519389
  0.9232559527012807  0.8750929961034224  0.6487886342731473
  0.4223022985706593  0.3756557141018929  0.6060480790845529
  0.4260627561904103  0.8752315215942092  0.1003222161105326
  0.4231451841255402  0.8749164305322262  0.6014659433857705
  0.0777874982185140  0.1273849305168328  0.3451665101712228
  0.0756045288090774  0.1258296124602708  0.8543540317841614
  0.0770924844536266  0.6229138692314082  0.3505318145251404
  0.0768171077772060  0.6247670466135321  0.8519398983050295
  0.5764990154125792  0.1256553903365475  0.4002132976730780
  0.5774480062955917  0.1216871564629127  0.8922354501225244
  0.5756302814515001  0.6251462151963555  0.4007596605244972
  0.5729627124170725  0.6246935091231203  0.8986763294100726
  0.9093682707727857  0.1230795333788006  0.0955413757759979
  0.9115036637991430  0.1243812148085746  0.5957358266097408
  0.9119263374473974  0.6237415507541930  0.0957917461779093
  0.9121993560556388  0.6262801301875618  0.5955437909445919
  0.4111063972749330  0.1183476998800385  0.1551084526806470
  0.4103635458923710  0.1251961376567688  0.6553605375457086
  0.4104818622719846  0.6289061213873153  0.1547098427235405
  0.4102403983481370  0.6259684238147644  0.6552763307569783
  0.0859432307127157  0.3745023768054279  0.4099390107697894
  0.0834758977609661  0.3760554702542896  0.9027334914012708
  0.0873782440483951  0.8744080847955916  0.4049771663952802
  0.0871604738818879  0.8745307830250872  0.9052357555515267
  0.5901919279485868  0.3771645842040705  0.3512333253125989
  0.5852625971290109  0.3761766936441592  0.8371644692492920
  0.5881385637726950  0.8749874430786150  0.3457111633681917
  0.5881027425194925  0.8738332918240099  0.8446719418185923
  0.8373680948705324  0.0207309824701826  0.1475316369889050
  0.8410900866096680  0.0206822976656583  0.6464000887989483
  0.8394562169499692  0.5216810087600573  0.1470497488630593
  0.8413528220297556  0.5242580936165404  0.6490612780064153
  0.3566056912042682  0.2255006864583203  0.0965794693460034
  0.3413070898012571  0.2284348518958214  0.6018728087481438
  0.3432261775934154  0.7358626518249411  0.1075399902019146
  0.3405721972467026  0.7298766726588897  0.6033294435309058
  0.1559369291592008  0.2676994724343070  0.3735001221940966
  0.1538255620809575  0.2722372373283631  0.8524616063323034
  0.1568912193686473  0.7704764205201338  0.3536302713892767
  0.1581218662198871  0.7712767863008732  0.8540930057401880
  0.6602237855214823  0.4798294018919100  0.4052315931186556
  0.6541536238769260  0.4780870248351560  0.8943318909494955
  0.6577813318861305  0.9782922092034805  0.3978490386207820
  0.6592698789171659  0.9768277084517453  0.8957010358342005
  0.1584660414635456  0.4752441034581782  0.3554270851209941
  0.1559614395061512  0.4780413844046590  0.8501387576694168
  0.1581926707009152  0.9772073551643944  0.3531276902591205
  0.1571126007306682  0.9779582542672681  0.8539154890089214
  0.6585108644874345  0.2719900310737264  0.4017428590624783
  0.6502798855877199  0.2713683730377007  0.8937198045586778
  0.6584466304563132  0.7714311625620048  0.3972463728558646
  0.6580479095576551  0.7703498721324609  0.8966176601078720
  0.8475266649448188  0.2279981368724285  0.1509712051217070
  0.8403008002809315  0.2270143278807796  0.6485797240148685
  0.8425261120334446  0.7281152383334354  0.1472111745184766
  0.8416148558648112  0.7302065679189983  0.6456701410261615
  0.3388507986530956  0.0171896018061529  0.1037955785795745
  0.3406604631998765  0.0214942783742695  0.6039192660349948
  0.3334866554212460  0.5329858532713173  0.0986169700682764
  0.3409575577465532  0.5232489415172965  0.6013682079130167
  0.5503489745438556  0.1168551661940576  0.1020745907140128
  0.5501614534869655  0.1241322127262104  0.6048353315067623
  0.5490538236968823  0.6270525305968201  0.1012401617955915
  0.5498833442442840  0.6266749932434481  0.6047802729158700
  0.0472714364354031  0.1159264603165354  0.1483429624602927
  0.0498337886074454  0.1242856683578881  0.6495577843976547
  0.0507316142655033  0.6223449447596988  0.1484234608697710
  0.0510000994834408  0.6268679429257391  0.6478611282389929
  0.4512740980143918  0.3762031154372896  0.4030427565321558
  0.4436878198309919  0.3752753986120186  0.8755995477358149
  0.4490348048250342  0.8750355644322791  0.3973867108433642
  0.4493390886522420  0.8752498055880433  0.8972426859086725
  0.9480154633638008  0.3741308457368389  0.3546732633695044
  0.9448859733973141  0.3753241528417292  0.8485815654261641
  0.9483471842069862  0.8752275517245141  0.3527091033354836
  0.9483512194421746  0.8745098967897216  0.8526380858842119
  0.5947110186660886  0.3809934788351604  0.1961381407663415
  0.5957904239517015  0.3764621653912853  0.6808977917833147
  0.5899072789704775  0.8749993493657173  0.1884241496930289
  0.5885241715787346  0.8743151096126993  0.6877186220398990
  0.0808805648961107  0.3795795200511883  0.0580375576050943
  0.0827214757096302  0.3798261722230277  0.5672292779921759
  0.0872318440717997  0.8740273227655313  0.0623670107861992
  0.0882359957148330  0.8749869969554654  0.5620900542991798
  0.4097480069207242  0.1213808907705854  0.3114173232017772
  0.4083766913395522  0.1254843926956132  0.8125124463584483
  0.4115293935063819  0.6257842837991594  0.3119812248599593
  0.4078414222766766  0.6250130901129828  0.8122661817279569
  0.9113606312582445  0.1248858842059127  0.4387329910885877
  0.9073289861660794  0.1240813027133051  0.9387322950162712
  0.9117685393780194  0.6246634450452986  0.4383582990195967
  0.9112022708029628  0.6245033932730057  0.9384764563139280
 
             NaN             NaN             NaN
             NaN             NaN             NaN
             NaN             NaN             NaN
             NaN             NaN             NaN
             NaN             NaN             NaN
             NaN             NaN             NaN
             NaN             NaN             NaN
             NaN             NaN             NaN
             NaN             NaN             NaN
             NaN             NaN             NaN
             NaN             NaN             NaN
             NaN             NaN             NaN
             NaN             NaN             NaN
             NaN             NaN             NaN
             NaN             NaN             NaN
             NaN             NaN             NaN
             NaN             NaN             NaN
             NaN             NaN             NaN
             NaN             NaN             NaN
             NaN             NaN             NaN
             NaN             NaN             NaN
             NaN             NaN             NaN
             NaN             NaN             NaN
             NaN             NaN             NaN
             NaN             NaN             NaN
             NaN             NaN             NaN
             NaN             NaN             NaN
             NaN             NaN             NaN
             NaN             NaN             NaN
             NaN             NaN             NaN
             NaN             NaN             NaN
             NaN             NaN             NaN
             NaN             NaN             NaN
             NaN             NaN             NaN
             NaN             NaN             NaN
             NaN             NaN             NaN
             NaN             NaN             NaN
             NaN             NaN             NaN
             NaN             NaN             NaN
             NaN             NaN             NaN
             NaN             NaN             NaN
             NaN             NaN             NaN
             NaN             NaN             NaN
             NaN             NaN             NaN
             NaN             NaN             NaN
             NaN             NaN             NaN
             NaN             NaN             NaN
             NaN             NaN             NaN
             NaN             NaN             NaN
             NaN             NaN             NaN
             NaN             NaN             NaN
             NaN             NaN             NaN
             NaN             NaN             NaN
             NaN             NaN             NaN
             NaN             NaN             NaN
             NaN             NaN             NaN
             NaN             NaN             NaN
             NaN             NaN             NaN
             NaN             NaN             NaN
             NaN             NaN             NaN
             NaN             NaN             NaN
             NaN             NaN             NaN
             NaN             NaN             NaN
             NaN             NaN             NaN
             NaN             NaN             NaN
             NaN             NaN             NaN
             NaN             NaN             NaN
             NaN             NaN             NaN
             NaN             NaN             NaN
             NaN             NaN             NaN
             NaN             NaN             NaN
             NaN             NaN             NaN
             NaN             NaN             NaN
             NaN             NaN             NaN
             NaN             NaN             NaN
             NaN             NaN             NaN
             NaN             NaN             NaN
             NaN             NaN             NaN
             NaN             NaN             NaN
             NaN             NaN             NaN
             NaN             NaN             NaN
             NaN             NaN             NaN
             NaN             NaN             NaN
             NaN             NaN             NaN
             NaN             NaN             NaN
             NaN             NaN             NaN
             NaN             NaN             NaN
             NaN             NaN             NaN
             NaN             NaN             NaN
             NaN             NaN             NaN
             NaN             NaN             NaN
             NaN             NaN             NaN
             NaN             NaN             NaN
             NaN             NaN             NaN
             NaN             NaN             NaN
             NaN             NaN             NaN
             NaN             NaN             NaN
             NaN             NaN             NaN
             NaN             NaN             NaN
             NaN             NaN             NaN
             NaN             NaN             NaN
             NaN             NaN             NaN
             NaN             NaN             NaN
             NaN             NaN             NaN
             NaN             NaN             NaN
             NaN             NaN             NaN
             NaN             NaN             NaN
             NaN             NaN             NaN
             NaN             NaN             NaN
             NaN             NaN             NaN
             NaN             NaN             NaN
             NaN             NaN             NaN
             NaN             NaN             NaN
             NaN             NaN             NaN
             NaN             NaN             NaN
             NaN             NaN             NaN
             NaN             NaN             NaN
             NaN             NaN             NaN
             NaN             NaN             NaN
             NaN             NaN             NaN
             NaN             NaN             NaN
             NaN             NaN             NaN
             NaN             NaN             NaN
             NaN             NaN             NaN
             NaN             NaN             NaN
             NaN             NaN             NaN
