Li46 P16 O64                            
   1.00000000000000     
    10.4254750000000005    0.0153730000000000    0.0010570000000000
     0.0170310000000000   12.1728459999999998    0.0056570000000000
     0.0004540000000000    0.0043740000000000    9.8113109999999999
   Li   P    O 
    46    16    64
Direct
  0.5885329321562749  0.2690316561360578  0.0783785692944155
  0.6643469597898043  0.2492610666725730  0.5981457880387050
  0.6647630674454824  0.7499921175205061  0.0982898929064569
  0.6639428805465741  0.7510616667597142  0.5979274279009568
  0.1683794405212856  0.4896899387582175  0.1551050666736312
  0.1645402382668032  0.5014687797273439  0.6524859255121632
  0.1644865675893255  0.9958465471019373  0.1537446452471216
  0.1630121838363853  0.9990532954619104  0.6528459118504629
  0.3343965688741841  0.9999428384480321  0.4049262126646426
  0.3345693019151594  0.0005596740453814  0.9006404784684292
  0.3372458036340724  0.4999147653815502  0.3995799816900384
  0.3358106522687365  0.4974018293126416  0.9094320164216056
  0.8340145980059763  0.2484742102362913  0.3481218636892087
  0.8319228128460889  0.2495865063284850  0.8513325093570210
  0.8363909497383669  0.7485995866210099  0.3483785385990775
  0.8362254176414142  0.7484521171241363  0.8476605614214441
  0.3366722440556346  0.2518063709253168  0.3948243552456082
  0.3315896853722688  0.2538547970289661  0.9057842195112761
  0.3355132081021386  0.7493055150365500  0.4020745454521725
  0.3356149084584605  0.7490260944847861  0.9038498538112100
  0.8355509127630584  0.0013722253618089  0.3499694217156947
  0.8359668130884693  0.0004276785635443  0.8460322320567327
  0.8349761085105135  0.5015381478723118  0.3475844551608793
  0.8336278819324328  0.5020743937967455  0.8484714550512530
  0.6599718495191369  0.4989629084190268  0.0964895481658523
  0.6653891032671885  0.5029067573722228  0.5995035122603438
  0.6653534790787345  0.9956518097445070  0.0945922108784205
  0.6636779127589894  0.9983821491359697  0.5980382225427801
  0.1621778524365945  0.2502059807019895  0.6471448738644937
  0.1633637366890153  0.7493018975776842  0.1525254674976304
  0.1639271034177910  0.7515901496668413  0.6528725341861913
  0.9231134765443451  0.3734810788880743  0.1506873189867459
  0.9170623594367502  0.3755528775221414  0.6497372519789190
  0.9229974953260537  0.8738170786903148  0.1498825892418705
  0.9234173197021137  0.8751581775517472  0.6486957335205852
  0.4223598046500939  0.3755921735806913  0.6055747628355511
  0.4263104617280594  0.8749984603156648  0.1002568879494842
  0.4233378219146105  0.8748697313412227  0.6015039894549890
  0.0778873333887478  0.1274539069005678  0.3449667810747521
  0.0757610189118964  0.1257997102990852  0.8544038456137094
  0.0772650050915654  0.6228665796233810  0.3505336593311643
  0.0770758632616306  0.6247399416616899  0.8519656284803585
  0.5766660835977454  0.1257513640608402  0.4003533500817257
  0.5775281338244277  0.1219675817029670  0.8919941492623888
  0.5758702416522714  0.6251458289658929  0.4007069512875235
  0.5732848193323814  0.6246833560566089  0.8986732640453051
  0.9093466998961339  0.1233221490450220  0.0955587971542303
  0.9115395616557664  0.1244500375462741  0.5956709530472383
  0.9120692459987633  0.6236662435609299  0.0958278183100043
  0.9122710406780159  0.6262530597461008  0.5955085374386466
  0.4108181674349402  0.1185326552483801  0.1551423976112733
  0.4104571931269294  0.1251899634138958  0.6552875944995059
  0.4106837809472534  0.6288507813592700  0.1547866835979590
  0.4104208938078401  0.6258444618457120  0.6552022043265339
  0.0860886080981608  0.3744716867783641  0.4099509953333072
  0.0837696563736048  0.3760651931226073  0.9024974552221218
  0.0876053188792962  0.8744332406421139  0.4049922939263623
  0.0873638830567486  0.8745208450717994  0.9052042401787151
  0.5900893277038499  0.3770843586776892  0.3511113898170554
  0.5855481638173088  0.3760979031349406  0.8375266742943815
  0.5882931947740978  0.8750830066965229  0.3457068617631402
  0.5882877504071599  0.8739164000011831  0.8446930822606844
  0.8373189408748660  0.0208664153075604  0.1475252552125994
  0.8411052357669766  0.0207804285903467  0.6463618403074874
  0.8395603285124440  0.5215681019738336  0.1470369783126867
  0.8413450958193491  0.5242175258814102  0.6489654515542136
  0.3543732781396864  0.2251103652805886  0.0967273128816512
  0.3413056718281189  0.2283878138954959  0.6017994330441726
  0.3433666123845128  0.7357796364565707  0.1075535358228682
  0.3407441382904294  0.7297865090369942  0.6033643833523058
  0.1560326861761801  0.2676739873731165  0.3736276051148724
  0.1539384181043251  0.2722143328848455  0.8521252669548163
  0.1570686486798707  0.7704763361433941  0.3536530119636845
  0.1583235715152050  0.7712708515885893  0.8540060401269931
  0.6602386627735360  0.4797274588464150  0.4050911129108644
  0.6545856634589655  0.4780091746706331  0.8945211043978784
  0.6578832325689579  0.9784275088555303  0.3977892116413412
  0.6592461507165797  0.9769847201311108  0.8958669251711815
  0.1586695540442009  0.4751664204949798  0.3553920843361782
  0.1563283217417973  0.4780437743886788  0.8500271737498678
  0.1584163270025535  0.9772270328413378  0.3531156872184039
  0.1573425753069478  0.9779476252507098  0.8539677204907794
  0.6585458700301481  0.2719500292467880  0.4014688026253657
  0.6512179851792781  0.2713332820205516  0.8934518069722605
  0.6586704276593117  0.7715307945244270  0.3972261132111147
  0.6583461304923874  0.7704742399195267  0.8966454736870744
  0.8468748348293139  0.2281285743899816  0.1505845601324445
  0.8403706477216173  0.2271363487527466  0.6484585064282204
  0.8426959567264936  0.7280389882659670  0.1472822566085661
  0.8417247316683700  0.7301971105686654  0.6456316550502960
  0.3391627337328090  0.0170491949834908  0.1039151095733711
  0.3407941524951400  0.0214698854436222  0.6038869939105000
  0.3336150886070727  0.5328382953714343  0.0988478615863765
  0.3411155439096773  0.5231780246798596  0.6011431364310948
  0.5497113429590123  0.1179860733610054  0.1014863578236092
  0.5502542715347223  0.1242178157551107  0.6046833164008963
  0.5492796989087972  0.6269902876947371  0.1012718089588680
  0.5500683543969334  0.6266215011403311  0.6046407009854948
  0.0472919286425895  0.1159865424593024  0.1484116829172566
  0.0498519845630303  0.1242723846332518  0.6495865382502052
  0.0508554607200915  0.6221868996593223  0.1485178694543864
  0.0510467541211646  0.6267952672049413  0.6478986684919003
  0.4512692325520650  0.3760383443665428  0.4030521764396743
  0.4441187222579870  0.3749203476743569  0.8768142021652792
  0.4491953441164755  0.8750662028950916  0.3974512425891534
  0.4494895199104416  0.8751680285932800  0.8972195118431706
  0.9482026431110270  0.3741532344856831  0.3546445365405160
  0.9451489394372420  0.3754407618207131  0.8483859221336321
  0.9485372089614048  0.8752854179556142  0.3527221306736347
  0.9485586430458480  0.8745778618848037  0.8524948206303384
  0.5943823613779836  0.3810039274919309  0.1960939071014491
  0.5954132071137449  0.3764606957424346  0.6811069114084947
  0.5900816094938024  0.8751994030011612  0.1884259446552193
  0.5887753178901861  0.8744538683783978  0.6877344092194927
  0.0811218028133496  0.3794834925380798  0.0579066669028690
  0.0828633222391238  0.3798404313081515  0.5672278818123447
  0.0873550661415548  0.8739543021861518  0.0623441530306609
  0.0884782314521656  0.8749943459953053  0.5621140806906483
  0.4099776695123700  0.1215998267685720  0.3113916852178411
  0.4085126742182960  0.1254695615453857  0.8124383426216628
  0.4117704189215498  0.6257387279826899  0.3120561920845597
  0.4080421193512071  0.6247764492026736  0.8122063882668077
  0.9114430886777275  0.1249598400162883  0.4386579901757764
  0.9074761325745783  0.1242005598151900  0.9387130521278514
  0.9118506373540612  0.6246342491059139  0.4383196452111202
  0.9113728626223089  0.6244799203074837  0.9385039722023152
 
             NaN             NaN             NaN
             NaN             NaN             NaN
             NaN             NaN             NaN
             NaN             NaN             NaN
             NaN             NaN             NaN
             NaN             NaN             NaN
             NaN             NaN             NaN
             NaN             NaN             NaN
             NaN             NaN             NaN
             NaN             NaN             NaN
             NaN             NaN             NaN
             NaN             NaN             NaN
             NaN             NaN             NaN
             NaN             NaN             NaN
             NaN             NaN             NaN
             NaN             NaN             NaN
             NaN             NaN             NaN
             NaN             NaN             NaN
             NaN             NaN             NaN
             NaN             NaN             NaN
             NaN             NaN             NaN
             NaN             NaN             NaN
             NaN             NaN             NaN
             NaN             NaN             NaN
             NaN             NaN             NaN
             NaN             NaN             NaN
             NaN             NaN             NaN
             NaN             NaN             NaN
             NaN             NaN             NaN
             NaN             NaN             NaN
             NaN             NaN             NaN
             NaN             NaN             NaN
             NaN             NaN             NaN
             NaN             NaN             NaN
             NaN             NaN             NaN
             NaN             NaN             NaN
             NaN             NaN             NaN
             NaN             NaN             NaN
             NaN             NaN             NaN
             NaN             NaN             NaN
             NaN             NaN             NaN
             NaN             NaN             NaN
             NaN             NaN             NaN
             NaN             NaN             NaN
             NaN             NaN             NaN
             NaN             NaN             NaN
             NaN             NaN             NaN
             NaN             NaN             NaN
             NaN             NaN             NaN
             NaN             NaN             NaN
             NaN             NaN             NaN
             NaN             NaN             NaN
             NaN             NaN             NaN
             NaN             NaN             NaN
             NaN             NaN             NaN
             NaN             NaN             NaN
             NaN             NaN             NaN
             NaN             NaN             NaN
             NaN             NaN             NaN
             NaN             NaN             NaN
             NaN             NaN             NaN
             NaN             NaN             NaN
             NaN             NaN             NaN
             NaN             NaN             NaN
             NaN             NaN             NaN
             NaN             NaN             NaN
             NaN             NaN             NaN
             NaN             NaN             NaN
             NaN             NaN             NaN
             NaN             NaN             NaN
             NaN             NaN             NaN
             NaN             NaN             NaN
             NaN             NaN             NaN
             NaN             NaN             NaN
             NaN             NaN             NaN
             NaN             NaN             NaN
             NaN             NaN             NaN
             NaN             NaN             NaN
             NaN             NaN             NaN
             NaN             NaN             NaN
             NaN             NaN             NaN
             NaN             NaN             NaN
             NaN             NaN             NaN
             NaN             NaN             NaN
             NaN             NaN             NaN
             NaN             NaN             NaN
             NaN             NaN             NaN
             NaN             NaN             NaN
             NaN             NaN             NaN
             NaN             NaN             NaN
             NaN             NaN             NaN
             NaN             NaN             NaN
             NaN             NaN             NaN
             NaN             NaN             NaN
             NaN             NaN             NaN
             NaN             NaN             NaN
             NaN             NaN             NaN
             NaN             NaN             NaN
             NaN             NaN             NaN
             NaN             NaN             NaN
             NaN             NaN             NaN
             NaN             NaN             NaN
             NaN             NaN             NaN
             NaN             NaN             NaN
             NaN             NaN             NaN
             NaN             NaN             NaN
             NaN             NaN             NaN
             NaN             NaN             NaN
             NaN             NaN             NaN
             NaN             NaN             NaN
             NaN             NaN             NaN
             NaN             NaN             NaN
             NaN             NaN             NaN
             NaN             NaN             NaN
             NaN             NaN             NaN
             NaN             NaN             NaN
             NaN             NaN             NaN
             NaN             NaN             NaN
             NaN             NaN             NaN
             NaN             NaN             NaN
             NaN             NaN             NaN
             NaN             NaN             NaN
             NaN             NaN             NaN
             NaN             NaN             NaN
             NaN             NaN             NaN
             NaN             NaN             NaN
