Li46 P16 O64                            
   1.00000000000000     
    10.6506840000000000   -0.0059060000000000   -0.0151490000000000
    -0.0069000000000000   12.4488420000000009   -0.0079450000000000
    -0.0142790000000000   -0.0064320000000000   10.0809560000000005
   Li   P    O 
    46    16    64
Direct
  0.3689377214660038  0.3608271774643437  0.1438541080937207
  0.6639958934988802  0.2514835588987878  0.5989691322108005
  0.6599412784406808  0.7463148431464273  0.0976835619669430
  0.6630570013668218  0.7508985530828434  0.6000755779692966
  0.1553429572016838  0.5021367411882535  0.1527898373609569
  0.1631344043357545  0.5007907619599609  0.6510725116727312
  0.1648589053873953  0.9953880850026058  0.1505617580803649
  0.1638159624216017  0.0005593409862930  0.6517222258153367
  0.3376055502857079  0.0005731146606528  0.4000497711136685
  0.3391608769908174  0.0005957158230955  0.9054469914670061
  0.3366135531256769  0.5007110845849608  0.4042393845938832
  0.3375542139431661  0.4964422228653506  0.9004695422960128
  0.8329460167608653  0.2486732918897137  0.3432982025556260
  0.8335918973027353  0.2489541098594487  0.8575272890436888
  0.8361635263473470  0.7485091185150246  0.3485511793235120
  0.8363966736849942  0.7485304579158993  0.8493235579997395
  0.3364745256784686  0.2449833600540048  0.4061383062916758
  0.3386460934304670  0.2482030556141160  0.9028017884953242
  0.3373996984360981  0.7485299013259793  0.4004230984144589
  0.3367069324011254  0.7483763170547297  0.9018659605068059
  0.8397958361421369  0.0029869180632778  0.3466926247848670
  0.8373947677978592  0.0023767506481194  0.8488812594042975
  0.8335192880613721  0.4973326714544832  0.3463902056152423
  0.8343976095981989  0.4983210696549219  0.8527988671233769
  0.6541493188589673  0.4838881023390150  0.0934658729187110
  0.6643899537444211  0.5005814601134230  0.5957121198458708
  0.6651426321428844  0.9966659382429903  0.1004204922627757
  0.6639234503201275  0.0006350466199638  0.5988141560380661
  0.1632473999412433  0.2523741680104756  0.6513132664284177
  0.1614806085853188  0.7500627319837666  0.1524606050168213
  0.1634076088773057  0.7518202544773603  0.6505487399439828
  0.9382488794018443  0.3627215312970369  0.1499251942869682
  0.9262256396037719  0.3741499721311560  0.6525306212382584
  0.9249327948831859  0.8765720628870193  0.1485061171414825
  0.9261719060297083  0.8765510251826941  0.6486737299655038
  0.4253526518208664  0.3742864941545192  0.6055717113569844
  0.4272906012098192  0.8741786635984897  0.1021362752597859
  0.4272763201868164  0.8757731086125702  0.6011312718128614
  0.0797312078847307  0.1369214521143774  0.3313608211386035
  0.0760251171091615  0.1289064963469567  0.8623421677320529
  0.0717742412339902  0.6242968339397759  0.3536523593309450
  0.0729966943479419  0.6237285455392455  0.8498136701452582
  0.5745717695408086  0.1282587354821683  0.3875701439602457
  0.5766405689438409  0.1354095268656587  0.9185335731445042
  0.5738111422882847  0.6224042428107274  0.3986924869621445
  0.5724516699691156  0.6202137332321576  0.8979465681662918
  0.9141645787540906  0.1202269900831392  0.0984743580937150
  0.9141007546704979  0.1256062573135760  0.5959966717235746
  0.9071601169158222  0.6244167207646349  0.0980458835626916
  0.9104392629049356  0.6256839850257281  0.5970428951653108
  0.4106667778093542  0.1171206954434595  0.1517995656056547
  0.4129529346066529  0.1224742863919141  0.6545329703182552
  0.4076800171130385  0.6226117807507159  0.1522728648633786
  0.4103661503370354  0.6266818307974428  0.6533890740804480
  0.0903191971332531  0.3764682912781649  0.4067314238092740
  0.0899397012023179  0.3783094771196998  0.9023613746947156
  0.0896477303591880  0.8743151729994058  0.4039376830782185
  0.0890649511896403  0.8732477587754179  0.9022936597596848
  0.5828277600693416  0.3762865625791772  0.3482192894209983
  0.5864596894837096  0.3735733894066044  0.8347190791273277
  0.5903648432055624  0.8726130071318970  0.3477640915977590
  0.5903813129108965  0.8729606425941291  0.8471040724302149
  0.8382590643666783  0.0187069071964980  0.1471353692995001
  0.8431552307392990  0.0226212041900924  0.6457708923353890
  0.8377425665157353  0.5218924824916004  0.1469385362779094
  0.8418875463931625  0.5239879107349988  0.6503821042237469
  0.3470609781560665  0.2171780857228386  0.0922980032522762
  0.3414234794088052  0.2244887992204243  0.6055225686179068
  0.3389293398889748  0.7264397495847125  0.1027297332597605
  0.3414115134835233  0.7298115636004028  0.6027003716517887
  0.1630743704670276  0.2751245080343072  0.3644609016251740
  0.1589431947018390  0.2759335001239732  0.8501410722739272
  0.1582955932723858  0.7703060727542337  0.3547839880629030
  0.1586377868616827  0.7708412129935613  0.8502585863849288
  0.6556725483873692  0.4783725634804041  0.4013468833033711
  0.6548256700586612  0.4754230584483584  0.8931701486336016
  0.6604522209557158  0.9753486992371325  0.3971719356256908
  0.6625152485734288  0.9731389704856478  0.8987538279734623
  0.1585693892776243  0.4802964640110953  0.3548936588189287
  0.1581929086126379  0.4805217022938966  0.8455344185953161
  0.1609570723469322  0.9748754426152237  0.3533005905260961
  0.1596799260488440  0.9755694998502884  0.8533360269754039
  0.6555654663820593  0.2744915700422112  0.3983414704045238
  0.6554470989868793  0.2703627971212068  0.8770059859467813
  0.6595086087140516  0.7703535105379222  0.4008367964050311
  0.6579367541894650  0.7683067856247836  0.8957612451780678
  0.8569939599777828  0.2242067327728636  0.1549385705035045
  0.8440687695368558  0.2276515503980631  0.6466267576124681
  0.8371385892197463  0.7274015131861197  0.1476895081016628
  0.8412210420016323  0.7286323879927854  0.6475700918985603
  0.3380558528725198  0.0126216507584242  0.1065954697965381
  0.3425134932433328  0.0197327016719236  0.6028921747975230
  0.3330705172426099  0.5218160848041512  0.1039787348173019
  0.3399995109794201  0.5254226486269811  0.6008348894758914
  0.5475641640169485  0.1070718433164242  0.1052936363824724
  0.5489431731325262  0.1233471190762871  0.5980295283505849
  0.5437385077775114  0.6214921742573750  0.0966213452104147
  0.5480714464561175  0.6271411408795565  0.6017701118994577
  0.0513292884876382  0.1079190613903022  0.1442350668708766
  0.0506951325877082  0.1247704363416814  0.6518507182710912
  0.0442546640566149  0.6269107981572278  0.1530785344575050
  0.0488543336542804  0.6274406858644973  0.6471868245307133
  0.4464829786409761  0.3744595560701326  0.4082221792376184
  0.4459750171260867  0.3742504522643972  0.8750631136370461
  0.4527127292602862  0.8732275257240679  0.4001989348672335
  0.4527228255009387  0.8728045251546073  0.8993989084699552
  0.9531298537586921  0.3758209745481298  0.3521188266623265
  0.9508960493480535  0.3759816458829029  0.8508746180732083
  0.9519102597670777  0.8735775859992687  0.3508642560419934
  0.9516035608403512  0.8738527404610978  0.8485217829687008
  0.5703400897702835  0.3814583410593244  0.1972077864695759
  0.5927339991637143  0.3802576762708169  0.6790999350607894
  0.5901719024358851  0.8690351069616090  0.1930102028424152
  0.5900812639327850  0.8742607733465144  0.6915802129562130
  0.0919977314680695  0.3848448670396754  0.0549230847698221
  0.0873096934838797  0.3803259400696584  0.5624460932871979
  0.0877754655323215  0.8701873167418145  0.0570688442245237
  0.0888847607471321  0.8747525837186187  0.5593320305587036
  0.4069204821767230  0.1228345729723360  0.3081196035773947
  0.4142564401225906  0.1209781757305357  0.8092767260332022
  0.4105720880239582  0.6241754330877243  0.3077113693414302
  0.4092566652048761  0.6258160067999042  0.8083661035282007
  0.9150632409414257  0.1254553106668376  0.4409266400384356
  0.9087938559365467  0.1228871768680866  0.9421685984693134
  0.9079158700272224  0.6243794919909825  0.4418422620927918
  0.9098307729236814  0.6252615272555683  0.9425758460434771
 
             NaN             NaN             NaN
             NaN             NaN             NaN
             NaN             NaN             NaN
             NaN             NaN             NaN
             NaN             NaN             NaN
             NaN             NaN             NaN
             NaN             NaN             NaN
             NaN             NaN             NaN
             NaN             NaN             NaN
             NaN             NaN             NaN
             NaN             NaN             NaN
             NaN             NaN             NaN
             NaN             NaN             NaN
             NaN             NaN             NaN
             NaN             NaN             NaN
             NaN             NaN             NaN
             NaN             NaN             NaN
             NaN             NaN             NaN
             NaN             NaN             NaN
             NaN             NaN             NaN
             NaN             NaN             NaN
             NaN             NaN             NaN
             NaN             NaN             NaN
             NaN             NaN             NaN
             NaN             NaN             NaN
             NaN             NaN             NaN
             NaN             NaN             NaN
             NaN             NaN             NaN
             NaN             NaN             NaN
             NaN             NaN             NaN
             NaN             NaN             NaN
             NaN             NaN             NaN
             NaN             NaN             NaN
             NaN             NaN             NaN
             NaN             NaN             NaN
             NaN             NaN             NaN
             NaN             NaN             NaN
             NaN             NaN             NaN
             NaN             NaN             NaN
             NaN             NaN             NaN
             NaN             NaN             NaN
             NaN             NaN             NaN
             NaN             NaN             NaN
             NaN             NaN             NaN
             NaN             NaN             NaN
             NaN             NaN             NaN
             NaN             NaN             NaN
             NaN             NaN             NaN
             NaN             NaN             NaN
             NaN             NaN             NaN
             NaN             NaN             NaN
             NaN             NaN             NaN
             NaN             NaN             NaN
             NaN             NaN             NaN
             NaN             NaN             NaN
             NaN             NaN             NaN
             NaN             NaN             NaN
             NaN             NaN             NaN
             NaN             NaN             NaN
             NaN             NaN             NaN
             NaN             NaN             NaN
             NaN             NaN             NaN
             NaN             NaN             NaN
             NaN             NaN             NaN
             NaN             NaN             NaN
             NaN             NaN             NaN
             NaN             NaN             NaN
             NaN             NaN             NaN
             NaN             NaN             NaN
             NaN             NaN             NaN
             NaN             NaN             NaN
             NaN             NaN             NaN
             NaN             NaN             NaN
             NaN             NaN             NaN
             NaN             NaN             NaN
             NaN             NaN             NaN
             NaN             NaN             NaN
             NaN             NaN             NaN
             NaN             NaN             NaN
             NaN             NaN             NaN
             NaN             NaN             NaN
             NaN             NaN             NaN
             NaN             NaN             NaN
             NaN             NaN             NaN
             NaN             NaN             NaN
             NaN             NaN             NaN
             NaN             NaN             NaN
             NaN             NaN             NaN
             NaN             NaN             NaN
             NaN             NaN             NaN
             NaN             NaN             NaN
             NaN             NaN             NaN
             NaN             NaN             NaN
             NaN             NaN             NaN
             NaN             NaN             NaN
             NaN             NaN             NaN
             NaN             NaN             NaN
             NaN             NaN             NaN
             NaN             NaN             NaN
             NaN             NaN             NaN
             NaN             NaN             NaN
             NaN             NaN             NaN
             NaN             NaN             NaN
             NaN             NaN             NaN
             NaN             NaN             NaN
             NaN             NaN             NaN
             NaN             NaN             NaN
             NaN             NaN             NaN
             NaN             NaN             NaN
             NaN             NaN             NaN
             NaN             NaN             NaN
             NaN             NaN             NaN
             NaN             NaN             NaN
             NaN             NaN             NaN
             NaN             NaN             NaN
             NaN             NaN             NaN
             NaN             NaN             NaN
             NaN             NaN             NaN
             NaN             NaN             NaN
             NaN             NaN             NaN
             NaN             NaN             NaN
             NaN             NaN             NaN
             NaN             NaN             NaN
             NaN             NaN             NaN
             NaN             NaN             NaN
             NaN             NaN             NaN
