Li47 P16 O64                            
   1.00000000000000     
    10.4516069999999992   -0.0018330000000000   -0.0025250000000000
    -0.0021130000000000   12.2194219999999998    0.0028480000000000
    -0.0024200000000000    0.0022910000000000    9.8348270000000007
   Li   P    O 
    47    16    64
Direct
  0.2779148527565170  0.3482893154936164  0.1569186198532719
  0.6579932801324304  0.2511588591130973  0.0973641299555652
  0.6671109472252397  0.2487063732136647  0.5966722368037409
  0.6592411439824701  0.7475839231701826  0.0969748719961672
  0.6635407240933304  0.7499940407185477  0.5980789556660113
  0.1540129501717544  0.5112011376792935  0.1514129775208772
  0.1649384417100350  0.5009523690858728  0.6510430708082993
  0.1645445470480666  0.0024564622654495  0.1495986648012035
  0.1645901278070312  0.0009565213599956  0.6529445133950915
  0.3364038552232032  0.0008339997492470  0.4001841139551701
  0.3364574403896512  0.0003520272552038  0.9049971107407586
  0.3385249196568196  0.4998771343890027  0.4029240535850889
  0.3379458986737447  0.4969058235811445  0.9060083404356121
  0.8362018742892374  0.2492215262283324  0.3459223182391611
  0.8348197946610014  0.2495226318254069  0.8512233115442740
  0.8351938191288681  0.7491242160799558  0.3478554070299609
  0.8352766497084474  0.7497686042434708  0.8473519273079049
  0.3408377463922889  0.2461729754908362  0.4060829804290265
  0.3392388949299985  0.2498653937975703  0.9041242137680641
  0.3365013960638663  0.7483234062167625  0.4016869476225082
  0.3347679731294875  0.7475983728058111  0.9032761226448400
  0.8379916276638255  0.0027426629642662  0.3470189593267037
  0.8355392116133800  0.0013417924425809  0.8463741076863727
  0.8355480125007517  0.4983486382864015  0.3449448078705259
  0.8348447820709168  0.5003375131462775  0.8522667256009981
  0.6577821375745856  0.4939149601309936  0.0955433676719082
  0.6669440128860202  0.4990365891361037  0.5969799124148096
  0.6628297450334131  0.9951984896813286  0.0972321711575219
  0.6651549658355123  0.9979630897859124  0.5974017653320587
  0.1654850494559170  0.2530328348316147  0.6510334272708960
  0.1630889788940451  0.7536023677103856  0.1538798402234818
  0.1647932284918667  0.7529644612071991  0.6512681402666729
  0.9332043806366386  0.3683339700023254  0.1463909331563258
  0.9247613493901952  0.3756297376570004  0.6532245499153788
  0.9219807605429793  0.8760511135577289  0.1486912680401602
  0.9245831396384716  0.8761946097969613  0.6482165683640631
  0.4271171416429027  0.3741279127851129  0.6076513868583788
  0.4235118213266986  0.8724170754366227  0.1019916011566835
  0.4237822938635318  0.8747019908597267  0.6002137508505285
  0.0817266017267855  0.1346413519239604  0.3369275383850123
  0.0776446849815144  0.1286967291529919  0.8583560198394693
  0.0750350488957068  0.6272901265378508  0.3541810928460265
  0.0757815263724027  0.6259823981495600  0.8487923903227781
  0.5776240720088879  0.1245757539532946  0.3970121315083404
  0.5758755058449552  0.1240354311695313  0.9018265048005745
  0.5761552364152607  0.6222897225599837  0.3995155235236467
  0.5737419386047478  0.6218561453911136  0.8981600152471998
  0.9091877977892224  0.1223176485132100  0.0950470991190500
  0.9149519481615158  0.1259742678585667  0.5952293308657488
  0.9082464953699230  0.6266427617804951  0.0953836283746341
  0.9119610771017079  0.6259150103185505  0.5953467729516220
  0.4138558476673779  0.1211903983564966  0.1537419012464980
  0.4132650396976132  0.1230306343989298  0.6551441159271008
  0.4074548285706641  0.6224195032005824  0.1548331289019629
  0.4116672565258881  0.6247016389849236  0.6549967562405357
  0.0910071607941987  0.3768680008809326  0.4043881420497897
  0.0920424018815709  0.3778344763565258  0.9053498405590119
  0.0887113743740997  0.8768521429977199  0.4045607368599349
  0.0876937990095783  0.8755573955481992  0.9047063808447433
  0.5899722463858623  0.3737200822904256  0.3453785288008575
  0.5867081163909162  0.3739358247523938  0.8390828410978770
  0.5883961159294060  0.8731973113985703  0.3455392669822572
  0.5873843321335315  0.8729967026319727  0.8447436297771702
  0.8361139900090109  0.0195417372522755  0.1454359172445976
  0.8434576484126737  0.0224120085781720  0.6447520241485520
  0.8411886165197089  0.5217433543042773  0.1446750720510579
  0.8437944698197200  0.5233989382454709  0.6506042761504034
  0.3464106947519383  0.2202806932408521  0.0953931262471741
  0.3439913381776378  0.2264554647300230  0.6039019720339809
  0.3395487211086561  0.7276307513121836  0.1045236220736925
  0.3421383380452099  0.7280726812515965  0.6027526928023264
  0.1680759364246214  0.2773951727407535  0.3570851238587096
  0.1599754659785688  0.2753085218545976  0.8503743307531337
  0.1587568777198030  0.7729834590736360  0.3546812801706452
  0.1578553940461731  0.7726131382965207  0.8524976264902833
  0.6589334962104516  0.4773282460584269  0.4003825613908205
  0.6553497924110019  0.4767689525873209  0.8951496552267955
  0.6594130964763849  0.9759841269642280  0.3965229153495073
  0.6581633267398033  0.9755373134795278  0.8960328342894854
  0.1586558370764521  0.4816326046922939  0.3517408100885220
  0.1579875944620994  0.4813337060258291  0.8479697597374170
  0.1586831552338737  0.9791603433374547  0.3522256167059581
  0.1583037247601595  0.9785997155236075  0.8541627332843404
  0.6592012671902481  0.2706143894961670  0.4007294420010012
  0.6541817287466714  0.2710605932296559  0.8959155962922623
  0.6578140805510557  0.7700375470453977  0.3981895122374368
  0.6568872382456448  0.7693834187511186  0.8958802252161249
  0.8397062580519332  0.2260886216416012  0.1461554464141983
  0.8444711068219846  0.2283596335260327  0.6482581960663083
  0.8357770032616614  0.7286573403374916  0.1462996351203856
  0.8418995753052769  0.7293708595356350  0.6460505536910830
  0.3451608549129688  0.0155188912741764  0.1059755824590596
  0.3424554835044304  0.0205038568346154  0.6023100304399307
  0.3313993750555895  0.5221064906466779  0.1063329600319065
  0.3424826978800866  0.5221134803962215  0.6013888052322969
  0.5539621186696451  0.1185437961091367  0.1045772133236440
  0.5519757145659625  0.1225683185476569  0.6028299710082834
  0.5451007301820070  0.6214779871350657  0.0994801153366396
  0.5510054806318081  0.6248327114735588  0.6045686562715957
  0.0459542694602959  0.1186784096851312  0.1461737805260341
  0.0526439079480099  0.1257604238627152  0.6498472432453397
  0.0458000318806029  0.6311380420920472  0.1506609984006175
  0.0515737800051710  0.6279063882668510  0.6445729992536045
  0.4503641633183122  0.3738305072505739  0.3970674387753377
  0.4444669668086334  0.3749439913881432  0.8718833034653883
  0.4498002653643383  0.8740608398881875  0.3979407421839980
  0.4487679522884918  0.8729040369377898  0.8967429408592977
  0.9531316365009843  0.3738800315690938  0.3494904906751941
  0.9504785776327509  0.3758643922442744  0.8599439527110917
  0.9497629702917365  0.8750254465090279  0.3524305040418341
  0.9491970191284977  0.8753517664395858  0.8514695129221792
  0.5969476073957267  0.3735416280520312  0.1912249617687465
  0.6002571623224924  0.3738680843394988  0.6823820670684597
  0.5885868241272973  0.8715030511377151  0.1888501447289244
  0.5887144501861599  0.8735723300957190  0.6877724931641609
  0.1010283846718849  0.3821177128471120  0.0615005408075859
  0.0877405392389292  0.3789878296953901  0.5615900104591987
  0.0876260112947662  0.8748468862541756  0.0613888547485857
  0.0893593218007780  0.8770430910596048  0.5616307073344373
  0.4123127174185655  0.1236897161946615  0.3111988705964919
  0.4119295089400410  0.1219842042143995  0.8117133034984150
  0.4109251100989226  0.6242077955398386  0.3119189188700275
  0.4088414547614647  0.6246425901273298  0.8116759124442652
  0.9154208393512988  0.1268821453659399  0.4383350895896072
  0.9073251872507271  0.1235152197769622  0.9374980915824125
  0.9086861500352512  0.6240901695329057  0.4384417709122346
  0.9107230722827708  0.6270697069986895  0.9384192173658263
 
             NaN             NaN             NaN
             NaN             NaN             NaN
             NaN             NaN             NaN
             NaN             NaN             NaN
             NaN             NaN             NaN
             NaN             NaN             NaN
             NaN             NaN             NaN
             NaN             NaN             NaN
             NaN             NaN             NaN
             NaN             NaN             NaN
             NaN             NaN             NaN
             NaN             NaN             NaN
             NaN             NaN             NaN
             NaN             NaN             NaN
             NaN             NaN             NaN
             NaN             NaN             NaN
             NaN             NaN             NaN
             NaN             NaN             NaN
             NaN             NaN             NaN
             NaN             NaN             NaN
             NaN             NaN             NaN
             NaN             NaN             NaN
             NaN             NaN             NaN
             NaN             NaN             NaN
             NaN             NaN             NaN
             NaN             NaN             NaN
             NaN             NaN             NaN
             NaN             NaN             NaN
             NaN             NaN             NaN
             NaN             NaN             NaN
             NaN             NaN             NaN
             NaN             NaN             NaN
             NaN             NaN             NaN
             NaN             NaN             NaN
             NaN             NaN             NaN
             NaN             NaN             NaN
             NaN             NaN             NaN
             NaN             NaN             NaN
             NaN             NaN             NaN
             NaN             NaN             NaN
             NaN             NaN             NaN
             NaN             NaN             NaN
             NaN             NaN             NaN
             NaN             NaN             NaN
             NaN             NaN             NaN
             NaN             NaN             NaN
             NaN             NaN             NaN
             NaN             NaN             NaN
             NaN             NaN             NaN
             NaN             NaN             NaN
             NaN             NaN             NaN
             NaN             NaN             NaN
             NaN             NaN             NaN
             NaN             NaN             NaN
             NaN             NaN             NaN
             NaN             NaN             NaN
             NaN             NaN             NaN
             NaN             NaN             NaN
             NaN             NaN             NaN
             NaN             NaN             NaN
             NaN             NaN             NaN
             NaN             NaN             NaN
             NaN             NaN             NaN
             NaN             NaN             NaN
             NaN             NaN             NaN
             NaN             NaN             NaN
             NaN             NaN             NaN
             NaN             NaN             NaN
             NaN             NaN             NaN
             NaN             NaN             NaN
             NaN             NaN             NaN
             NaN             NaN             NaN
             NaN             NaN             NaN
             NaN             NaN             NaN
             NaN             NaN             NaN
             NaN             NaN             NaN
             NaN             NaN             NaN
             NaN             NaN             NaN
             NaN             NaN             NaN
             NaN             NaN             NaN
             NaN             NaN             NaN
             NaN             NaN             NaN
             NaN             NaN             NaN
             NaN             NaN             NaN
             NaN             NaN             NaN
             NaN             NaN             NaN
             NaN             NaN             NaN
             NaN             NaN             NaN
             NaN             NaN             NaN
             NaN             NaN             NaN
             NaN             NaN             NaN
             NaN             NaN             NaN
             NaN             NaN             NaN
             NaN             NaN             NaN
             NaN             NaN             NaN
             NaN             NaN             NaN
             NaN             NaN             NaN
             NaN             NaN             NaN
             NaN             NaN             NaN
             NaN             NaN             NaN
             NaN             NaN             NaN
             NaN             NaN             NaN
             NaN             NaN             NaN
             NaN             NaN             NaN
             NaN             NaN             NaN
             NaN             NaN             NaN
             NaN             NaN             NaN
             NaN             NaN             NaN
             NaN             NaN             NaN
             NaN             NaN             NaN
             NaN             NaN             NaN
             NaN             NaN             NaN
             NaN             NaN             NaN
             NaN             NaN             NaN
             NaN             NaN             NaN
             NaN             NaN             NaN
             NaN             NaN             NaN
             NaN             NaN             NaN
             NaN             NaN             NaN
             NaN             NaN             NaN
             NaN             NaN             NaN
             NaN             NaN             NaN
             NaN             NaN             NaN
             NaN             NaN             NaN
             NaN             NaN             NaN
             NaN             NaN             NaN
             NaN             NaN             NaN
