Li46 P16 O64                            
   1.00000000000000     
    10.6488340000000008   -0.0050210000000000   -0.0097210000000000
    -0.0058750000000000   12.4473230000000008   -0.0040530000000000
    -0.0091830000000000   -0.0032920000000000   10.0826460000000004
   Li   P    O 
    46    16    64
Direct
  0.4733102938313629  0.3286945232783399  0.0833493747698087
  0.6619184095792142  0.2514159123608773  0.6015380616811342
  0.6631790244759507  0.7492535180150079  0.0986352372728014
  0.6629404091052371  0.7512033852074810  0.5994460361252134
  0.1650752907571080  0.4904618172033329  0.1531337139114275
  0.1621818921320553  0.5008875102691840  0.6517010186236415
  0.1659033304745308  0.9954643784547915  0.1506745499949420
  0.1626830605155021  0.0007835824024920  0.6515130955780155
  0.3373709706624338  0.0013036912785133  0.4007393683809509
  0.3381160664804219  0.0008918215165569  0.9032857783943872
  0.3371028063719634  0.4988247559557991  0.3959878249982398
  0.3349133415421388  0.4969268068977498  0.9068530727291270
  0.8337036119133663  0.2472281307109221  0.3456378486308225
  0.8347019381415040  0.2487390218439862  0.8569901493824974
  0.8374446382498886  0.7488318780651663  0.3488577652966672
  0.8373702858130717  0.7484134456817191  0.8500822632154026
  0.3345492972706316  0.2493484880705340  0.3898421547114204
  0.3287356285108674  0.2474271842897046  0.9045141257999202
  0.3372718890697294  0.7487227342034350  0.4000350295379166
  0.3371591869854472  0.7487857342320222  0.9025078533418195
  0.8387692264381810  0.0019388495073313  0.3467267594068983
  0.8380170883077889  0.0016892728825166  0.8501105841777117
  0.8353653122943485  0.4987575645713124  0.3493379096468902
  0.8360673014744054  0.4998326499009311  0.8511339698502288
  0.6625003367671877  0.4948769669509623  0.0980646210524452
  0.6620173731302088  0.5014487754271862  0.5995980685023208
  0.6666268097182743  0.9971103901700130  0.1001482672933877
  0.6632891422029608  0.0004029585335780  0.5994073865911365
  0.1607564387100226  0.2523595749823432  0.6477184485459682
  0.1638741025984207  0.7490471112163813  0.1522682547227563
  0.1629210755309330  0.7513263743286398  0.6511539378366010
  0.9332985601859011  0.3631513774002991  0.1528613714374214
  0.9225772746741343  0.3744922977373644  0.6505880832492107
  0.9272138290735312  0.8763493866575804  0.1493971128194985
  0.9261537861413806  0.8761745562436303  0.6492624155096581
  0.4232167246985897  0.3740343645066387  0.5981857644027808
  0.4289157535681641  0.8757982865750887  0.1014044445133465
  0.4261106945898885  0.8759201917517324  0.6011916344966615
  0.0771874361375055  0.1337368335739960  0.3340173430376464
  0.0737732265465366  0.1287772399728465  0.8606574156099465
  0.0734198338175607  0.6215569050623208  0.3512378356374209
  0.0742090732965893  0.6230221665311494  0.8520169670939841
  0.5743604895887685  0.1279875710169088  0.3923949552294648
  0.5779159696320948  0.1298745219471716  0.9117090637758122
  0.5733602517044298  0.6236078987534674  0.3996378744667730
  0.5717893980282519  0.6222890010104829  0.8989766915099043
  0.9139305912499004  0.1196030215051890  0.0995397843336544
  0.9116205750175310  0.1243630030189782  0.5970924979958098
  0.9105876700638050  0.6247086540431974  0.0992223372922534
  0.9100108305195151  0.6264999248576241  0.5975937078384438
  0.4131979405527423  0.1165440783418170  0.1505176375234617
  0.4112023347659156  0.1245418753279150  0.6537606379936810
  0.4093447648414812  0.6277764667596639  0.1513375364801914
  0.4096220287832512  0.6258695243071410  0.6529860605376615
  0.0873609820264290  0.3745649163906282  0.4096718146982099
  0.0853133081721062  0.3779297254070907  0.9004422723740396
  0.0899428394784783  0.8737635841019238  0.4042982393154614
  0.0897167789913799  0.8731285236597670  0.9028534536711830
  0.5891288091258384  0.3773166747487857  0.3510978428076412
  0.5881997170257076  0.3744463686866763  0.8397235417492973
  0.5904303725604946  0.8736071555962891  0.3483549560690141
  0.5901669993912522  0.8738182954383161  0.8457392266594460
  0.8386984592467038  0.0172258666537703  0.1469911595491421
  0.8417126320298272  0.0212341679873851  0.6478097529665464
  0.8390279935808278  0.5238480475625280  0.1502564437846381
  0.8394677864760876  0.5254392397232079  0.6501541696449537
  0.3533247662705918  0.2185613566478234  0.0919314104615463
  0.3410982716820393  0.2266673242068409  0.6034800340252685
  0.3438269152191823  0.7343470705192336  0.1051527921408707
  0.3406533839657650  0.7292099297273605  0.6028726435481043
  0.1569656532227455  0.2705241791438059  0.3722398935232706
  0.1550632943056229  0.2750886503838247  0.8497481724992965
  0.1580836608176130  0.7696359584948215  0.3551664362983501
  0.1594539534207779  0.7708301485827672  0.8507570973837680
  0.6585596475173510  0.4796560447243648  0.4062457376860307
  0.6574777726115748  0.4767791706855085  0.8943963880743527
  0.6601010263010585  0.9761421323549292  0.3989368154941236
  0.6614806405430411  0.9747990500150865  0.8966529193069684
  0.1581090061005369  0.4760925340284211  0.3551600456491644
  0.1570854409067140  0.4791689372944778  0.8455912668726205
  0.1615664642728269  0.9743147223613282  0.3533480247786428
  0.1594594966806846  0.9757274767657731  0.8529877190540041
  0.6582254977639040  0.2746437443854969  0.4029584360626759
  0.6570884401515656  0.2708733676597077  0.8812875058419742
  0.6597960246058878  0.7710520407412417  0.4003684268542673
  0.6585732940621229  0.7700494194679842  0.8956945365468406
  0.8555909407335572  0.2225336143889440  0.1572320362685806
  0.8407640669420599  0.2261600329642430  0.6473809296353465
  0.8413227899161851  0.7285600975226376  0.1481236977517333
  0.8408534848314863  0.7297426793030103  0.6474150096394137
  0.3395382735070067  0.0135915501139338  0.1041599115989110
  0.3412833292602180  0.0214383117217959  0.6025653008086698
  0.3336484153241462  0.5312545363270427  0.0978972098170593
  0.3400311165891212  0.5245758359774169  0.5992730789663931
  0.5504990651115047  0.1086120576556272  0.1031492671861715
  0.5482449516279126  0.1241633569010222  0.5994437165378275
  0.5470359412540466  0.6258125681637533  0.0980515313065383
  0.5476460245894178  0.6273076973856176  0.6018737615459799
  0.0511248447142455  0.1073360577893130  0.1453323184140945
  0.0483062715574452  0.1243796699340864  0.6525103136450316
  0.0478621687825873  0.6249560902611857  0.1525509656282856
  0.0476737968117670  0.6274966554882165  0.6497146086033992
  0.4510136376633753  0.3753661785880864  0.4037503006735743
  0.4513277303081073  0.3732578552157190  0.8947773157001847
  0.4527046351380500  0.8737919301031448  0.4007229269898964
  0.4524576672981312  0.8738590357850862  0.8975625401398677
  0.9501461223386637  0.3751604716206104  0.3551314434383306
  0.9480163650516029  0.3761901618436420  0.8441851535751469
  0.9521626153196542  0.8738698364038633  0.3516834810094973
  0.9520256852150309  0.8734536591305087  0.8497720352285568
  0.5906691322356943  0.3829380401703001  0.1989462784268914
  0.5854590213970580  0.3803435831490707  0.6846885938314342
  0.5912040106437140  0.8714178781122519  0.1935870900811298
  0.5897246565621271  0.8743372985017945  0.6904046609571897
  0.0811358925779331  0.3845442111086603  0.0522618417630331
  0.0838359944338115  0.3816537718356169  0.5650302207245589
  0.0893890343323036  0.8702694597385012  0.0575400914830249
  0.0892531057188318  0.8745879111858804  0.5597280166855695
  0.4094087112981427  0.1215697588293686  0.3066566925722602
  0.4116542862348211  0.1234292018144771  0.8087609522289884
  0.4113628624295724  0.6257671202282217  0.3070780832049885
  0.4086601219445160  0.6244486181434635  0.8080720547286137
  0.9124767133648380  0.1235611935090413  0.4421787615172879
  0.9083215633012600  0.1230352988692705  0.9432216255088429
  0.9096708106665524  0.6251817308100546  0.4424869839995953
  0.9108784624289831  0.6248294884411825  0.9436282788236541
 
             NaN             NaN             NaN
             NaN             NaN             NaN
             NaN             NaN             NaN
             NaN             NaN             NaN
             NaN             NaN             NaN
             NaN             NaN             NaN
             NaN             NaN             NaN
             NaN             NaN             NaN
             NaN             NaN             NaN
             NaN             NaN             NaN
             NaN             NaN             NaN
             NaN             NaN             NaN
             NaN             NaN             NaN
             NaN             NaN             NaN
             NaN             NaN             NaN
             NaN             NaN             NaN
             NaN             NaN             NaN
             NaN             NaN             NaN
             NaN             NaN             NaN
             NaN             NaN             NaN
             NaN             NaN             NaN
             NaN             NaN             NaN
             NaN             NaN             NaN
             NaN             NaN             NaN
             NaN             NaN             NaN
             NaN             NaN             NaN
             NaN             NaN             NaN
             NaN             NaN             NaN
             NaN             NaN             NaN
             NaN             NaN             NaN
             NaN             NaN             NaN
             NaN             NaN             NaN
             NaN             NaN             NaN
             NaN             NaN             NaN
             NaN             NaN             NaN
             NaN             NaN             NaN
             NaN             NaN             NaN
             NaN             NaN             NaN
             NaN             NaN             NaN
             NaN             NaN             NaN
             NaN             NaN             NaN
             NaN             NaN             NaN
             NaN             NaN             NaN
             NaN             NaN             NaN
             NaN             NaN             NaN
             NaN             NaN             NaN
             NaN             NaN             NaN
             NaN             NaN             NaN
             NaN             NaN             NaN
             NaN             NaN             NaN
             NaN             NaN             NaN
             NaN             NaN             NaN
             NaN             NaN             NaN
             NaN             NaN             NaN
             NaN             NaN             NaN
             NaN             NaN             NaN
             NaN             NaN             NaN
             NaN             NaN             NaN
             NaN             NaN             NaN
             NaN             NaN             NaN
             NaN             NaN             NaN
             NaN             NaN             NaN
             NaN             NaN             NaN
             NaN             NaN             NaN
             NaN             NaN             NaN
             NaN             NaN             NaN
             NaN             NaN             NaN
             NaN             NaN             NaN
             NaN             NaN             NaN
             NaN             NaN             NaN
             NaN             NaN             NaN
             NaN             NaN             NaN
             NaN             NaN             NaN
             NaN             NaN             NaN
             NaN             NaN             NaN
             NaN             NaN             NaN
             NaN             NaN             NaN
             NaN             NaN             NaN
             NaN             NaN             NaN
             NaN             NaN             NaN
             NaN             NaN             NaN
             NaN             NaN             NaN
             NaN             NaN             NaN
             NaN             NaN             NaN
             NaN             NaN             NaN
             NaN             NaN             NaN
             NaN             NaN             NaN
             NaN             NaN             NaN
             NaN             NaN             NaN
             NaN             NaN             NaN
             NaN             NaN             NaN
             NaN             NaN             NaN
             NaN             NaN             NaN
             NaN             NaN             NaN
             NaN             NaN             NaN
             NaN             NaN             NaN
             NaN             NaN             NaN
             NaN             NaN             NaN
             NaN             NaN             NaN
             NaN             NaN             NaN
             NaN             NaN             NaN
             NaN             NaN             NaN
             NaN             NaN             NaN
             NaN             NaN             NaN
             NaN             NaN             NaN
             NaN             NaN             NaN
             NaN             NaN             NaN
             NaN             NaN             NaN
             NaN             NaN             NaN
             NaN             NaN             NaN
             NaN             NaN             NaN
             NaN             NaN             NaN
             NaN             NaN             NaN
             NaN             NaN             NaN
             NaN             NaN             NaN
             NaN             NaN             NaN
             NaN             NaN             NaN
             NaN             NaN             NaN
             NaN             NaN             NaN
             NaN             NaN             NaN
             NaN             NaN             NaN
             NaN             NaN             NaN
             NaN             NaN             NaN
             NaN             NaN             NaN
             NaN             NaN             NaN
             NaN             NaN             NaN
