Mg1 Ti16 S32
1.0
10.035031 -0.022267 -0.021146
-0.022270 10.034954 0.021093
-0.020675 0.020789 10.056848
Mg Ti S
1 16 32
direct
0.500251 0.249758 0.749766 Mg
0.248413 0.749238 0.001679 Ti
0.501374 -0.006396 0.007346 Ti
0.756400 0.248603 0.007334 Ti
1.000762 0.501559 0.001677 Ti
0.500080 0.249963 0.249752 Ti
0.248186 0.501806 0.250846 Ti
0.244011 0.251009 0.492419 Ti
0.498986 0.506010 0.492435 Ti
0.499926 0.749694 0.750080 Ti
0.756729 0.506440 0.749993 Ti
0.751508 0.750740 0.498682 Ti
0.243558 -0.006726 0.749991 Ti
0.751888 -0.001880 0.249307 Ti
1.000308 0.250073 0.750061 Ti
0.999963 0.750016 0.250270 Ti
0.999272 0.998491 0.498671 Ti
0.747484 0.002498 0.004255 S
0.003442 0.746540 0.003837 S
0.001690 0.003827 0.746450 S
0.746168 0.748316 0.746462 S
0.254864 0.994595 0.995503 S
0.999190 0.253457 0.994588 S
0.997473 0.995728 0.254104 S
0.248781 0.255936 0.253605 S
0.745450 0.505327 0.504468 S
0.001221 0.246544 0.505518 S
1.002557 0.504263 0.246229 S
0.751367 0.243962 0.246154 S
0.252900 0.497102 0.495792 S
0.996503 0.753491 0.496655 S
0.998630 0.496289 0.753806 S
0.253706 0.751369 0.753812 S
0.244680 0.004543 0.504459 S
0.503452 0.748796 0.505534 S
0.506034 -0.001318 0.246170 S
0.245716 0.747430 0.246233 S
0.753995 0.996015 0.495236 S
0.492746 0.257267 0.501683 S
0.494871 0.995308 0.754597 S
0.754698 0.255119 0.754581 S
0.246001 0.503996 1.004932 S
0.507702 0.242308 -0.002154 S
0.505374 0.504150 0.745258 S
0.245855 0.244625 0.745242 S
0.755410 0.495118 0.995497 S
0.496517 0.750817 0.994608 S
0.494079 0.501238 0.253614 S
0.754257 0.752532 0.254114 S
