Li46 P16 O64                            
   1.00000000000000     
    10.4272819999999999    0.0014570000000000   -0.0088930000000000
     0.0013960000000000   12.1894650000000002   -0.0012860000000000
    -0.0079060000000000   -0.0016550000000000    9.7915320000000001
   Li   P    O 
    46    16    64
Direct
  0.2544520689005882  0.3344907311275385  0.1676284298710997
  0.6673721839180562  0.2462694186781506  0.6066344157998674
  0.6595019093603135  0.7465161376672542  0.0972041431698418
  0.6641209857704364  0.7508107244363963  0.5989120701258159
  0.1571626470115227  0.5117202430333874  0.1489321785471994
  0.1651223261653122  0.5010464697259552  0.6523064428445151
  0.1660692627535969  0.9949985907483682  0.1535631859628984
  0.1647046149392937  0.9992721964652361  0.6532874008857368
  0.3359050062494052  0.9993142004708379  0.4027311028660241
  0.3370294445556107  0.9996032381100267  0.9017832605901838
  0.3355696011417278  0.5030044340188475  0.4041827253259706
  0.3390845969989291  0.4964035644004893  0.9080689012192799
  0.8390713785619153  0.2492311286289440  0.3470232972325288
  0.8364256483673871  0.2501463572194215  0.8531713888411510
  0.8351577249151788  0.7489679506163189  0.3481757202106647
  0.8351026985333679  0.7494443840907813  0.8477207988953621
  0.3376449663739250  0.2438693712562436  0.4096037689117076
  0.3401095223150004  0.2491494362203191  0.9014794982469739
  0.3366246877477445  0.7485725916534541  0.4016769043440691
  0.3355198279839809  0.7473404989004946  0.9021133547929452
  0.8383610639111748  0.0018945355381948  0.3501264444879532
  0.8354950605703382  0.0013392973474944  0.8453269568749824
  0.8369817237381615  0.4999031501007269  0.3450597766299015
  0.8360162114016784  0.4995638860117628  0.8505410395489238
  0.6603508600528838  0.4892367961962922  0.0909930864370549
  0.6680397346694010  0.5033841583114653  0.5960842425765084
  0.6666496946207170  0.9950047746679329  0.0975783131465350
  0.6652712948127231  0.9983319538078368  0.5973088513551664
  0.1651073067312062  0.2515620199459952  0.6536854594018212
  0.1640313620114692  0.7515314206688652  0.1525426741010650
  0.1647078587734969  0.7519488067014579  0.6519813470806064
  0.9328312055957928  0.3736431826159099  0.1449360517163787
  0.9266852637679091  0.3754264361918793  0.6526607116309759
  0.9217298733260115  0.8735516810256309  0.1489179897433504
  0.9238502300113993  0.8754748554560177  0.6483752051115662
  0.4174533081513478  0.3753370758570476  0.6192639594735675
  0.4247087173154944  0.8707327173106614  0.1007807710523832
  0.4241413145693685  0.8743476750930582  0.6012800981626861
  0.0830419304754385  0.1312819416484303  0.3408604172667030
  0.0796831651779186  0.1271423606779313  0.8569939075121080
  0.0750666895938592  0.6273250215078171  0.3535147429328669
  0.0758651608826693  0.6252570509017668  0.8499429917799638
  0.5774330592096174  0.1222471008410778  0.3936994291899212
  0.5801529733391815  0.1278139111359154  0.9086903874610806
  0.5759676783120131  0.6257708645659943  0.3987211624277844
  0.5756567746474548  0.6217334542573720  0.8979033928881619
  0.9133944523546862  0.1223642997164239  0.0948897011372301
  0.9160188605590694  0.1258788847519989  0.5951042904681725
  0.9076325807407436  0.6257603590404071  0.0952452073551684
  0.9124092263038950  0.6253910489536592  0.5953445425697466
  0.4123156871822135  0.1194032576933944  0.1546422641278144
  0.4138733090082292  0.1227972474529758  0.6552863349942722
  0.4094099780605300  0.6211816112895191  0.1547504815387020
  0.4119694630641160  0.6250849867907545  0.6549891607466242
  0.0912854610802602  0.3772034674389081  0.4040829991604749
  0.0930710142155970  0.3770362219796627  0.9060190389763885
  0.0884794783617900  0.8754826886433186  0.4048851134422880
  0.0876551899449383  0.8748335916580482  0.9047197397565081
  0.5867402026880180  0.3737705933883061  0.3515679234807094
  0.5877606157165616  0.3734529721436013  0.8320340904472728
  0.5887800718872332  0.8734793061744164  0.3453113100868070
  0.5882315940289635  0.8734991579779237  0.8453890678527577
  0.8398060035862318  0.0216746841605959  0.1484906640733972
  0.8434076052363946  0.0228475459047683  0.6445734279279923
  0.8399830936337280  0.5205309793399494  0.1449259019232360
  0.8441465805157244  0.5219714807901240  0.6491034889959287
  0.3470087711676453  0.2202129349507364  0.0940577469017009
  0.3430073616750673  0.2266715775607015  0.6052096193878453
  0.3420502933686418  0.7265983773663465  0.1033512897602855
  0.3420529225785921  0.7286738923348568  0.6035221290996299
  0.1673570845492471  0.2775553566631410  0.3512299321955873
  0.1611894011613609  0.2738878628995459  0.8518343460802090
  0.1590763165222205  0.7720974108434167  0.3537506366892302
  0.1577342012260132  0.7714509236775008  0.8530979647315476
  0.6573932712876963  0.4775824148781401  0.3970974537306680
  0.6562776468558283  0.4744555706475492  0.8926168724706012
  0.6597055611076312  0.9767676159069915  0.3959419151579392
  0.6596709951928589  0.9757400827953420  0.8978272972894912
  0.1589569834428583  0.4815757845718970  0.3508368076913898
  0.1597803223162900  0.4804774966216231  0.8493862931791252
  0.1587485649233049  0.9784143276615495  0.3531264135648143
  0.1587493656861101  0.9778608438192581  0.8542670400687267
  0.6585786969393292  0.2708678483218764  0.3976601085739794
  0.6558824710797709  0.2678342366952322  0.8744898345067439
  0.6585098075446472  0.7704664726201426  0.3985106208862613
  0.6569762953175630  0.7690771848042035  0.8962527335430867
  0.8567687319671903  0.2290140684184245  0.1515906257339255
  0.8461591450872495  0.2293411447365444  0.6468440947514349
  0.8354895133513203  0.7278864502885773  0.1468720621504812
  0.8419026687692409  0.7285706915158033  0.6467684803149781
  0.3412264265555935  0.0156018456097887  0.1051130755095408
  0.3423827382155994  0.0203298502282792  0.6028618173957874
  0.3338745793692234  0.5206435828851151  0.1062385256536477
  0.3417634513562488  0.5224885485854590  0.6012295795189674
  0.5505041071924559  0.1138114347214900  0.1045233427832165
  0.5514997319649195  0.1235391626527389  0.5990350226245597
  0.5481272243715597  0.6182567454973040  0.1009995265496829
  0.5510775532412368  0.6254580698995436  0.6029343335577281
  0.0523729872018990  0.1157181809252415  0.1444987661404190
  0.0539267677587191  0.1250304250668527  0.6499974552576427
  0.0456757313111174  0.6295988918587383  0.1501234249303396
  0.0521375647250862  0.6266631545988497  0.6450030171809411
  0.4470158070142736  0.3738986724925799  0.3977119985658353
  0.4449983844534015  0.3733337854818818  0.8665455174962445
  0.4498091054130732  0.8743498317499192  0.3973282100873292
  0.4491355372057880  0.8735890197697085  0.8971430225415669
  0.9522832937690519  0.3750127153601379  0.3519413170275029
  0.9516035947841771  0.3755126625276271  0.8598601215030981
  0.9494298937733107  0.8745046689840170  0.3521914877747696
  0.9487311659708348  0.8753182805671079  0.8519175216369778
  0.5840018523665282  0.3682154987094071  0.1922816155070796
  0.5957488912135882  0.3790800484094428  0.6739647348214242
  0.5894362393652814  0.8717472339754011  0.1879534635340550
  0.5895074231127559  0.8746473314408114  0.6878425531827946
  0.1009399307984106  0.3808974441232992  0.0630643904290655
  0.0916114547232301  0.3769024773131820  0.5615319365251544
  0.0874278530618017  0.8739082232317160  0.0622488428647849
  0.0890149183532789  0.8756468125597778  0.5622959320626253
  0.4089101434603358  0.1235254856724565  0.3119494624024967
  0.4149104316486142  0.1217888468255721  0.8121385343826070
  0.4117639466603677  0.6239323116094421  0.3125618647488307
  0.4105049709318859  0.6237648858332430  0.8121625866360829
  0.9169464728910948  0.1265283536681840  0.4375318888318572
  0.9092674152897871  0.1233769362710814  0.9379461037881424
  0.9089846450080128  0.6241838528854445  0.4377823986289152
  0.9095589704394927  0.6258661153228238  0.9378552980807013
 
             NaN             NaN             NaN
             NaN             NaN             NaN
             NaN             NaN             NaN
             NaN             NaN             NaN
             NaN             NaN             NaN
             NaN             NaN             NaN
             NaN             NaN             NaN
             NaN             NaN             NaN
             NaN             NaN             NaN
             NaN             NaN             NaN
             NaN             NaN             NaN
             NaN             NaN             NaN
             NaN             NaN             NaN
             NaN             NaN             NaN
             NaN             NaN             NaN
             NaN             NaN             NaN
             NaN             NaN             NaN
             NaN             NaN             NaN
             NaN             NaN             NaN
             NaN             NaN             NaN
             NaN             NaN             NaN
             NaN             NaN             NaN
             NaN             NaN             NaN
             NaN             NaN             NaN
             NaN             NaN             NaN
             NaN             NaN             NaN
             NaN             NaN             NaN
             NaN             NaN             NaN
             NaN             NaN             NaN
             NaN             NaN             NaN
             NaN             NaN             NaN
             NaN             NaN             NaN
             NaN             NaN             NaN
             NaN             NaN             NaN
             NaN             NaN             NaN
             NaN             NaN             NaN
             NaN             NaN             NaN
             NaN             NaN             NaN
             NaN             NaN             NaN
             NaN             NaN             NaN
             NaN             NaN             NaN
             NaN             NaN             NaN
             NaN             NaN             NaN
             NaN             NaN             NaN
             NaN             NaN             NaN
             NaN             NaN             NaN
             NaN             NaN             NaN
             NaN             NaN             NaN
             NaN             NaN             NaN
             NaN             NaN             NaN
             NaN             NaN             NaN
             NaN             NaN             NaN
             NaN             NaN             NaN
             NaN             NaN             NaN
             NaN             NaN             NaN
             NaN             NaN             NaN
             NaN             NaN             NaN
             NaN             NaN             NaN
             NaN             NaN             NaN
             NaN             NaN             NaN
             NaN             NaN             NaN
             NaN             NaN             NaN
             NaN             NaN             NaN
             NaN             NaN             NaN
             NaN             NaN             NaN
             NaN             NaN             NaN
             NaN             NaN             NaN
             NaN             NaN             NaN
             NaN             NaN             NaN
             NaN             NaN             NaN
             NaN             NaN             NaN
             NaN             NaN             NaN
             NaN             NaN             NaN
             NaN             NaN             NaN
             NaN             NaN             NaN
             NaN             NaN             NaN
             NaN             NaN             NaN
             NaN             NaN             NaN
             NaN             NaN             NaN
             NaN             NaN             NaN
             NaN             NaN             NaN
             NaN             NaN             NaN
             NaN             NaN             NaN
             NaN             NaN             NaN
             NaN             NaN             NaN
             NaN             NaN             NaN
             NaN             NaN             NaN
             NaN             NaN             NaN
             NaN             NaN             NaN
             NaN             NaN             NaN
             NaN             NaN             NaN
             NaN             NaN             NaN
             NaN             NaN             NaN
             NaN             NaN             NaN
             NaN             NaN             NaN
             NaN             NaN             NaN
             NaN             NaN             NaN
             NaN             NaN             NaN
             NaN             NaN             NaN
             NaN             NaN             NaN
             NaN             NaN             NaN
             NaN             NaN             NaN
             NaN             NaN             NaN
             NaN             NaN             NaN
             NaN             NaN             NaN
             NaN             NaN             NaN
             NaN             NaN             NaN
             NaN             NaN             NaN
             NaN             NaN             NaN
             NaN             NaN             NaN
             NaN             NaN             NaN
             NaN             NaN             NaN
             NaN             NaN             NaN
             NaN             NaN             NaN
             NaN             NaN             NaN
             NaN             NaN             NaN
             NaN             NaN             NaN
             NaN             NaN             NaN
             NaN             NaN             NaN
             NaN             NaN             NaN
             NaN             NaN             NaN
             NaN             NaN             NaN
             NaN             NaN             NaN
             NaN             NaN             NaN
             NaN             NaN             NaN
             NaN             NaN             NaN
