Li47 P16 O64                            
   1.00000000000000     
    10.4363410000000005    0.0017860000000000    0.0052030000000000
     0.0020600000000000   12.1525499999999997    0.0040940000000000
     0.0048930000000000    0.0032910000000000    9.7975849999999998
   Li   P    O 
    47    16    64
Direct
  0.3963656958706994  0.3725586130375621  0.1277864639156358
  0.6604697198369193  0.2514277956177872  0.0985947926522651
  0.6639906372341831  0.2497769717139681  0.5971851051114492
  0.6617585638766914  0.7481905500423365  0.0973430910509257
  0.6640723360673100  0.7501145936994594  0.5979636809380551
  0.1603210084120140  0.5000269866154454  0.1537979068714250
  0.1644768491318902  0.5020150951294072  0.6520512919661786
  0.1650089776799230  0.0009394419334065  0.1503000082401825
  0.1638991512670628  0.0004330731323993  0.6522462693163110
  0.3356052351835377  0.9999517069496657  0.4011563743446867
  0.3359908959081220  0.9992476831798801  0.9025098839009797
  0.3349296018527231  0.5012081530141517  0.4041394546248268
  0.3349029977266221  0.5001169108977904  0.9034766074293127
  0.8352986542881422  0.2490140807132803  0.3481696869927571
  0.8340248156275660  0.2496186515150381  0.8489977903892526
  0.8354651471942109  0.7486848539584963  0.3478601891160624
  0.8358379509040414  0.7493470748681672  0.8476241328271173
  0.3362778105021774  0.2463315310950479  0.4039054714590495
  0.3338273188681437  0.2479718013120104  0.9021940378092764
  0.3356482242348937  0.7491108909639476  0.4018490837891465
  0.3348894461601003  0.7485628091578752  0.9021720248238169
  0.8366577589692974  0.0015334946790832  0.3486708017527276
  0.8357379095986125  0.0008794469423202  0.8460755010314650
  0.8348600229824288  0.4993707112993764  0.3461289337534529
  0.8338202900417656  0.5010087101729132  0.8503151712420234
  0.6601380988988449  0.4962707399082608  0.0978951873929807
  0.6641472828179239  0.4988779568781203  0.5974525632359891
  0.6636452290008740  0.9938458963182510  0.0952675779186968
  0.6646570053524994  0.9979176217547377  0.5975493640393297
  0.1634469903860832  0.2516363731522769  0.6475607622325577
  0.1626324610806859  0.7516439455336295  0.1527672157679086
  0.1640858464618904  0.7521483379934970  0.6513830563087403
  0.9301457203875931  0.3706688695888457  0.1488613677685355
  0.9213873008842444  0.3759166902881101  0.6522122740493420
  0.9224588480716194  0.8741031084809932  0.1482667446389667
  0.9237950868615528  0.8755623102998821  0.6485092298495476
  0.4229862673310681  0.3744071518619015  0.6039010880834651
  0.4238903614366725  0.8726240387310585  0.1014295311931477
  0.4240437279577911  0.8745875778245630  0.6001766025616163
  0.0791732061331921  0.1307326120943147  0.3420474654219481
  0.0767492640983580  0.1270742689984980  0.8549255352593541
  0.0754536944334506  0.6257409476226692  0.3522416498896945
  0.0750247935526045  0.6260015857821718  0.8501570937007268
  0.5770659555831003  0.1236077709745241  0.3985188798175752
  0.5764948229801724  0.1230053378340014  0.8985263202289554
  0.5752950676884588  0.6243163995883300  0.3987009355215644
  0.5748037346760839  0.6235516524078264  0.8986879933222107
  0.9084029784265729  0.1236813139493914  0.0950595456248010
  0.9125530609522899  0.1256344073248341  0.5951418987771233
  0.9097972424688062  0.6244942794096531  0.0955928260080182
  0.9111513940732174  0.6253696786909598  0.5952187779609536
  0.4138521369062005  0.1214143304220255  0.1544680835737603
  0.4123375869427382  0.1234555862433240  0.6550217292302232
  0.4093200847719587  0.6247235519282481  0.1548975020925761
  0.4116317425211461  0.6249933532955682  0.6548640312319652
  0.0878745431819745  0.3757551702189021  0.4073585064887787
  0.0879059092396934  0.3769011291543093  0.9040054213515148
  0.0881340475754065  0.8760466477352222  0.4043510827008537
  0.0877754256430617  0.8754840648103246  0.9046554818705799
  0.5854970896669063  0.3741513090313318  0.3450284763098125
  0.5853937118447351  0.3741543902810153  0.8445634446980471
  0.5884437423912436  0.8737255461155106  0.3452159220351365
  0.5880772946760650  0.8732376193730580  0.8447994991597012
  0.8368149336807841  0.0200692367604789  0.1459227193116664
  0.8417411604845945  0.0218606342315425  0.6458759638350751
  0.8402068353268728  0.5201839905489974  0.1459001525429949
  0.8409036404570421  0.5225131349624164  0.6488332496592170
  0.3500433371331630  0.2245862021037335  0.0970544573163280
  0.3425614217116409  0.2275594727933771  0.6046517460265058
  0.3397846718299197  0.7286508081578463  0.1034381740571193
  0.3416086852378254  0.7285945442941549  0.6028773201994826
  0.1604711952537163  0.2705435346830768  0.3706892271788694
  0.1573711426736601  0.2737836771076640  0.8503354072543865
  0.1583804074847229  0.7720295665237651  0.3537701087880756
  0.1580291303222851  0.7720201918743517  0.8525415328377114
  0.6564301551391106  0.4775214334420608  0.3963142390939128
  0.6556499523074921  0.4772053189492944  0.8974427409955399
  0.6589268024818185  0.9771753352215030  0.3963968272338855
  0.6589051754350918  0.9765341170653871  0.8960271454088187
  0.1583812955633838  0.4783341270996003  0.3533596857301556
  0.1572665705001202  0.4803021618027943  0.8492825626117354
  0.1583368132389092  0.9791807822831108  0.3519663806501960
  0.1583482389806999  0.9790531168034299  0.8535961574156855
  0.6565508093344368  0.2708839669941315  0.3966545808738716
  0.6545870849068012  0.2703943509825243  0.8978724702569414
  0.6582453817799874  0.7702490706346232  0.3975881026950275
  0.6581877130328438  0.7695950247825087  0.8963129840938987
  0.8391590723505373  0.2274528206047801  0.1473758048244164
  0.8413225501896165  0.2288525024052316  0.6470573977840894
  0.8385213632568070  0.7277199000568187  0.1470457377258344
  0.8413554521397659  0.7293806485715846  0.6461431949319592
  0.3438320707927393  0.0177483821688086  0.1039806070641115
  0.3416419373953711  0.0206221902888139  0.6020227783770423
  0.3367612734887938  0.5222675235111438  0.1042350986231267
  0.3415687203686725  0.5216596452739068  0.6026528549734328
  0.5539879744258150  0.1199702335068178  0.1043591035427438
  0.5512177653325977  0.1234599242894126  0.6025076724295045
  0.5477335299912937  0.6235040220693995  0.1016023734885044
  0.5506728780094808  0.6247111678418722  0.6030881893517366
  0.0451917239919530  0.1187642313366049  0.1486673073651728
  0.0505121882412654  0.1258750837148699  0.6493325397594210
  0.0481280684526536  0.6261005067488030  0.1493142676461736
  0.0503679738935653  0.6265550840623961  0.6460078629531357
  0.4463749963538677  0.3742141788129084  0.3974057656029186
  0.4449667204289127  0.3743514861777688  0.8902757774354831
  0.4494342935384444  0.8743367306268235  0.3970306560054546
  0.4494898353956251  0.8734530597541506  0.8976727063921497
  0.9504655401659712  0.3737094638000920  0.3514369541892697
  0.9480136175419157  0.3754868930082283  0.8533551225544573
  0.9492633730876369  0.8751439401247755  0.3518663939144702
  0.9490339139786141  0.8754500256791372  0.8521034635779517
  0.5827503622511726  0.3739325129227120  0.1880198495806537
  0.5909640368201758  0.3741603044864087  0.6869842591712467
  0.5889969033410055  0.8725511084029243  0.1878835872548105
  0.5886951405616744  0.8737672400222023  0.6875008718848420
  0.0899145489157738  0.3802875173601056  0.0595978896985897
  0.0843509002694445  0.3808050283808279  0.5650269673767649
  0.0880602567254506  0.8750801021371670  0.0619552458255335
  0.0886214317659860  0.8764735214149891  0.5617365606417296
  0.4117419100132877  0.1235205673587168  0.3116001783863449
  0.4114544506335482  0.1223245970005494  0.8122448244951210
  0.4097611345405229  0.6246864678059941  0.3122919256062471
  0.4099961254231113  0.6247614301282206  0.8121272023996036
  0.9127329394957433  0.1259557673869480  0.4378727364243303
  0.9079208525863335  0.1248425863657787  0.9377109493549902
  0.9094762044893896  0.6238202294189149  0.4378113242388263
  0.9103964934455288  0.6253489122485095  0.9381544825560176
 
             NaN             NaN             NaN
             NaN             NaN             NaN
             NaN             NaN             NaN
             NaN             NaN             NaN
             NaN             NaN             NaN
             NaN             NaN             NaN
             NaN             NaN             NaN
             NaN             NaN             NaN
             NaN             NaN             NaN
             NaN             NaN             NaN
             NaN             NaN             NaN
             NaN             NaN             NaN
             NaN             NaN             NaN
             NaN             NaN             NaN
             NaN             NaN             NaN
             NaN             NaN             NaN
             NaN             NaN             NaN
             NaN             NaN             NaN
             NaN             NaN             NaN
             NaN             NaN             NaN
             NaN             NaN             NaN
             NaN             NaN             NaN
             NaN             NaN             NaN
             NaN             NaN             NaN
             NaN             NaN             NaN
             NaN             NaN             NaN
             NaN             NaN             NaN
             NaN             NaN             NaN
             NaN             NaN             NaN
             NaN             NaN             NaN
             NaN             NaN             NaN
             NaN             NaN             NaN
             NaN             NaN             NaN
             NaN             NaN             NaN
             NaN             NaN             NaN
             NaN             NaN             NaN
             NaN             NaN             NaN
             NaN             NaN             NaN
             NaN             NaN             NaN
             NaN             NaN             NaN
             NaN             NaN             NaN
             NaN             NaN             NaN
             NaN             NaN             NaN
             NaN             NaN             NaN
             NaN             NaN             NaN
             NaN             NaN             NaN
             NaN             NaN             NaN
             NaN             NaN             NaN
             NaN             NaN             NaN
             NaN             NaN             NaN
             NaN             NaN             NaN
             NaN             NaN             NaN
             NaN             NaN             NaN
             NaN             NaN             NaN
             NaN             NaN             NaN
             NaN             NaN             NaN
             NaN             NaN             NaN
             NaN             NaN             NaN
             NaN             NaN             NaN
             NaN             NaN             NaN
             NaN             NaN             NaN
             NaN             NaN             NaN
             NaN             NaN             NaN
             NaN             NaN             NaN
             NaN             NaN             NaN
             NaN             NaN             NaN
             NaN             NaN             NaN
             NaN             NaN             NaN
             NaN             NaN             NaN
             NaN             NaN             NaN
             NaN             NaN             NaN
             NaN             NaN             NaN
             NaN             NaN             NaN
             NaN             NaN             NaN
             NaN             NaN             NaN
             NaN             NaN             NaN
             NaN             NaN             NaN
             NaN             NaN             NaN
             NaN             NaN             NaN
             NaN             NaN             NaN
             NaN             NaN             NaN
             NaN             NaN             NaN
             NaN             NaN             NaN
             NaN             NaN             NaN
             NaN             NaN             NaN
             NaN             NaN             NaN
             NaN             NaN             NaN
             NaN             NaN             NaN
             NaN             NaN             NaN
             NaN             NaN             NaN
             NaN             NaN             NaN
             NaN             NaN             NaN
             NaN             NaN             NaN
             NaN             NaN             NaN
             NaN             NaN             NaN
             NaN             NaN             NaN
             NaN             NaN             NaN
             NaN             NaN             NaN
             NaN             NaN             NaN
             NaN             NaN             NaN
             NaN             NaN             NaN
             NaN             NaN             NaN
             NaN             NaN             NaN
             NaN             NaN             NaN
             NaN             NaN             NaN
             NaN             NaN             NaN
             NaN             NaN             NaN
             NaN             NaN             NaN
             NaN             NaN             NaN
             NaN             NaN             NaN
             NaN             NaN             NaN
             NaN             NaN             NaN
             NaN             NaN             NaN
             NaN             NaN             NaN
             NaN             NaN             NaN
             NaN             NaN             NaN
             NaN             NaN             NaN
             NaN             NaN             NaN
             NaN             NaN             NaN
             NaN             NaN             NaN
             NaN             NaN             NaN
             NaN             NaN             NaN
             NaN             NaN             NaN
             NaN             NaN             NaN
             NaN             NaN             NaN
             NaN             NaN             NaN
             NaN             NaN             NaN
