Li47 P16 O64                            
   1.00000000000000     
    10.4363410000000005    0.0017860000000000    0.0052030000000000
     0.0020600000000000   12.1525499999999997    0.0040940000000000
     0.0048930000000000    0.0032910000000000    9.7975849999999998
   Li   P    O 
    47    16    64
Direct
  0.3963467297897822  0.3725703815735597  0.1277319173971552
  0.6604805933813725  0.2514255092340211  0.0986097534093962
  0.6639798461407063  0.2497818031914027  0.5971779441267856
  0.6617330675852203  0.7481804646737268  0.0973399883004227
  0.6640862700378339  0.7501221883831050  0.5979628944070364
  0.1603283508214467  0.5000296712245236  0.1537961651160110
  0.1644881766545062  0.5020233059343311  0.6520564399287962
  0.1650129473556854  0.0009377566665951  0.1503044113931581
  0.1639087229352287  0.0004295306192483  0.6522437487827523
  0.3356202905400950 -0.0000552386702545  0.4011326743639975
  0.3359930827958469 -0.0007548140870086  0.9025215213010278
  0.3349210079495752  0.5012054924066791  0.4041409697557545
  0.3349083115792098  0.5001320062411165  0.9034879810358973
  0.8352887358864343  0.2490088999999852  0.3481775603553215
  0.8340155557175035  0.2496207184480941  0.8490010376721997
  0.8354730825201920  0.7486864223795667  0.3478521180480059
  0.8358476244802068  0.7493515150153028  0.8476245454471542
  0.3362812045742988  0.2463218433000783  0.4039254853898705
  0.3338310780683226  0.2479597872520568  0.9021872044387285
  0.3356603141001999  0.7491173411049324  0.4018394417829237
  0.3348954342050938  0.7485667616425755  0.9021738665620305
  0.8366590117337264  0.0015310823927695  0.3486636827950498
  0.8357459576453093  0.0008768457042982  0.8460749346965042
  0.8348595568659445  0.4993666877430624  0.3461374248237789
  0.8338125716157720  0.5010167694520011  0.8503146195422869
  0.6601427332033470  0.4962665839074369  0.0979081321462322
  0.6641318526491666  0.4988838705246906  0.5974454085412498
  0.6636485026422824  0.9938453493828112  0.0952594984696791
  0.6646608988011360  0.9979220285501889  0.5975443707405567
  0.1634389628939808  0.2516261916083763  0.6475565136200808
  0.1626292754698448  0.7516502087613949  0.1527732876843126
  0.1640908058286955  0.7521430195889384  0.6513844898461489
  0.9301608932865333  0.3706650505540812  0.1488676256070718
  0.9213871382482691  0.3759156130569540  0.6522137046408653
  0.9224522950492745  0.8740992530071107  0.1482649101586351
  0.9238005369711159  0.8755599718635927  0.6485154064572953
  0.4229754005097071  0.3744123795538252  0.6039061406952744
  0.4238930741318281  0.8726505996188870  0.1014293017764017
  0.4240616743762873  0.8745903867834999  0.6001614416004312
  0.0791688920021719  0.1307265906137358  0.3420535760205800
  0.0767485974868942  0.1270693601118215  0.8549292164875306
  0.0754593874822588  0.6257458121268665  0.3522390130831975
  0.0750071122271620  0.6260034501072610  0.8501689199038854
  0.5770667756175659  0.1236060461411262  0.3985110719252177
  0.5765012705568443  0.1230058322213260  0.8985304750410230
  0.5752905002527403  0.6243304941886689  0.3986949893826721
  0.5748105143846997  0.6235622570936893  0.8986958663458383
  0.9083894702757225  0.1236758587045835  0.0950591216971073
  0.9125439777272528  0.1256340084875504  0.5951412369492874
  0.9097945165975093  0.6244961253595286  0.0956053055673855
  0.9111477490708234  0.6253661598787806  0.5952104689218455
  0.4138446897205087  0.1214204674152177  0.1544734850535799
  0.4123426611099488  0.1234535386309674  0.6550173962063061
  0.4093124328192629  0.6247115298534812  0.1549131726151115
  0.4116413318973514  0.6250027929636448  0.6548455233377887
  0.0878780562909818  0.3757497762074415  0.4073336685859150
  0.0878988743979156  0.3769044731088588  0.9039877904520233
  0.0881339909624060  0.8760409156197375  0.4043547603205624
  0.0877726540201128  0.8754828963851922  0.9046555399004309
  0.5854883469969626  0.3741536840539677  0.3450341567168578
  0.5853843570948888  0.3741514516530022  0.8445593075968677
  0.5884654044295284  0.8737234122349687  0.3452341966938464
  0.5881111978203729  0.8732454584229571  0.8447800749779700
  0.8368075371144966  0.0200708769475873  0.1459111353950369
  0.8417417146226299  0.0218600072859302  0.6458797200848126
  0.8401984495637411  0.5201952303503459  0.1459152156024471
  0.8408942311620802  0.5225049668188101  0.6488214365351626
  0.3500438933395774  0.2245811369947207  0.0970318774667204
  0.3425501006182269  0.2275581519768883  0.6046789955085140
  0.3397771266957814  0.7286454149936127  0.1034158362316884
  0.3416168878042792  0.7286000629520636  0.6028869450411912
  0.1604735654204558  0.2705395837049526  0.3706993798832930
  0.1573614599522498  0.2737852630294856  0.8503290168664931
  0.1583947851877863  0.7720339401357359  0.3537749099778286
  0.1580322807722383  0.7720174259723439  0.8525405943628519
  0.6564170577183780  0.4775213555377525  0.3963101099458182
  0.6556512523280047  0.4772143185023469  0.8974421007596484
  0.6589304544875441  0.9771825982932834  0.3963850645798834
  0.6589084246134373  0.9765369854544418  0.8960228939142533
  0.1583769445796077  0.4783338457224418  0.3533466702765334
  0.1572611899003757  0.4802972469705836  0.8492870544408198
  0.1583512722525038  0.9791860866013872  0.3519727206932420
  0.1583659859166550  0.9790537656314572  0.8535881810857524
  0.6565439415521520  0.2708896742338165  0.3966609977651841
  0.6545768773484071  0.2703983540673730  0.8978760159084476
  0.6582601061049308  0.7702641775489141  0.3975875428373732
  0.6582065064044448  0.7695977250470823  0.8963162481674548
  0.8391640097807590  0.2274413305473323  0.1473845518488834
  0.8413165133191841  0.2288532225307817  0.6470514985087402
  0.8385132367155483  0.7277232371251754  0.1470418153814516
  0.8413605235088156  0.7293750776464085  0.6461497989545457
  0.3438406866928456  0.0177308413508976  0.1039826218542254
  0.3416431528087089  0.0206200270629895  0.6020086877259612
  0.3367726459588866  0.5222637204758753  0.1042321854728247
  0.3415734819727427  0.5216673219654792  0.6026501359239631
  0.5540013685006787  0.1199694604633209  0.1043585034683345
  0.5512090302417214  0.1234632294892666  0.6025116277187649
  0.5477397163543946  0.6235017022445599  0.1016002861261040
  0.5506712227085346  0.6247220122270933  0.6030904763194083
  0.0451901179377763  0.1187537851174309  0.1486647765990593
  0.0505136030181140  0.1258740758395453  0.6493328335972581
  0.0481158697407113  0.6261046620383461  0.1493148723788566
  0.0503676616977999  0.6265463148685270  0.6460168585610958
  0.4463605064862952  0.3742122865971453  0.3974198839485326
  0.4449638784305256  0.3743533477728931  0.8902922567580900
  0.4494491501112610  0.8743357572214920  0.3970067727757887
  0.4494956654997551  0.8734514312638836  0.8976992916910448
  0.9504606399799618  0.3737027632116687  0.3514392921385011
  0.9480189033378645  0.3754918991031674  0.8533628252941738
  0.9492799005803039  0.8751414916671696  0.3518669143324010
  0.9490478648374300  0.8754531171881618  0.8520992513998444
  0.5827275279576676  0.3739264704418778  0.1880189585183644
  0.5909474887306450  0.3741664446495844  0.6869947356488384
  0.5890153619154076  0.8725471343127107  0.1878630307309037
  0.5887056725276271  0.8737679182733413  0.6875171710571029
  0.0899195222066097  0.3802847954858771  0.0595918854455337
  0.0843520879926313  0.3808144482400094  0.5650333150189129
  0.0880678516618477  0.8750851481550596  0.0619501790319930
  0.0886231046298020  0.8764734972968216  0.5617363117235469
  0.4117239282114577  0.1235274901436612  0.3116031162268035
  0.4114585461939439  0.1223020931884868  0.8122507198746403
  0.4097489516303152  0.6246871830051736  0.3122798372644686
  0.4100048207551900  0.6247640218336101  0.8121374419304704
  0.9127340201124204  0.1259572729046673  0.4378831607804456
  0.9079178325900364  0.1248451644003790  0.9377104732119044
  0.9094818102103074  0.6238174532598958  0.4378173325507662
  0.9103841902542593  0.6253469504003881  0.9381570821117555
 
             NaN             NaN             NaN
             NaN             NaN             NaN
             NaN             NaN             NaN
             NaN             NaN             NaN
             NaN             NaN             NaN
             NaN             NaN             NaN
             NaN             NaN             NaN
             NaN             NaN             NaN
             NaN             NaN             NaN
             NaN             NaN             NaN
             NaN             NaN             NaN
             NaN             NaN             NaN
             NaN             NaN             NaN
             NaN             NaN             NaN
             NaN             NaN             NaN
             NaN             NaN             NaN
             NaN             NaN             NaN
             NaN             NaN             NaN
             NaN             NaN             NaN
             NaN             NaN             NaN
             NaN             NaN             NaN
             NaN             NaN             NaN
             NaN             NaN             NaN
             NaN             NaN             NaN
             NaN             NaN             NaN
             NaN             NaN             NaN
             NaN             NaN             NaN
             NaN             NaN             NaN
             NaN             NaN             NaN
             NaN             NaN             NaN
             NaN             NaN             NaN
             NaN             NaN             NaN
             NaN             NaN             NaN
             NaN             NaN             NaN
             NaN             NaN             NaN
             NaN             NaN             NaN
             NaN             NaN             NaN
             NaN             NaN             NaN
             NaN             NaN             NaN
             NaN             NaN             NaN
             NaN             NaN             NaN
             NaN             NaN             NaN
             NaN             NaN             NaN
             NaN             NaN             NaN
             NaN             NaN             NaN
             NaN             NaN             NaN
             NaN             NaN             NaN
             NaN             NaN             NaN
             NaN             NaN             NaN
             NaN             NaN             NaN
             NaN             NaN             NaN
             NaN             NaN             NaN
             NaN             NaN             NaN
             NaN             NaN             NaN
             NaN             NaN             NaN
             NaN             NaN             NaN
             NaN             NaN             NaN
             NaN             NaN             NaN
             NaN             NaN             NaN
             NaN             NaN             NaN
             NaN             NaN             NaN
             NaN             NaN             NaN
             NaN             NaN             NaN
             NaN             NaN             NaN
             NaN             NaN             NaN
             NaN             NaN             NaN
             NaN             NaN             NaN
             NaN             NaN             NaN
             NaN             NaN             NaN
             NaN             NaN             NaN
             NaN             NaN             NaN
             NaN             NaN             NaN
             NaN             NaN             NaN
             NaN             NaN             NaN
             NaN             NaN             NaN
             NaN             NaN             NaN
             NaN             NaN             NaN
             NaN             NaN             NaN
             NaN             NaN             NaN
             NaN             NaN             NaN
             NaN             NaN             NaN
             NaN             NaN             NaN
             NaN             NaN             NaN
             NaN             NaN             NaN
             NaN             NaN             NaN
             NaN             NaN             NaN
             NaN             NaN             NaN
             NaN             NaN             NaN
             NaN             NaN             NaN
             NaN             NaN             NaN
             NaN             NaN             NaN
             NaN             NaN             NaN
             NaN             NaN             NaN
             NaN             NaN             NaN
             NaN             NaN             NaN
             NaN             NaN             NaN
             NaN             NaN             NaN
             NaN             NaN             NaN
             NaN             NaN             NaN
             NaN             NaN             NaN
             NaN             NaN             NaN
             NaN             NaN             NaN
             NaN             NaN             NaN
             NaN             NaN             NaN
             NaN             NaN             NaN
             NaN             NaN             NaN
             NaN             NaN             NaN
             NaN             NaN             NaN
             NaN             NaN             NaN
             NaN             NaN             NaN
             NaN             NaN             NaN
             NaN             NaN             NaN
             NaN             NaN             NaN
             NaN             NaN             NaN
             NaN             NaN             NaN
             NaN             NaN             NaN
             NaN             NaN             NaN
             NaN             NaN             NaN
             NaN             NaN             NaN
             NaN             NaN             NaN
             NaN             NaN             NaN
             NaN             NaN             NaN
             NaN             NaN             NaN
             NaN             NaN             NaN
             NaN             NaN             NaN
             NaN             NaN             NaN
             NaN             NaN             NaN
