Mg7 Sc16 Se32                           
   1.00000000000000     
    11.1304580000000009   -0.0000030000000000   -0.0000070000000000
    -0.0000030000000000   11.1304540000000003   -0.0000040000000000
    -0.0000070000000000   -0.0000260000000000   11.1305969999999999
   Mg   Sc   Se
     7    16    32
Direct
  0.5604882012593595  0.5604868797299063  0.5604907464444815
  0.6238568101481095  0.1268209931421343  0.1268176456732510
  0.1268205449773132  0.6238562375228019  0.1268179425026218
  0.1268218671204960  0.1268203065930214  0.6238581003436877
  0.3746316262433537  0.8732101710733756  0.8732098540018413
  0.8732120145579205  0.3746319049872678  0.8732106576006359
  0.8732130692132584  0.8732120688373153  0.3746331630845871
  0.9937316668432784  0.7497343672110870  0.7497332996926892
  0.7497382267093029  0.9937297218296447  0.7497381903822777
  0.7497354386026651  0.7497312685776052  0.9937312148516287
 -0.0001143972692959 -0.0001172592469173 -0.0001168392916086
  0.0061674238666564  0.2500348048589855  0.2500309565453288
  0.2500358086190498  0.0061658346924567  0.2500326750835368
  0.2500367720711729  0.2500331893432536  0.0061684638258217
  0.7465921574816363  0.4997490084056416  0.2501320419389194
  0.7465921589891577  0.2501312169073810  0.4997456706769448
  0.0115356263654386  0.4996807595564752  0.4996826094941407
  0.2501350726182755  0.4997452501247429  0.7465858715424573
  0.2501369200124019  0.7465909277666015  0.4997458117489013
  0.4997488663932084  0.7465882176965767  0.2501267064260776
  0.4996842041776077  0.0115370697230877  0.4996821622710274
  0.4997487512118350  0.2501320605715022  0.7465853495158322
  0.4996859361942302  0.4996813908530520  0.0115312832885099
  0.7564598229648414  0.9931009717301086  0.9931039112989666
  0.9930975023795408  0.7564617709299180  0.9931073916065510
  0.9930986672573227  0.9931006937075102  0.7564566223638612
  0.7545080994756866  0.7545061740934792  0.7545185754136737
  0.2424834874685962  0.0062467054216521  0.0062419801833516
  0.0062441073129235  0.2424866335109938  0.0062460544172710
  0.0062454633256465  0.0062459648526498  0.2424884748795398
  0.2440031322363725  0.2440025657220049  0.2439929863412365
  0.7640945594179492  0.4932034785635137  0.4932061183437547
  0.9921308447885470  0.2570629971883355  0.4930996424780721
  0.9921305468093810  0.4930972153246415  0.2570591768529999
  0.7601568259297072  0.2564436653466581  0.2564415246229156
  0.2505826296650916  0.5068879495576525  0.5068956183166350
  0.0074277810535844  0.7425708888582849  0.5063608212546428
  0.0074288723000627  0.5063616304156014  0.7425754141162676
  0.2395494579000539  0.7432481164005412  0.7432541600700102
  0.2570587929800036  0.9921294450087337  0.4930980564732627
  0.4931997097176955  0.7640925305678199  0.4932077964827577
  0.4930940546963987  0.9921325998076246  0.2570600483865023
  0.2564397022948761  0.7601564697393851  0.2564415370220325
  0.7425708561911673  0.0074304960834711  0.5063597878222890
  0.5068903920804994  0.2505804679373062  0.5068959055932769
  0.5063588119370881  0.0074310673597814  0.7425739453944408
  0.7432470293665374  0.2395501275519656  0.7432567664097309
  0.2570634398702453  0.4930974622869244  0.9921316525453526
  0.4930943939536284  0.2570651208842671  0.9921332233731843
  0.4932029754760016  0.4932050299866201  0.7640948459404565
  0.2564429673063368  0.2564430728521060  0.7601576782749172
  0.7425686577528176  0.5063644392787433  0.0074246715031704
  0.5063587042718400  0.7425733837625511  0.0074286088199209
  0.5068903691625012  0.5068901078381055  0.2505707648818345
  0.7432500673833095  0.7432518625443270  0.2395546069715443
 
             NaN             NaN             NaN
             NaN             NaN             NaN
             NaN             NaN             NaN
             NaN             NaN             NaN
             NaN             NaN             NaN
             NaN             NaN             NaN
             NaN             NaN             NaN
             NaN             NaN             NaN
             NaN             NaN             NaN
             NaN             NaN             NaN
             NaN             NaN             NaN
             NaN             NaN             NaN
             NaN             NaN             NaN
             NaN             NaN             NaN
             NaN             NaN             NaN
             NaN             NaN             NaN
             NaN             NaN             NaN
             NaN             NaN             NaN
             NaN             NaN             NaN
             NaN             NaN             NaN
             NaN             NaN             NaN
             NaN             NaN             NaN
             NaN             NaN             NaN
             NaN             NaN             NaN
             NaN             NaN             NaN
             NaN             NaN             NaN
             NaN             NaN             NaN
             NaN             NaN             NaN
             NaN             NaN             NaN
             NaN             NaN             NaN
             NaN             NaN             NaN
             NaN             NaN             NaN
             NaN             NaN             NaN
             NaN             NaN             NaN
             NaN             NaN             NaN
             NaN             NaN             NaN
             NaN             NaN             NaN
             NaN             NaN             NaN
             NaN             NaN             NaN
             NaN             NaN             NaN
             NaN             NaN             NaN
             NaN             NaN             NaN
             NaN             NaN             NaN
             NaN             NaN             NaN
             NaN             NaN             NaN
             NaN             NaN             NaN
             NaN             NaN             NaN
             NaN             NaN             NaN
             NaN             NaN             NaN
             NaN             NaN             NaN
             NaN             NaN             NaN
             NaN             NaN             NaN
             NaN             NaN             NaN
             NaN             NaN             NaN
             NaN             NaN             NaN
