Li15 Fe16 P16 O64                       
   1.00000000000000     
    10.2418089999999999    0.0000970000000000    0.0237740000000000
    -0.0002110000000000   11.9645930000000007   -0.0001240000000000
     0.0102850000000000   -0.0004260000000000    9.3726610000000008
   Li   Fe   P    O 
    15    16    16    64
Direct
  0.5535705701032640  0.3763541330239140  0.7075008513058394
  0.5008636940551061 -0.0002184267853027  0.2502664309784214
  0.4990683495766126  0.0088795656026398  0.7537421070729898
  0.4992050289874325  0.5021565460646228  0.2517811495623605
  1.0008043004893834  0.2495276051022491  0.4960934721629515
  0.9974706970591737  0.2465388759155114  0.0004356716834353
  0.9989529667460152  0.7491627432836107  0.5012218781796607
  0.9986532939129307  0.7511615663787664  0.0021827853913981
  0.4995451645590918  0.2477875137647760  0.2518184745635519
  0.5005891850379434  0.7503314443197617  0.2501851337870443
  0.4987810570454709  0.7409343912005145  0.7539420459785049
  1.0006538071002031  0.5005738282020739  0.4964844199339792
  0.9971433431974616  0.5035472162931041  0.0008842023624777
  0.9990946568717958  0.0008506306005358  0.5008576015898902
  0.9988431258213623  0.9988739084937015  0.0017693422816419
  0.7798417463763764  0.1233499598225220  0.2670823251277641
  0.7790046065011266  0.1261129075563329  0.7630776591105891
  0.7783878611983761  0.6262965791046178  0.2670078733380890
  0.7789474673633038  0.6239002337859677  0.7631572967081042
  0.2813358242119737  0.1245065511590665  0.4852069140014059
  0.2825877440175562  0.1243776111178509  0.9839582350365694
  0.2812265267629361  0.6255075893796037  0.4854674412381098
  0.2814860633686138  0.6253580877900443  0.9856519527282274
  0.2169700473034262  0.3749611859217161  0.2301888275007484
  0.2239445895533069  0.3750200348425002  0.7473643619718583
  0.2190717157164372  0.8750231373057229  0.2361511450161854
  0.2192669411157794  0.8750301651106553  0.7359197904405167
  0.7194646359457618  0.3749173399093582  0.0162403618046731
  0.7237093729448372  0.3749389091925522  0.5022224593772822
  0.7185601057940233  0.8750014834408650  0.0145839608223264
  0.7172207913082631  0.8750005685666501  0.5186008474582233
  0.5960286639025981  0.1235440518554281  0.0430440775106723
  0.5903444311240492  0.1310905276162637  0.5444166124390147
  0.5956270729286515  0.6263801720866826  0.0429500008613987
  0.5901226355078442  0.6189167895214629  0.5445061308811650
  0.0930604342400066  0.1242264789932093  0.2072265372864909
  0.0936226956566955  0.1280392916281204  0.7102524367534084
  0.0924494886084979  0.6257605591469669  0.2084002126129107
  0.0935738204862637  0.6220656455851444  0.7108637136947707
  0.3958141668581286  0.3750289991686896  0.4549667236134372
  0.4046657302690495  0.3750824231073980  0.9609393808458316
  0.4057394743681677  0.8750019018979407  0.4576429472104707
  0.4073969392520373  0.8747838438246673  0.9567930009973152
  0.9090574210801552  0.3750384188538657  0.2875250676007520
  0.9094866205611161  0.3750444281774412  0.7877632748843286
  0.9062489013132534  0.8748580978956287  0.2945085521033909
  0.9072242910851507  0.8750206053368674  0.7934977983000365
  0.5954863829687141  0.1311372154713646  0.3813830459335132
  0.6020777261206014  0.1186166045356002  0.8828110622081512
  0.5949359209410532  0.6188091409784490  0.3814535179923991
  0.6018104884584355  0.6313168133608533  0.8827369676365144
  0.0947897562567937  0.1255725003998232  0.3695383661163740
  0.0939091229454563  0.1263904230609880  0.8719778530151563
  0.0944555392917760  0.6243837334276064  0.3706833844358038
  0.0935287158859496  0.6236826856112460  0.8726084952000767
  0.4022308153354708  0.3749825054936022  0.1228208792127505
  0.3832812187364166  0.3750926672242858  0.6173717452781917
  0.4050748379444327  0.8750231911204484  0.1188664921331535
  0.4015377363410376  0.8750040118108035  0.6192988957401563
  0.9081546238467830  0.3751033587141242  0.1255526637282100
  0.9081117072915397  0.3750713849798633  0.6261508830684694
  0.9047415202240099  0.8749449153166103  0.1323659445304483
  0.9052663860525925  0.8749771749356882  0.6312633440327227
  0.9543756709254850  0.1239219112520987  0.1454041928418948
  0.9568040259818295  0.1279738285664647  0.6443473693757129
  0.9538571628139649  0.6260465760040939  0.1464362966846819
  0.9568047870417220  0.6221129248060879  0.6448035469216097
  0.4561385842824088  0.1265507998810480  0.1037243066641154
  0.4517507072785675  0.1236310651989438  0.6016151304082252
  0.4558577505091466  0.6234279278466696  0.1039202235458102
  0.4515876939535491  0.6264081258325767  0.6018358329372013
  0.0461759328490817  0.3751160406874984  0.3522809816265267
  0.0507954493726495  0.3750521459584714  0.8487312368285883
  0.0447714714135201  0.8748460371997585  0.3571446122307250
  0.0461826300050322  0.8749927796263529  0.8552809151339793
  0.5370325294419148  0.3750235938789157  0.4015389926578258
  0.5431665630145714  0.3751686839401644  0.9040796075686756
  0.5452531600671632  0.8749935685561985  0.3966622589282228
  0.5454725970512886  0.8748215448497831  0.8936686807636935
  0.6639399143699294  0.0214893396316928  0.1152040712271297
  0.6671641025414762  0.0298683942743842  0.6079241610954986
  0.6675907876972821  0.5238289384561672  0.1083883518153275
  0.6602734066430458  0.5143677930976753  0.6086144692648277
  0.1637904330884097  0.2260229645707459  0.1391392028065336
  0.1647200893310188  0.2337383091633119  0.6481722796412157
  0.1642490205476239  0.7275940433972194  0.1424589752793092
  0.1674468288902367  0.7223037945896182  0.6436733892873309
  0.3281121196374573  0.2724629297025668  0.3874907327492085
  0.3244294022873074  0.2771198474674522  0.8937472965083602
  0.3346925307655108  0.7732490617580403  0.3896251521150144
  0.3349331189670314  0.7726942587637081  0.8914473406264284
  0.8367444338751594  0.4766526011146426  0.3542560068736208
  0.8400546993478264  0.4765617497338540  0.8566123435252996
  0.8350829910478785  0.9768098884098019  0.3617079462299966
  0.8365336970022005  0.9774242856464515  0.8594991157919090
  0.3280644137344373  0.4775743273259802  0.3875118120061636
  0.3242095350403610  0.4730330409427104  0.8941097183876522
  0.3347342490512793  0.9767331106211908  0.3895429731312520
  0.3350662567863451  0.9767933078981058  0.8908853889487907
  0.8370744807808678  0.2732228958549985  0.3540737431923598
  0.8401609587307364  0.2734816967578894  0.8565831008765229
  0.8347922700279380  0.7730686441153498  0.3616471363826439
  0.8364202313519705  0.7726847314809768  0.8595723682238656
  0.6680200922016462  0.2260290439940840  0.1085469377465128
  0.6605728524198603  0.2355802149361152  0.6085751213501311
  0.6636355427253002  0.7284002853540732  0.1151396221992877
  0.6671295593773841  0.7200439503027147  0.6078727167258414
  0.1647234469553578  0.0222888135025309  0.1414900885538256
  0.1674714080097978  0.0277767792869816  0.6430869005211066
  0.1632650972150988  0.5240297085675938  0.1400217491607171
  0.1647507408245820  0.5164391953673408  0.6486775956166358
 
             NaN             NaN             NaN
             NaN             NaN             NaN
             NaN             NaN             NaN
             NaN             NaN             NaN
             NaN             NaN             NaN
             NaN             NaN             NaN
             NaN             NaN             NaN
             NaN             NaN             NaN
             NaN             NaN             NaN
             NaN             NaN             NaN
             NaN             NaN             NaN
             NaN             NaN             NaN
             NaN             NaN             NaN
             NaN             NaN             NaN
             NaN             NaN             NaN
             NaN             NaN             NaN
             NaN             NaN             NaN
             NaN             NaN             NaN
             NaN             NaN             NaN
             NaN             NaN             NaN
             NaN             NaN             NaN
             NaN             NaN             NaN
             NaN             NaN             NaN
             NaN             NaN             NaN
             NaN             NaN             NaN
             NaN             NaN             NaN
             NaN             NaN             NaN
             NaN             NaN             NaN
             NaN             NaN             NaN
             NaN             NaN             NaN
             NaN             NaN             NaN
             NaN             NaN             NaN
             NaN             NaN             NaN
             NaN             NaN             NaN
             NaN             NaN             NaN
             NaN             NaN             NaN
             NaN             NaN             NaN
             NaN             NaN             NaN
             NaN             NaN             NaN
             NaN             NaN             NaN
             NaN             NaN             NaN
             NaN             NaN             NaN
             NaN             NaN             NaN
             NaN             NaN             NaN
             NaN             NaN             NaN
             NaN             NaN             NaN
             NaN             NaN             NaN
             NaN             NaN             NaN
             NaN             NaN             NaN
             NaN             NaN             NaN
             NaN             NaN             NaN
             NaN             NaN             NaN
             NaN             NaN             NaN
             NaN             NaN             NaN
             NaN             NaN             NaN
             NaN             NaN             NaN
             NaN             NaN             NaN
             NaN             NaN             NaN
             NaN             NaN             NaN
             NaN             NaN             NaN
             NaN             NaN             NaN
             NaN             NaN             NaN
             NaN             NaN             NaN
             NaN             NaN             NaN
             NaN             NaN             NaN
             NaN             NaN             NaN
             NaN             NaN             NaN
             NaN             NaN             NaN
             NaN             NaN             NaN
             NaN             NaN             NaN
             NaN             NaN             NaN
             NaN             NaN             NaN
             NaN             NaN             NaN
             NaN             NaN             NaN
             NaN             NaN             NaN
             NaN             NaN             NaN
             NaN             NaN             NaN
             NaN             NaN             NaN
             NaN             NaN             NaN
             NaN             NaN             NaN
             NaN             NaN             NaN
             NaN             NaN             NaN
             NaN             NaN             NaN
             NaN             NaN             NaN
             NaN             NaN             NaN
             NaN             NaN             NaN
             NaN             NaN             NaN
             NaN             NaN             NaN
             NaN             NaN             NaN
             NaN             NaN             NaN
             NaN             NaN             NaN
             NaN             NaN             NaN
             NaN             NaN             NaN
             NaN             NaN             NaN
             NaN             NaN             NaN
             NaN             NaN             NaN
             NaN             NaN             NaN
             NaN             NaN             NaN
             NaN             NaN             NaN
             NaN             NaN             NaN
             NaN             NaN             NaN
             NaN             NaN             NaN
             NaN             NaN             NaN
             NaN             NaN             NaN
             NaN             NaN             NaN
             NaN             NaN             NaN
             NaN             NaN             NaN
             NaN             NaN             NaN
             NaN             NaN             NaN
             NaN             NaN             NaN
             NaN             NaN             NaN
