Li15 Fe16 P16 O64
1.0
10.241809 0.000097 0.023774
-0.000211 11.964593 -0.000124
0.010285 -0.000426 9.372661
Li Fe P O
15 16 16 64
direct
0.505771 0.375239 0.748567 Li
0.501069 0.000037 0.249893 Li
0.499787 0.004799 0.750657 Li
0.500506 0.501231 0.252108 Li
0.997731 0.249727 0.496331 Li
0.996824 0.247382 0.001575 Li
0.999444 0.749067 0.500723 Li
0.999289 0.750925 0.001895 Li
0.500556 0.248666 0.252054 Li
0.500945 0.749915 0.249900 Li
0.499699 0.745390 0.750530 Li
0.997787 0.500231 0.496490 Li
0.996662 0.502576 0.001806 Li
0.999504 0.001072 0.500530 Li
0.999362 0.999055 0.001755 Li
0.780206 0.124498 0.265213 Fe
0.779377 0.125024 0.762498 Fe
0.780054 0.625469 0.265462 Fe
0.779339 0.625003 0.762493 Fe
0.281761 0.124943 0.485506 Fe
0.281541 0.124632 0.985518 Fe
0.281650 0.625030 0.485762 Fe
0.281333 0.625326 0.985942 Fe
0.217656 0.374999 0.231917 Fe
0.224752 0.375028 0.744848 Fe
0.219089 0.874999 0.236173 Fe
0.219286 0.874989 0.736097 Fe
0.719840 0.374994 0.011708 Fe
0.718364 0.375018 0.516982 Fe
0.718723 0.874917 0.014168 Fe
0.718179 0.875087 0.514804 Fe
0.595079 0.124512 0.041659 P
0.593182 0.126072 0.541948 P
0.595101 0.625437 0.041737 P
0.593196 0.624004 0.541953 P
0.093392 0.124566 0.207906 P
0.094241 0.127765 0.710469 P
0.093276 0.625406 0.208348 P
0.094123 0.622275 0.710787 P
0.398037 0.374996 0.458066 P
0.407825 0.374991 0.957473 P
0.405674 0.874974 0.456879 P
0.407097 0.874963 0.956967 P
0.906065 0.374998 0.289429 P
0.910590 0.375007 0.788743 P
0.906960 0.875008 0.293640 P
0.907494 0.875029 0.792484 P
0.595118 0.126078 0.379156 O
0.599188 0.121439 0.880591 O
0.595021 0.623786 0.379169 O
0.599265 0.628576 0.880686 O
0.095036 0.125810 0.370117 O
0.094540 0.126387 0.872237 O
0.094964 0.624184 0.370547 O
0.094365 0.623682 0.872553 O
0.403314 0.374947 0.119487 O
0.383003 0.375008 0.619574 O
0.404974 0.874992 0.118988 O
0.402361 0.874938 0.618789 O
0.906020 0.375033 0.127057 O
0.908196 0.374955 0.627196 O
0.905563 0.874945 0.131462 O
0.906829 0.875072 0.630426 O
0.954987 0.124499 0.145399 O
0.957470 0.126972 0.644718 O
0.954870 0.625429 0.145856 O
0.957407 0.623109 0.644951 O
0.455686 0.126290 0.103433 O
0.454519 0.126042 0.602358 O
0.455718 0.623524 0.103531 O
0.454567 0.623935 0.602434 O
0.044370 0.375060 0.352502 O
0.052434 0.374967 0.848747 O
0.045207 0.875007 0.356803 O
0.046010 0.875024 0.855457 O
0.539300 0.374918 0.405066 O
0.544935 0.375044 0.897928 O
0.544268 0.875073 0.394057 O
0.545209 0.875007 0.893608 O
0.664530 0.022373 0.111165 O
0.663568 0.022803 0.607635 O
0.666976 0.523237 0.107325 O
0.670399 0.524494 0.605816 O
0.164795 0.226153 0.139772 O
0.165223 0.233226 0.647820 O
0.164630 0.727519 0.142458 O
0.168573 0.722356 0.643806 O
0.330377 0.272700 0.388452 O
0.327775 0.276354 0.890335 O
0.334200 0.772967 0.390303 O
0.334961 0.772791 0.891374 O
0.834557 0.476703 0.356278 O
0.841933 0.476909 0.857409 O
0.835561 0.977144 0.359920 O
0.836244 0.977310 0.858525 O
0.330481 0.477370 0.388556 O
0.327680 0.473635 0.890451 O
0.334009 0.976884 0.390304 O
0.334845 0.977017 0.891197 O
0.834656 0.273220 0.356170 O
0.841841 0.273136 0.857464 O
0.835509 0.772942 0.360065 O
0.836354 0.772635 0.858444 O
0.666782 0.226790 0.107288 O
0.670212 0.225647 0.605791 O
0.664432 0.727638 0.111274 O
0.663547 0.727324 0.607469 O
0.164753 0.022418 0.142115 O
0.168673 0.027650 0.643515 O
0.164740 0.523856 0.140149 O
0.165048 0.516794 0.648078 O
