Li47 P16 O64                            
   1.00000000000000     
    10.5755540000000003    0.0009290000000000   -0.0008060000000000
     0.0010840000000000   12.3261950000000002    0.0013900000000000
    -0.0007830000000000    0.0011050000000000    9.9835609999999999
   Li   P    O 
    47    16    64
Direct
  0.2763190744307027  0.3505322254373936  0.1532133175798145
  0.6591257417566928  0.2517625116599111  0.0975718917932371
  0.6671590911991047  0.2479333944737132  0.5987584438439252
  0.6581976361557200  0.7473227368859615  0.0982513447426658
  0.6636086016895757  0.7501763483369913  0.5990667171352868
  0.1530108548849925  0.5130178433358477  0.1495124230365520
  0.1647439109993695  0.5012149992352580  0.6505830217762184
  0.1646173739360441  0.0009600913963172  0.1491006950078356
  0.1638166726436683  0.0005778203466908  0.6512365329335358
  0.3366945986470734  0.0004171096642056  0.3995317792046424
  0.3366696182257273  0.9991377483253844  0.9010474076077739
  0.3378695156034329  0.5009314034797318  0.4020880748373982
  0.3377715922192960  0.4980972862189563  0.9056149621192732
  0.8375719127508376  0.2493900290951672  0.3485285911618175
  0.8369057008362129  0.2496947675872865  0.8515620546343654
  0.8350849655390401  0.7487269377260781  0.3490243439607225
  0.8356187007857223  0.7496753998828022  0.8486558809864392
  0.3403151396532057  0.2458855023809058  0.4059246097800632
  0.3380900915821953  0.2485525137198132  0.8998548254563741
  0.3366772593738784  0.7482076187082370  0.4005895763477559
  0.3349869592335766  0.7472885192026215  0.9015649012484548
  0.8379071954685499  0.0020669818346709  0.3502635810792211
  0.8361753429638240  0.0008459107927500  0.8467678527004119
  0.8370332828435474  0.4991190977158802  0.3461666331132006
  0.8362407423798315  0.5009348138288859  0.8537917579928531
  0.6578016098169802  0.4949828228497405  0.0972571778676506
  0.6671771089264401  0.5000563783471031  0.5991022162103765
  0.6622177070309399  0.9936410884108198  0.0969318459296216
  0.6648860746142139  0.9974310149492174  0.5982911973180995
  0.1645342601765636  0.2528444063520046  0.6501798388153787
  0.1624497775826542  0.7537386227874086  0.1524403047078994
  0.1642328336412061  0.7527785197977712  0.6502729051578173
  0.9362062223041018  0.3695841076384715  0.1466386945590321
  0.9270349774675067  0.3760268612131926  0.6532288217015103
  0.9235601306583622  0.8742325592042126  0.1479665825431886
  0.9259648579940595  0.8757991974409346  0.6483636289229995
  0.4260508839560173  0.3744408400146378  0.6081097660174468
  0.4243605715944708  0.8712029449273164  0.1016202530745926
  0.4252953212636061  0.8742783138046922  0.6002399789151588
  0.0798042952778542  0.1338982523797144  0.3412853915575209
  0.0765814237746570  0.1279199182761232  0.8553239075336723
  0.0734038748759355  0.6277621262362025  0.3546853744583449
  0.0738785606482516  0.6264019958783561  0.8494457125168173
  0.5763353091932409  0.1235853596642678  0.3981993600877504
  0.5751530417897901  0.1225186779494359  0.8979888047690712
  0.5743185603674756  0.6234014226173136  0.3991555984886549
  0.5723524121744868  0.6226326015307303  0.8978646624551162
  0.9082132824185299  0.1228721382842890  0.0961702706807652
  0.9139714995377174  0.1261110681415968  0.5968619291844385
  0.9070402028800244  0.6269273875920741  0.0971109931354092
  0.9115449881037576  0.6256434470567093  0.5971586364995057
  0.4138730212994408  0.1216987868611531  0.1519144783362196
  0.4125819421044483  0.1230365904339783  0.6535060418802434
  0.4065827075831019  0.6218935264303103  0.1535835070519754
  0.4113420680217837  0.6244621937966162  0.6535555854322760
  0.0916843911262622  0.3768847351914245  0.4031455715351394
  0.0928802867003541  0.3776748022834808  0.9049478866452048
  0.0891080015629895  0.8766112840031767  0.4028195448743583
  0.0882810315201603  0.8757563500920785  0.9030968622986932
  0.5914420100246450  0.3736171062516541  0.3483220296495372
  0.5881814713925030  0.3738208986200305  0.8408841904469410
  0.5884502901336978  0.8734348456363419  0.3466227004881555
  0.5880038702347806  0.8727540972908612  0.8457724380269815
  0.8360942755328082  0.0199789111580041  0.1468689850048243
  0.8425258802336322  0.0225111804057840  0.6463501413534403
  0.8404453509981261  0.5215024013527568  0.1464419621734912
  0.8435378856446555  0.5225507858568249  0.6520958518706285
  0.3475974184896033  0.2225907207389843  0.0931769777654015
  0.3435250931483692  0.2273173465596012  0.6033026326700603
  0.3386090145688539  0.7271013787169778  0.1030160639262828
  0.3415398851050592  0.7278379171466877  0.6016326034182187
  0.1681520639638510  0.2762774928894974  0.3564843446361716
  0.1603393537360807  0.2745059085836653  0.8500988752034406
  0.1595217466369044  0.7728686432853563  0.3530788890139411
  0.1584484840463255  0.7724715447087666  0.8515385423784813
  0.6597028802539707  0.4774113031328625  0.4021474014576089
  0.6560637204616286  0.4765584018866532  0.8965686673496760
  0.6594143707991619  0.9766929745750945  0.3969988913544321
  0.6588940481834190  0.9756996321067252  0.8971432313408660
  0.1594002167375154  0.4813589375692734  0.3501229063528844
  0.1587823852561143  0.4812263902823498  0.8476104852294043
  0.1590159807622993  0.9795649424704429  0.3507083950157733
  0.1588492762426603  0.9790859020234929  0.8525768553980521
  0.6598765258374111  0.2699881350025118  0.4024857985542399
  0.6549973303787667  0.2702536861766069  0.8966137615042077
  0.6580067600802825  0.7701512636125172  0.3988778220683956
  0.6573886996682868  0.7690197276537901  0.8968583837719275
  0.8401167203284802  0.2271813080860756  0.1472749092301580
  0.8439914173996113  0.2291075159781584  0.6500163667725898
  0.8340501068978261  0.7289831005391134  0.1475929204926691
  0.8412785407579033  0.7292243326243152  0.6475916301317935
  0.3439154098919225  0.0175909286622173  0.1027740851331789
  0.3415938350008026  0.0207693582394699  0.6004431343756262
  0.3308579111841636  0.5209203286106886  0.1054353780390788
  0.3424480205354510  0.5211767934961473  0.6003629508349811
  0.5531589784585625  0.1203114290886676  0.1012838788848577
  0.5511892797350325  0.1228119633968421  0.6012218734536724
  0.5440351955740165  0.6205982253342507  0.0979726157893591
  0.5504603063799941  0.6245950712215282  0.6027733541747072
  0.0445323552732477  0.1179887944234368  0.1504106128113482
  0.0518691346736086  0.1259038958934622  0.6506055906292223
  0.0443745514585810  0.6318359293448003  0.1525918935875562
  0.0509847669523434  0.6275026084386541  0.6465656990738328
  0.4512943743253188  0.3736297525196080  0.3971413666002735
  0.4455402418705599  0.3739307007008265  0.8747239007570190
  0.4499208692668988  0.8743612391153597  0.3989447459286818
  0.4495532338758355  0.8729588133821728  0.8982696627757899
  0.9539484802065571  0.3735037447878685  0.3482603853344575
  0.9512873184762903  0.3757763980762912  0.8605437254647352
  0.9504801794039843  0.8752531503726508  0.3501016852140367
  0.9498375289208733  0.8756054328933170  0.8503248118676726
  0.5985746306992454  0.3731653147727016  0.1941061381089947
  0.5986134640565267  0.3738868762157544  0.6846569536284290
  0.5879016116688522  0.8720519676166225  0.1903009778696346
  0.5888457327656855  0.8737095154672574  0.6894268629605865
  0.1026303189292936  0.3817928281864567  0.0606698585094145
  0.0885174225358067  0.3789805807734971  0.5597447708758553
  0.0880661440264274  0.8756008930110323  0.0594275662885002
  0.0892052806139612  0.8770451549998818  0.5592101952059785
  0.4123718289860852  0.1243007899105579  0.3081080604487114
  0.4117650450605151  0.1217165188766055  0.8095787290481543
  0.4105217999966012  0.6238240059394917  0.3100663464126237
  0.4090245791364805  0.6239921194025105  0.8097132593435047
  0.9141415434557258  0.1270297023632505  0.4404831423499709
  0.9085148545426458  0.1238629715870337  0.9397970937027932
  0.9085989850835954  0.6238516711076091  0.4407465410886385
  0.9100711018390464  0.6270444813951392  0.9407425521494557
 
             NaN             NaN             NaN
             NaN             NaN             NaN
             NaN             NaN             NaN
             NaN             NaN             NaN
             NaN             NaN             NaN
             NaN             NaN             NaN
             NaN             NaN             NaN
             NaN             NaN             NaN
             NaN             NaN             NaN
             NaN             NaN             NaN
             NaN             NaN             NaN
             NaN             NaN             NaN
             NaN             NaN             NaN
             NaN             NaN             NaN
             NaN             NaN             NaN
             NaN             NaN             NaN
             NaN             NaN             NaN
             NaN             NaN             NaN
             NaN             NaN             NaN
             NaN             NaN             NaN
             NaN             NaN             NaN
             NaN             NaN             NaN
             NaN             NaN             NaN
             NaN             NaN             NaN
             NaN             NaN             NaN
             NaN             NaN             NaN
             NaN             NaN             NaN
             NaN             NaN             NaN
             NaN             NaN             NaN
             NaN             NaN             NaN
             NaN             NaN             NaN
             NaN             NaN             NaN
             NaN             NaN             NaN
             NaN             NaN             NaN
             NaN             NaN             NaN
             NaN             NaN             NaN
             NaN             NaN             NaN
             NaN             NaN             NaN
             NaN             NaN             NaN
             NaN             NaN             NaN
             NaN             NaN             NaN
             NaN             NaN             NaN
             NaN             NaN             NaN
             NaN             NaN             NaN
             NaN             NaN             NaN
             NaN             NaN             NaN
             NaN             NaN             NaN
             NaN             NaN             NaN
             NaN             NaN             NaN
             NaN             NaN             NaN
             NaN             NaN             NaN
             NaN             NaN             NaN
             NaN             NaN             NaN
             NaN             NaN             NaN
             NaN             NaN             NaN
             NaN             NaN             NaN
             NaN             NaN             NaN
             NaN             NaN             NaN
             NaN             NaN             NaN
             NaN             NaN             NaN
             NaN             NaN             NaN
             NaN             NaN             NaN
             NaN             NaN             NaN
             NaN             NaN             NaN
             NaN             NaN             NaN
             NaN             NaN             NaN
             NaN             NaN             NaN
             NaN             NaN             NaN
             NaN             NaN             NaN
             NaN             NaN             NaN
             NaN             NaN             NaN
             NaN             NaN             NaN
             NaN             NaN             NaN
             NaN             NaN             NaN
             NaN             NaN             NaN
             NaN             NaN             NaN
             NaN             NaN             NaN
             NaN             NaN             NaN
             NaN             NaN             NaN
             NaN             NaN             NaN
             NaN             NaN             NaN
             NaN             NaN             NaN
             NaN             NaN             NaN
             NaN             NaN             NaN
             NaN             NaN             NaN
             NaN             NaN             NaN
             NaN             NaN             NaN
             NaN             NaN             NaN
             NaN             NaN             NaN
             NaN             NaN             NaN
             NaN             NaN             NaN
             NaN             NaN             NaN
             NaN             NaN             NaN
             NaN             NaN             NaN
             NaN             NaN             NaN
             NaN             NaN             NaN
             NaN             NaN             NaN
             NaN             NaN             NaN
             NaN             NaN             NaN
             NaN             NaN             NaN
             NaN             NaN             NaN
             NaN             NaN             NaN
             NaN             NaN             NaN
             NaN             NaN             NaN
             NaN             NaN             NaN
             NaN             NaN             NaN
             NaN             NaN             NaN
             NaN             NaN             NaN
             NaN             NaN             NaN
             NaN             NaN             NaN
             NaN             NaN             NaN
             NaN             NaN             NaN
             NaN             NaN             NaN
             NaN             NaN             NaN
             NaN             NaN             NaN
             NaN             NaN             NaN
             NaN             NaN             NaN
             NaN             NaN             NaN
             NaN             NaN             NaN
             NaN             NaN             NaN
             NaN             NaN             NaN
             NaN             NaN             NaN
             NaN             NaN             NaN
             NaN             NaN             NaN
             NaN             NaN             NaN
             NaN             NaN             NaN
             NaN             NaN             NaN
