Li47 P16 O64                            
   1.00000000000000     
    10.5593280000000007    0.0005610000000000   -0.0043110000000000
     0.0006550000000000   12.3534030000000001   -0.0002520000000000
    -0.0040820000000000   -0.0002090000000000    9.9779380000000000
   Li   P    O 
    47    16    64
Direct
  0.1868668108581140  0.2733148769814800  0.1569730824994026
  0.6588278745426277  0.2517649385750187  0.0978805075638181
  0.6677719574546950  0.2479435451153370  0.5988402824034466
  0.6621202699190495  0.7497775443182764  0.0977047207471230
  0.6643993290053621  0.7506587984284060  0.5991706182585902
  0.1609418228815504  0.5049890908970702  0.1502952593632376
  0.1649698161242528  0.5005612797243429  0.6505519944852630
  0.1636871037227042  0.0004197707056189  0.1499441499081230
  0.1644179652720979  0.9999971080805478  0.6516266561806983
  0.3369259530528094  0.0005430106504422  0.3996536194772041
  0.3371483276905759  0.9997920532338160  0.9011140357131494
  0.3385167746704281  0.4996973888079101  0.3978474483303939
  0.3380709610687687  0.4972216095961454  0.9071376342533078
  0.8386546274851951  0.2490772919352919  0.3483983919940750
  0.8366819998411538  0.2491610363393330  0.8505355462675305
  0.8362724379087949  0.7490806757309274  0.3490838586592079
  0.8366898200114410  0.7495792186273705  0.8486137952810080
  0.3412575860891522  0.2490509455601376  0.4030335115294160
  0.3396608922802519  0.2513162373645596  0.9034628810250254
  0.3370407561147027  0.7492584649320813  0.4004551372878389
  0.3361954480173604  0.7488333938138996  0.9011038617981402
  0.8386518267614990  0.0021406270231455  0.3496663714337128
  0.8374973424647355  0.0015043857336876  0.8478371460250208
  0.8380949101105205  0.5007897488768193  0.3474494902538828
  0.8361112703171197  0.5014495282537060  0.8515469097064827
  0.6574709844122382  0.4967650608834514  0.0975654824330755
  0.6678017219611776  0.5010469782320114  0.5990975987715980
  0.6659950999335554  0.9966265728016872  0.0981839049337618
  0.6654763415707408  0.9982382202579811  0.5984332847473021
  0.1651784229329232  0.2522330568626207  0.6520204202739932
  0.1631887141799110  0.7537520401430053  0.1521738095469867
  0.1645231229133430  0.7524870947521870  0.6505912321717005
  0.9265511997849954  0.3737599411933086  0.1472990037809370
  0.9262439286712554  0.3756200461067336  0.6508236141980908
  0.9242334760959126  0.8752235832053250  0.1488093355957557
  0.9260766759700428  0.8756088098846813  0.6482536160427065
  0.4260743634442657  0.3752273435503297  0.6110220606474335
  0.4285855982569553  0.8743739676112744  0.1005657404259245
  0.4258795026812139  0.8747999768623255  0.6004083369715317
  0.0778727807776560  0.1295262180629226  0.3460211116319454
  0.0769610747196859  0.1269725102213589  0.8548300503608776
  0.0746054509663691  0.6274190461374128  0.3526433079019998
  0.0750571369495069  0.6260281952520765  0.8508059648294489
  0.5765265258453685  0.1239928000389821  0.3983894655888334
  0.5750661155815159  0.1234476221113998  0.8983613819114988
  0.5752077772871222  0.6244387910859894  0.3994075013934726
  0.5729791625182304  0.6239462114625783  0.8973060032125932
  0.9118970485161692  0.1254794828162692  0.0967398149063676
  0.9144654589782115  0.1256363158466822  0.5970242132932244
  0.9093550992875753  0.6263096338979967  0.0968870785395213
  0.9125712251700029  0.6259138781020066  0.5970057762472808
  0.4132632682398431  0.1207140248585531  0.1522666940369981
  0.4124562288253646  0.1238828039473229  0.6534746323797191
  0.4092461253054437  0.6281766274652784  0.1524467240812152
  0.4114717195435013  0.6248992159094268  0.6532247868808418
  0.0906800185259088  0.3774443224026107  0.4035738164148797
  0.0893993060848358  0.3770104184071609  0.9037274551835300
  0.0891712616136337  0.8764434683902286  0.4032796744525273
  0.0886477942709231  0.8757015380528801  0.9035883005511968
  0.5932268835738423  0.3743352995178794  0.3496728674878789
  0.5892238896750831  0.3744523054099237  0.8401931582434452
  0.5898329796623630  0.8743912938139762  0.3468139527706621
  0.5893024998695041  0.8740195275999134  0.8452346601017140
  0.8419954523275549  0.0218957375765720  0.1481954145691711
  0.8433296082435665  0.0223162338714982  0.6467428794444914
  0.8400544488737816  0.5224112544387416  0.1470427063211324
  0.8439284043297473  0.5229013757262438  0.6506005693896604
  0.3402163704929177  0.2179125501602009  0.0935109763768353
  0.3432943942578933  0.2276514951278106  0.6022122405680430
  0.3429746227203987  0.7350310171765096  0.1055319763191458
  0.3420043219051112  0.7282437252975641  0.6011291448578543
  0.1646005125876234  0.2759986274932462  0.3523187989720447
  0.1593702864482600  0.2739067230601438  0.8525572032597538
  0.1595639477921857  0.7731923554418894  0.3526359478831693
  0.1590309625587845  0.7725376916908004  0.8525126023755709
  0.6615830309446935  0.4781770867211909  0.4024865753415600
  0.6559323109835590  0.4773097223941379  0.8969238577813013
  0.6603828164813264  0.9775290281820129  0.3979014289878063
  0.6599072122907755  0.9767873719034330  0.8971903583697119
  0.1586373369029907  0.4816275909577867  0.3525564999944560
  0.1578173585002383  0.4800319550328307  0.8499899943136205
  0.1586902278701688  0.9795918165168173  0.3512771664668390
  0.1594072776926841  0.9788041254445925  0.8530430499461776
  0.6616502441000455  0.2705810320793891  0.4026025261706427
  0.6554356867501342  0.2712261397103259  0.8968456519269585
  0.6590692550736347  0.7710673951000790  0.3990300935101611
  0.6585508728698518  0.7704268124723044  0.8965014546884025
  0.8402898579465692  0.2281955450441258  0.1473579457017081
  0.8442038129187510  0.2283305917669769  0.6494771028455313
  0.8380295096987767  0.7290561608380294  0.1477269553975686
  0.8421082056850745  0.7290497327753758  0.6479190871228094
  0.3448510804585241  0.0151981332272094  0.1049614210953095
  0.3420335397734807  0.0213172115522724  0.6007338300763587
  0.3310170327584974  0.5328144317544444  0.0970973535969462
  0.3426316794881818  0.5218441796387786  0.5997353724917064
  0.5522864585758988  0.1212178286574467  0.1009886136142201
  0.5514595194851730  0.1236835131771910  0.6014980704846937
  0.5474505451231799  0.6251508423721690  0.0984673151882828
  0.5509930063244854  0.6250337107321814  0.6026067500562253
  0.0505558946887334  0.1263139908458865  0.1485359066063931
  0.0527627283899714  0.1255907408098722  0.6504663598167973
  0.0475826703538096  0.6285530872032969  0.1506675371860270
  0.0519137676683517  0.6270246577999842  0.6474742134542049
  0.4540039936794847  0.3745467087026342  0.4004264373716659
  0.4459199151729378  0.3747904141367608  0.8709112258575998
  0.4509147223529580  0.8750653329874419  0.3984515791462985
  0.4504375786423876  0.8742704178389951  0.8968126910791493
  0.9523131087111479  0.3748107428964060  0.3499891750366437
  0.9494460743001774  0.3755989939378608  0.8541598974179228
  0.9501827575430117  0.8752814512930940  0.3513069436728971
  0.9501998912476173  0.8755993035640287  0.8502284547012293
  0.5999126232187171  0.3742224179998110  0.1951925507489266
  0.6015142087869741  0.3744812818945158  0.6839657431502646
  0.5912284121594672  0.8738277695766097  0.1904074557719641
  0.5903541269712524  0.8746157340459644  0.6888069308584127
  0.0914451320323014  0.3793548924688482  0.0601058828785401
  0.0902090610566863  0.3764581451082057  0.5599865742688775
  0.0880132558274427  0.8758633688767432  0.0599543912283038
  0.0900583467110957  0.8766469946298472  0.5597849509981527
  0.4123002307045750  0.1247581574557984  0.3086859157962799
  0.4112954457744680  0.1231416637857592  0.8096742558736175
  0.4116959986531192  0.6252673260612620  0.3090366079908790
  0.4090790690281789  0.6246308160569994  0.8094188304822991
  0.9145828826826792  0.1264661576776653  0.4404900046689189
  0.9104933078485534  0.1249504146650624  0.9400588869378265
  0.9101910357984200  0.6248956361577316  0.4405344413559058
  0.9103520996799789  0.6262887929090556  0.9403337941521253
 
             NaN             NaN             NaN
             NaN             NaN             NaN
             NaN             NaN             NaN
             NaN             NaN             NaN
             NaN             NaN             NaN
             NaN             NaN             NaN
             NaN             NaN             NaN
             NaN             NaN             NaN
             NaN             NaN             NaN
             NaN             NaN             NaN
             NaN             NaN             NaN
             NaN             NaN             NaN
             NaN             NaN             NaN
             NaN             NaN             NaN
             NaN             NaN             NaN
             NaN             NaN             NaN
             NaN             NaN             NaN
             NaN             NaN             NaN
             NaN             NaN             NaN
             NaN             NaN             NaN
             NaN             NaN             NaN
             NaN             NaN             NaN
             NaN             NaN             NaN
             NaN             NaN             NaN
             NaN             NaN             NaN
             NaN             NaN             NaN
             NaN             NaN             NaN
             NaN             NaN             NaN
             NaN             NaN             NaN
             NaN             NaN             NaN
             NaN             NaN             NaN
             NaN             NaN             NaN
             NaN             NaN             NaN
             NaN             NaN             NaN
             NaN             NaN             NaN
             NaN             NaN             NaN
             NaN             NaN             NaN
             NaN             NaN             NaN
             NaN             NaN             NaN
             NaN             NaN             NaN
             NaN             NaN             NaN
             NaN             NaN             NaN
             NaN             NaN             NaN
             NaN             NaN             NaN
             NaN             NaN             NaN
             NaN             NaN             NaN
             NaN             NaN             NaN
             NaN             NaN             NaN
             NaN             NaN             NaN
             NaN             NaN             NaN
             NaN             NaN             NaN
             NaN             NaN             NaN
             NaN             NaN             NaN
             NaN             NaN             NaN
             NaN             NaN             NaN
             NaN             NaN             NaN
             NaN             NaN             NaN
             NaN             NaN             NaN
             NaN             NaN             NaN
             NaN             NaN             NaN
             NaN             NaN             NaN
             NaN             NaN             NaN
             NaN             NaN             NaN
             NaN             NaN             NaN
             NaN             NaN             NaN
             NaN             NaN             NaN
             NaN             NaN             NaN
             NaN             NaN             NaN
             NaN             NaN             NaN
             NaN             NaN             NaN
             NaN             NaN             NaN
             NaN             NaN             NaN
             NaN             NaN             NaN
             NaN             NaN             NaN
             NaN             NaN             NaN
             NaN             NaN             NaN
             NaN             NaN             NaN
             NaN             NaN             NaN
             NaN             NaN             NaN
             NaN             NaN             NaN
             NaN             NaN             NaN
             NaN             NaN             NaN
             NaN             NaN             NaN
             NaN             NaN             NaN
             NaN             NaN             NaN
             NaN             NaN             NaN
             NaN             NaN             NaN
             NaN             NaN             NaN
             NaN             NaN             NaN
             NaN             NaN             NaN
             NaN             NaN             NaN
             NaN             NaN             NaN
             NaN             NaN             NaN
             NaN             NaN             NaN
             NaN             NaN             NaN
             NaN             NaN             NaN
             NaN             NaN             NaN
             NaN             NaN             NaN
             NaN             NaN             NaN
             NaN             NaN             NaN
             NaN             NaN             NaN
             NaN             NaN             NaN
             NaN             NaN             NaN
             NaN             NaN             NaN
             NaN             NaN             NaN
             NaN             NaN             NaN
             NaN             NaN             NaN
             NaN             NaN             NaN
             NaN             NaN             NaN
             NaN             NaN             NaN
             NaN             NaN             NaN
             NaN             NaN             NaN
             NaN             NaN             NaN
             NaN             NaN             NaN
             NaN             NaN             NaN
             NaN             NaN             NaN
             NaN             NaN             NaN
             NaN             NaN             NaN
             NaN             NaN             NaN
             NaN             NaN             NaN
             NaN             NaN             NaN
             NaN             NaN             NaN
             NaN             NaN             NaN
             NaN             NaN             NaN
             NaN             NaN             NaN
             NaN             NaN             NaN
             NaN             NaN             NaN
