Na15 V32 O64                            
   1.00000000000000     
     9.2545420000000007    0.0005950000000000    0.0008650000000000
     0.0006470000000000   11.8410860000000007    0.0213450000000000
     0.0004630000000000    0.0201730000000000   10.7955620000000003
   Na   V    O 
    15    32    64
Direct
  0.7365857696927602  0.3387940446766539  0.1521213286318220
  0.7463401498676798  0.0663149175915798  0.1513520855819305
  0.7385737384455954  0.7987803135251316  0.1525166623373487
  0.2389218711016200  0.0662164708413734  0.3483529238620307
  0.2412702627139361  0.3168144501146600  0.3459633205624252
  0.2404746988920266  0.5678303689738952  0.3510242314785648
  0.2399250099077707  0.8175406463886272  0.3431970591116990
  0.2527242255475944  0.1908534559951217  0.8457050339325737
  0.2503622240177820  0.4408327498853433  0.8508313409660521
  0.2534969906819496  0.6894934883277490  0.8457647182031257
  0.2534947488924060  0.9402998069110758  0.8564307153561411
  0.7591019028672332  0.1899472171872805  0.6514477696144861
  0.7475151826887296  0.4418105145214982  0.6489490602886989
  0.7583541995114579  0.6894632204946630  0.6526678241960779
  0.7519148681650779  0.9408116813438221  0.6513625303315939
  0.5794916420407557  0.0658754561525470  0.9009186638525590
  0.5770172179845017  0.3127283009987492  0.8898462227539947
  0.5809794961635403  0.5672441689982602  0.9012365308314235
  0.5796550728514593  0.8142908612267001  0.8944562972443701
  0.0788259029269642  0.0667000152675984  0.6057643809672643
  0.0775383653690437  0.3187568330119585  0.5999568656784614
  0.0788258343457195  0.5656608062808224  0.6053447946920065
  0.0786843090979343  0.8165563404323980  0.6008377202403806
  0.4161425155954068  0.1941001175339561  0.1026778140337848
  0.4112391674446331  0.4406313043485807  0.1032295339092498
  0.4149653139223692  0.6884797273970852  0.1015120851036780
  0.4163041350290513  0.9404360406921874  0.1092412431051031
  0.9156509019807363  0.1915827838025589  0.3932415875032197
  0.9128531982062723  0.4449015167602307  0.3954627140327534
  0.9144120139031948  0.6932979938242714  0.3947848615107696
  0.9176028777482935  0.9435239553379609  0.3967357299264912
  0.5618738324854018  0.0675239053258317  0.3849286601664585
  0.5626498271847794  0.3111851547892847  0.3896532123381022
  0.5642260946745581  0.5676325451838159  0.3839428902010442
  0.5601298750130611  0.8125253244242180  0.3870089305335234
  0.0656362712828850  0.0645228105169574  0.1109900260261526
  0.0579389157481066  0.3153055766641960  0.1120893405606045
  0.0556922688446654  0.5646371626334139  0.1126141896984278
  0.0594363722549706  0.8147851729454803  0.1119718561431914
  0.4352007816880948  0.1826622241920378  0.6121568930637866
  0.4287407392043540  0.4389060675607040  0.6120450612459246
  0.4360341606009023  0.6921571548097294  0.6125667907781163
  0.4348119808323905  0.9394340784807517  0.6151826217164000
  0.9343302179064795  0.1921283820805424  0.8868397195496982
  0.9279456788778692  0.4390106119711999  0.8858266636411514
  0.9350679049843548  0.6913547340833252  0.8874676668682592
  0.9307397206577485  0.9384202247431286  0.8866875766509980
  0.7888016256941751  0.0671921593952686  0.8484375094960049
  0.7887087065124200  0.3065999651294260  0.8462276606808967
  0.7885558382118572  0.5676795735109049  0.8439126018527806
  0.7908673835968887  0.8071950485011433  0.8473968592778246
  0.2922208997154557  0.0705029072750893  0.6511438077208921
  0.2924278387507409  0.3125157974187106  0.6477418457406821
  0.2933045422905723  0.5646786917469332  0.6479945705716246
  0.2932898130839480  0.8059416136940974  0.6515679449282433
  0.2056401826632443  0.1957117423022195  0.1514332868853769
  0.2014388831311944  0.4337749739931046  0.1481898445437907
  0.2017379340886070  0.6970895001070626  0.1509284024722146
  0.2055023509356483  0.9355106455445182  0.1501573392259373
  0.7045899411071315  0.1812186991626119  0.3501985589871335
  0.7028603494588838  0.4384189435579505  0.3556652473004386
  0.7033825419670491  0.7013720312408064  0.3550914546645721
  0.7041200932468703  0.9419784623311469  0.3532056180127202
  0.8857761287054867  0.0623544824543719  0.5203786409474510
  0.8821314823203007  0.3225863759079687  0.5176766970411469
  0.8825816112701014  0.5642947637177191  0.5204227328847377
  0.8848307193633236  0.8230488176098342  0.5199913938345722
  0.3824703923678959  0.0709854809834347  0.9837830446185436
  0.3833460143984239  0.3112476242736470  0.9777572447347900
  0.3789257598746621  0.5693591978195580  0.9786533624429965
  0.3851724315836919  0.8100653673139310  0.9834804351804525
  0.1094729332871634  0.1986532808536562  0.4818977105243191
  0.1106192337268692  0.4390782227347403  0.4779012715314957
  0.1100259668258215  0.6987730057570333  0.4819377034796531
  0.1145927896330518  0.9391258991645340  0.4787592853430474
  0.6105424070605440  0.1885503044439788  0.0209686510419007
  0.6060655015897396  0.4455437301230408  0.0098970450581124
  0.6087595758805912  0.6864154075431725  0.0195789954544113
  0.6115628750409786  0.9468547911221499  0.0185300621087142
  0.9772294264460799  0.0591158847682171  0.2824645438377913
  0.9706040433978342  0.3193560379051896  0.2793446170005995
  0.9796256875388093  0.5598442494536097  0.2877856620950196
  0.9734942441174305  0.8213895654236893  0.2805819482339435
  0.4737735505127693  0.0706187024259434  0.2206555072529313
  0.4758513119108823  0.3099507577603620  0.2176050171986993
  0.4615338007427216  0.5725487593274300  0.2181311633835148
  0.4785688459164392  0.8118813723245187  0.2198794456274573
  0.0183969451372032  0.1932584556486802  0.7180317868421189
  0.0225156953536715  0.4305193988191350  0.7155055928798577
  0.0201590672500305  0.6923456901153018  0.7178801899696062
  0.0254813766333863  0.9308153191723741  0.7155608894019374
  0.5174207903033490  0.1792940515863803  0.7828062115525700
  0.5140832882330509  0.4401090086974023  0.7738882799563830
  0.5176080734955958  0.6810088483497062  0.7837607378058795
  0.5192782534046474  0.9421941188618468  0.7835911333944029
  0.5772662445112773  0.0679168622224267  0.5701137614945233
  0.5692238703153636  0.3076594298000837  0.5762198216000309
  0.5688113481839067  0.5703526083427398  0.5717062914004908
  0.5765807334745329  0.8109933800840819  0.5735708897861022
  0.0712691136210405  0.0695114600622709  0.9250873647167039
  0.0744604839779065  0.3105868329600291  0.9280225341759276
  0.0697222704458082  0.5697147992722327  0.9252707884380375
  0.0766390306630711  0.8112966496513744  0.9284156689135959
  0.4170097341675856  0.1831706980827436  0.4300377389568196
  0.4194515138637110  0.4391391206200719  0.4365920952702315
  0.4172987854937117  0.6970264304166157  0.4298298961790551
  0.4281327098250545  0.9396896796024120  0.4270960587153208
  0.9201620084729385  0.1938356806890542  0.0713355142533167
  0.9227151024901986  0.4344011254941203  0.0680225366130223
  0.9214163588840207  0.6951557980465214  0.0698229322234520
  0.9222994892502215  0.9350040692039301  0.0703403919165729
 
             NaN             NaN             NaN
             NaN             NaN             NaN
             NaN             NaN             NaN
             NaN             NaN             NaN
             NaN             NaN             NaN
             NaN             NaN             NaN
             NaN             NaN             NaN
             NaN             NaN             NaN
             NaN             NaN             NaN
             NaN             NaN             NaN
             NaN             NaN             NaN
             NaN             NaN             NaN
             NaN             NaN             NaN
             NaN             NaN             NaN
             NaN             NaN             NaN
             NaN             NaN             NaN
             NaN             NaN             NaN
             NaN             NaN             NaN
             NaN             NaN             NaN
             NaN             NaN             NaN
             NaN             NaN             NaN
             NaN             NaN             NaN
             NaN             NaN             NaN
             NaN             NaN             NaN
             NaN             NaN             NaN
             NaN             NaN             NaN
             NaN             NaN             NaN
             NaN             NaN             NaN
             NaN             NaN             NaN
             NaN             NaN             NaN
             NaN             NaN             NaN
             NaN             NaN             NaN
             NaN             NaN             NaN
             NaN             NaN             NaN
             NaN             NaN             NaN
             NaN             NaN             NaN
             NaN             NaN             NaN
             NaN             NaN             NaN
             NaN             NaN             NaN
             NaN             NaN             NaN
             NaN             NaN             NaN
             NaN             NaN             NaN
             NaN             NaN             NaN
             NaN             NaN             NaN
             NaN             NaN             NaN
             NaN             NaN             NaN
             NaN             NaN             NaN
             NaN             NaN             NaN
             NaN             NaN             NaN
             NaN             NaN             NaN
             NaN             NaN             NaN
             NaN             NaN             NaN
             NaN             NaN             NaN
             NaN             NaN             NaN
             NaN             NaN             NaN
             NaN             NaN             NaN
             NaN             NaN             NaN
             NaN             NaN             NaN
             NaN             NaN             NaN
             NaN             NaN             NaN
             NaN             NaN             NaN
             NaN             NaN             NaN
             NaN             NaN             NaN
             NaN             NaN             NaN
             NaN             NaN             NaN
             NaN             NaN             NaN
             NaN             NaN             NaN
             NaN             NaN             NaN
             NaN             NaN             NaN
             NaN             NaN             NaN
             NaN             NaN             NaN
             NaN             NaN             NaN
             NaN             NaN             NaN
             NaN             NaN             NaN
             NaN             NaN             NaN
             NaN             NaN             NaN
             NaN             NaN             NaN
             NaN             NaN             NaN
             NaN             NaN             NaN
             NaN             NaN             NaN
             NaN             NaN             NaN
             NaN             NaN             NaN
             NaN             NaN             NaN
             NaN             NaN             NaN
             NaN             NaN             NaN
             NaN             NaN             NaN
             NaN             NaN             NaN
             NaN             NaN             NaN
             NaN             NaN             NaN
             NaN             NaN             NaN
             NaN             NaN             NaN
             NaN             NaN             NaN
             NaN             NaN             NaN
             NaN             NaN             NaN
             NaN             NaN             NaN
             NaN             NaN             NaN
             NaN             NaN             NaN
             NaN             NaN             NaN
             NaN             NaN             NaN
             NaN             NaN             NaN
             NaN             NaN             NaN
             NaN             NaN             NaN
             NaN             NaN             NaN
             NaN             NaN             NaN
             NaN             NaN             NaN
             NaN             NaN             NaN
             NaN             NaN             NaN
             NaN             NaN             NaN
             NaN             NaN             NaN
             NaN             NaN             NaN
             NaN             NaN             NaN
