Mg7 Sc16 Se32
1.0
11.130021 -0.000005 -0.000010
-0.000005 11.130018 -0.000011
-0.000010 -0.000021 11.130166
Mg Sc Se
7 16 32
direct
0.530707 0.530708 0.530706 Mg
0.623595 0.126407 0.126405 Mg
0.126407 0.623594 0.126405 Mg
0.126407 0.126407 0.623596 Mg
0.375863 0.874138 0.874138 Mg
0.874138 0.375863 0.874139 Mg
0.874139 0.874139 0.375862 Mg
0.997615 0.749943 0.749946 Sc
0.749944 0.997614 0.749943 Sc
0.749945 0.749942 0.997613 Sc
0.999983 0.999981 0.999978 Sc
0.003943 0.250142 0.250139 Sc
0.250144 0.003940 0.250140 Sc
0.250145 0.250140 0.003942 Sc
0.745985 0.499936 0.252508 Sc
0.745983 0.252509 0.499936 Sc
0.001575 0.499933 0.499935 Sc
0.252511 0.499935 0.745982 Sc
0.252511 0.745984 0.499936 Sc
0.499938 0.745983 0.252507 Sc
0.499936 0.001575 0.499936 Sc
0.499936 0.252509 0.745982 Sc
0.499937 0.499934 0.001575 Sc
0.756983 0.993363 0.993364 Se
0.993361 0.756985 0.993365 Se
0.993361 0.993363 0.756982 Se
0.756155 0.756157 0.756157 Se
0.242706 0.006665 0.006660 Se
0.006663 0.242708 0.006661 Se
0.006662 0.006663 0.242708 Se
0.244095 0.244094 0.244091 Se
0.758009 0.493748 0.493745 Se
0.991511 0.256733 0.492921 Se
0.991511 0.492918 0.256731 Se
0.758836 0.256733 0.256733 Se
0.242970 0.505969 0.505970 Se
0.007790 0.743275 0.507352 Se
0.007791 0.507351 0.743276 Se
0.241580 0.743271 0.743282 Se
0.256731 0.991512 0.492919 Se
0.493747 0.758009 0.493746 Se
0.492917 0.991512 0.256731 Se
0.256732 0.758837 0.256733 Se
0.743273 0.007792 0.507351 Se
0.505967 0.242968 0.505973 Se
0.507350 0.007791 0.743275 Se
0.743269 0.241581 0.743282 Se
0.256732 0.492918 0.991511 Se
0.492917 0.256733 0.991513 Se
0.493746 0.493747 0.758011 Se
0.256732 0.256733 0.758838 Se
0.743271 0.507353 0.007788 Se
0.507351 0.743273 0.007790 Se
0.505969 0.505968 0.242963 Se
0.743275 0.743275 0.241581 Se
