Mg7 Mn16 O32                            
   1.00000000000000     
     8.1739200000000007    0.0000200000000000   -0.0001850000000000
     0.0000290000000000    9.3578299999999999   -0.0000120000000000
    -0.0001740000000000   -0.0000550000000000    8.1741109999999999
   Mg   Mn   O 
     7    16    32
Direct
  0.5499668054903022  0.6883616583198604  0.2000040812423781
  0.3777608788507453  0.3769123924139489  0.8790399998869145
  0.8710091926260790  0.3769230442022916  0.3721819393051988
  0.8748595255136371  0.8749345270981073  0.8751270086612287
  0.6220548079113868  0.1235750076711846  0.6200236173915049
  0.1292442691421253  0.6234384922409471  0.6207646736033119
  0.1299897570404762  0.1235330006578534  0.1279480758556518
  0.9969387635134188  0.2516371364360857  0.7530569335983307
  0.0052130407165496  0.7500054063149468  0.2507724913705394
  0.4999377053616786  0.2468627463681087  0.2500929649907382
  0.4991858627127806  0.7499315690084433  0.7448403449063229
  0.2511476890215815  0.0045140435580401  0.7473015660306079
  0.2452882090538397  0.4956740613527009  0.2479001276164609
  0.7505080789009079  0.0014532667296723  0.2482692317687747
  0.7506552963348484  0.5006389009689544  0.7546965845154298
  0.2446048735893430  0.2544610433325572  0.5053944480567714
  0.2475778517171192  0.7498028009243329 -0.0043408167357901
  0.7495718480663267  0.2526211402168982  1.0004488748655402
  0.7543654856753887  0.7497475677992760  0.5024764373740545
  0.0026010928826517  0.0045390533986729  0.4988285869604718
  0.9953360497227060  0.5006966046932890  0.9993422039331230
  0.5017197439894914  0.0015284429231648 -0.0005867752471698
  0.5021322638494565  0.4956069436477657  0.5047666216000596
  0.2355914215070170  0.0476299671859928  0.5143758269733748
  0.2342061806937285  0.4971510788989456  0.0123165219388081
  0.7395907897954738  0.0031056105291341  0.0103965565996167
  0.7376275899674302  0.4970669306582143  0.5158146513224585
  0.0105050143159523  0.2556826823486499  0.5149665735864613
  0.0129250986328820  0.7498248654678653  0.0143706495769953
  0.5113939925985764  0.2475113321736756  0.0135497721739324
  0.5193014527729870  0.7103935904545475  0.5060521524313513
  0.0144788524023640  0.0012088622599893  0.7354861381663298
  0.0125590531363016  0.4998741227441089  0.2384775224328414
  0.5184302954990692  0.0129032791043459  0.2315144500494509
  0.5115405589856881  0.4998089003530312  0.7374711704953263
  0.2350292102611473  0.2556879806056373  0.7394824048873685
  0.2439857424016023  0.7107846032672118  0.2306220714672828
  0.7364731270661824  0.2474913381672893  0.2386348031667573
  0.7356069659856058  0.7498017094768133  0.7370767076995138
  0.7647414592457301  0.9966352578750232  0.4880609763396004
  0.7645246387391185  0.4912433788641058  0.9854856819946523
  0.2619290667813198  0.9966892939570157  0.9851393587216508
  0.2587012012744239  0.4769419439205013  0.4913762296980860
  0.9937123370361426  0.7542818435183329  0.4868286683586496
  0.9876300722944411  0.2489067550986314  0.9887718417084430
  0.4824651429481573  0.7590484375972734  0.9848676764008196
  0.4857069723704829  0.2672473761878423  0.4907267113970483
  0.9914018199693135  0.9969518881398860  0.2633710130122554
  0.9880638656982021  0.5012314245085395  0.7619119934091709
  0.4866125886186305  0.9969499002377488  0.7585208722579589
  0.4813727296284790  0.4947290325767436  0.2687019375369035
  0.7650920537585538  0.7590368479556481  0.2676137220071770
  0.7612265677801231  0.2488982746679330  0.7623701894381958
  0.2631637802943180  0.7542754217246880  0.7562989297474187
  0.2593795067464837  0.2669774385520292  0.2643756441151155
 
             NaN             NaN             NaN
             NaN             NaN             NaN
             NaN             NaN             NaN
             NaN             NaN             NaN
             NaN             NaN             NaN
             NaN             NaN             NaN
             NaN             NaN             NaN
             NaN             NaN             NaN
             NaN             NaN             NaN
             NaN             NaN             NaN
             NaN             NaN             NaN
             NaN             NaN             NaN
             NaN             NaN             NaN
             NaN             NaN             NaN
             NaN             NaN             NaN
             NaN             NaN             NaN
             NaN             NaN             NaN
             NaN             NaN             NaN
             NaN             NaN             NaN
             NaN             NaN             NaN
             NaN             NaN             NaN
             NaN             NaN             NaN
             NaN             NaN             NaN
             NaN             NaN             NaN
             NaN             NaN             NaN
             NaN             NaN             NaN
             NaN             NaN             NaN
             NaN             NaN             NaN
             NaN             NaN             NaN
             NaN             NaN             NaN
             NaN             NaN             NaN
             NaN             NaN             NaN
             NaN             NaN             NaN
             NaN             NaN             NaN
             NaN             NaN             NaN
             NaN             NaN             NaN
             NaN             NaN             NaN
             NaN             NaN             NaN
             NaN             NaN             NaN
             NaN             NaN             NaN
             NaN             NaN             NaN
             NaN             NaN             NaN
             NaN             NaN             NaN
             NaN             NaN             NaN
             NaN             NaN             NaN
             NaN             NaN             NaN
             NaN             NaN             NaN
             NaN             NaN             NaN
             NaN             NaN             NaN
             NaN             NaN             NaN
             NaN             NaN             NaN
             NaN             NaN             NaN
             NaN             NaN             NaN
             NaN             NaN             NaN
             NaN             NaN             NaN
