Mg7 Mn16 O32
1.0
8.173920 0.000020 -0.000185
0.000029 9.357830 -0.000012
-0.000174 -0.000055 8.174111
Mg Mn O
7 16 32
direct
0.560243 0.688614 0.189758 Mg
0.376157 0.375478 0.876163 Mg
0.873845 0.375474 0.373827 Mg
0.873876 0.874433 0.876123 Mg
0.621526 0.123393 0.621532 Mg
0.128374 0.626679 0.621620 Mg
0.128475 0.123377 0.128475 Mg
-0.000601 0.249538 0.750603 Mn
1.001016 0.749689 0.250197 Mn
0.501187 0.249836 0.248805 Mn
0.499791 0.749662 0.748990 Mn
0.249997 1.000314 0.748183 Mn
0.248750 0.500171 0.248145 Mn
0.749063 1.000441 0.250890 Mn
0.750788 0.500457 0.751379 Mn
0.247894 0.250013 0.502100 Mn
0.250829 0.749686 0.001644 Mn
0.751519 0.249364 0.998482 Mn
0.748356 0.749669 0.499163 Mn
0.001808 1.000320 0.500003 Mn
0.998634 0.500469 -0.000770 Mn
0.499111 1.000440 1.000924 Mn
0.501879 0.500121 0.501274 Mn
0.235079 1.027228 0.514924 O
0.236587 0.499054 0.012189 O
0.737089 0.004774 0.012913 O
0.737815 0.499042 0.513417 O
0.011887 0.252047 0.513505 O
0.012848 0.748142 0.013012 O
0.513665 0.247791 0.012060 O
0.515097 0.721365 0.514940 O
0.012744 1.000657 0.737251 O
0.011988 0.499048 0.236379 O
0.515063 0.031378 0.234929 O
0.513638 0.499033 0.738016 O
0.236506 0.252056 0.738088 O
0.235048 0.721550 0.234877 O
0.737928 0.247791 0.236336 O
0.736972 0.748158 0.737131 O
0.762460 -0.002320 0.487386 O
0.762977 0.491765 0.987023 O
0.262618 -0.002309 0.987511 O
0.262724 0.488191 0.487300 O
0.987619 0.753190 0.487094 O
0.988068 0.248553 0.987504 O
0.486435 0.762149 0.986954 O
0.487023 0.261211 0.487568 O
0.987996 -0.002301 0.263112 O
0.987750 0.500573 0.762253 O
0.486900 -0.002312 0.761985 O
0.486584 0.479350 0.263439 O
0.763028 0.762157 0.263582 O
0.762491 0.248558 0.761939 O
0.262912 0.753176 0.762369 O
0.262459 0.261112 0.263008 O
