Mg7 Sc16 Se32                           
   1.00000000000000     
    11.1308959999999999   -0.0000010000000000   -0.0000040000000000
    -0.0000010000000000   11.1308889999999998    0.0000020000000000
    -0.0000040000000000   -0.0000310000000000   11.1310269999999996
   Mg   Sc   Se
     7    16    32
Direct
  0.5925780381717473  0.5925783665092785  0.5925800093885721
  0.6229252889101388  0.1268779142588058  0.1268768384126298
  0.1268788223916537  0.6229253775039760  0.1268765324483992
  0.1268787385725979  0.1268792064841111  0.6229278903718702
  0.3741884781032280  0.8736409303533799  0.8736409878040180
  0.8736413284110575  0.3741884510538441  0.8736403558819131
  0.8736412847148453  0.8736400813645346  0.3741879359800413
  0.9943671107450081  0.7497483979858816  0.7497519520935015
  0.7497498832148254  0.9943690765091254  0.7497526852905491
  0.7497560774932385  0.7497541089076910  0.9943662327532328
  0.9999876571097549  0.9999847451736544  0.9999845126417715
  0.0061773769599494  0.2501264373708889  0.2501242719117598
  0.2501279570850720  0.0061743062936895  0.2501258103540429
  0.2501283049601842  0.2501254504375279  0.0061759537101997
  0.7446984427542320  0.4995695050428182  0.2491921051221951
  0.7446986844654988  0.2491926409621854  0.4995701572281362
  0.0094709323029472  0.4992765420850103  0.4992810479464082
  0.2491977515549032  0.4995691026220664  0.7446924537434401
  0.2491992245687524  0.7446987244339243  0.4995677579916386
  0.4995695398275157  0.7446948514662887  0.2491917256060810
  0.4992820415566326  0.0094723539103772  0.4992826661353876
  0.4995721714315199  0.2491908383629627  0.7446912763747072
  0.4992814310386819  0.4992792968604990  0.0094766887757552
  0.7565098240153861  0.9928126057492689  0.9928157947311214
  0.9928096893626086  0.7565133964708802  0.9928193064147179
  0.9928091565178901  0.9928137713823143  0.7565089511380633
  0.7516306711839739  0.7516297425927617  0.7516338266104104
  0.2425079388622085  0.0064879467316469  0.0064831370415703
  0.0064846268607843  0.2425122342847393  0.0064869169377794
  0.0064856016499498  0.0064873603319045  0.2425155784938510
  0.2442235730039594  0.2442235759770042  0.2442143802438958
  0.7634937829920937  0.4912666104615115  0.4912681715767656
  0.9910168224858013  0.2566540898078711  0.4930946197078800
  0.9910174166489961  0.4930906530715190  0.2566516674247404
  0.7598580868142640  0.2561269357494815  0.2561256241025702
  0.2471155662180083  0.5059942098931901  0.5060027878533964
  0.0062581563116744  0.7426461164839120  0.5068670068252306
  0.0062640432332976  0.5068702445389033  0.7426481696112071
  0.2395144673914320  0.7430193911627287  0.7430266287350555
  0.2566495455938691  0.9910168450132260  0.4930931411196124
  0.4912628717973619  0.7634937657504958  0.4912684544128794
  0.4930879955710321  0.9910173972530649  0.2566520305617767
  0.2561246952543914  0.7598581330130285  0.2561276105435626
  0.7426443999243506  0.0062611715622371  0.5068649355837327
  0.5059984963698518  0.2471140245773554  0.5060033990218062
  0.5068670335866338  0.0062647900722628  0.7426486585991390
  0.7430177596629995  0.2395141747089106  0.7430260768020929
  0.2566547895214647  0.4930913696572907  0.9910159942017909
  0.4930890820277470  0.2566557505713429  0.9910186374809128
  0.4912701802870104  0.4912694533770207  0.7634950895590471
  0.2561286627527460  0.2561282381565460  0.7598594630002615
  0.7426432313128957  0.5068712235561037  0.0062555316778032
  0.5068678565290173  0.7426454171129252  0.0062589822971962
  0.5059992766525402  0.5059956717202918  0.2471025755079158
  0.7430217721435649  0.7430221392145209  0.2395174639282241
 
             NaN             NaN             NaN
             NaN             NaN             NaN
             NaN             NaN             NaN
             NaN             NaN             NaN
             NaN             NaN             NaN
             NaN             NaN             NaN
             NaN             NaN             NaN
             NaN             NaN             NaN
             NaN             NaN             NaN
             NaN             NaN             NaN
             NaN             NaN             NaN
             NaN             NaN             NaN
             NaN             NaN             NaN
             NaN             NaN             NaN
             NaN             NaN             NaN
             NaN             NaN             NaN
             NaN             NaN             NaN
             NaN             NaN             NaN
             NaN             NaN             NaN
             NaN             NaN             NaN
             NaN             NaN             NaN
             NaN             NaN             NaN
             NaN             NaN             NaN
             NaN             NaN             NaN
             NaN             NaN             NaN
             NaN             NaN             NaN
             NaN             NaN             NaN
             NaN             NaN             NaN
             NaN             NaN             NaN
             NaN             NaN             NaN
             NaN             NaN             NaN
             NaN             NaN             NaN
             NaN             NaN             NaN
             NaN             NaN             NaN
             NaN             NaN             NaN
             NaN             NaN             NaN
             NaN             NaN             NaN
             NaN             NaN             NaN
             NaN             NaN             NaN
             NaN             NaN             NaN
             NaN             NaN             NaN
             NaN             NaN             NaN
             NaN             NaN             NaN
             NaN             NaN             NaN
             NaN             NaN             NaN
             NaN             NaN             NaN
             NaN             NaN             NaN
             NaN             NaN             NaN
             NaN             NaN             NaN
             NaN             NaN             NaN
             NaN             NaN             NaN
             NaN             NaN             NaN
             NaN             NaN             NaN
             NaN             NaN             NaN
             NaN             NaN             NaN
