Na15 V32 O64                            
   1.00000000000000     
     9.1042059999999996    0.0011030000000000   -0.0024870000000000
     0.0022580000000000   11.4414040000000004   -0.0000160000000000
     0.0000610000000000    0.0008340000000000   10.6062539999999998
   Na   V    O 
    15    32    64
Direct
  0.7383252697815763  0.4367599620053966  0.1705302207988737
  0.7425205058448867  0.0755386819467674  0.1521284874363147
  0.7425091289924026  0.7998896551615857  0.1527193976892463
  0.2428863679521172  0.0622533907507261  0.3470070518449759
  0.2419395820099268  0.3134207083350375  0.3462054274227810
  0.2433706586267874  0.5614214076527873  0.3473103151998060
  0.2421077380252683  0.8125463877901709  0.3463984612683078
  0.2580405749760999  0.1874223148871437  0.8494342525134613
  0.2596432285355377  0.4377237278306012  0.8487693333400799
  0.2579032492981241  0.6883421371403458  0.8502396099144391
  0.2580808302382565  0.9375728256637217  0.8483856650665942
  0.7582001481549199  0.1865670616340083  0.6497689339460777
  0.7563548829987354  0.4374953663050363  0.6506449999943200
  0.7583072059266769  0.6871210530659511  0.6499483863511486
  0.7567713724883944  0.9376608467597336  0.6488471232043622
  0.5845790500055870  0.0611386979768440  0.8957530487805201
  0.5891316138780454  0.3110831076109903  0.8970610765269313
  0.5885790437076679  0.5652279489444396  0.8966681899938607
  0.5849767160618313  0.8137123744128374  0.8967039445398441
  0.0866262010350027  0.0615495811409872  0.6017456052914696
  0.0867014821977961  0.3107206225002273  0.6030601838468073
  0.0890717276465836  0.5643366757472776  0.6042107003985464
  0.0840181635623196  0.8124080717539783  0.6011344833400756
  0.4161952197916534  0.1890866741531596  0.1041767961281934
  0.4095262489993772  0.4384698825251476  0.1037931492689737
  0.4155773794547599  0.6857952272797547  0.1052187180882527
  0.4178802447933236  0.9383573663636398  0.1046751406198894
  0.9145777139590621  0.1865852363814682  0.3944066099397077
  0.9166386416845427  0.4375362958894158  0.4012867615338465
  0.9147970305971143  0.6866150761596970  0.3943851974000694
  0.9110282590068692  0.9379324608713944  0.3936579215509042
  0.5607832710219682  0.0656292030507970  0.3878211557243390
  0.5617710567286949  0.3106694625560706  0.3867421454321374
  0.5627162740725069  0.5646201496999552  0.3879255139240954
  0.5611334700508408  0.8101971298847346  0.3869512500796048
  0.0626901927442916  0.0586634846172700  0.1121234035145093
  0.0575577558232396  0.3083098693193236  0.1129892478604830
  0.0577778752801024  0.5658434004990553  0.1136554870750501
  0.0616749817610938  0.8164921508959608  0.1127878224060197
  0.4376251447137065  0.1892052973700586  0.6168522679769453
  0.4386424918636322  0.4351461440562829  0.6167941844830125
  0.4374236201620647  0.6893250437771670  0.6166489579183505
  0.4364167155652439  0.9351753377273582  0.6134610346144527
  0.9384985968590982  0.1865390599488990  0.8824166280839947
  0.9421596574026907  0.4376439020926455  0.8816080253266207
  0.9382810857956798  0.6888090719865758  0.8832680026317945
  0.9364596429274457  0.9378910256822763  0.8826958886235587
  0.7907804887506273  0.0626779368674590  0.8484377615138072
  0.7949180194681347  0.3134924696939407  0.8486229375947261
  0.7944858514917996  0.5620178809409211  0.8487959956389020
  0.7908666563032298  0.8122355458086403  0.8492236712836814
  0.2929563503061132  0.0622589560626707  0.6481006297496918
  0.2919884596425817  0.3110644341432476  0.6515756375905042
  0.2944956987590288  0.5629954795850409  0.6497088651616991
  0.2899564077898447  0.8120276874549717  0.6495909736537868
  0.2065510982223913  0.1905156112221533  0.1484520318228277
  0.2053271923895892  0.4379918495908655  0.1480826487439160
  0.2065635377462769  0.6848044380901754  0.1489824868344343
  0.2089349362384851  0.9373301360442667  0.1503386335636563
  0.7077856729439702  0.1859323099145129  0.3569095624532395
  0.7055923155588175  0.4373280015507532  0.3696401527065589
  0.7081376462168620  0.6893101560310839  0.3568876545497943
  0.7052714314363797  0.9377675093815014  0.3542388910659326
  0.8873275790364943  0.0623394975354259  0.5193799176887026
  0.8891321431912971  0.3119962021149263  0.5215636259626919
  0.8897486179498770  0.5624482934352102  0.5220864475730593
  0.8869599248428841  0.8121739439536597  0.5185793729837016
  0.3866154365396710  0.0624148672980809  0.9808892196085353
  0.3858192351347114  0.3122953868963307  0.9805184352007430
  0.3854697372947555  0.5634602477495605  0.9799372325185871
  0.3869881905926889  0.8133014110816035  0.9817811170506161
  0.1140805816327486  0.1866933372593707  0.4777621313899658
  0.1158824601064623  0.4374219409711912  0.4808325135435751
  0.1142628829695198  0.6875735524363762  0.4775780635328175
  0.1126359701176298  0.9373031630173472  0.4770421836877929
  0.6116180355260497  0.1874425763138916  0.0172714160579375
  0.6058482059969208  0.4382016420430190  0.0120541223787640
  0.6114613641335822  0.6877660856031866  0.0182556447885176
  0.6147261476600718  0.9378105273896367  0.0210883626760818
  0.9785586198235450  0.0624424007282727  0.2800040043753498
  0.9759463739634313  0.3146031377770129  0.2843292468771068
  0.9756635386641008  0.5600298572289972  0.2838234199767626
  0.9782870814522582  0.8121699880647952  0.2808108258854460
  0.4795056088226204  0.0642146343975440  0.2185831779527518
  0.4803872517442187  0.3145740524390064  0.2177257773261871
  0.4798364537875841  0.5604958446047590  0.2194782973831906
  0.4804901589714348  0.8115569136226526  0.2176694770701815
  0.0215971701005699  0.1863021648458201  0.7157029483348722
  0.0238952923326465  0.4376170563294508  0.7148927763380897
  0.0210861943054752  0.6880460858328092  0.7161151760668929
  0.0192612493120095  0.9374685989250224  0.7146215309653456
  0.5193794206720028  0.1881881134135526  0.7840286481323986
  0.5219547049832514  0.4369264532464001  0.7819353216661398
  0.5193059374625193  0.6877526104197216  0.7839479283129833
  0.5173134476063836  0.9367813929339164  0.7825220892736553
  0.5759570596112980  0.0628776049315860  0.5734223280251953
  0.5802246692046964  0.3098758454635089  0.5725409787002604
  0.5768215125354175  0.5643739456352392  0.5733704101827257
  0.5799482972567347  0.8117800167058107  0.5725338622814604
  0.0793806439517439  0.0613880651731762  0.9265016368110821
  0.0793764061719955  0.3114131248249237  0.9250810410836081
  0.0792088203483914  0.5636891876695671  0.9253107581298181
  0.0790460153403885  0.8139288438302330  0.9267440659846713
  0.4183140175470612  0.1883369783862534  0.4303006876946824
  0.4226887772735779  0.4366727225130305  0.4311869202407479
  0.4188387921354249  0.6886142102836530  0.4303599323939977
  0.4221730192973112  0.9368396728193247  0.4284672572014259
  0.9247651569292898  0.1872331874577071  0.0679621999971474
  0.9332012859445840  0.4374955545813037  0.0663814890415537
  0.9252128714979904  0.6878993081845550  0.0685370156404659
  0.9179605125016437  0.9375310755489039  0.0686001328178421
 
  0.00000000E+00  0.00000000E+00  0.00000000E+00
  0.00000000E+00  0.00000000E+00  0.00000000E+00
  0.00000000E+00  0.00000000E+00  0.00000000E+00
  0.00000000E+00  0.00000000E+00  0.00000000E+00
  0.00000000E+00  0.00000000E+00  0.00000000E+00
  0.00000000E+00  0.00000000E+00  0.00000000E+00
  0.00000000E+00  0.00000000E+00  0.00000000E+00
  0.00000000E+00  0.00000000E+00  0.00000000E+00
  0.00000000E+00  0.00000000E+00  0.00000000E+00
  0.00000000E+00  0.00000000E+00  0.00000000E+00
  0.00000000E+00  0.00000000E+00  0.00000000E+00
  0.00000000E+00  0.00000000E+00  0.00000000E+00
  0.00000000E+00  0.00000000E+00  0.00000000E+00
  0.00000000E+00  0.00000000E+00  0.00000000E+00
  0.00000000E+00  0.00000000E+00  0.00000000E+00
  0.00000000E+00  0.00000000E+00  0.00000000E+00
  0.00000000E+00  0.00000000E+00  0.00000000E+00
  0.00000000E+00  0.00000000E+00  0.00000000E+00
  0.00000000E+00  0.00000000E+00  0.00000000E+00
  0.00000000E+00  0.00000000E+00  0.00000000E+00
  0.00000000E+00  0.00000000E+00  0.00000000E+00
  0.00000000E+00  0.00000000E+00  0.00000000E+00
  0.00000000E+00  0.00000000E+00  0.00000000E+00
  0.00000000E+00  0.00000000E+00  0.00000000E+00
  0.00000000E+00  0.00000000E+00  0.00000000E+00
  0.00000000E+00  0.00000000E+00  0.00000000E+00
  0.00000000E+00  0.00000000E+00  0.00000000E+00
  0.00000000E+00  0.00000000E+00  0.00000000E+00
  0.00000000E+00  0.00000000E+00  0.00000000E+00
  0.00000000E+00  0.00000000E+00  0.00000000E+00
  0.00000000E+00  0.00000000E+00  0.00000000E+00
  0.00000000E+00  0.00000000E+00  0.00000000E+00
  0.00000000E+00  0.00000000E+00  0.00000000E+00
  0.00000000E+00  0.00000000E+00  0.00000000E+00
  0.00000000E+00  0.00000000E+00  0.00000000E+00
  0.00000000E+00  0.00000000E+00  0.00000000E+00
  0.00000000E+00  0.00000000E+00  0.00000000E+00
  0.00000000E+00  0.00000000E+00  0.00000000E+00
  0.00000000E+00  0.00000000E+00  0.00000000E+00
  0.00000000E+00  0.00000000E+00  0.00000000E+00
  0.00000000E+00  0.00000000E+00  0.00000000E+00
  0.00000000E+00  0.00000000E+00  0.00000000E+00
  0.00000000E+00  0.00000000E+00  0.00000000E+00
  0.00000000E+00  0.00000000E+00  0.00000000E+00
  0.00000000E+00  0.00000000E+00  0.00000000E+00
  0.00000000E+00  0.00000000E+00  0.00000000E+00
  0.00000000E+00  0.00000000E+00  0.00000000E+00
  0.00000000E+00  0.00000000E+00  0.00000000E+00
  0.00000000E+00  0.00000000E+00  0.00000000E+00
  0.00000000E+00  0.00000000E+00  0.00000000E+00
  0.00000000E+00  0.00000000E+00  0.00000000E+00
  0.00000000E+00  0.00000000E+00  0.00000000E+00
  0.00000000E+00  0.00000000E+00  0.00000000E+00
  0.00000000E+00  0.00000000E+00  0.00000000E+00
  0.00000000E+00  0.00000000E+00  0.00000000E+00
  0.00000000E+00  0.00000000E+00  0.00000000E+00
  0.00000000E+00  0.00000000E+00  0.00000000E+00
  0.00000000E+00  0.00000000E+00  0.00000000E+00
  0.00000000E+00  0.00000000E+00  0.00000000E+00
  0.00000000E+00  0.00000000E+00  0.00000000E+00
  0.00000000E+00  0.00000000E+00  0.00000000E+00
  0.00000000E+00  0.00000000E+00  0.00000000E+00
  0.00000000E+00  0.00000000E+00  0.00000000E+00
  0.00000000E+00  0.00000000E+00  0.00000000E+00
  0.00000000E+00  0.00000000E+00  0.00000000E+00
  0.00000000E+00  0.00000000E+00  0.00000000E+00
  0.00000000E+00  0.00000000E+00  0.00000000E+00
  0.00000000E+00  0.00000000E+00  0.00000000E+00
  0.00000000E+00  0.00000000E+00  0.00000000E+00
  0.00000000E+00  0.00000000E+00  0.00000000E+00
  0.00000000E+00  0.00000000E+00  0.00000000E+00
  0.00000000E+00  0.00000000E+00  0.00000000E+00
  0.00000000E+00  0.00000000E+00  0.00000000E+00
  0.00000000E+00  0.00000000E+00  0.00000000E+00
  0.00000000E+00  0.00000000E+00  0.00000000E+00
  0.00000000E+00  0.00000000E+00  0.00000000E+00
  0.00000000E+00  0.00000000E+00  0.00000000E+00
  0.00000000E+00  0.00000000E+00  0.00000000E+00
  0.00000000E+00  0.00000000E+00  0.00000000E+00
  0.00000000E+00  0.00000000E+00  0.00000000E+00
  0.00000000E+00  0.00000000E+00  0.00000000E+00
  0.00000000E+00  0.00000000E+00  0.00000000E+00
  0.00000000E+00  0.00000000E+00  0.00000000E+00
  0.00000000E+00  0.00000000E+00  0.00000000E+00
  0.00000000E+00  0.00000000E+00  0.00000000E+00
  0.00000000E+00  0.00000000E+00  0.00000000E+00
  0.00000000E+00  0.00000000E+00  0.00000000E+00
  0.00000000E+00  0.00000000E+00  0.00000000E+00
  0.00000000E+00  0.00000000E+00  0.00000000E+00
  0.00000000E+00  0.00000000E+00  0.00000000E+00
  0.00000000E+00  0.00000000E+00  0.00000000E+00
  0.00000000E+00  0.00000000E+00  0.00000000E+00
  0.00000000E+00  0.00000000E+00  0.00000000E+00
  0.00000000E+00  0.00000000E+00  0.00000000E+00
  0.00000000E+00  0.00000000E+00  0.00000000E+00
  0.00000000E+00  0.00000000E+00  0.00000000E+00
  0.00000000E+00  0.00000000E+00  0.00000000E+00
  0.00000000E+00  0.00000000E+00  0.00000000E+00
  0.00000000E+00  0.00000000E+00  0.00000000E+00
  0.00000000E+00  0.00000000E+00  0.00000000E+00
  0.00000000E+00  0.00000000E+00  0.00000000E+00
  0.00000000E+00  0.00000000E+00  0.00000000E+00
  0.00000000E+00  0.00000000E+00  0.00000000E+00
  0.00000000E+00  0.00000000E+00  0.00000000E+00
  0.00000000E+00  0.00000000E+00  0.00000000E+00
  0.00000000E+00  0.00000000E+00  0.00000000E+00
  0.00000000E+00  0.00000000E+00  0.00000000E+00
  0.00000000E+00  0.00000000E+00  0.00000000E+00
  0.00000000E+00  0.00000000E+00  0.00000000E+00
  0.00000000E+00  0.00000000E+00  0.00000000E+00
  0.00000000E+00  0.00000000E+00  0.00000000E+00
