Mg7 Sc16 Se32                           
   1.00000000000000     
    11.2090859999999992    0.0000000000000000    0.0000010000000000
     0.0000000000000000   11.2090879999999995    0.0000000000000000
     0.0000010000000000    0.0000000000000000   11.2090870000000002
   Mg   Sc   Se
     7    16    32
Direct
  0.4024474297627176  0.4024475586689573  0.4024474077576958
  0.6263817141002107  0.1266782134639423  0.1266783630661250
  0.1266781073566818  0.6263816450083981  0.1266781072214908
  0.1266782202993546  0.1266782891022025  0.6263816263335635
  0.3762898296363326  0.8732729286748382  0.8732729491880012
  0.8732729680900082  0.3762898938480063  0.8732730493899188
  0.8732728764595790  0.8732728646847202  0.3762898562138769
  0.9935801887049891  0.7504737371878984  0.7504735901260852
  0.7504737462367351  0.9935803738281495  0.7504737467108040
  0.7504736239077688  0.7504737913576707  0.9935802702385760
  0.0009162626453646  0.0009159948540753  0.0009159523039754
  0.0063319898424711  0.2514896611483896  0.2514896975157765
  0.2514894896016261  0.0063318558946662  0.2514898567644570
  0.2514897015826334  0.2514897166215259  0.0063317157193915
  0.7507982783098535  0.5003382102526140  0.2545608626159170
  0.7507982754416570  0.2545610064998893  0.5003383511349175
  0.9890851406199411  0.5011302828802341  0.5011302211605958
  0.2545610121418997  0.5003383204999160  0.7507983324921879
  0.2545609751107195  0.7507983036326905  0.5003382896711566
  0.5003381153451435  0.7507983999337650  0.2545608442026083
  0.5011303773366280  0.9890850812100499  0.5011302396163989
  0.5003382817693895  0.2545608927126654  0.7507982723075667
  0.5011302911030366  0.5011301855937360  0.9890850673380485
  0.7587184770807677  0.9936527071265533  0.9936526750092953
  0.9936525671353763  0.7587183646669030  0.9936525653726036
  0.9936527207903775  0.9936526559939031  0.7587183675109720
  0.7564428120941353  0.7564431440687859  0.7564429566781508
  0.2439699879238725  0.0085516500018801  0.0085517386496999
  0.0085515481483488  0.2439698268654580  0.0085516253300764
  0.0085513737164175  0.0085515782662929  0.2439698485388214
  0.2488033360348406  0.2488033552169220  0.2488032922032546
  0.7523187022301302  0.4925902730889049  0.4925901941513136
  0.9932136366987363  0.2581760241710089  0.4936925855421688
  0.9932135476189290  0.4936925539541375  0.2581760054466704
  0.7619125869024804  0.2572055173999456  0.2572056194667747
  0.2353442829288262  0.5088267406075502  0.5088268059110863
  0.0087035862117423  0.7433329465755004  0.5077308001541075
  0.0087035778482923  0.5077308159032998  0.7433329775078856
  0.2393534847680467  0.7433677506172706  0.7433677904972059
  0.2581760406891624  0.9932135979447093  0.4936927046878614
  0.4925902861339781  0.7523186067879911  0.4925901421282060
  0.4936923895094391  0.9932136246250870  0.2581759784025335
  0.2572052558995576  0.7619125897960665  0.2572054707321533
  0.7433329691592765  0.0087036507355010  0.5077309042731700
  0.5088265775414074  0.2353442000964592  0.5088267503196466
  0.5077308415459248  0.0087035812897511  0.7433328988243333
  0.7433676669718656  0.2393536149867824  0.7433678574018869
  0.2581760648173795  0.4936926219175928  0.9932136486505978
  0.4936925262971031  0.2581759788256318  0.9932136995608489
  0.4925902779824796  0.4925901336963287  0.7523187116283562
  0.2572053991500708  0.2572055027847143  0.7619125375307249
  0.7433329604385738  0.5077309058453346  0.0087035219420327
  0.5077307425651912  0.7433328940749308  0.0087034828573785
  0.5088265316670267  0.5088267523071281  0.2353441561736498
  0.7433676507343486  0.7433678090391307  0.2393535156733457
 
             NaN             NaN             NaN
             NaN             NaN             NaN
             NaN             NaN             NaN
             NaN             NaN             NaN
             NaN             NaN             NaN
             NaN             NaN             NaN
             NaN             NaN             NaN
             NaN             NaN             NaN
             NaN             NaN             NaN
             NaN             NaN             NaN
             NaN             NaN             NaN
             NaN             NaN             NaN
             NaN             NaN             NaN
             NaN             NaN             NaN
             NaN             NaN             NaN
             NaN             NaN             NaN
             NaN             NaN             NaN
             NaN             NaN             NaN
             NaN             NaN             NaN
             NaN             NaN             NaN
             NaN             NaN             NaN
             NaN             NaN             NaN
             NaN             NaN             NaN
             NaN             NaN             NaN
             NaN             NaN             NaN
             NaN             NaN             NaN
             NaN             NaN             NaN
             NaN             NaN             NaN
             NaN             NaN             NaN
             NaN             NaN             NaN
             NaN             NaN             NaN
             NaN             NaN             NaN
             NaN             NaN             NaN
             NaN             NaN             NaN
             NaN             NaN             NaN
             NaN             NaN             NaN
             NaN             NaN             NaN
             NaN             NaN             NaN
             NaN             NaN             NaN
             NaN             NaN             NaN
             NaN             NaN             NaN
             NaN             NaN             NaN
             NaN             NaN             NaN
             NaN             NaN             NaN
             NaN             NaN             NaN
             NaN             NaN             NaN
             NaN             NaN             NaN
             NaN             NaN             NaN
             NaN             NaN             NaN
             NaN             NaN             NaN
             NaN             NaN             NaN
             NaN             NaN             NaN
             NaN             NaN             NaN
             NaN             NaN             NaN
             NaN             NaN             NaN
