Li46 P16 O64
1.0
10.582479 0.001934 -0.005708
0.002254 12.340934 -0.002523
-0.005385 -0.002055 9.989004
Li P O
46 16 64
direct
0.349784 0.253398 0.130629 Li
0.665734 0.248414 0.603614 Li
0.664001 0.749880 0.099108 Li
0.664277 0.751725 0.599467 Li
0.165246 0.494757 0.151978 Li
0.164162 0.500560 0.651750 Li
0.163051 0.995622 0.153024 Li
0.163997 0.998815 0.651769 Li
0.336508 0.000595 0.401506 Li
0.336571 0.000847 0.900277 Li
0.337141 0.500847 0.398965 Li
0.337520 0.497337 0.907604 Li
0.836991 0.248509 0.348594 Li
0.835683 0.249169 0.852203 Li
0.836918 0.748876 0.349497 Li
0.836810 0.748978 0.849320 Li
0.337015 0.250882 0.395853 Li
0.336751 0.252923 0.905560 Li
0.336604 0.749778 0.400413 Li
0.336598 0.749621 0.901737 Li
0.837429 0.001199 0.349987 Li
0.837247 0.001259 0.848886 Li
0.836326 0.501678 0.347897 Li
0.834893 0.501175 0.849736 Li
0.656644 0.493427 0.095801 Li
0.666517 0.503607 0.597423 Li
0.666436 0.998807 0.098408 Li
0.664378 0.999492 0.599221 Li
0.163446 0.250922 0.649533 Li
0.163084 0.749994 0.151295 Li
0.164124 0.751384 0.651666 Li
0.924094 0.374063 0.148504 Li
0.923391 0.375611 0.649425 Li
0.924817 0.873939 0.149443 Li
0.925906 0.875131 0.649159 Li
0.422659 0.376026 0.609519 Li
0.429809 0.874570 0.100891 Li
0.426247 0.875379 0.601047 Li
0.076703 0.126391 0.348558 Li
0.076052 0.125735 0.853954 Li
0.074781 0.624081 0.350926 Li
0.074916 0.624615 0.852473 Li
0.574949 0.125364 0.397535 Li
0.574682 0.128407 0.902004 Li
0.574267 0.626033 0.399121 Li
0.572891 0.624635 0.898562 Li
0.912645 0.123802 0.097740 P
0.912919 0.124556 0.597155 P
0.909916 0.624092 0.097253 P
0.912189 0.625995 0.597101 P
0.409502 0.119831 0.152837 P
0.411120 0.125095 0.653353 P
0.409826 0.628850 0.152610 P
0.410855 0.626100 0.653565 P
0.088230 0.375248 0.405727 P
0.086577 0.375933 0.902311 P
0.088807 0.874526 0.404047 P
0.088583 0.874568 0.904134 P
0.590507 0.375924 0.351042 P
0.587741 0.375420 0.837006 P
0.590116 0.875298 0.347091 P
0.589651 0.875313 0.846330 P
0.841082 0.021104 0.148638 O
0.842201 0.021485 0.648093 O
0.838186 0.521473 0.147455 O
0.842131 0.523341 0.649457 O
0.337432 0.217632 0.094096 O
0.341666 0.228340 0.600838 O
0.344007 0.736092 0.106106 O
0.341428 0.729729 0.602067 O
0.157799 0.270685 0.360015 O
0.156748 0.272442 0.852124 O
0.158290 0.771018 0.352661 O
0.158943 0.771399 0.852987 O
0.660028 0.479461 0.402261 O
0.655362 0.476885 0.896001 O
0.659686 0.978737 0.398658 O
0.659831 0.978348 0.897956 O
0.159223 0.477311 0.353108 O
0.157418 0.478490 0.850415 O
0.159189 0.977496 0.352865 O
0.158971 0.977831 0.853571 O
0.659860 0.272164 0.401927 O
0.655431 0.270287 0.883115 O
0.659675 0.771969 0.399033 O
0.658917 0.771656 0.897681 O
0.848942 0.228017 0.151988 O
0.842956 0.227678 0.648713 O
0.840781 0.728034 0.148494 O
0.841903 0.729411 0.647740 O
0.340642 0.014636 0.105390 O
0.341371 0.021706 0.601558 O
0.331723 0.533683 0.096506 O
0.341190 0.523307 0.600395 O
0.546300 0.117943 0.098309 O
0.549726 0.124973 0.600939 O
0.548018 0.625544 0.099532 O
0.549709 0.626673 0.602045 O
0.051149 0.119575 0.148993 O
0.051156 0.124364 0.650097 O
0.048210 0.623539 0.150266 O
0.050711 0.626382 0.649026 O
0.452010 0.375771 0.402512 O
0.445575 0.374511 0.871490 O
0.451371 0.875351 0.398424 O
0.451029 0.875655 0.897972 O
0.949927 0.375332 0.352854 O
0.948084 0.375383 0.849196 O
0.950230 0.874910 0.351755 O
0.950300 0.874869 0.851116 O
0.591958 0.374177 0.196406 O
0.596774 0.378915 0.680623 O
0.592178 0.874957 0.190799 O
0.590360 0.875587 0.690047 O
0.084756 0.377677 0.057740 O
0.087738 0.377286 0.562056 O
0.087928 0.873704 0.060355 O
0.089493 0.874839 0.560337 O
0.410233 0.124243 0.308646 O
0.409914 0.125024 0.809320 O
0.411211 0.625618 0.309057 O
0.409407 0.625404 0.809698 O
0.912407 0.124770 0.440929 O
0.910593 0.124700 0.941473 O
0.911147 0.625056 0.440757 O
0.910049 0.624769 0.940790 O
