Li47 P16 O64                            
   1.00000000000000     
    10.6071390000000001   -0.0016950000000000   -0.0106100000000000
    -0.0019600000000000   12.3732349999999993   -0.0025290000000000
    -0.0099970000000000   -0.0020220000000000   10.0257240000000003
   Li   P    O 
    47    16    64
Direct
  0.5286480629261516  0.2871196461657190  0.0711466020757126
  0.6642924837864213  0.2519839194583133  0.5991646677929232
  0.6630786809541133  0.7513768916672041  0.0989886250043197
  0.6638666743657131  0.7518461548677051  0.5995334032543483
  0.1647835399156438  0.4976182825731827  0.1504821924397195
  0.1647132986294051  0.4988932555113550  0.6511513093320533
  0.1633070972659322  0.9949911067215864  0.1520437787796909
  0.1636427061885251  0.9989598960533861  0.6513462355591804
  0.3363600877976712  0.0002108570754314  0.4020869002912832
  0.3368877032060034  0.0002657123720490  0.9018513148742078
  0.3391762092369307  0.4997625289073219  0.3950483533395101
  0.3391080627547888  0.4963958450650284  0.9112069388685683
  0.8331841507350911  0.2491213876473560  0.3438787064494353
  0.8335935911783169  0.2493939504437736  0.8579093483444411
  0.8368437095339696  0.7487557697354276  0.3491045204385809
  0.8369245893680337  0.7488710703975844  0.8493405854977913
  0.3381655338385466  0.2510405912535469  0.3972666624248004
  0.3336401507946508  0.2509213495662937  0.9016124158616267
  0.3373513255468517  0.7492306200820047  0.3998444651943750
  0.3368774895786937  0.7491220355397125  0.9036845753579800
  0.8373138440069532  0.0023508901974003  0.3487173455846282
  0.8378463330724154  0.0017529959421302  0.8503729076151993
  0.8351860604648498  0.5007513294517689  0.3496989991911971
  0.8359453073739044  0.5010183235027824  0.8501712770783016
  0.6579647260450773  0.4965858835059314  0.0986995591852287
  0.6640565293914982  0.5015840510523006  0.5995527062064747
  0.6657763683691991  0.0052469396874921  0.1017928985256517
  0.6638515354551400  0.0005016901525639  0.5989381761179076
  0.1653594864613723  0.2515935936553794  0.1491099929139968
  0.1632750229998218  0.2507496293335706  0.6505459053824446
  0.1646148618006679  0.7506949827636801  0.1509945671541675
  0.1640463722275312  0.7511588108817007  0.6517098196331453
  0.9215635259141182  0.3736954767348517  0.1476903946800814
  0.9251256128770513  0.3740224689543875  0.6494576563323262
  0.9249061722999625  0.8757350712574420  0.1492429275407993
  0.9255833650288565  0.8755318594704419  0.6492295099739136
  0.4260569148591177  0.3761531798534348  0.5996276389728827
  0.4292646166199315  0.8756922879633501  0.1016810991645355
  0.4267624882045947  0.8751461557380924  0.6015152287830253
  0.0741275642367707  0.1259204391386554  0.3483390463365723
  0.0740560884269258  0.1252113056558018  0.8527743498265931
  0.0746094294054253  0.6238239884324680  0.3504528380128686
  0.0757455930751160  0.6238448386140517  0.8524320848170762
  0.5744668592141389  0.1285652144777225  0.3965930733979041
  0.5778873240187137  0.1251891694033418  0.8996368974990108
  0.5738710414871534  0.6243875286113086  0.3998348581697890
  0.5724442611868382  0.6244601489628101  0.8991157301956527
  0.9157911695184341  0.1251778430270343  0.0983725272915557
  0.9116948957615669  0.1251388710432029  0.5975289090925269
  0.9105972475404940  0.6253956375717185  0.0973314829570406
  0.9122867999180274  0.6255054824738180  0.5974086053856608
  0.4064199688328903  0.1182223103564781  0.1525757891261370
  0.4110537908580958  0.1248045957813358  0.6537275914137075
  0.4091266920328534  0.6297854966863444  0.1521585459054564
  0.4103755038680028  0.6260381173931344  0.6539116276227742
  0.0882826860869096  0.3754666120623258  0.4033868698486539
  0.0872581313741733  0.3750902048670153  0.9029138002338588
  0.0883835955412010  0.8744001406048564  0.4044485771094644
  0.0885687356438007  0.8742424879469092  0.9033638498720133
  0.5901763600302273  0.3769937716824949  0.3500020740498441
  0.5883614499544081  0.3755719257954290  0.8400970684593367
  0.5903227664120678  0.8760015253464130  0.3474785161899506
  0.5901864008903464  0.8755179683954438  0.8465634369863486
  0.8444648862285751  0.0220601253342210  0.1495251493513348
  0.8418856548765973  0.0216742157717250  0.6482189275267144
  0.8395821455141674  0.5231366571554630  0.1479167497835960
  0.8427034420778563  0.5228747956932412  0.6493558398070468
  0.3376253515233144  0.2193621484927847  0.0971510254222390
  0.3405649902633213  0.2272562683363437  0.6018648573886332
  0.3442421837287953  0.7377515981462155  0.1068334222898509
  0.3410840732622365  0.7297317509045507  0.6027690007503405
  0.1578453309035797  0.2724132248658073  0.3515789196409657
  0.1564004652516631  0.2718110502349262  0.8511345512918987
  0.1581225095965893  0.7714012887640325  0.3532112581245694
  0.1588819155373719  0.7713513122201625  0.8524870641917052
  0.6595898254460653  0.4802185034120116  0.4045830694258659
  0.6574937523489877  0.4786417590096140  0.8937782404139584
  0.6596141601615512  0.9792936557829511  0.3991603069581352
  0.6604297778456850  0.9781082535825780  0.8984839555726609
  0.1588465304929229  0.4782878993207140  0.3525967804149150
  0.1579671132250220  0.4774371276025892  0.8512084092614489
  0.1583518601456284  0.9773244189059286  0.3538875577962634
  0.1588781327343034  0.9771550113642719  0.8526506253680468
  0.6594946556174850  0.2736284531749610  0.4029788405160454
  0.6553033902463123  0.2717318481090613  0.8910395014148543
  0.6600997980323300  0.7728628328266450  0.3989007277416485
  0.6595884109893627  0.7720686793031792  0.8972307520024929
  0.8539113456615205  0.2283873797418508  0.1522835308072613
  0.8421640975178066  0.2274721799779209  0.6502781774230563
  0.8411180212422052  0.7290427936913884  0.1478230987028223
  0.8421005644877037  0.7286570016468411  0.6481332298730732
  0.3387685577291891  0.0130203033950763  0.1055096427820084
  0.3414608670057745  0.0211521572688270  0.6026328618423238
  0.3313029073526941  0.5346312026854069  0.0979480747282559
  0.3409758000503588  0.5237717710866249  0.6000832139432125
  0.5433273217315284  0.1222765276327310  0.0982575532259148
  0.5491467120084840  0.1249798768653480  0.6014719438967441
  0.5472391870970101  0.6274556301561385  0.0984920281735794
  0.5490876043330342  0.6273633096870269  0.6031198043607512
  0.0562682481214426  0.1200559832323157  0.1458979174503997
  0.0502302555970985  0.1242269489626350  0.6494671686302712
  0.0486730720954553  0.6252584647681203  0.1500891674103382
  0.0506235874511923  0.6258446430664426  0.6494943105523906
  0.4521659495449018  0.3755125593092149  0.4040296408503370
  0.4508481415374511  0.3724537273198426  0.8923790371756641
  0.4520649041321703  0.8753044876089997  0.3994195313291916
  0.4518235242129531  0.8753913575895687  0.8975690703193684
  0.9498167659538729  0.3765631205391604  0.3526965199987928
  0.9487770883420507  0.3754712478469573  0.8509245779732356
  0.9500763928942925  0.8746115818747544  0.3522755166768960
  0.9506202872220028  0.8745879060888950  0.8500229514248080
  0.5930290617072967  0.3802268106475383  0.1971461351691223
  0.5903597150026628  0.3778694764709757  0.6845438103513524
  0.5923060050982288  0.8767397632150670  0.1917454644813996
  0.5909838748565543  0.8760165087222462  0.6905840502922063
  0.0875585028431045  0.3750886800720885  0.0584594177705396
  0.0897062502697350  0.3749848197760513  0.5595155486183946
  0.0875763601245442  0.8732291095512249  0.0589860025329746
  0.0889533349182073  0.8744475097791542  0.5603628632223639
  0.4079728961972913  0.1222332469200196  0.3086727396134639
  0.4104263723700408  0.1245462440466631  0.8095762185365938
  0.4119678895876091  0.6268309886097393  0.3085903368614421
  0.4086045471999477  0.6249270598845986  0.8096559194478342
  0.9110099589286740  0.1256053693223723  0.4417035214094336
  0.9121488617456809  0.1241695590209101  0.9418936938269452
  0.9114812062673358  0.6253260001504212  0.4415515530533786
  0.9110539206186621  0.6255165095678294  0.9412703443562587
 
             NaN             NaN             NaN
             NaN             NaN             NaN
             NaN             NaN             NaN
             NaN             NaN             NaN
             NaN             NaN             NaN
             NaN             NaN             NaN
             NaN             NaN             NaN
             NaN             NaN             NaN
             NaN             NaN             NaN
             NaN             NaN             NaN
             NaN             NaN             NaN
             NaN             NaN             NaN
             NaN             NaN             NaN
             NaN             NaN             NaN
             NaN             NaN             NaN
             NaN             NaN             NaN
             NaN             NaN             NaN
             NaN             NaN             NaN
             NaN             NaN             NaN
             NaN             NaN             NaN
             NaN             NaN             NaN
             NaN             NaN             NaN
             NaN             NaN             NaN
             NaN             NaN             NaN
             NaN             NaN             NaN
             NaN             NaN             NaN
             NaN             NaN             NaN
             NaN             NaN             NaN
             NaN             NaN             NaN
             NaN             NaN             NaN
             NaN             NaN             NaN
             NaN             NaN             NaN
             NaN             NaN             NaN
             NaN             NaN             NaN
             NaN             NaN             NaN
             NaN             NaN             NaN
             NaN             NaN             NaN
             NaN             NaN             NaN
             NaN             NaN             NaN
             NaN             NaN             NaN
             NaN             NaN             NaN
             NaN             NaN             NaN
             NaN             NaN             NaN
             NaN             NaN             NaN
             NaN             NaN             NaN
             NaN             NaN             NaN
             NaN             NaN             NaN
             NaN             NaN             NaN
             NaN             NaN             NaN
             NaN             NaN             NaN
             NaN             NaN             NaN
             NaN             NaN             NaN
             NaN             NaN             NaN
             NaN             NaN             NaN
             NaN             NaN             NaN
             NaN             NaN             NaN
             NaN             NaN             NaN
             NaN             NaN             NaN
             NaN             NaN             NaN
             NaN             NaN             NaN
             NaN             NaN             NaN
             NaN             NaN             NaN
             NaN             NaN             NaN
             NaN             NaN             NaN
             NaN             NaN             NaN
             NaN             NaN             NaN
             NaN             NaN             NaN
             NaN             NaN             NaN
             NaN             NaN             NaN
             NaN             NaN             NaN
             NaN             NaN             NaN
             NaN             NaN             NaN
             NaN             NaN             NaN
             NaN             NaN             NaN
             NaN             NaN             NaN
             NaN             NaN             NaN
             NaN             NaN             NaN
             NaN             NaN             NaN
             NaN             NaN             NaN
             NaN             NaN             NaN
             NaN             NaN             NaN
             NaN             NaN             NaN
             NaN             NaN             NaN
             NaN             NaN             NaN
             NaN             NaN             NaN
             NaN             NaN             NaN
             NaN             NaN             NaN
             NaN             NaN             NaN
             NaN             NaN             NaN
             NaN             NaN             NaN
             NaN             NaN             NaN
             NaN             NaN             NaN
             NaN             NaN             NaN
             NaN             NaN             NaN
             NaN             NaN             NaN
             NaN             NaN             NaN
             NaN             NaN             NaN
             NaN             NaN             NaN
             NaN             NaN             NaN
             NaN             NaN             NaN
             NaN             NaN             NaN
             NaN             NaN             NaN
             NaN             NaN             NaN
             NaN             NaN             NaN
             NaN             NaN             NaN
             NaN             NaN             NaN
             NaN             NaN             NaN
             NaN             NaN             NaN
             NaN             NaN             NaN
             NaN             NaN             NaN
             NaN             NaN             NaN
             NaN             NaN             NaN
             NaN             NaN             NaN
             NaN             NaN             NaN
             NaN             NaN             NaN
             NaN             NaN             NaN
             NaN             NaN             NaN
             NaN             NaN             NaN
             NaN             NaN             NaN
             NaN             NaN             NaN
             NaN             NaN             NaN
             NaN             NaN             NaN
             NaN             NaN             NaN
             NaN             NaN             NaN
             NaN             NaN             NaN
             NaN             NaN             NaN
             NaN             NaN             NaN
