Li47 P16 O64
1.0
10.607139 -0.001695 -0.010610
-0.001960 12.373235 -0.002529
-0.009997 -0.002022 10.025724
Li P O
47 16 64
direct
0.544220 0.310291 0.097665 Li
0.663950 0.251506 0.600619 Li
0.663045 0.750278 0.098672 Li
0.663553 0.751270 0.599535 Li
0.164587 0.497799 0.150270 Li
0.164308 0.498924 0.651193 Li
0.163703 0.997129 0.151533 Li
0.164274 0.998883 0.651115 Li
0.337187 0.001011 0.400236 Li
0.337365 0.001108 0.903376 Li
0.338685 0.499499 0.397544 Li
0.338451 0.497782 0.905171 Li
0.833458 0.249115 0.345928 Li
0.834211 0.248971 0.853081 Li
0.836667 0.748714 0.349188 Li
0.836554 0.748932 0.849236 Li
0.338461 0.250632 0.397827 Li
0.338175 0.250898 0.904707 Li
0.337336 0.749121 0.399999 Li
0.337230 0.749402 0.902645 Li
0.836882 0.001832 0.348717 Li
0.836917 0.001825 0.849692 Li
0.834597 0.500621 0.349276 Li
0.834617 0.500259 0.850156 Li
0.658372 0.494195 0.097258 Li
0.664194 0.500875 0.598390 Li
0.664120 1.001856 0.100187 Li
0.663370 1.000526 0.599449 Li
0.164119 0.250715 0.149466 Li
0.164250 0.251006 0.651073 Li
0.164177 0.750812 0.150888 Li
0.164046 0.751025 0.651573 Li
0.922632 0.374057 0.148175 Li
0.924955 0.374500 0.649246 Li
0.925116 0.875534 0.149225 Li
0.925653 0.875457 0.649234 Li
0.426642 0.375512 0.602841 Li
0.428405 0.875697 0.101920 Li
0.426644 0.875572 0.601068 Li
0.074511 0.125665 0.349399 Li
0.075042 0.125515 0.852500 Li
0.074363 0.623988 0.350594 Li
0.074728 0.624015 0.852031 Li
0.574006 0.128209 0.396186 Li
0.574378 0.129593 0.905173 Li
0.573921 0.623848 0.399190 Li
0.572929 0.623394 0.899128 Li
0.912973 0.124990 0.097745 P
0.912306 0.124923 0.596881 P
0.910519 0.624990 0.097119 P
0.912013 0.625399 0.597314 P
0.408394 0.120763 0.152293 P
0.410915 0.124560 0.653254 P
0.409904 0.627175 0.151942 P
0.410501 0.626151 0.653307 P
0.088312 0.375274 0.403214 P
0.087776 0.375035 0.902952 P
0.088531 0.874589 0.403967 P
0.088631 0.874563 0.903402 P
0.590052 0.376426 0.349444 P
0.587893 0.374651 0.840390 P
0.590226 0.875125 0.347314 P
0.589888 0.875340 0.846655 P
0.842627 0.021618 0.148641 O
0.842175 0.021728 0.647813 O
0.840010 0.522494 0.147809 O
0.842443 0.522800 0.649281 O
0.334891 0.219674 0.097962 O
0.340633 0.227062 0.601188 O
0.342811 0.733222 0.104436 O
0.341113 0.729751 0.602115 O
0.157946 0.272294 0.351761 O
0.157612 0.272174 0.851517 O
0.158215 0.771516 0.352626 O
0.158652 0.771484 0.852510 O
0.659684 0.479642 0.404020 O
0.656721 0.477266 0.896512 O
0.659615 0.978385 0.398791 O
0.660264 0.977797 0.898260 O
0.158579 0.478240 0.352215 O
0.157717 0.478030 0.851690 O
0.158358 0.977539 0.353309 O
0.158922 0.977410 0.852588 O
0.659441 0.273093 0.402550 O
0.656769 0.270915 0.886981 O
0.659805 0.772012 0.399236 O
0.659122 0.771614 0.897315 O
0.847101 0.227949 0.149932 O
0.843122 0.227630 0.648735 O
0.841202 0.728526 0.148052 O
0.842040 0.728622 0.648066 O
0.339551 0.014984 0.105910 O
0.341383 0.020979 0.601630 O
0.335714 0.528648 0.098464 O
0.340502 0.523869 0.600421 O
0.545289 0.119545 0.099799 O
0.548927 0.124705 0.600848 O
0.548032 0.626173 0.099180 O
0.548939 0.626962 0.602058 O
0.052207 0.122131 0.148100 O
0.050763 0.124160 0.649016 O
0.048830 0.624986 0.149480 O
0.050402 0.625682 0.649318 O
0.451997 0.375520 0.403592 O
0.448317 0.374312 0.884153 O
0.451862 0.874894 0.398919 O
0.451564 0.875191 0.898005 O
0.949876 0.375946 0.351872 O
0.949358 0.375181 0.850735 O
0.950165 0.874653 0.351813 O
0.950555 0.874766 0.850354 O
0.592820 0.379180 0.196621 O
0.592963 0.378658 0.684831 O
0.592055 0.874710 0.191629 O
0.590598 0.875530 0.690631 O
0.087789 0.375060 0.058672 O
0.089431 0.375154 0.559271 O
0.088009 0.873931 0.059117 O
0.089081 0.874433 0.559877 O
0.408951 0.124173 0.308731 O
0.409837 0.124193 0.808912 O
0.411024 0.625659 0.308191 O
0.409186 0.625638 0.809059 O
0.911494 0.125032 0.441023 O
0.911736 0.124400 0.941490 O
0.911192 0.625141 0.441437 O
0.910372 0.625183 0.941090 O
