Li17 Co18 O36                           
   1.00000000000000     
     8.1359480000000008    0.0000260000000000    2.4097369999999998
     3.7112740000000000    7.2401780000000002    2.4097290000000000
    -0.0102370000000000   -0.0062520000000000    9.9945939999999993
   Li   Co   O 
    17    18    36
Direct
  0.3098257565119186  0.5904878433603478  0.5099666233864368
  0.3363913404276285  0.3334365633802028  0.9967687086021638
  0.3346992142668953  0.6663560625619055 -0.0022210173097816
  0.3349374742637922 -0.0025580780409664  0.9971583455658363
  0.3336601416682406  0.9985123018249871  0.5063227335170980
  0.6673821984502308  0.3332924196239615 -0.0016491279264248
  0.6612134945182511  0.3297835479313452  0.5047718415266009
  0.6657206509647997  0.6662440694156982 -0.0007458064265590
  0.6487162970131486  0.6647355064458511  0.5045044898122063
  0.6691725774740584  0.9984549840702448 -0.0018863199254431
  0.6433162113482268  0.0198929563405429  0.5032338507012964
 -0.0020972474330847  0.3337078773890132  0.9967466740710473
  0.0110950242617799  0.3344585996880180  0.5054611878241831
 -0.0012728889059956  0.6693638690546067  0.9968707677192118
 -0.0218711857346528  0.6726427365270825  0.5023609776545167
 -0.0003145999686440 -0.0000174548789881  0.9960594327402232
  0.0051236230141913  0.9893533379957543  0.5034649054194367
  0.1640906080387312  0.1673390227670127  0.2480363977767226
  0.1678949790258497  0.1651992361340629  0.7507517892556528
  0.1637962623402849  0.5003410847271313  0.2483895714432708
  0.1670524424549880  0.4956210127268633  0.7542525496474002
  0.1639945559105429  0.8345451013356026  0.2470409080197079
  0.1682043986826037  0.8303947890268609  0.7507680569016532
  0.4975173119526220  0.1672361754560381  0.2509948833519477
  0.5006658871103828  0.1625768142570674  0.7533896728405429
  0.4973577541463155  0.4996954133937935  0.2489173995617680
  0.5006891083570441  0.4973349293333473  0.7545157814927124
  0.4970390526439278  0.8326815092311225  0.2510979064959312
  0.5000486126282048  0.8301813127860472  0.7546103558055716
  0.8311313708882815  0.1671277329225889  0.2486618979074708
  0.8343735375472546  0.1645551926870359  0.7508099891763234
  0.8301012058321258  0.5002861093751820  0.2501529695537807
  0.8330704958657141  0.4980158624082822  0.7531236742237342
  0.8301949334840292  0.8335982488569134  0.2507327725632842
  0.8338580062753707  0.8306135026559816  0.7515689776128791
  0.2480265457645295  0.2518803942042500  0.3535892645651973
  0.2535561560937657  0.2495967780152954  0.8635643465769973
  0.2470879593395122  0.5916292781774591  0.3505304760430025
  0.2529361580390921  0.5850080751124547  0.8633926799930906
  0.2482822541464258  0.9268090509074514  0.3548652190909987
  0.2518419132761087  0.9183582790420932  0.8621607914898798
  0.5892095353041489  0.2529876826277666  0.3557541331869299
  0.5891509764525825  0.2491556804148150  0.8632514669286760
  0.5844601659924854  0.5855732473079197  0.3588264539510901
  0.5870022016812121  0.5832716894616933  0.8651073396854383
  0.5832227778241431  0.9205537809456514  0.3605639225882784
  0.5889252627486513  0.9167234548482606  0.8638134012267009
  0.9219289596960853  0.2522111268698651  0.3567777898763224
  0.9208037550741105  0.2504960418922766  0.8613540256002947
  0.9182046397951827  0.5862893291000842  0.3588785191834339
  0.9198392464852573  0.5850926206767363  0.8628702592626499
  0.9187759075718828  0.9207093399669342  0.3580405803990106
  0.9211552803932709  0.9179312202357995  0.8602981338900273
  0.0794302197343641  0.0828473747586989  0.1384131803674033
  0.0813718186853939  0.0779466746114988  0.6403152742338010
  0.0777981030667944  0.4110117074317836  0.1400576396676902
  0.0765077279925072  0.4137020267379978  0.6455498117372133
  0.0762246576812350  0.7470602168124688  0.1393289996519036
  0.0815605487587032  0.7411631751919157  0.6415935481297655
  0.4085021110552243  0.0805795949706726  0.1417137302469733
  0.4148357261195626  0.0725288619221566  0.6468599737677890
  0.4107920941223753  0.4122779749675054  0.1399072488872054
  0.4168408617954640  0.4064741339964222  0.6503588242514938
  0.4114343776567833  0.7474360243722711  0.1396421745118559
  0.4144758986896364  0.7440966733597190  0.6457164946349261
  0.7434765915108432  0.0800065398159390  0.1410365525769070
  0.7469765119324112  0.0775343771353890  0.6417064913750359
  0.7449097245253899  0.4134724366160892  0.1402451987117183
  0.7465785175105545  0.4114853254750984  0.6426305426709720
  0.7430136525013581  0.7464579805696157  0.1420454637590205
  0.7451973181693254  0.7444706824875793  0.6439368083920499
 
             NaN             NaN             NaN
             NaN             NaN             NaN
             NaN             NaN             NaN
             NaN             NaN             NaN
             NaN             NaN             NaN
             NaN             NaN             NaN
             NaN             NaN             NaN
             NaN             NaN             NaN
             NaN             NaN             NaN
             NaN             NaN             NaN
             NaN             NaN             NaN
             NaN             NaN             NaN
             NaN             NaN             NaN
             NaN             NaN             NaN
             NaN             NaN             NaN
             NaN             NaN             NaN
             NaN             NaN             NaN
             NaN             NaN             NaN
             NaN             NaN             NaN
             NaN             NaN             NaN
             NaN             NaN             NaN
             NaN             NaN             NaN
             NaN             NaN             NaN
             NaN             NaN             NaN
             NaN             NaN             NaN
             NaN             NaN             NaN
             NaN             NaN             NaN
             NaN             NaN             NaN
             NaN             NaN             NaN
             NaN             NaN             NaN
             NaN             NaN             NaN
             NaN             NaN             NaN
             NaN             NaN             NaN
             NaN             NaN             NaN
             NaN             NaN             NaN
             NaN             NaN             NaN
             NaN             NaN             NaN
             NaN             NaN             NaN
             NaN             NaN             NaN
             NaN             NaN             NaN
             NaN             NaN             NaN
             NaN             NaN             NaN
             NaN             NaN             NaN
             NaN             NaN             NaN
             NaN             NaN             NaN
             NaN             NaN             NaN
             NaN             NaN             NaN
             NaN             NaN             NaN
             NaN             NaN             NaN
             NaN             NaN             NaN
             NaN             NaN             NaN
             NaN             NaN             NaN
             NaN             NaN             NaN
             NaN             NaN             NaN
             NaN             NaN             NaN
             NaN             NaN             NaN
             NaN             NaN             NaN
             NaN             NaN             NaN
             NaN             NaN             NaN
             NaN             NaN             NaN
             NaN             NaN             NaN
             NaN             NaN             NaN
             NaN             NaN             NaN
             NaN             NaN             NaN
             NaN             NaN             NaN
             NaN             NaN             NaN
             NaN             NaN             NaN
             NaN             NaN             NaN
             NaN             NaN             NaN
             NaN             NaN             NaN
             NaN             NaN             NaN
