Li17 Co18 O36
1.0
8.135948 0.000026 2.409737
3.711274 7.240178 2.409729
-0.010237 -0.006252 9.994594
Li Co O
17 18 36
direct
0.269949 0.597535 0.535191 Li
0.333149 0.333414 0.999882 Li
0.333499 0.666564 0.000146 Li
0.333336 1.000003 -0.000012 Li
0.333338 0.999947 0.499999 Li
0.666535 0.333529 0.000145 Li
0.655312 0.339021 0.500016 Li
0.666402 0.666667 0.000402 Li
0.660808 0.666524 0.500731 Li
0.666461 0.999847 0.000260 Li
0.660861 1.005480 0.500737 Li
0.000274 0.333340 0.999587 Li
0.005814 0.333496 0.499251 Li
0.000118 0.666465 0.999860 Li
0.011347 0.661019 0.499988 Li
0.000206 1.000141 0.999711 Li
0.005855 0.994460 0.499275 Li
0.166748 0.167324 0.247858 Co
0.167084 0.166932 0.749343 Co
0.166990 0.499787 0.249314 Co
0.167220 0.500018 0.749178 Co
0.166966 0.833678 0.249367 Co
0.167092 0.833053 0.749348 Co
0.499587 0.166935 0.250641 Co
0.499703 0.166328 0.750653 Co
0.499438 0.499991 0.250819 Co
0.499681 0.500234 0.750659 Co
0.499591 0.833056 0.250650 Co
0.499923 0.832631 0.752147 Co
0.833955 0.166687 0.249187 Co
0.833330 0.166815 0.749527 Co
0.833948 0.499906 0.249175 Co
0.832686 0.500123 0.750820 Co
0.833336 0.833186 0.250488 Co
0.832737 0.833314 0.750830 Co
0.252833 0.253448 0.355860 O
0.253094 0.253732 0.859016 O
0.252571 0.588933 0.354356 O
0.253091 0.587173 0.859124 O
0.252923 0.923087 0.355861 O
0.252488 0.920509 0.859537 O
0.589175 0.253335 0.356963 O
0.587338 0.253179 0.859582 O
0.589168 0.586221 0.356906 O
0.586624 0.585840 0.861410 O
0.586439 0.920251 0.359546 O
0.586690 0.919870 0.861335 O
0.920955 0.253762 0.357406 O
0.920376 0.253132 0.858833 O
0.920877 0.586454 0.358471 O
0.920447 0.586614 0.859493 O
0.920855 0.920328 0.358535 O
0.920463 0.920548 0.858938 O
0.080008 0.080092 0.138632 O
0.080224 0.079697 0.640437 O
0.080030 0.414087 0.138640 O
0.077478 0.413846 0.643055 O
0.079324 0.746896 0.140397 O
0.077500 0.746648 0.643081 O
0.414163 0.079453 0.140482 O
0.413831 0.076852 0.644132 O
0.413599 0.412816 0.140855 O
0.414072 0.411126 0.645656 O
0.413545 0.746302 0.140962 O
0.413790 0.746548 0.644117 O
0.746251 0.079456 0.141101 O
0.745810 0.079631 0.641535 O
0.746214 0.413380 0.140503 O
0.745785 0.413546 0.641509 O
0.746268 0.746905 0.141157 O
0.745717 0.746332 0.642590 O
