Li46 P16 O64
1.0
10.425114 0.018156 0.003047
0.020158 12.169522 0.007046
0.002126 0.005580 9.815267
Li P O
46 16 64
direct
0.662501 0.255087 0.095942 Li
0.666313 0.248850 0.598492 Li
0.664538 0.750290 0.099072 Li
0.664043 0.751060 0.597270 Li
0.168308 0.489768 0.154820 Li
0.165108 0.501881 0.651758 Li
0.161906 0.998848 0.151850 Li
0.163752 0.999195 0.652973 Li
0.334556 0.001253 0.404367 Li
0.334838 0.000659 0.898965 Li
0.338289 0.498994 0.399807 Li
0.337166 0.497209 0.908593 Li
0.836887 0.247857 0.349005 Li
0.834722 0.248860 0.847072 Li
0.836870 0.748836 0.348249 Li
0.836353 0.748769 0.847753 Li
0.337708 0.252647 0.398897 Li
0.333550 0.254464 0.900096 Li
0.335841 0.749350 0.401950 Li
0.335836 0.748770 0.903627 Li
0.836747 0.001314 0.348169 Li
0.836342 0.000746 0.846757 Li
0.836772 0.500761 0.347050 Li
0.833270 0.501748 0.848757 Li
0.657458 0.496991 0.098454 Li
0.666303 0.501883 0.597593 Li
0.666581 0.995719 0.093685 Li
0.664992 0.997844 0.598712 Li
0.162825 0.250370 0.645271 Li
0.163099 0.749230 0.152777 Li
0.164488 0.751710 0.652219 Li
0.925589 0.371061 0.152162 Li
0.917769 0.376216 0.648361 Li
0.923531 0.873953 0.149377 Li
0.924592 0.875260 0.648732 Li
0.425399 0.375788 0.608488 Li
0.425685 0.875238 0.100148 Li
0.423423 0.874893 0.600789 Li
0.078647 0.129317 0.342134 Li
0.075931 0.125868 0.854748 Li
0.077647 0.622954 0.350555 Li
0.076886 0.624973 0.851562 Li
0.578443 0.125513 0.403717 Li
0.576780 0.125385 0.892541 Li
0.576250 0.624406 0.398929 Li
0.574187 0.624719 0.899807 Li
0.909662 0.123518 0.095300 P
0.913005 0.124019 0.595234 P
0.911616 0.622931 0.095771 P
0.912346 0.626557 0.595344 P
0.415406 0.121205 0.155618 P
0.411511 0.125146 0.655449 P
0.410147 0.628935 0.154746 P
0.411628 0.625631 0.654922 P
0.087615 0.374411 0.410155 P
0.084654 0.376053 0.901137 P
0.088537 0.874969 0.404499 P
0.087989 0.874449 0.905210 P
0.591575 0.374463 0.349462 P
0.587824 0.375051 0.840164 P
0.588332 0.875681 0.345382 P
0.587991 0.874712 0.844944 P
0.838097 0.019843 0.145770 O
0.842046 0.020753 0.646444 O
0.839572 0.520415 0.146539 O
0.841295 0.524577 0.648861 O
0.351663 0.227064 0.095141 O
0.343078 0.228844 0.602558 O
0.343403 0.736205 0.107611 O
0.341678 0.729521 0.603047 O
0.158821 0.268142 0.374760 O
0.155337 0.272336 0.850911 O
0.157827 0.770614 0.353723 O
0.158943 0.771301 0.853466 O
0.661113 0.478353 0.401278 O
0.654282 0.477884 0.897554 O
0.658540 0.978627 0.397812 O
0.658087 0.978467 0.895495 O
0.159610 0.475491 0.355365 O
0.157052 0.478384 0.849630 O
0.159385 0.977594 0.351827 O
0.158086 0.978063 0.854266 O
0.660766 0.270300 0.402667 O
0.655360 0.271383 0.896241 O
0.658319 0.771698 0.396022 O
0.658495 0.771646 0.897521 O
0.839288 0.226625 0.148211 O
0.841977 0.227141 0.647044 O
0.842259 0.727363 0.147435 O
0.841807 0.730656 0.645313 O
0.341220 0.022124 0.102634 O
0.341531 0.021902 0.603317 O
0.333472 0.533150 0.097927 O
0.342254 0.522738 0.601600 O
0.552186 0.124506 0.100243 O
0.551510 0.123859 0.605642 O
0.549152 0.626980 0.102211 O
0.551004 0.625942 0.603301 O
0.046947 0.119237 0.147747 O
0.051013 0.124095 0.649688 O
0.050478 0.621805 0.148496 O
0.051136 0.627153 0.647672 O
0.453203 0.375040 0.402827 O
0.444696 0.373938 0.872768 O
0.449149 0.876086 0.397048 O
0.449141 0.875643 0.897758 O
0.949954 0.373494 0.354087 O
0.946219 0.375406 0.846891 O
0.949418 0.875288 0.352523 O
0.949223 0.874647 0.852513 O
0.596609 0.373816 0.194170 O
0.600080 0.375596 0.683449 O
0.589375 0.876688 0.188049 O
0.588393 0.874447 0.688016 O
0.081936 0.378887 0.056621 O
0.083495 0.380530 0.567414 O
0.088368 0.873852 0.062225 O
0.089627 0.875800 0.561646 O
0.413030 0.124629 0.310857 O
0.408911 0.125107 0.812477 O
0.410990 0.625450 0.311929 O
0.409785 0.625065 0.811886 O
0.913229 0.124097 0.438328 O
0.907842 0.124831 0.938006 O
0.911932 0.624707 0.438220 O
0.911145 0.624292 0.938465 O
