Li47 P16 O64                            
   1.00000000000000     
    10.6015870000000003   -0.0012400000000000   -0.0049140000000000
    -0.0014350000000000   12.3813370000000003    0.0018810000000000
    -0.0046620000000000    0.0015070000000000   10.0241380000000007
   Li   P    O 
    47    16    64
Direct
  0.2617242197160815  0.2977765559014088  0.1317480509219486
  0.6572961221254843  0.2520588984110032  0.0989687778111418
  0.6650456688283051  0.2499554936520391  0.5987080466623896
  0.6632141373374962  0.7500446948019316  0.0989640482935202
  0.6637179340566441  0.7506479436690111  0.5990618847496428
  0.1640775058006300  0.4956421943580623  0.1509976198999829
  0.1641545586059825  0.4995565669363201  0.6514579043952256
  0.1647688901949379  0.0004318128814275  0.1500257773344128
  0.1640524485900646  0.9998593258606538  0.6511838076698878
  0.3373532660513653  0.0014425326652584  0.3995816219497950
  0.3369017263568900  0.0012594670637643  0.9029448254010606
  0.3385350340270228  0.4988078066654254  0.3971581979016767
  0.3368438625766679  0.4977178904554836  0.9055760743524581
  0.8363063449531856  0.2486297652097780  0.3489725079972004
  0.8347530938041851  0.2493116943113289  0.8502782911706878
  0.8372130653317362  0.7488691687231918  0.3489948194843741
  0.8369400256051848  0.7489130638833739  0.8492601247108070
  0.3382305752808253  0.2505811944577193  0.3949923358849852
  0.3360266473221081  0.2520921021695966  0.9080787371822420
  0.3370807963102128  0.7491067547956625  0.3998930773922640
  0.3367198596380171  0.7491347356379782  0.9025996515502329
  0.8373154477115615  0.0015152396663946  0.3484561411963926
  0.8368122198386334  0.0012163074160598  0.8490523311200581
  0.8365109048316118  0.5003775556197511  0.3485719319325488
  0.8349399016995322  0.5008030382146494  0.8505030437006098
  0.6576354250273158  0.4968152828239055  0.0983284112134822
  0.6650824699102256  0.4999796393072140  0.5986359929665527
  0.6628492483167112  0.9983720784712925  0.0984569127741984
  0.6638922530945125  0.9993048758781455  0.5993930403951923
  0.1639853205803449  0.2522541910423059  0.6498279766438970
  0.1639448954826070  0.7511698248893166  0.1511630436848117
  0.1641907781699454  0.7515391802188524  0.6510967924292591
  0.9265009738201501  0.3718435972102434  0.1499372452051255
  0.9239945766985126  0.3753981747807378  0.6499748595499734
  0.9254604161262375  0.8755036772201191  0.1491898000850989
  0.9263121568905130  0.8754322109590432  0.6488889290766758
  0.4283087343391553  0.3746240320023269  0.6042595022428724
  0.4281035731183929  0.8753571785449034  0.1018817569598426
  0.4260658352980947  0.8753239247555791  0.6006790357597227
  0.0762038933220357  0.1285347737583971  0.3461191579054899
  0.0749708374366473  0.1274781398142001  0.8542995917429435
  0.0751016452214661  0.6236972112263107  0.3506870741808628
  0.0749436155592807  0.6240964116596611  0.8520497385057492
  0.5741432927004688  0.1260649929800572  0.3987592811499732
  0.5722623002043439  0.1260061000369899  0.9001556504988786
  0.5739450233393607  0.6235678841450575  0.3990926666819745
  0.5721421939323524  0.6237446082959938  0.8992022979830798
  0.9095326449456412  0.1234755173108568  0.0972855534423818
  0.9123530763945755  0.1244921075148446  0.5971341414547393
  0.9106592343075329  0.6249647577770903  0.0975543969422520
  0.9120310590690666  0.6260651038331482  0.5970988824295365
  0.4110813024946501  0.1220190720612831  0.1518609929420600
  0.4110625962085085  0.1248371828447839  0.6533680932472460
  0.4092153665183839  0.6279255570507529  0.1522916896079454
  0.4108415095093576  0.6254018828971022  0.6530213291696544
  0.0885670220721403  0.3747365478496965  0.4053694609951611
  0.0863827248334690  0.3760898981053971  0.9021683684186786
  0.0892018391917436  0.8752622795048520  0.4032235331955120
  0.0888315931923781  0.8751059794679176  0.9035954397304350
  0.5918407668902185  0.3750256724479287  0.3486499306190503
  0.5875675961491666  0.3752055248492095  0.8424872579919246
  0.5900425633821623  0.8746562601157364  0.3474571662295227
  0.5891905467443244  0.8746914712305282  0.8457000203416376
  0.8385920087465164  0.0200729259439024  0.1470075577705695
  0.8422566846109903  0.0211718562954518  0.6478490137441838
  0.8397770238342013  0.5226119522897420  0.1482690509236471
  0.8418956863880565  0.5238843000924732  0.6494729013567864
  0.3398106232193397  0.2198296203683412  0.0967803205876980
  0.3421779288156391  0.2275330849675348  0.6006954315244878
  0.3431012418816990  0.7343860147973046  0.1050999116227134
  0.3414727436594638  0.7287830901269606  0.6013089906354738
  0.1587191772161884  0.2712428570739536  0.3600065694267968
  0.1565625415070001  0.2733164514169654  0.8508174368226871
  0.1584512803608939  0.7717807744906332  0.3525980790832636
  0.1589053253776327  0.7721879851838761  0.8524095218264326
  0.6606996532804860  0.4785545453405184  0.4020839832763916
  0.6561136050504577  0.4781054814014269  0.8973034298204388
  0.6597784126763323  0.9776499987317546  0.3989637523092556
  0.6590063569824863  0.9776630172280903  0.8967868420754835
  0.1586794903184998  0.4773948654406005  0.3528775610197795
  0.1567403315253719  0.4787617182704132  0.8496954452521047
  0.1592973298877118  0.9777987750379138  0.3518770853136038
  0.1587407884504685  0.9781633572953289  0.8527747033161276
  0.6606163222071619  0.2715769537840463  0.4021821172985592
  0.6556329554498671  0.2722921425759987  0.8976709246705863
  0.6595986639748064  0.7715121651624772  0.3990407453978992
  0.6589287047498090  0.7716481592302161  0.8972917515975788
  0.8391820003113810  0.2261241614664855  0.1486561830222551
  0.8419885783505920  0.2268351394324746  0.6488757263854051
  0.8410472583295635  0.7285699100203822  0.1481289228844692
  0.8420456984608102  0.7293982657024316  0.6474978053531595
  0.3442078969209104  0.0156991358026552  0.1046781259118281
  0.3415910870074764  0.0214684591376336  0.6015322498511433
  0.3343699891767585  0.5303829020459164  0.0983951801089360
  0.3416815085831743  0.5227757401627795  0.6002650874042624
  0.5502574031957005  0.1215081203119263  0.1008403602928976
  0.5499161834551571  0.1240708972041298  0.6022848672727110
  0.5476960986586292  0.6263235258041302  0.0997273869919351
  0.5496436305556361  0.6258170458306045  0.6020426532481183
  0.0467062732295907  0.1215275042867276  0.1497707886969632
  0.0503400509740351  0.1245574609091402  0.6499946456028139
  0.0487557259314757  0.6252316648336774  0.1502721416935620
  0.0503475926888320  0.6267291586362238  0.6490640091042664
  0.4535422363089019  0.3751261311048970  0.4010274667806147
  0.4469545608971423  0.3757108228581572  0.8809271885732933
  0.4516954576928148  0.8748024028991286  0.3992510291030333
  0.4508385052896355  0.8747262955944571  0.8969806985670469
  0.9504792802564510  0.3744863962360844  0.3515461817830445
  0.9479411155946103  0.3754051234669829  0.8486072765320254
  0.9506426536741479  0.8751418865157919  0.3513340036425343
  0.9506135074780054  0.8749308827611584  0.8507579149588124
  0.5977621323129531  0.3750571869045712  0.1947253504663864
  0.5978955624423230  0.3751018912724788  0.6868346455492399
  0.5915207958034095  0.8741710514838366  0.1917159365921403
  0.5902972991047938  0.8745849618729057  0.6897700584500762
  0.0846174389953265  0.3781535230607511  0.0568421657263975
  0.0867183096225343  0.3777342762868799  0.5613388436703419
  0.0886659632855259  0.8747796272729153  0.0593215287822082
  0.0897701113920930  0.8754201924135532  0.5592579801586108
  0.4117759822659517  0.1239602082655618  0.3083039977265284
  0.4092868804474360  0.1245822889981968  0.8091137833467329
  0.4107797799623257  0.6257031008964162  0.3085729109452172
  0.4090480618068967  0.6255540928186408  0.8087746404373206
  0.9118000955210193  0.1246468240899474  0.4412958151058141
  0.9089723934793598  0.1245389690498887  0.9410364899739818
  0.9112829726007263  0.6252331012025912  0.4411899258832799
  0.9105584900805845  0.6253449284304398  0.9414579747649302
 
             NaN             NaN             NaN
             NaN             NaN             NaN
             NaN             NaN             NaN
             NaN             NaN             NaN
             NaN             NaN             NaN
             NaN             NaN             NaN
             NaN             NaN             NaN
             NaN             NaN             NaN
             NaN             NaN             NaN
             NaN             NaN             NaN
             NaN             NaN             NaN
             NaN             NaN             NaN
             NaN             NaN             NaN
             NaN             NaN             NaN
             NaN             NaN             NaN
             NaN             NaN             NaN
             NaN             NaN             NaN
             NaN             NaN             NaN
             NaN             NaN             NaN
             NaN             NaN             NaN
             NaN             NaN             NaN
             NaN             NaN             NaN
             NaN             NaN             NaN
             NaN             NaN             NaN
             NaN             NaN             NaN
             NaN             NaN             NaN
             NaN             NaN             NaN
             NaN             NaN             NaN
             NaN             NaN             NaN
             NaN             NaN             NaN
             NaN             NaN             NaN
             NaN             NaN             NaN
             NaN             NaN             NaN
             NaN             NaN             NaN
             NaN             NaN             NaN
             NaN             NaN             NaN
             NaN             NaN             NaN
             NaN             NaN             NaN
             NaN             NaN             NaN
             NaN             NaN             NaN
             NaN             NaN             NaN
             NaN             NaN             NaN
             NaN             NaN             NaN
             NaN             NaN             NaN
             NaN             NaN             NaN
             NaN             NaN             NaN
             NaN             NaN             NaN
             NaN             NaN             NaN
             NaN             NaN             NaN
             NaN             NaN             NaN
             NaN             NaN             NaN
             NaN             NaN             NaN
             NaN             NaN             NaN
             NaN             NaN             NaN
             NaN             NaN             NaN
             NaN             NaN             NaN
             NaN             NaN             NaN
             NaN             NaN             NaN
             NaN             NaN             NaN
             NaN             NaN             NaN
             NaN             NaN             NaN
             NaN             NaN             NaN
             NaN             NaN             NaN
             NaN             NaN             NaN
             NaN             NaN             NaN
             NaN             NaN             NaN
             NaN             NaN             NaN
             NaN             NaN             NaN
             NaN             NaN             NaN
             NaN             NaN             NaN
             NaN             NaN             NaN
             NaN             NaN             NaN
             NaN             NaN             NaN
             NaN             NaN             NaN
             NaN             NaN             NaN
             NaN             NaN             NaN
             NaN             NaN             NaN
             NaN             NaN             NaN
             NaN             NaN             NaN
             NaN             NaN             NaN
             NaN             NaN             NaN
             NaN             NaN             NaN
             NaN             NaN             NaN
             NaN             NaN             NaN
             NaN             NaN             NaN
             NaN             NaN             NaN
             NaN             NaN             NaN
             NaN             NaN             NaN
             NaN             NaN             NaN
             NaN             NaN             NaN
             NaN             NaN             NaN
             NaN             NaN             NaN
             NaN             NaN             NaN
             NaN             NaN             NaN
             NaN             NaN             NaN
             NaN             NaN             NaN
             NaN             NaN             NaN
             NaN             NaN             NaN
             NaN             NaN             NaN
             NaN             NaN             NaN
             NaN             NaN             NaN
             NaN             NaN             NaN
             NaN             NaN             NaN
             NaN             NaN             NaN
             NaN             NaN             NaN
             NaN             NaN             NaN
             NaN             NaN             NaN
             NaN             NaN             NaN
             NaN             NaN             NaN
             NaN             NaN             NaN
             NaN             NaN             NaN
             NaN             NaN             NaN
             NaN             NaN             NaN
             NaN             NaN             NaN
             NaN             NaN             NaN
             NaN             NaN             NaN
             NaN             NaN             NaN
             NaN             NaN             NaN
             NaN             NaN             NaN
             NaN             NaN             NaN
             NaN             NaN             NaN
             NaN             NaN             NaN
             NaN             NaN             NaN
             NaN             NaN             NaN
             NaN             NaN             NaN
             NaN             NaN             NaN
             NaN             NaN             NaN
