Na15 V32 O64                            
   1.00000000000000     
     9.2153419999999997    0.0000880000000000   -0.0023340000000000
     0.0001110000000000   11.5240270000000002   -0.0000080000000000
    -0.0027070000000000   -0.0000080000000000   10.7091399999999997
   Na   V    O 
    15    32    64
Direct
  0.7369258624065359  0.4643901225843226  0.1675738535452878
  0.7414269458379882  0.0763074126186483  0.1523751458836580
  0.7416942039085113  0.8011208469144381  0.1519377578098047
  0.2416979519096943  0.0624506131703848  0.3483528438637903
  0.2420488226462812  0.3130591103812995  0.3477782500889961
  0.2417877028205103  0.5618561379541337  0.3478725644826208
  0.2416108983026205  0.8126451926742596  0.3482044660469203
  0.2583464907266579  0.1866978886527227  0.8482846836123594
  0.2591780863069639  0.4374716710272087  0.8476856971751734
  0.2582768123426009  0.6880379468329744  0.8485235407181151
  0.2582301442383411  0.9374447783554893  0.8489688055300336
  0.7584181228175733  0.1871730848818566  0.6507789743945548
  0.7575536818370898  0.4375534009095033  0.6507659748960113
  0.7584992248953175  0.6874884079043694  0.6508077919645433
  0.7584571102869495  0.9375987617953860  0.6510026842963820
  0.5866058581017999  0.0618175908507887  0.8958817399806923
  0.5886447761625649  0.3105402334656888  0.8964051187135813
  0.5876974684514871  0.5637335975390512  0.8953866439600944
  0.5867481481274813  0.8129557773880074  0.8963354660323509
  0.0870733669004729  0.0619564046047117  0.6034129154629989
  0.0880353744344231  0.3114760701809328  0.6040976408888684
  0.0884877522827859  0.5634618465298012  0.6041231575348317
  0.0863368084824672  0.8130037906678584  0.6033057143260363
  0.4142180764626067  0.1882426028704910  0.1037440587797225
  0.4089365585506431  0.4368433209697672  0.1022789413851685
  0.4148992128294970  0.6865181068888041  0.1038689721217513
  0.4140695779916038  0.9374903246310752  0.1043922569352256
  0.9126093106850889  0.1878225149794794  0.3956499688796326
  0.9151205569992678  0.4368701291455340  0.3997677543048894
  0.9125269997894977  0.6869131996469189  0.3956081513388964
  0.9121137870334750  0.9375250375511297  0.3951708194177878
  0.5605596910682787  0.0635649799329640  0.3857929947591790
  0.5623619745290667  0.3106900025546390  0.3830695163899308
  0.5607496647840323  0.5641505562049035  0.3855880206999500
  0.5610961973978842  0.8114503455248201  0.3853396750528855
  0.0615635707159755  0.0631063652961666  0.1146570140089083
  0.0567426754813268  0.3091798398300278  0.1151704246392821
  0.0585284902069557  0.5654351991780532  0.1145365487612863
  0.0614774191273437  0.8115255717496208  0.1147158296755325
  0.4389437978773406  0.1882069068421783  0.6147094406972161
  0.4402377079500452  0.4363368995106565  0.6144079472913504
  0.4385505062795576  0.6886885697329637  0.6150975467469406
  0.4385496515024861  0.9366298857829009  0.6146777310717102
  0.9389319061678454  0.1872315404801746  0.8845305501043353
  0.9411104614388174  0.4370681196148657  0.8835330790970948
  0.9386790912794031  0.6877576144785670  0.8845968307242215
  0.9391775237148360  0.9372894224377555  0.8859098368818450
  0.7930312349496480  0.0621652480840251  0.8527760707280044
  0.7940031893712819  0.3125865527729450  0.8513703594740613
  0.7938466188846943  0.5620386009299360  0.8518231017380424
  0.7929165540570436  0.8125966754696048  0.8528113842881445
  0.2933981714971299  0.0621724979125278  0.6463391059863182
  0.2933927122576075  0.3123975134499098  0.6470553026793904
  0.2942642184974022  0.5625031811194126  0.6463856003352177
  0.2922096570483722  0.8127471954293313  0.6470740243377356
  0.2073336132858118  0.1874219929085353  0.1477975240498593
  0.2044610687712196  0.4374666264052431  0.1459698752873003
  0.2078208810272471  0.6872586459917295  0.1480906417015892
  0.2068006614367534  0.9373492217745364  0.1466685187376059
  0.7070480563385799  0.1859455097963740  0.3580671802773767
  0.7061404183949779  0.4373637646095152  0.3679189359097739
  0.7068818526469816  0.6881448558959585  0.3575472323137327
  0.7056419222918219  0.9375103324802084  0.3552948122583202
  0.8893230025699096  0.0622128183419957  0.5198162414303669
  0.8905641710687145  0.3116959942150841  0.5219969186552079
  0.8907736608297995  0.5629289271816404  0.5217510912070099
  0.8890024527259669  0.8126268777932323  0.5196557363197349
  0.3883473288143368  0.0618872306704970  0.9803460109746552
  0.3859443300533574  0.3113639085959882  0.9792528614036707
  0.3863518390803002  0.5631832107937714  0.9794825764694846
  0.3885989841874657  0.8127173251605372  0.9805888222662457
  0.1120937755349480  0.1870713574890363  0.4795692373682636
  0.1130384176384465  0.4374499771291104  0.4805200518777079
  0.1118955995347204  0.6877933128642528  0.4793831500495030
  0.1112867982908640  0.9374679041985317  0.4790074930871603
  0.6090160216729986  0.1872959260684503  0.0172681092527422
  0.6034755357729851  0.4367430918471060  0.0117279560046254
  0.6097861657190600  0.6869416044047537  0.0177965407357112
  0.6120344415201421  0.9375225817256303  0.0207242432490254
  0.9789008202694762  0.0629611514726263  0.2822169038769028
  0.9788650902060670  0.3132138787276709  0.2839607516403388
  0.9772053050001356  0.5611142597430487  0.2830021055169692
  0.9787845383369613  0.8118013874465367  0.2822896400246366
  0.4800203522882696  0.0630516846202731  0.2174331145399151
  0.4790376065550806  0.3141712361980172  0.2163882375997206
  0.4810351404944753  0.5600848979904738  0.2162350832229875
  0.4804041912507633  0.8117973098577350  0.2173651054957792
  0.0209438681535837  0.1867986284551250  0.7166476891421658
  0.0219836271031516  0.4375574562182868  0.7162247152504565
  0.0207519440701778  0.6879712860779400  0.7166526488759274
  0.0204088304411687  0.9374791014803125  0.7170738815569183
  0.5203265444690056  0.1871558330276538  0.7820903427346023
  0.5207212449920612  0.4371846315448424  0.7815190331316088
  0.5199995472376900  0.6880655807907922  0.7823193298995615
  0.5193959792461771  0.9371387073678543  0.7828823400741554
  0.5773548097715243  0.0622899867040800  0.5715415580526160
  0.5788262354942839  0.3113499812240644  0.5702894040141285
  0.5771176024526063  0.5636268410661422  0.5715229159384545
  0.5788902933719009  0.8125441973449672  0.5710457585442182
  0.0791603373081069  0.0620058182687795  0.9287080097183159
  0.0793892251852869  0.3110388072906013  0.9273170586556639
  0.0792625162045365  0.5636972714059787  0.9272546185256230
  0.0792180325603778  0.8125884758076737  0.9289614442466686
  0.4203811132200830  0.1876360281708144  0.4289985193724601
  0.4230931651590613  0.4372843018959776  0.4290356750513917
  0.4199436366768393  0.6877556358013180  0.4291506788045011
  0.4218606695767084  0.9372469044147312  0.4290853854300641
  0.9227992338079013  0.1868487579443112  0.0679567612995178
  0.9312265730033901  0.4370372025826792  0.0661808010939170
  0.9221646325782117  0.6874531808264608  0.0683008470008204
  0.9223030054398511  0.9373874908145086  0.0709725906385929
 
             NaN             NaN             NaN
             NaN             NaN             NaN
             NaN             NaN             NaN
             NaN             NaN             NaN
             NaN             NaN             NaN
             NaN             NaN             NaN
             NaN             NaN             NaN
             NaN             NaN             NaN
             NaN             NaN             NaN
             NaN             NaN             NaN
             NaN             NaN             NaN
             NaN             NaN             NaN
             NaN             NaN             NaN
             NaN             NaN             NaN
             NaN             NaN             NaN
             NaN             NaN             NaN
             NaN             NaN             NaN
             NaN             NaN             NaN
             NaN             NaN             NaN
             NaN             NaN             NaN
             NaN             NaN             NaN
             NaN             NaN             NaN
             NaN             NaN             NaN
             NaN             NaN             NaN
             NaN             NaN             NaN
             NaN             NaN             NaN
             NaN             NaN             NaN
             NaN             NaN             NaN
             NaN             NaN             NaN
             NaN             NaN             NaN
             NaN             NaN             NaN
             NaN             NaN             NaN
             NaN             NaN             NaN
             NaN             NaN             NaN
             NaN             NaN             NaN
             NaN             NaN             NaN
             NaN             NaN             NaN
             NaN             NaN             NaN
             NaN             NaN             NaN
             NaN             NaN             NaN
             NaN             NaN             NaN
             NaN             NaN             NaN
             NaN             NaN             NaN
             NaN             NaN             NaN
             NaN             NaN             NaN
             NaN             NaN             NaN
             NaN             NaN             NaN
             NaN             NaN             NaN
             NaN             NaN             NaN
             NaN             NaN             NaN
             NaN             NaN             NaN
             NaN             NaN             NaN
             NaN             NaN             NaN
             NaN             NaN             NaN
             NaN             NaN             NaN
             NaN             NaN             NaN
             NaN             NaN             NaN
             NaN             NaN             NaN
             NaN             NaN             NaN
             NaN             NaN             NaN
             NaN             NaN             NaN
             NaN             NaN             NaN
             NaN             NaN             NaN
             NaN             NaN             NaN
             NaN             NaN             NaN
             NaN             NaN             NaN
             NaN             NaN             NaN
             NaN             NaN             NaN
             NaN             NaN             NaN
             NaN             NaN             NaN
             NaN             NaN             NaN
             NaN             NaN             NaN
             NaN             NaN             NaN
             NaN             NaN             NaN
             NaN             NaN             NaN
             NaN             NaN             NaN
             NaN             NaN             NaN
             NaN             NaN             NaN
             NaN             NaN             NaN
             NaN             NaN             NaN
             NaN             NaN             NaN
             NaN             NaN             NaN
             NaN             NaN             NaN
             NaN             NaN             NaN
             NaN             NaN             NaN
             NaN             NaN             NaN
             NaN             NaN             NaN
             NaN             NaN             NaN
             NaN             NaN             NaN
             NaN             NaN             NaN
             NaN             NaN             NaN
             NaN             NaN             NaN
             NaN             NaN             NaN
             NaN             NaN             NaN
             NaN             NaN             NaN
             NaN             NaN             NaN
             NaN             NaN             NaN
             NaN             NaN             NaN
             NaN             NaN             NaN
             NaN             NaN             NaN
             NaN             NaN             NaN
             NaN             NaN             NaN
             NaN             NaN             NaN
             NaN             NaN             NaN
             NaN             NaN             NaN
             NaN             NaN             NaN
             NaN             NaN             NaN
             NaN             NaN             NaN
             NaN             NaN             NaN
             NaN             NaN             NaN
             NaN             NaN             NaN
