Na15 V32 O64
1.0
9.215342 0.000088 -0.002334
0.000111 11.524027 -0.000008
-0.002707 -0.000008 10.709140
Na V O
15 32 64
direct
0.740825 0.463517 0.153836 Na
0.741290 0.075492 0.152744 Na
0.741582 0.804836 0.151945 Na
0.241727 0.062756 0.348578 Na
0.242039 0.312684 0.348059 Na
0.241944 0.562371 0.348313 Na
0.241693 0.812474 0.348527 Na
0.258473 0.187302 0.848638 Na
0.258667 0.437451 0.848295 Na
0.258406 0.687577 0.848782 Na
0.258288 0.937398 0.848941 Na
0.758306 0.187341 0.650931 Na
0.758349 0.437537 0.651041 Na
0.758324 0.687238 0.650932 Na
0.758374 0.937562 0.651022 Na
0.586449 0.062676 0.895793 V
0.588702 0.312641 0.898094 V
0.587656 0.562316 0.896903 V
0.586624 0.812403 0.896226 V
0.087198 0.062445 0.603820 V
0.087091 0.312469 0.603800 V
0.087577 0.562568 0.603795 V
0.086514 0.812521 0.603842 V
0.412975 0.188329 0.103820 V
0.412103 0.437238 0.103624 V
0.413547 0.686794 0.103982 V
0.414305 0.937658 0.104116 V
0.912674 0.187983 0.395840 V
0.912630 0.437430 0.396023 V
0.912668 0.687014 0.395756 V
0.912714 0.937643 0.395682 V
0.560526 0.062702 0.385933 V
0.562863 0.312602 0.382440 V
0.561548 0.562246 0.384111 V
0.561125 0.812361 0.385456 V
0.061223 0.062341 0.114680 V
0.056453 0.312334 0.115394 V
0.058516 0.562836 0.115082 V
0.061085 0.812602 0.114752 V
0.439592 0.188666 0.614559 V
0.440217 0.436571 0.614324 V
0.439269 0.687834 0.614644 V
0.438627 0.936810 0.614857 V
0.939259 0.187688 0.885211 V
0.939740 0.437456 0.885125 V
0.939018 0.687391 0.885346 V
0.938827 0.937480 0.885539 V
0.793086 0.062528 0.853091 O
0.793840 0.312501 0.852711 O
0.793544 0.562472 0.852701 O
0.793048 0.812457 0.853407 O
0.293694 0.062528 0.646297 O
0.293380 0.312483 0.646733 O
0.294136 0.562494 0.646184 O
0.292679 0.812462 0.646912 O
0.206049 0.187466 0.146243 O
0.205288 0.437490 0.145959 O
0.206570 0.687696 0.146474 O
0.207198 0.937458 0.146903 O
0.706607 0.186409 0.357182 O
0.706691 0.437987 0.358540 O
0.706524 0.688084 0.356337 O
0.706400 0.937534 0.355040 O
0.889487 0.062483 0.519755 O
0.889616 0.312478 0.520106 O
0.889689 0.562558 0.520090 O
0.889287 0.812520 0.519568 O
0.388453 0.062307 0.980416 O
0.387535 0.312367 0.979974 O
0.387697 0.562687 0.980019 O
0.388826 0.812620 0.980642 O
0.111529 0.187465 0.480125 O
0.111716 0.437521 0.480228 O
0.111429 0.687570 0.480051 O
0.111293 0.937500 0.479955 O
0.609165 0.187862 0.018070 O
0.607784 0.437493 0.017025 O
0.610047 0.686886 0.018807 O
0.611450 0.937762 0.019928 O
0.979071 0.062797 0.282554 O
0.980009 0.312620 0.283857 O
0.979673 0.562348 0.283300 O
0.979087 0.812362 0.282639 O
0.479530 0.063010 0.217405 O
0.476983 0.312734 0.217331 O
0.477731 0.562068 0.217413 O
0.479923 0.812220 0.217327 O
0.020831 0.187304 0.716866 O
0.021135 0.437582 0.716820 O
0.020643 0.687644 0.716917 O
0.020427 0.937476 0.716999 O
0.520654 0.187657 0.782646 O
0.521270 0.437232 0.782440 O
0.520293 0.687843 0.782755 O
0.519669 0.937211 0.782944 O
0.577524 0.062273 0.571625 O
0.579348 0.312340 0.570089 O
0.577838 0.562710 0.570991 O
0.578859 0.812604 0.571147 O
0.078566 0.062099 0.928835 O
0.078497 0.312228 0.928477 O
0.078616 0.562956 0.928455 O
0.078501 0.812715 0.929132 O
0.422218 0.187731 0.429403 O
0.422670 0.437244 0.429281 O
0.421942 0.687696 0.429448 O
0.421509 0.937255 0.429546 O
0.923788 0.187388 0.069188 O
0.925237 0.437659 0.068475 O
0.922917 0.687404 0.069717 O
0.921736 0.937627 0.070527 O
