Na47 P16 S64                            
   1.00000000000000     
    13.6844249999999992   -0.0103370000000000    0.0000270000000000
    -0.0103880000000000   13.7020949999999999   -0.0001810000000000
    -0.0000220000000000    0.0001770000000000   14.0582170000000009
   Na   P    S 
    47    16    64
Direct
  0.6336546382112260  0.7536917563065444  0.7477306901943948
  0.9998514782258283  0.2503242301436543  0.2067296223264918
  0.9996425446340851  0.2500523803262880  0.7058147573310123
  0.9989650955416352  0.7505669554627019  0.2118403757392500
  0.9878571033358199  0.7513937612122632  0.7160711089037406
  0.4999940868476997  0.2496678156275038  0.2084067799768192
  0.5006770039171116  0.2501486903615202  0.7073405218056195
  0.5003018375768207  0.7497319932122934  0.2110862195560372
  0.2494515168392510  0.9996580246670419  0.2903164001251852
  0.2485056791581854  0.9984366519564603  0.7900174382867746
  0.2511067470134023  0.5007590372395399  0.2944404435241736
  0.2506537930901445  0.5022119966058938  0.7927945541011212
  0.7488295823859872  0.9989270632600835  0.2923698204534730
  0.7489844816237010  0.9900501289207497  0.7878940334501507
  0.7504046918498233  0.5008374145446126  0.2884107132202800
  0.7534627948238608  0.5102041740809895  0.7846292777269781
  0.2521941069699096  0.9989995825360580  0.0394536118478115
  0.2441377121890085  0.0004706271413824  0.5402054149397983
  0.2466323504979613  0.4996843983737236  0.0449369795484316
  0.2547675277649617  0.5038839804702420  0.5455604008517483
  0.7518542358323970  0.0002882852624211  0.0413674902495700
  0.7459804141772324  0.9982230080543886  0.5404912978320340
  0.7465663749831464  0.5003887632986803  0.0365118872796586
  0.7566778948719630  0.4986014856819025  0.5358748046587962
  0.5001902986247089  0.2515741872783863  0.4582668578519389
  0.5007655120033974  0.2480554056411108  0.9563243288000720
  0.5002617570454433  0.7515488630674341  0.4732151436047829
  0.4978237531343197  0.7472477355044376  0.9573129131134976
  0.9999814963929836  0.2488298572682126  0.4559456355609228
  0.9990158574960333  0.2519213339302908  0.9557375380437350
  0.0000941773097907  0.7485425309189822  0.4645699796601477
  0.9999597639588842  0.7521545710178401  0.9606461453173196
  0.9941401726396322  0.9990949133786771  0.5010545976164025
  0.0025737012163916  0.0077858586168347  0.0003525083208373
  0.0092770784634055  0.4957561328173909  0.4994186715608535
  0.9977610507850940  0.4996785052839741  0.9986209371300703
  0.4907979782934646  0.0024952463484311  0.4987871413491334
  0.5046184850476081  0.9984460058558398  0.9988910797432595
  0.5041810529578328  0.5040088030576513  0.5018039367477485
  0.4910114070733727  0.4932053709910349  0.0023953965791108
  0.2491598073191597  0.2515923204957105  0.2499269563482329
  0.2493091909306031  0.2519091525383530  0.7499321053007151
  0.2511012823412528  0.7492670867354718  0.2503305090740326
  0.2866197584879515  0.7482469155826763  0.7491584372338664
  0.7509614180288295  0.2484395138662805  0.2492400280845075
  0.7510374689970618  0.2481451053021146  0.7499309576401814
  0.7481994125881215  0.7508753529999268  0.2486020076943234
  0.4998948192849397  0.4998623350014668  0.2505806737790550
  0.4998842972916080  0.4982218167651666  0.7518200211719588
  0.4998480244567531  0.9998946603137355  0.2498026232964676
  0.4970131015968846  0.0008032720077367  0.7484017068805358
  0.0005834020837980  0.4997885314921007  0.2498680965543087
  0.0027193056311248  0.4980832683647733  0.7483758400986389
  0.9993323999190480  0.0005903569523724  0.2496624968381909
  0.9995668745116646  0.0027946068526887  0.7514967154821548
  0.2499705304377358  0.2503591661087157  0.0002232435407024
  0.2496772391326303  0.2510425467799564  0.4993238589560676
  0.2499384291244269  0.7481041586193200  0.0011388238807939
  0.2494427896129920  0.7528073759149763  0.4993548262729561
  0.7498609184906826  0.2493077229740521  0.9993926480339255
  0.7504112558122813  0.2490013312006809  0.4988907311111674
  0.7495414372048685  0.7500057554225563  0.0004319006603239
  0.7515659404055484  0.7482584959870877  0.4972060628004229
  0.1540224915223902  0.1736063022438472  0.0833396228108825
  0.1527843624999647  0.1748960567629183  0.5816167898896012
  0.1519235014320870  0.6750148195900039  0.0849296203895946
  0.1560525106805244  0.6774484863317767  0.5857240319802770
  0.6534592907256922  0.1736637828097614  0.0831357455371702
  0.6534971058744716  0.1743543778619454  0.5821164425298946
  0.6530461213151781  0.6738678775518636  0.0835154964348703
  0.6564187099156769  0.6669211810724676  0.5760715852369529
  0.3467076719719060  0.3260564990808561  0.0836085051381943
  0.3463846471486676  0.3263101568907061  0.5823439983180378
  0.3465214749172034  0.8249251712688661  0.0835025682452226
  0.3455468228420742  0.8314716385681606  0.5787711089431369
  0.8456927438447224  0.3266065185397267  0.0824914549070144
  0.8474446357274346  0.3246723377530500  0.5814573310904478
  0.8455597850889660  0.8261664514430151  0.0840628356477922
  0.8451028328185899  0.8259677874167508  0.5807887407792620
  0.1738603643835575  0.3479839581304631  0.4168127512178188
  0.1738561799094782  0.3474385803543001  0.9185480912025099
  0.1706520637394533  0.8450763030580148  0.4139168643862519
  0.1767232800409033  0.8423049401013571  0.9144565843333865
  0.6753976899746164  0.3452984615641270  0.4150787536862381
  0.6747244273495667  0.3448406083335058  0.9156293341140795
  0.6728316958741232  0.8439323288959812  0.4153430241607268
  0.6712981773039957  0.8486935326258873  0.9211757292958751
  0.3253801340312705  0.1548981985627691  0.4157330321813930
  0.3254384889872881  0.1545394790787498  0.9168186696232610
  0.3266848263645343  0.6558389279122423  0.4173179309878705
  0.3259815155697510  0.6481868002748143  0.9222149731858025
  0.8258423396148658  0.1516274280211434  0.4164950376813223
  0.8258450270949709  0.1521053000658625  0.9176890303503527
  0.8292389314473709  0.6552391290524966  0.4118670187260847
  0.8256629655184113  0.6556764183451591  0.9170363824179333
  0.0970409945773554  0.4234689776582385  0.1673096282195417
  0.1022807363102487  0.4214244543395935  0.6691645833707227
  0.0948333078148877  0.9249209686187214  0.1654999497844827
  0.0926836088197973  0.9246322898476222  0.6676326886996193
  0.5952186316937684  0.4238890998521470  0.1663623496222399
  0.5972752275161568  0.4246635004469539  0.6674986884730387
  0.5968770912091159  0.9241780570116234  0.1675813076439638
  0.5898672430880012  0.9271428352184472  0.6604747162494817
  0.4043893007946693  0.0756362809838791  0.1655959510531133
  0.3991847852692771  0.0784879813487791  0.6682933809158556
  0.4024364182454576  0.5755519145335199  0.1685421354779990
  0.4079155622871369  0.5795533877569667  0.6701912492321611
  0.9026161812736362  0.0770205130948156  0.1673707448477870
  0.9007847606308559  0.0764133866929981  0.6688630261810289
  0.9051562061098863  0.5753977821248526  0.1658466147243018
  0.9101390078449469  0.5722934050923030  0.6609484637119323
  0.0759920002881813  0.0964411440996642  0.3327969369087782
  0.0781244831202415  0.1014084104418558  0.8304051826194296
  0.0765610588059005  0.5958682372094941  0.3332493757635149
  0.0750275425713625  0.5948267912016902  0.8334718074580962
  0.5751540571896996  0.0965126393690525  0.3333775750134507
  0.5770728236461409  0.0958393788814078  0.8299411925082794
  0.5761141395438756  0.5960832374889335  0.3329604422089929
  0.5758812036633927  0.5853329117675017  0.8439711981852582
  0.4246311923501835  0.4034664393421750  0.3343476021216887
  0.4212686181548619  0.3989310816125027  0.8299553401236111
  0.4235676791125158  0.9037007997195872  0.3325038125609723
  0.4235034358709200  0.9061539241498195  0.8344529389832260
  0.9240327242849418  0.4035832053003787  0.3327303761787093
  0.9229954424217368  0.4026867156231830  0.8297455855639697
  0.9237391568357012  0.9043971240350714  0.3328685312113748
  0.9265311197650377  0.9095173071572376  0.8393032864535002
 
             NaN             NaN             NaN
             NaN             NaN             NaN
             NaN             NaN             NaN
             NaN             NaN             NaN
             NaN             NaN             NaN
             NaN             NaN             NaN
             NaN             NaN             NaN
             NaN             NaN             NaN
             NaN             NaN             NaN
             NaN             NaN             NaN
             NaN             NaN             NaN
             NaN             NaN             NaN
             NaN             NaN             NaN
             NaN             NaN             NaN
             NaN             NaN             NaN
             NaN             NaN             NaN
             NaN             NaN             NaN
             NaN             NaN             NaN
             NaN             NaN             NaN
             NaN             NaN             NaN
             NaN             NaN             NaN
             NaN             NaN             NaN
             NaN             NaN             NaN
             NaN             NaN             NaN
             NaN             NaN             NaN
             NaN             NaN             NaN
             NaN             NaN             NaN
             NaN             NaN             NaN
             NaN             NaN             NaN
             NaN             NaN             NaN
             NaN             NaN             NaN
             NaN             NaN             NaN
             NaN             NaN             NaN
             NaN             NaN             NaN
             NaN             NaN             NaN
             NaN             NaN             NaN
             NaN             NaN             NaN
             NaN             NaN             NaN
             NaN             NaN             NaN
             NaN             NaN             NaN
             NaN             NaN             NaN
             NaN             NaN             NaN
             NaN             NaN             NaN
             NaN             NaN             NaN
             NaN             NaN             NaN
             NaN             NaN             NaN
             NaN             NaN             NaN
             NaN             NaN             NaN
             NaN             NaN             NaN
             NaN             NaN             NaN
             NaN             NaN             NaN
             NaN             NaN             NaN
             NaN             NaN             NaN
             NaN             NaN             NaN
             NaN             NaN             NaN
             NaN             NaN             NaN
             NaN             NaN             NaN
             NaN             NaN             NaN
             NaN             NaN             NaN
             NaN             NaN             NaN
             NaN             NaN             NaN
             NaN             NaN             NaN
             NaN             NaN             NaN
             NaN             NaN             NaN
             NaN             NaN             NaN
             NaN             NaN             NaN
             NaN             NaN             NaN
             NaN             NaN             NaN
             NaN             NaN             NaN
             NaN             NaN             NaN
             NaN             NaN             NaN
             NaN             NaN             NaN
             NaN             NaN             NaN
             NaN             NaN             NaN
             NaN             NaN             NaN
             NaN             NaN             NaN
             NaN             NaN             NaN
             NaN             NaN             NaN
             NaN             NaN             NaN
             NaN             NaN             NaN
             NaN             NaN             NaN
             NaN             NaN             NaN
             NaN             NaN             NaN
             NaN             NaN             NaN
             NaN             NaN             NaN
             NaN             NaN             NaN
             NaN             NaN             NaN
             NaN             NaN             NaN
             NaN             NaN             NaN
             NaN             NaN             NaN
             NaN             NaN             NaN
             NaN             NaN             NaN
             NaN             NaN             NaN
             NaN             NaN             NaN
             NaN             NaN             NaN
             NaN             NaN             NaN
             NaN             NaN             NaN
             NaN             NaN             NaN
             NaN             NaN             NaN
             NaN             NaN             NaN
             NaN             NaN             NaN
             NaN             NaN             NaN
             NaN             NaN             NaN
             NaN             NaN             NaN
             NaN             NaN             NaN
             NaN             NaN             NaN
             NaN             NaN             NaN
             NaN             NaN             NaN
             NaN             NaN             NaN
             NaN             NaN             NaN
             NaN             NaN             NaN
             NaN             NaN             NaN
             NaN             NaN             NaN
             NaN             NaN             NaN
             NaN             NaN             NaN
             NaN             NaN             NaN
             NaN             NaN             NaN
             NaN             NaN             NaN
             NaN             NaN             NaN
             NaN             NaN             NaN
             NaN             NaN             NaN
             NaN             NaN             NaN
             NaN             NaN             NaN
             NaN             NaN             NaN
             NaN             NaN             NaN
             NaN             NaN             NaN
             NaN             NaN             NaN
