Li46 P16 O64                            
   1.00000000000000     
    10.4265589999999992    0.0070230000000000   -0.0049130000000000
     0.0076500000000000   12.1828179999999993    0.0014910000000000
    -0.0045620000000000    0.0007570000000000    9.7994439999999994
   Li   P    O 
    46    16    64
Direct
  0.3930821530218531  0.3709129585629589  0.1333545629794555
  0.6635371387076088  0.2490312085635422  0.6010344920783178
  0.6615519167614471  0.7471378328560382  0.0978100755406855
  0.6634822062181713  0.7503473915652156  0.5984634382701834
  0.1603978641523588  0.5001708178196443  0.1537252909023170
  0.1638571536293371  0.5012288521280280  0.6522136554136794
  0.1661536174018509  0.9945242033292128  0.1546154664619319
  0.1635186869842804  0.9993218043491886  0.6528658871123583
  0.3351087457136671  0.9993190232708893  0.4042140331480166
  0.3362003158581148  0.9993113573466721  0.9009542833566533
  0.3347761161525086  0.5017569249320019  0.4048368451504859
  0.3356900744546282  0.4990196240954684  0.9040919516941632
  0.8338718156009025  0.2496315010944817  0.3483273486614141
  0.8357226491484367  0.2498944828513806  0.8517815832492546
  0.8350935738350775  0.7482478450983905  0.3482650374645362
  0.8352789359335343  0.7487550825531850  0.8478337124243372
  0.3351455251750280  0.2456586227295301  0.4051337446265917
  0.3350601154447486  0.2476474862794897  0.9002974752450876
  0.3358911079992176  0.7483410746486407  0.4023627112512981
  0.3353860847342033  0.7476633252937118  0.9019627089211650
  0.8368132980369329  0.0011849784776015  0.3506785388086657
  0.8349250666993370  0.0007639671465376  0.8450310532290237
  0.8336916719398418  0.4995346139838245  0.3455738753566325
  0.8350968264158609  0.4998558027921441  0.8502999313820330
  0.6608020045933324  0.4894815365671105  0.0949766265317023
  0.6649968834206188  0.5006848613175012  0.5956347173403026
  0.6662964963686495  0.9942348664779201  0.0963536726382226
  0.6639733573177983  0.9984540452870067  0.5975515069083485
  0.1629216586457294  0.2514530834693138  0.6502867321044135
  0.1630168549300418  0.7496593080798344  0.1525232552947992
  0.1637646708692887  0.7513072268239447  0.6521524067320013
  0.9303185061937274  0.3743169550476086  0.1469054498714474
  0.9226508259358619  0.3755260679492437  0.6524614222061642
  0.9221837168951575  0.8725831859312398  0.1494707880231333
  0.9231345341805887  0.8751158009859850  0.6485169719484549
  0.4186988033909358  0.3745353478568062  0.6042906581916236
  0.4239138254452737  0.8711944327933240  0.1006975673076328
  0.4236201377906890  0.8743008350614504  0.6015565837272921
  0.0803795267524252  0.1291140840550880  0.3441287795536968
  0.0784498584270225  0.1269887989611160  0.8550369339893004
  0.0750031371308204  0.6247050720749584  0.3526626061668922
  0.0754863479516575  0.6246432198949180  0.8505679039032034
  0.5773586096963269  0.1245432601721662  0.3951541033071634
  0.5790573867540761  0.1264389028180066  0.9062607299425721
  0.5759191681448602  0.6240948714788528  0.3985488453359172
  0.5760982745734647  0.6220540744153982  0.8990401527489688
  0.9124625608284233  0.1213239822848971  0.0950104508134492
  0.9131520818311698  0.1254720768619019  0.5950999492851207
  0.9094720328342367  0.6243213880478216  0.0955863771212614
  0.9110193843630262  0.6251289473691314  0.5953649076132440
  0.4116334078737178  0.1188874084434398  0.1549662903520624
  0.4125862754475199  0.1230722662293839  0.6553609852656205
  0.4105114569249677  0.6231706673160964  0.1548040652811645
  0.4115441031696614  0.6249825477123818  0.6551097368571669
  0.0884246651039611  0.3752444953205618  0.4062925343329197
  0.0893271601213998  0.3766452966044803  0.9048047771270119
  0.0878820399876990  0.8746017533633501  0.4050424798120675
  0.0873420378015286  0.8746684795087933  0.9048176120125874
  0.5835294488056543  0.3744718578659153  0.3453597363041379
  0.5857323062432752  0.3735892064475200  0.8392065354734815
  0.5880496020819708  0.8736278322888684  0.3454059568054698
  0.5880439428685055  0.8732937593754972  0.8453478480525486
  0.8386466882661916  0.0209380216462548  0.1482505139130573
  0.8418156129305895  0.0220554715042452  0.6454383848263380
  0.8398102501340835  0.5204333012176366  0.1456580237052245
  0.8412918344321829  0.5223985813832152  0.6489841335914953
  0.3513783518624990  0.2231501191837937  0.0955022081472202
  0.3414211928133944  0.2265982487837487  0.6053431464003487
  0.3409481363073025  0.7271388169352059  0.1031471582388780
  0.3414931258303968  0.7288117911051832  0.6040975473820658
  0.1595907898558893  0.2701748577450681  0.3665755323955617
  0.1584551637909099  0.2732544233527686  0.8513660439970840
  0.1580600495653369  0.7709563528402382  0.3539285487090893
  0.1575530595625187  0.7712723294597922  0.8532400738628872
  0.6558286997301154  0.4771686209656046  0.3973502283133314
  0.6565923387154280  0.4746501338854666  0.8953274282070611
  0.6585735586065227  0.9769166992796859  0.3962712666859490
  0.6592662200867989  0.9758167156665398  0.8974274557641634
  0.1585799813687047  0.4779603357207280  0.3532142502450223
  0.1586783402249018  0.4794333156500459  0.8487374070658312
  0.1585066561222711  0.9774536851513828  0.3533357423090294
  0.1579259810267257  0.9778830895161923  0.8540363881301869
  0.6553243091946747  0.2716358162040095  0.3967403789492923
  0.6555541334794325  0.2673667056164437  0.8780995729269711
  0.6578937101537051  0.7703357427651559  0.3977662976718448
  0.6573712589075379  0.7692457920090608  0.8965433641715991
  0.8567851954955251  0.2281903724210636  0.1524073994600539
  0.8425496295992522  0.2287514579763192  0.6466807522725936
  0.8384301882458419  0.7274614501523541  0.1472333752792233
  0.8410653254332449  0.7289243028174937  0.6463204694580968
  0.3393230462584279  0.0169003323326809  0.1039179754585193
  0.3414441893902920  0.0201118991565064  0.6036042664259252
  0.3371771823722762  0.5212076278841442  0.1045827875762926
  0.3406936215835078  0.5225388036553337  0.6025247285940369
  0.5497463499768122  0.1137322834296642  0.1033584411818339
  0.5504400096635871  0.1234616700418734  0.6001231098403793
  0.5488856025987804  0.6214001178331116  0.1013887998591685
  0.5504325209070082  0.6251541983906633  0.6028119312318194
  0.0507561981810188  0.1149162421947884  0.1465299727613410
  0.0512137299722500  0.1249985089017505  0.6497459449050461
  0.0479505064151212  0.6257070904642925  0.1495542380398817
  0.0504654849707500  0.6262674905329633  0.6460309494146934
  0.4447751969410510  0.3737120671174867  0.4008121720900361
  0.4456406064205082  0.3726807655668116  0.8864234321894341
  0.4489730717482808  0.8742063159819646  0.3972829376883658
  0.4490389307100859  0.8735936443038890  0.8976208485479095
  0.9500855675420705  0.3742690067469735  0.3517354786193904
  0.9492829302047581  0.3751998868479172  0.8534964638273954
  0.9488731732230827  0.8744104797646091  0.3523407948318748
  0.9483323044821345  0.8750430314498195  0.8524534765657439
  0.5757924251161219  0.3769461737348339  0.1901440176412868
  0.5877069031939600  0.3785274491857047  0.6813657396348245
  0.5887357565926156  0.8724761351314727  0.1879599131677668
  0.5888609147910639  0.8742478364030442  0.6880132770890621
  0.0914135892183758  0.3809117542624212  0.0600627393026243
  0.0859017545751752  0.3792961460523637  0.5639815165518171
  0.0875271096660806  0.8738721362877719  0.0623241841255412
  0.0883774467044888  0.8751195742001598  0.5623224851056031
  0.4085982440325479  0.1223142391386250  0.3115506312454924
  0.4133385460098292  0.1221266887257172  0.8124322254188950
  0.4106905760643050  0.6240617067036988  0.3122499174269018
  0.4107828350308567  0.6238972538382879  0.8123881879736333
  0.9134579063839047  0.1257000163317045  0.4377876330982278
  0.9089067565440241  0.1230546492989129  0.9385108920975274
  0.9087839099958495  0.6235963448639026  0.4379395986945885
  0.9101291027998386  0.6251256720506934  0.9381674950241715
 
             NaN             NaN             NaN
             NaN             NaN             NaN
             NaN             NaN             NaN
             NaN             NaN             NaN
             NaN             NaN             NaN
             NaN             NaN             NaN
             NaN             NaN             NaN
             NaN             NaN             NaN
             NaN             NaN             NaN
             NaN             NaN             NaN
             NaN             NaN             NaN
             NaN             NaN             NaN
             NaN             NaN             NaN
             NaN             NaN             NaN
             NaN             NaN             NaN
             NaN             NaN             NaN
             NaN             NaN             NaN
             NaN             NaN             NaN
             NaN             NaN             NaN
             NaN             NaN             NaN
             NaN             NaN             NaN
             NaN             NaN             NaN
             NaN             NaN             NaN
             NaN             NaN             NaN
             NaN             NaN             NaN
             NaN             NaN             NaN
             NaN             NaN             NaN
             NaN             NaN             NaN
             NaN             NaN             NaN
             NaN             NaN             NaN
             NaN             NaN             NaN
             NaN             NaN             NaN
             NaN             NaN             NaN
             NaN             NaN             NaN
             NaN             NaN             NaN
             NaN             NaN             NaN
             NaN             NaN             NaN
             NaN             NaN             NaN
             NaN             NaN             NaN
             NaN             NaN             NaN
             NaN             NaN             NaN
             NaN             NaN             NaN
             NaN             NaN             NaN
             NaN             NaN             NaN
             NaN             NaN             NaN
             NaN             NaN             NaN
             NaN             NaN             NaN
             NaN             NaN             NaN
             NaN             NaN             NaN
             NaN             NaN             NaN
             NaN             NaN             NaN
             NaN             NaN             NaN
             NaN             NaN             NaN
             NaN             NaN             NaN
             NaN             NaN             NaN
             NaN             NaN             NaN
             NaN             NaN             NaN
             NaN             NaN             NaN
             NaN             NaN             NaN
             NaN             NaN             NaN
             NaN             NaN             NaN
             NaN             NaN             NaN
             NaN             NaN             NaN
             NaN             NaN             NaN
             NaN             NaN             NaN
             NaN             NaN             NaN
             NaN             NaN             NaN
             NaN             NaN             NaN
             NaN             NaN             NaN
             NaN             NaN             NaN
             NaN             NaN             NaN
             NaN             NaN             NaN
             NaN             NaN             NaN
             NaN             NaN             NaN
             NaN             NaN             NaN
             NaN             NaN             NaN
             NaN             NaN             NaN
             NaN             NaN             NaN
             NaN             NaN             NaN
             NaN             NaN             NaN
             NaN             NaN             NaN
             NaN             NaN             NaN
             NaN             NaN             NaN
             NaN             NaN             NaN
             NaN             NaN             NaN
             NaN             NaN             NaN
             NaN             NaN             NaN
             NaN             NaN             NaN
             NaN             NaN             NaN
             NaN             NaN             NaN
             NaN             NaN             NaN
             NaN             NaN             NaN
             NaN             NaN             NaN
             NaN             NaN             NaN
             NaN             NaN             NaN
             NaN             NaN             NaN
             NaN             NaN             NaN
             NaN             NaN             NaN
             NaN             NaN             NaN
             NaN             NaN             NaN
             NaN             NaN             NaN
             NaN             NaN             NaN
             NaN             NaN             NaN
             NaN             NaN             NaN
             NaN             NaN             NaN
             NaN             NaN             NaN
             NaN             NaN             NaN
             NaN             NaN             NaN
             NaN             NaN             NaN
             NaN             NaN             NaN
             NaN             NaN             NaN
             NaN             NaN             NaN
             NaN             NaN             NaN
             NaN             NaN             NaN
             NaN             NaN             NaN
             NaN             NaN             NaN
             NaN             NaN             NaN
             NaN             NaN             NaN
             NaN             NaN             NaN
             NaN             NaN             NaN
             NaN             NaN             NaN
             NaN             NaN             NaN
             NaN             NaN             NaN
             NaN             NaN             NaN
             NaN             NaN             NaN
             NaN             NaN             NaN
