Li48 P16 O64                            
   1.00000000000000     
    10.4263586003622652    0.0000121053157549   -0.0159392088897499
     0.0000133062587440   12.2577138204776173   -0.0000088665062070
    -0.0151002203033052   -0.0000100709565711    9.8277909280295397
   Li   P    O 
    47    16    64
Direct
  0.1647347699492627  0.2526408454429614  0.1510205766738437
  0.6545346652482920  0.2534103005451556  0.0971858762252751
  0.6666262065310775  0.2490779036875139  0.5977470550494814
  0.6632727637295162  0.7500016612087705  0.0976170612395819
  0.6643687178843720  0.7505532861568227  0.5984779913128477
  0.1647716560682682  0.4973433517452577  0.1509934148989913
  0.1653816111262074  0.4983916767750287  0.6524077105191068
  0.1644817634823994  0.9986442724726246  0.1519590477025687
  0.1652284193842632  0.9986577346784244  0.6526740499415524
  0.3370551175586627  0.0007388255718865  0.4003821765689679
  0.3364386078669241  0.0009369276706508  0.9051207932659437
  0.3398301871212794  0.4982330473580987  0.3969786637007360
  0.3381885157631004  0.4961592290775911  0.9095130384276828
  0.8353337030614725  0.2490261348844882  0.3471760357577338
  0.8332573055073524  0.2491544965867405  0.8494878185274359
  0.8365882676159515  0.7483934309102622  0.3480062052215303
  0.8364667407756841  0.7487612846312928  0.8475520229210076
  0.3398174333918860  0.2517601677436403  0.3970099945163241
  0.3381882384914761  0.2538493434161282  0.9095682642529255
  0.3370638868045077  0.7492526410541913  0.4003499309535741
  0.3364440582457462  0.7490852959241607  0.9050857561996963
  0.8365752828455086  0.0016015474540296  0.3480130561095862
  0.8364599014560170  0.0012409163523586  0.8475663893039993
  0.8353427960877724  0.5009660691550764  0.3471675116733977
  0.8332706165344064  0.5008481853804483  0.8494717623789541
  0.6545490400354055  0.4965873949068751  0.0971589148838206
  0.6666317262406452  0.5009242043871751  0.5977461309827490
  0.6632542911457548  0.0000054019350912  0.0976248294763806
  0.6643600030319234  0.9994565751852278  0.5985006565870492
  0.1653733944603673  0.2516099663901272  0.6524230002171763
  0.1644979887202993  0.7513437144738830  0.1519284734269206
  0.1652357699438554  0.7513411163302806  0.6526553384605052
  0.9186130313660286  0.3749944434969308  0.1478433541149329
  0.9216196059735111  0.3749991126386618  0.6493298901893496
  0.9220988957832930  0.8749975455224615  0.1493679665793266
  0.9239137167447282  0.8750025611240773  0.6485856950572639
  0.4276829392160195  0.3750025168916054  0.6076439108485943
  0.4282179650896509  0.8749955190442691  0.1015179218282114
  0.4244323158745118  0.8749984073305797  0.6005233564654802
  0.0779376555024669  0.1259338071016174  0.3506257357977773
  0.0778338676188497  0.1260505437778434  0.8525659214222685
  0.0779545892940448  0.6240500823141062  0.3505951365946274
  0.0778455438523835  0.6239534823953363  0.8525524723204398
  0.5763116964638897  0.1266798432735357  0.3995518255993105
  0.5736064563878216  0.1262135068441097  0.8992003056819300
  0.5763234740066352  0.6233196766303095  0.3995199939866012
  0.5736289015272504  0.6238048393407212  0.8991664891558528
  0.9106702609103792  0.1248406840594285  0.0954263205435595
  0.9137816413544826  0.1243686719925421  0.5955190172011555
  0.9106832223804417  0.6251544261266346  0.0954132801134122
  0.9137947139024902  0.6256315356534969  0.5955070124800770
  0.4090294560663352  0.1205997571910018  0.1538973375760477
  0.4112020733380177  0.1245194163045937  0.6547355655791591
  0.4090550146068921  0.6293982753451459  0.1538556549628751
  0.4112146993684931  0.6254873399131569  0.6547161915007607
  0.0878553904646182  0.3749956964975283  0.4045628005052890
  0.0855452040143874  0.3749986485771331  0.9045789607365720
  0.0879478422796396  0.8749973973270784  0.4049354496726210
  0.0875969701058423  0.8750030662435222  0.9051330353682729
  0.5923803401043699  0.3750002803407355  0.3488377295424883
  0.5868812342375236  0.3750002721390757  0.8386269494351382
  0.5900033034858012  0.8749989390127624  0.3459014724267817
  0.5889988427959167  0.8750061165597103  0.8447344488104704
  0.8412325323873802  0.0214206349932766  0.1466743605832619
  0.8434711144963245  0.0212688671979535  0.6462816272642442
  0.8390791612375637  0.5231505632762463  0.1460436420740194
  0.8439820128176621  0.5236236635834430  0.6486092644031132
  0.3315265963090042  0.2153261859426863  0.0980336762661551
  0.3420108258576349  0.2267255606755612  0.6005997778419427
  0.3442891171974267  0.7373543156299860  0.1082555859973695
  0.3421961594661767  0.7289976910031299  0.6021317424335706
  0.1581218627535321  0.2722677951553010  0.3535333933132492
  0.1557550246960702  0.2724426487373819  0.8529754892716710
  0.1576122819896852  0.7721679196876892  0.3534037279928697
  0.1580679439489998  0.7722568454483110  0.8541978599589655
  0.6613357241405424  0.4786264219435026  0.4032563598507366
  0.6541064337292042  0.4777651747632703  0.8963145283197420
  0.6595221070990789  0.9780066689325935  0.3983393208353334
  0.6589129979897592  0.9779768288643922  0.8964324867447289
  0.1581312055980248  0.4777143141968949  0.3535170085239940
  0.1557513897694065  0.4775538730281212  0.8529676211774131
  0.1576114821299370  0.9778300221390310  0.3534154782725523
  0.1580616846240233  0.9777565529653103  0.8542137424441734
  0.6613323341670707  0.2713707398846807  0.4032521042163353
  0.6540977319762220  0.2722387285994117  0.8963377436365434
  0.6595302134681731  0.7719909197196841  0.3983261939961196
  0.6589225466493005  0.7720398321154320  0.8964326681658576
  0.8390651363082071  0.2268427440364462  0.1460572997602014
  0.8439714926994171  0.2263800930561786  0.6486149147759193
  0.8412489181236751  0.7285728614273523  0.1466757799838732
  0.8434780931721235  0.7287311693210441  0.6462650817109861
  0.3442658033277581  0.0126436829090011  0.1082940206373237
  0.3421899102787123  0.0210035902524837  0.6021583014550203
  0.3315511712070887  0.5346723560369284  0.0979890194449382
  0.3420194204137772  0.5232798270197918  0.6005869319960482
  0.5482074972635047  0.1226037276401399  0.1010155834682323
  0.5511413194535422  0.1239768139216864  0.6049891165340853
  0.5482300143161964  0.6273973589725585  0.1009736166373401
  0.5511548008031824  0.6260320782860305  0.6049718673015860
  0.0495719716619902  0.1249666272766916  0.1483076559803962
  0.0530313854197502  0.1239416277599545  0.6473376657481964
  0.0495954140646617  0.6250243332676604  0.1482630728078718
  0.0530450118330918  0.6260621461786329  0.6473221690845676
  0.4538309354918511  0.3750004255177473  0.4023367249558802
  0.4439841445820107  0.3750022102513952  0.8684282836173409
  0.4508170107879721  0.8749979981763119  0.3969200879851158
  0.4499189131337005  0.8750100679455173  0.8955590254445625
  0.9487571442003784  0.3749979853623273  0.3516399036126003
  0.9460704196381329  0.3749983797994503  0.8522352136867966
  0.9484904692472469  0.8749992680000958  0.3532903020789036
  0.9488038384689688  0.8750017225378741  0.8516538259771096
  0.6004199595126209  0.3750036372357570  0.1946509718949159
  0.6029154363844000  0.3749986622624917  0.6822821315232872
  0.5931118846285770  0.8749987563180284  0.1890589233579618
  0.5906985163122727  0.8750010105565238  0.6877022458009137
  0.0846767608334176  0.3749953713363539  0.0614440604909845
  0.0877922916045080  0.3750009557972405  0.5617315212995990
  0.0870062235562443  0.8749957499574919  0.0619944730546464
  0.0893773675418785  0.8749967648701045  0.5620173012637579
  0.4114167108620990  0.1239125096029952  0.3114506155520971
  0.4080927645046515  0.1244655686911642  0.8115486452801832
  0.4114295385204301  0.6260805574146531  0.3114106050738812
  0.4081066323342810  0.6255442780696967  0.8115296049677667
  0.9122872854869613  0.1250389278756003  0.4384763069813289
  0.9106359149646579  0.1245495672654755  0.9382402298947881
  0.9123048645061971  0.6249573747743824  0.4384639422726551
  0.9106428178252628  0.6254550840335469  0.9382268035484245
 
  0.00000000E+00  0.00000000E+00  0.00000000E+00
  0.00000000E+00  0.00000000E+00  0.00000000E+00
  0.00000000E+00  0.00000000E+00  0.00000000E+00
  0.00000000E+00  0.00000000E+00  0.00000000E+00
  0.00000000E+00  0.00000000E+00  0.00000000E+00
  0.00000000E+00  0.00000000E+00  0.00000000E+00
  0.00000000E+00  0.00000000E+00  0.00000000E+00
  0.00000000E+00  0.00000000E+00  0.00000000E+00
  0.00000000E+00  0.00000000E+00  0.00000000E+00
  0.00000000E+00  0.00000000E+00  0.00000000E+00
  0.00000000E+00  0.00000000E+00  0.00000000E+00
  0.00000000E+00  0.00000000E+00  0.00000000E+00
  0.00000000E+00  0.00000000E+00  0.00000000E+00
  0.00000000E+00  0.00000000E+00  0.00000000E+00
  0.00000000E+00  0.00000000E+00  0.00000000E+00
  0.00000000E+00  0.00000000E+00  0.00000000E+00
  0.00000000E+00  0.00000000E+00  0.00000000E+00
  0.00000000E+00  0.00000000E+00  0.00000000E+00
  0.00000000E+00  0.00000000E+00  0.00000000E+00
  0.00000000E+00  0.00000000E+00  0.00000000E+00
  0.00000000E+00  0.00000000E+00  0.00000000E+00
  0.00000000E+00  0.00000000E+00  0.00000000E+00
  0.00000000E+00  0.00000000E+00  0.00000000E+00
  0.00000000E+00  0.00000000E+00  0.00000000E+00
  0.00000000E+00  0.00000000E+00  0.00000000E+00
  0.00000000E+00  0.00000000E+00  0.00000000E+00
  0.00000000E+00  0.00000000E+00  0.00000000E+00
  0.00000000E+00  0.00000000E+00  0.00000000E+00
  0.00000000E+00  0.00000000E+00  0.00000000E+00
  0.00000000E+00  0.00000000E+00  0.00000000E+00
  0.00000000E+00  0.00000000E+00  0.00000000E+00
  0.00000000E+00  0.00000000E+00  0.00000000E+00
  0.00000000E+00  0.00000000E+00  0.00000000E+00
  0.00000000E+00  0.00000000E+00  0.00000000E+00
  0.00000000E+00  0.00000000E+00  0.00000000E+00
  0.00000000E+00  0.00000000E+00  0.00000000E+00
  0.00000000E+00  0.00000000E+00  0.00000000E+00
  0.00000000E+00  0.00000000E+00  0.00000000E+00
  0.00000000E+00  0.00000000E+00  0.00000000E+00
  0.00000000E+00  0.00000000E+00  0.00000000E+00
  0.00000000E+00  0.00000000E+00  0.00000000E+00
  0.00000000E+00  0.00000000E+00  0.00000000E+00
  0.00000000E+00  0.00000000E+00  0.00000000E+00
  0.00000000E+00  0.00000000E+00  0.00000000E+00
  0.00000000E+00  0.00000000E+00  0.00000000E+00
  0.00000000E+00  0.00000000E+00  0.00000000E+00
  0.00000000E+00  0.00000000E+00  0.00000000E+00
  0.00000000E+00  0.00000000E+00  0.00000000E+00
  0.00000000E+00  0.00000000E+00  0.00000000E+00
  0.00000000E+00  0.00000000E+00  0.00000000E+00
  0.00000000E+00  0.00000000E+00  0.00000000E+00
  0.00000000E+00  0.00000000E+00  0.00000000E+00
  0.00000000E+00  0.00000000E+00  0.00000000E+00
  0.00000000E+00  0.00000000E+00  0.00000000E+00
  0.00000000E+00  0.00000000E+00  0.00000000E+00
  0.00000000E+00  0.00000000E+00  0.00000000E+00
  0.00000000E+00  0.00000000E+00  0.00000000E+00
  0.00000000E+00  0.00000000E+00  0.00000000E+00
  0.00000000E+00  0.00000000E+00  0.00000000E+00
  0.00000000E+00  0.00000000E+00  0.00000000E+00
  0.00000000E+00  0.00000000E+00  0.00000000E+00
  0.00000000E+00  0.00000000E+00  0.00000000E+00
  0.00000000E+00  0.00000000E+00  0.00000000E+00
  0.00000000E+00  0.00000000E+00  0.00000000E+00
  0.00000000E+00  0.00000000E+00  0.00000000E+00
  0.00000000E+00  0.00000000E+00  0.00000000E+00
  0.00000000E+00  0.00000000E+00  0.00000000E+00
  0.00000000E+00  0.00000000E+00  0.00000000E+00
  0.00000000E+00  0.00000000E+00  0.00000000E+00
  0.00000000E+00  0.00000000E+00  0.00000000E+00
  0.00000000E+00  0.00000000E+00  0.00000000E+00
  0.00000000E+00  0.00000000E+00  0.00000000E+00
  0.00000000E+00  0.00000000E+00  0.00000000E+00
  0.00000000E+00  0.00000000E+00  0.00000000E+00
  0.00000000E+00  0.00000000E+00  0.00000000E+00
  0.00000000E+00  0.00000000E+00  0.00000000E+00
  0.00000000E+00  0.00000000E+00  0.00000000E+00
  0.00000000E+00  0.00000000E+00  0.00000000E+00
  0.00000000E+00  0.00000000E+00  0.00000000E+00
  0.00000000E+00  0.00000000E+00  0.00000000E+00
  0.00000000E+00  0.00000000E+00  0.00000000E+00
  0.00000000E+00  0.00000000E+00  0.00000000E+00
  0.00000000E+00  0.00000000E+00  0.00000000E+00
  0.00000000E+00  0.00000000E+00  0.00000000E+00
  0.00000000E+00  0.00000000E+00  0.00000000E+00
  0.00000000E+00  0.00000000E+00  0.00000000E+00
  0.00000000E+00  0.00000000E+00  0.00000000E+00
  0.00000000E+00  0.00000000E+00  0.00000000E+00
  0.00000000E+00  0.00000000E+00  0.00000000E+00
  0.00000000E+00  0.00000000E+00  0.00000000E+00
  0.00000000E+00  0.00000000E+00  0.00000000E+00
  0.00000000E+00  0.00000000E+00  0.00000000E+00
  0.00000000E+00  0.00000000E+00  0.00000000E+00
  0.00000000E+00  0.00000000E+00  0.00000000E+00
  0.00000000E+00  0.00000000E+00  0.00000000E+00
  0.00000000E+00  0.00000000E+00  0.00000000E+00
  0.00000000E+00  0.00000000E+00  0.00000000E+00
  0.00000000E+00  0.00000000E+00  0.00000000E+00
  0.00000000E+00  0.00000000E+00  0.00000000E+00
  0.00000000E+00  0.00000000E+00  0.00000000E+00
  0.00000000E+00  0.00000000E+00  0.00000000E+00
  0.00000000E+00  0.00000000E+00  0.00000000E+00
  0.00000000E+00  0.00000000E+00  0.00000000E+00
  0.00000000E+00  0.00000000E+00  0.00000000E+00
  0.00000000E+00  0.00000000E+00  0.00000000E+00
  0.00000000E+00  0.00000000E+00  0.00000000E+00
  0.00000000E+00  0.00000000E+00  0.00000000E+00
  0.00000000E+00  0.00000000E+00  0.00000000E+00
  0.00000000E+00  0.00000000E+00  0.00000000E+00
  0.00000000E+00  0.00000000E+00  0.00000000E+00
  0.00000000E+00  0.00000000E+00  0.00000000E+00
  0.00000000E+00  0.00000000E+00  0.00000000E+00
  0.00000000E+00  0.00000000E+00  0.00000000E+00
  0.00000000E+00  0.00000000E+00  0.00000000E+00
  0.00000000E+00  0.00000000E+00  0.00000000E+00
  0.00000000E+00  0.00000000E+00  0.00000000E+00
  0.00000000E+00  0.00000000E+00  0.00000000E+00
  0.00000000E+00  0.00000000E+00  0.00000000E+00
  0.00000000E+00  0.00000000E+00  0.00000000E+00
  0.00000000E+00  0.00000000E+00  0.00000000E+00
  0.00000000E+00  0.00000000E+00  0.00000000E+00
  0.00000000E+00  0.00000000E+00  0.00000000E+00
  0.00000000E+00  0.00000000E+00  0.00000000E+00
  0.00000000E+00  0.00000000E+00  0.00000000E+00
  0.00000000E+00  0.00000000E+00  0.00000000E+00
  0.00000000E+00  0.00000000E+00  0.00000000E+00
  0.00000000E+00  0.00000000E+00  0.00000000E+00
