Na47 P16 S64
1.0
13.942458 -0.013525 0.000011
-0.013576 13.960497 0.000084
0.000036 0.000048 14.266973
Na P S
47 16 64
direct
0.630189 0.749192 0.739115 Na
0.999909 0.250444 0.206905 Na
0.999503 0.250179 0.706202 Na
0.999544 0.750430 0.212308 Na
0.988579 0.751492 0.717773 Na
0.500086 0.249557 0.208252 Na
0.500496 0.249820 0.707924 Na
0.500450 0.749573 0.211334 Na
0.249409 0.999320 0.289195 Na
0.248089 0.998493 0.787985 Na
0.251655 0.500641 0.295145 Na
0.250466 0.503148 0.793730 Na
0.748361 0.998993 0.293119 Na
0.748222 0.985921 0.788226 Na
0.750574 0.501048 0.287173 Na
0.753226 0.512434 0.782484 Na
0.253276 0.998659 0.038077 Na
0.243578 1.000578 0.539018 Na
0.247274 0.499465 0.045260 Na
0.255242 0.503513 0.545764 Na
0.752829 1.000630 0.041907 Na
0.744475 0.997387 0.542223 Na
0.746618 0.501255 0.034733 Na
0.756709 0.498516 0.535476 Na
0.999881 0.248944 0.456278 Na
0.999073 0.252206 0.955784 Na
0.999965 0.748842 0.465248 Na
0.999971 0.752488 0.962357 Na
0.500126 0.251054 0.458096 Na
0.500930 0.247791 0.956509 Na
0.500033 0.751156 0.475037 Na
0.500021 0.747508 0.953051 Na
0.992437 0.999646 0.500983 Na
0.002369 0.007775 0.000357 Na
0.009700 0.496410 0.499456 Na
0.998234 0.498814 0.998829 Na
0.492904 0.000777 0.499796 Na
0.506675 0.997045 0.999548 Na
0.504953 0.503161 0.501328 Na
0.492730 0.496360 0.001076 Na
0.248659 0.251505 0.249803 Na
0.248984 0.252811 0.750033 Na
0.251461 0.748494 0.250258 Na
0.287484 0.749315 0.749960 Na
0.751342 0.248493 0.249427 Na
0.751010 0.247190 0.750276 Na
0.748530 0.751506 0.249886 Na
0.999339 0.000786 0.249867 P
0.998709 0.002760 0.751120 P
0.001000 0.499712 0.249699 P
0.002218 0.498495 0.748764 P
0.499637 0.999883 0.250231 P
0.498241 0.999829 0.749010 P
0.500025 0.499622 0.250401 P
0.500839 0.498919 0.751368 P
0.249787 0.250253 0.000094 P
0.249543 0.251210 0.499412 P
0.250624 0.748138 0.000851 P
0.249484 0.752006 0.499154 P
0.750216 0.249752 0.999886 P
0.750477 0.248786 0.498979 P
0.749362 0.751870 0.001521 P
0.750517 0.747995 0.497847 P
0.154984 0.173256 0.082554 S
0.154095 0.175413 0.581838 S
0.153801 0.674936 0.084150 S
0.156710 0.676510 0.584052 S
0.655190 0.173982 0.083345 S
0.654341 0.174464 0.581698 S
0.655050 0.674415 0.083992 S
0.656711 0.667446 0.576812 S
0.345321 0.325375 0.083383 S
0.345510 0.325862 0.582051 S
0.345886 0.824402 0.083102 S
0.343559 0.831129 0.579105 S
0.844503 0.327395 0.082520 S
0.846078 0.324254 0.581480 S
0.845243 0.826257 0.085047 S
0.843018 0.824919 0.581763 S
0.173840 0.347140 0.417514 S
0.173931 0.346466 0.918944 S
0.171521 0.843335 0.413956 S
0.177279 0.841127 0.914846 S
0.676060 0.344038 0.415332 S
0.675113 0.343650 0.916114 S
0.672422 0.842975 0.416450 S
0.671429 0.849464 0.923621 S
0.324437 0.156254 0.415798 S
0.324806 0.155986 0.916424 S
0.327525 0.656888 0.417849 S
0.326727 0.649739 0.921995 S
0.825676 0.152559 0.417046 S
0.826147 0.153908 0.918627 S
0.828527 0.656802 0.412556 S
0.824549 0.659676 0.916475 S
0.096228 0.423296 0.167732 S
0.100813 0.422237 0.670137 S
0.093621 0.925492 0.165902 S
0.090155 0.925022 0.666851 S
0.593877 0.424317 0.165923 S
0.596080 0.424627 0.667380 S
0.596064 0.924341 0.169065 S
0.589536 0.923415 0.663837 S
0.405875 0.075038 0.165579 S
0.402399 0.076772 0.667855 S
0.403521 0.575178 0.169096 S
0.408899 0.578597 0.669450 S
0.904020 0.077346 0.168071 S
0.900709 0.076357 0.669658 S
0.906791 0.574983 0.165872 S
0.911411 0.572964 0.661239 S
0.075936 0.095119 0.332927 S
0.077488 0.099680 0.829703 S
0.076683 0.594906 0.332549 S
0.073899 0.593986 0.834009 S
0.574282 0.095579 0.333597 S
0.577778 0.094187 0.829865 S
0.576152 0.594587 0.332529 S
0.577115 0.587087 0.840439 S
0.425351 0.404195 0.333948 S
0.422434 0.401711 0.830218 S
0.423308 0.905020 0.332505 S
0.422485 0.908769 0.835660 S
0.924435 0.405108 0.332576 S
0.922301 0.404424 0.829350 S
0.923855 0.905489 0.332569 S
0.926508 0.910154 0.838787 S
