Mg8 Sc16 Se32                           
   1.00000000000000     
    11.3332053554651484    0.0000000718322002   -0.0000000800968169
     0.0000001251878269   11.3331951688505921    0.0000000875602794
    -0.0000000178734482    0.0000001106242261   11.3331692090960505
   Mg   Sc   Se
     7    16    32
Direct
  0.6224269271393297  0.6224269606966928  0.6224267595261352
  0.6224269314725888  0.1275731078862492  0.1275731356259442
  0.1275730394116437  0.6224269681904744  0.1275731402417861
  0.1275730956631804  0.1275730714518275  0.6224268260760084
  0.3750000173007564  0.8749999986965946  0.8749998969060329
  0.8749999823182080  0.3750000444109531  0.8749999838750568
  0.8749999765516137  0.8749999444730605  0.3750000278586967
  0.9999418615380691  0.7500582373492932  0.7500581902283230
  0.7500580769788172  0.9999419865167738  0.7500581741314960
  0.7500581028223863  0.7500581312077728  0.9999419118773361
  0.9999419701456347  0.9999420273008823  0.9999420399121206
  0.0061932924810151  0.2498937271369925  0.2498936421306510
  0.2498936582697269  0.0061931738593231  0.2498936235982185
  0.2498935079094764  0.2498935225629779  0.0061933250256487
  0.7438068096525541  0.5001062454634209  0.2498935594876031
  0.7438068478625155  0.2498936621157810  0.5001063531794756
  0.0061932052639051  0.5001064025986395  0.5001064481645443
  0.2498934535348241  0.5001064707692464  0.7438067821239400
  0.2498935463952208  0.7438065485055674  0.5001064158265365
  0.5001064282855694  0.7438066226976332  0.2498935929432733
  0.5001064030543176  0.0061932751045006  0.5001062891271175
  0.5001064230789964  0.2498935570470948  0.7438067942699860
  0.5001064615890556  0.5001064968475148  0.0061931626387306
  0.7576298429084360  0.9923701365926902  0.9923699644349853
  0.9923701870457222  0.7576299377344711  0.9923699859732622
  0.9923701675483088  0.9923701604362947  0.7576301009222064
  0.7576298064285538  0.7576299433778075  0.7576300423218356
  0.2412179801617214  0.0068412807152285  0.0068414223353983
  0.0068412204876509  0.2412179366800871  0.0068414126136176
  0.0068411995047555  0.0068412966532065  0.2412177019814123
  0.2402559045090058  0.2402557233033988  0.2402553857150878
  0.7596680796639390  0.4921806083477236  0.4921803955684325
  0.9903319650268827  0.2578193854499631  0.4921804300122616
  0.9903319484580990  0.4921806245965215  0.2578195686536375
  0.7596680835530236  0.2578193591253495  0.2578195457105465
  0.2402558831441723  0.5097441690363524  0.5097446619854651
  0.0068411808967639  0.7431587213690705  0.5087823504280848
  0.0068412038484738  0.5087821775652515  0.7431586055067498
  0.2412179500871900  0.7431586999825157  0.7431585882548077
  0.2578193374009530  0.9903317971564505  0.4921804114004544
  0.4921806625057172  0.7596681228348601  0.4921803944293401
  0.4921806657851420  0.9903318276409792  0.2578195115801307
  0.2578193414233283  0.7596680886286435  0.2578195477451999
  0.7431587810393552  0.0068412837819736  0.5087823526449000
  0.5097441648975689  0.2402557834101771  0.5097446759803788
  0.5087820365719580  0.0068413299338204  0.7431585373701566
  0.7431587572371896  0.2412179141582200  0.7431586045329013
  0.2578192872968756  0.4921805919008904  0.9903317526590172
  0.4921806783934386  0.2578194213892715  0.9903317751513612
  0.4921806187764872  0.4921806182660191  0.7596682323505703
  0.2578193170047811  0.2578193875183388  0.7596682814799465
  0.7431587320457922  0.5087821424615768  0.0068413740378546
  0.5087820412094715  0.7431587314290695  0.0068413814227384
  0.5097441050216673  0.5097441552703259  0.2402553209132066
  0.7431588214076967  0.7431586894605289  0.2412176622114401
 
  0.00000000E+00  0.00000000E+00  0.00000000E+00
  0.00000000E+00  0.00000000E+00  0.00000000E+00
  0.00000000E+00  0.00000000E+00  0.00000000E+00
  0.00000000E+00  0.00000000E+00  0.00000000E+00
  0.00000000E+00  0.00000000E+00  0.00000000E+00
  0.00000000E+00  0.00000000E+00  0.00000000E+00
  0.00000000E+00  0.00000000E+00  0.00000000E+00
  0.00000000E+00  0.00000000E+00  0.00000000E+00
  0.00000000E+00  0.00000000E+00  0.00000000E+00
  0.00000000E+00  0.00000000E+00  0.00000000E+00
  0.00000000E+00  0.00000000E+00  0.00000000E+00
  0.00000000E+00  0.00000000E+00  0.00000000E+00
  0.00000000E+00  0.00000000E+00  0.00000000E+00
  0.00000000E+00  0.00000000E+00  0.00000000E+00
  0.00000000E+00  0.00000000E+00  0.00000000E+00
  0.00000000E+00  0.00000000E+00  0.00000000E+00
  0.00000000E+00  0.00000000E+00  0.00000000E+00
  0.00000000E+00  0.00000000E+00  0.00000000E+00
  0.00000000E+00  0.00000000E+00  0.00000000E+00
  0.00000000E+00  0.00000000E+00  0.00000000E+00
  0.00000000E+00  0.00000000E+00  0.00000000E+00
  0.00000000E+00  0.00000000E+00  0.00000000E+00
  0.00000000E+00  0.00000000E+00  0.00000000E+00
  0.00000000E+00  0.00000000E+00  0.00000000E+00
  0.00000000E+00  0.00000000E+00  0.00000000E+00
  0.00000000E+00  0.00000000E+00  0.00000000E+00
  0.00000000E+00  0.00000000E+00  0.00000000E+00
  0.00000000E+00  0.00000000E+00  0.00000000E+00
  0.00000000E+00  0.00000000E+00  0.00000000E+00
  0.00000000E+00  0.00000000E+00  0.00000000E+00
  0.00000000E+00  0.00000000E+00  0.00000000E+00
  0.00000000E+00  0.00000000E+00  0.00000000E+00
  0.00000000E+00  0.00000000E+00  0.00000000E+00
  0.00000000E+00  0.00000000E+00  0.00000000E+00
  0.00000000E+00  0.00000000E+00  0.00000000E+00
  0.00000000E+00  0.00000000E+00  0.00000000E+00
  0.00000000E+00  0.00000000E+00  0.00000000E+00
  0.00000000E+00  0.00000000E+00  0.00000000E+00
  0.00000000E+00  0.00000000E+00  0.00000000E+00
  0.00000000E+00  0.00000000E+00  0.00000000E+00
  0.00000000E+00  0.00000000E+00  0.00000000E+00
  0.00000000E+00  0.00000000E+00  0.00000000E+00
  0.00000000E+00  0.00000000E+00  0.00000000E+00
  0.00000000E+00  0.00000000E+00  0.00000000E+00
  0.00000000E+00  0.00000000E+00  0.00000000E+00
  0.00000000E+00  0.00000000E+00  0.00000000E+00
  0.00000000E+00  0.00000000E+00  0.00000000E+00
  0.00000000E+00  0.00000000E+00  0.00000000E+00
  0.00000000E+00  0.00000000E+00  0.00000000E+00
  0.00000000E+00  0.00000000E+00  0.00000000E+00
  0.00000000E+00  0.00000000E+00  0.00000000E+00
  0.00000000E+00  0.00000000E+00  0.00000000E+00
  0.00000000E+00  0.00000000E+00  0.00000000E+00
  0.00000000E+00  0.00000000E+00  0.00000000E+00
  0.00000000E+00  0.00000000E+00  0.00000000E+00
