Mg7 Sc16 Se32
1.0
11.333205 0.000000 -0.000000
0.000000 11.333195 0.000000
-0.000000 0.000000 11.333169
Mg Sc Se
7 16 32
direct
0.622427 0.622427 0.622427 Mg
0.622427 0.127573 0.127573 Mg
0.127573 0.622427 0.127573 Mg
0.127573 0.127573 0.622427 Mg
0.375000 0.875000 0.875000 Mg
0.875000 0.375000 0.875000 Mg
0.875000 0.875000 0.375000 Mg
0.999942 0.750058 0.750058 Sc
0.750058 0.999942 0.750058 Sc
0.750058 0.750058 0.999942 Sc
0.999942 0.999942 0.999942 Sc
0.006193 0.249894 0.249894 Sc
0.249894 0.006193 0.249894 Sc
0.249894 0.249894 0.006193 Sc
0.743807 0.500106 0.249894 Sc
0.743807 0.249894 0.500106 Sc
0.006193 0.500106 0.500106 Sc
0.249893 0.500106 0.743807 Sc
0.249894 0.743807 0.500106 Sc
0.500106 0.743807 0.249894 Sc
0.500106 0.006193 0.500106 Sc
0.500106 0.249894 0.743807 Sc
0.500106 0.500106 0.006193 Sc
0.757630 0.992370 0.992370 Se
0.992370 0.757630 0.992370 Se
0.992370 0.992370 0.757630 Se
0.757630 0.757630 0.757630 Se
0.241218 0.006841 0.006841 Se
0.006841 0.241218 0.006841 Se
0.006841 0.006841 0.241218 Se
0.240256 0.240256 0.240255 Se
0.759668 0.492181 0.492180 Se
0.990332 0.257819 0.492180 Se
0.990332 0.492181 0.257820 Se
0.759668 0.257819 0.257820 Se
0.240256 0.509744 0.509745 Se
0.006841 0.743159 0.508782 Se
0.006841 0.508782 0.743159 Se
0.241218 0.743159 0.743159 Se
0.257819 0.990332 0.492180 Se
0.492181 0.759668 0.492180 Se
0.492181 0.990332 0.257820 Se
0.257819 0.759668 0.257820 Se
0.743159 0.006841 0.508782 Se
0.509744 0.240256 0.509745 Se
0.508782 0.006841 0.743159 Se
0.743159 0.241218 0.743159 Se
0.257819 0.492181 0.990332 Se
0.492181 0.257819 0.990332 Se
0.492181 0.492181 0.759668 Se
0.257819 0.257819 0.759668 Se
0.743159 0.508782 0.006841 Se
0.508782 0.743159 0.006841 Se
0.509744 0.509744 0.240255 Se
0.743159 0.743159 0.241218 Se
