Li17 Co18 O36
1.0
8.183816 -0.000064 2.424278
3.733026 7.282817 2.424270
0.023917 0.014623 9.939853
Li Co O
17 18 36
direct
0.333318 0.654402 0.500024 Li
0.333328 0.333328 0.000009 Li
0.334167 0.666323 -0.000064 Li
0.332463 1.000371 1.000053 Li
0.333361 1.012235 0.499976 Li
0.666323 0.334167 -0.000064 Li
0.654402 0.333318 0.500024 Li
0.666091 0.666091 1.000197 Li
0.666399 0.666399 0.501289 Li
0.666390 1.000265 -0.000012 Li
0.654460 1.012213 0.499998 Li
0.000371 0.332463 1.000053 Li
0.012235 0.333361 0.499976 Li
0.000265 0.666390 -0.000012 Li
0.012213 0.654460 0.499998 Li
0.000569 1.000569 -0.000213 Li
0.000264 1.000264 0.498734 Li
0.166955 0.166955 0.247892 Co
0.167205 0.167205 0.749324 Co
0.167274 0.499478 0.250648 Co
0.167203 0.499385 0.749335 Co
0.166927 0.834176 0.247909 Co
0.166859 0.833341 0.749648 Co
0.499478 0.167274 0.250648 Co
0.499385 0.167203 0.749335 Co
0.499464 0.499464 0.250667 Co
0.499719 0.499719 0.752080 Co
0.499805 0.833316 0.250375 Co
0.499737 0.832509 0.752087 Co
0.834176 0.166927 0.247909 Co
0.833341 0.166859 0.749648 Co
0.833316 0.499805 0.250375 Co
0.832509 0.499737 0.752087 Co
0.833315 0.833315 0.250355 Co
0.833348 0.833348 0.749657 Co
0.252670 0.252670 0.353751 O
0.253789 0.253789 0.858249 O
0.252628 0.592151 0.353722 O
0.252660 0.587485 0.859109 O
0.253153 0.921288 0.356458 O
0.252699 0.920349 0.858929 O
0.592151 0.252629 0.353722 O
0.587484 0.252660 0.859109 O
0.586603 0.586603 0.358841 O
0.586048 0.586048 0.862588 O
0.586620 0.920897 0.358837 O
0.587584 0.920436 0.859085 O
0.921288 0.253153 0.356458 O
0.920349 0.252699 0.858929 O
0.920897 0.586621 0.358837 O
0.920436 0.587585 0.859085 O
0.921230 0.921230 0.356427 O
0.920505 0.920505 0.857574 O
0.080630 0.080630 0.137383 O
0.080046 0.080046 0.641208 O
0.079111 0.414043 0.140893 O
0.074553 0.414004 0.646263 O
0.079050 0.746265 0.140912 O
0.080033 0.745786 0.641178 O
0.414043 0.079111 0.140893 O
0.414005 0.074553 0.646263 O
0.412878 0.412878 0.141710 O
0.414011 0.414011 0.646211 O
0.413965 0.746353 0.141111 O
0.413487 0.745432 0.643567 O
0.746265 0.079050 0.140912 O
0.745786 0.080032 0.641178 O
0.746353 0.413965 0.141111 O
0.745432 0.413487 0.643567 O
0.746149 0.746148 0.142423 O
0.745436 0.745435 0.643554 O
