Mg15 Mn32 O64                           
   1.00000000000000     
    11.4344909999999995   -0.0008510000000000    0.0011760000000000
    -0.0006030000000000   11.4187279999999998    0.0000330000000000
     0.0006430000000000    0.0003360000000000    9.2388010000000005
   Mg   Mn   O 
    15    32    64
Direct
  0.4999178648688344  0.5220884893468292  0.5033785092423513
 -0.0000014987577329  0.2312671661034996  0.7300197551146452
  0.9997801852005006  0.7309101429724253  0.7295707360874401
  0.5000270597306462  0.2334485391054102  0.7335311164797288
  0.9999276970003300  0.4810137821484740  0.4824203160301808
  1.0000097152401113  0.9801737995648359  0.4849493215512215
  0.4998782531619615  0.9770794899517212  0.4796553903823467
  0.2466452669933886  0.9849224444875866  0.2324260971191176
  0.2476662632431883  0.4795754846150081  0.2337977174411490
  0.7534588872979164  0.9852687835860700  0.2322218872548302
  0.7521218187821892  0.4798690005966901  0.2340241061860132
  0.2499522416840082  0.2312530278123227  0.9813005939706809
  0.2519503357871881  0.7316001185216544  0.9779561043605018
  0.7500520534233311  0.2313648343475697  0.9812777820353005
  0.7480234036644700  0.7317829480224899  0.9780795538281924
  0.1247669712798232  0.2309204613551633  0.3603622288295290
  0.1244439909332811  0.7318008023166886  0.3540407062558281
  0.6230818312790788  0.2335865848550215  0.3620625413638032
  0.6292096133992859  0.7342643342896925  0.3471598535562871
  0.3764868364062181  0.2332591055238968  0.3620139292412459
  0.3714399751239283  0.7341097732230387  0.3471093487110201
  0.8750808997952365  0.2307583170218407  0.3603221002332011
  0.8765279215940168  0.7328268496874324  0.3547484769822151
  0.1251647608255718  0.9802253700366841  0.8536320372907663
  0.1249402845920053  0.4806798574214677  0.8545812775761412
  0.6250864133225066  0.9808615616278081  0.8600729199616682
  0.6248800253800416  0.4836963027337634  0.8612765278823713
  0.3749983227990930  0.9807433146751023  0.8602915194029862
  0.3750997473800701  0.4835460700343166  0.8615690115668854
  0.8749163386654939  0.9802428600314013  0.8536446701883299
  0.8750406668291184  0.4806966724752436  0.8542954420839090
  0.0000653608869721  0.1055815116592935  0.1047079410248433
  0.0000677145269053  0.6055520959357870  0.1037126286872236
  0.5000763723256261  0.1070392367443320  0.1109291070344675
  0.5000649204470597  0.6066287638131936  0.1066185901847024
  0.9998851223893679  0.3552179260954895  0.1046603079417087
  0.9998671965470166  0.8556174000657693  0.1029515657800265
  0.4998147314013112  0.3569706782079738  0.1146256740085389
  0.4999713543643822  0.8591590347729723  0.1057058734312544
  0.2521230148172852  0.3573485505958727  0.6067245375043507
  0.2542507340765290  0.8527472474957944  0.6048626352290510
  0.7477196813482945  0.3574746245091041  0.6066268642185263
  0.7455689896752068  0.8536463359289175  0.6049310888761971
  0.2511348859654376  0.1052068111958934  0.6077709721145088
  0.2501691270079865  0.6083368568198435  0.6054578709397793
  0.7488705918925768  0.1054260484200505  0.6078857441760829
  0.7496924556791077  0.6085872787821166  0.6052639600838406
  0.1385629220522691  0.2313878837455512  0.6042550436681693
  0.1368052823587823  0.7326336564480690  0.6017998248366540
  0.6369229908593018  0.2313976207403706  0.6051826019842436
  0.6383030879348934  0.7285055245710819  0.5786471427646123
  0.3630941783192243  0.2313643601638672  0.6051383110953581
  0.3612609823530160  0.7282638435458786  0.5789394077748334
  0.8614925929891257  0.2316381147077000  0.6042604026306430
  0.8629213114089647  0.7329758428982892  0.6018005677389436
  0.1392926345725944  0.9803418149642431  0.6106562618629764
  0.1378531654703003  0.4810643517483927  0.6098875113472900
  0.6345398910394557  0.9805141831312194  0.6119472220118815
  0.6362429819674115  0.4848738511955228  0.6187315864770198
  0.3652975714017757  0.9801760808181967  0.6118983107770433
  0.3636658656363754  0.4846377468483007  0.6188250456912826
  0.8605414060471245  0.9803991049151510  0.6106801593455587
  0.8619921027805573  0.4813262470548968  0.6098328286258501
  1.0000239727409799  0.0934276090315997  0.8575760905640160
 -0.0000377824466730  0.5931466695811577  0.8578903147285575
  0.4999734897157734  0.0948194082663222  0.8636277610713673
  0.4999979305314210  0.5929815462830098  0.9049346993645467
 -0.0000663035829382  0.3675748656389462  0.8594608383744258
  0.9999522798793448  0.8678997812602811  0.8583210864261941
  0.5001036593212266  0.3712770862854119  0.8626095840823730
  0.4999823376806002  0.8726401564510564  0.9032795749497489
 -0.0000047230715364  0.3431105766597167  0.3541189341829249
  1.0006844869932956  0.8446207546913950  0.3520025323285771
  0.4998504118716922  0.3472957672620625  0.3579446577197854
  0.5003718552321411  0.8490829880177477  0.3271022086050245
 -0.0000530684184483  0.1173585111617657  0.3551307003359264
  1.0001249226050859  0.6184005792878886  0.3526986597068253
  0.4999620279442766  0.1186209623835421  0.3537615358415978
  0.5000089999553013  0.6216896669683076  0.3251750054173201
  0.3888363205152065  0.9801453400322775  0.1108870192538240
  0.3884895030211392  0.4832214021762763  0.1116828915771731
  0.8876296428060797  0.9808515429835241  0.1004923051793280
  0.8873965516831622  0.4799710667735041  0.1025622583932131
  0.1125309235994988  0.9808594344861469  0.1004889435220793
  0.1123958891838532  0.4801004130127779  0.1026295654769654
  0.6112124966029008  0.9801120223254488  0.1107643144511219
  0.6114430904466780  0.4833737360084516  0.1117618838693672
  0.3871579360392611  0.2313955761373276  0.1111314188141205
  0.3907117184768722  0.7332229708167695  0.1076972150443416
  0.8869816306169698  0.2301353668475912  0.1097979027747227
  0.8867455554558720  0.7307236111403956  0.1066141494899240
  0.1130826418369043  0.2301869260972186  0.1098414309320175
  0.1131490514968291  0.7305606880890825  0.1065823273565617
  0.6128028396217596  0.2314590128543954  0.1110959552594682
  0.6091658680395474  0.7331414923807121  0.1077907502451183
  0.2491420349975752  0.3443791354925567  0.3637102761334530
  0.2481546895094649  0.8459924658783690  0.3546327980349587
  0.7507635893590233  0.3445279658288092  0.3636516051856408
  0.7529086533700245  0.8470558171176165  0.3548646276350412
  0.2507755820636793  0.1195868544463176  0.3628789652626490
  0.2496662801336454  0.6204028944330668  0.3522763625454219
  0.7490675978377915  0.1198071720059590  0.3629008668314565
  0.7504651854125820  0.6215173798007082  0.3522658298462080
  0.2509695456943765  0.0934233569378866  0.8536935452415090
  0.2495905680820522  0.5933352925815087  0.8544750141492230
  0.7490389075799949  0.0934598768551133  0.8537087911858651
  0.7504976810467919  0.5935931084823783  0.8544545228743846
  0.2508443964338360  0.3684755427576727  0.8539096424946683
  0.2506813574162603  0.8687852912959582  0.8521964047184645
  0.7490887649018574  0.3686815604238751  0.8539646697262974
  0.7492111928691183  0.8689006758428690  0.8521393364177245
 
             NaN             NaN             NaN
             NaN             NaN             NaN
             NaN             NaN             NaN
             NaN             NaN             NaN
             NaN             NaN             NaN
             NaN             NaN             NaN
             NaN             NaN             NaN
             NaN             NaN             NaN
             NaN             NaN             NaN
             NaN             NaN             NaN
             NaN             NaN             NaN
             NaN             NaN             NaN
             NaN             NaN             NaN
             NaN             NaN             NaN
             NaN             NaN             NaN
             NaN             NaN             NaN
             NaN             NaN             NaN
             NaN             NaN             NaN
             NaN             NaN             NaN
             NaN             NaN             NaN
             NaN             NaN             NaN
             NaN             NaN             NaN
             NaN             NaN             NaN
             NaN             NaN             NaN
             NaN             NaN             NaN
             NaN             NaN             NaN
             NaN             NaN             NaN
             NaN             NaN             NaN
             NaN             NaN             NaN
             NaN             NaN             NaN
             NaN             NaN             NaN
             NaN             NaN             NaN
             NaN             NaN             NaN
             NaN             NaN             NaN
             NaN             NaN             NaN
             NaN             NaN             NaN
             NaN             NaN             NaN
             NaN             NaN             NaN
             NaN             NaN             NaN
             NaN             NaN             NaN
             NaN             NaN             NaN
             NaN             NaN             NaN
             NaN             NaN             NaN
             NaN             NaN             NaN
             NaN             NaN             NaN
             NaN             NaN             NaN
             NaN             NaN             NaN
             NaN             NaN             NaN
             NaN             NaN             NaN
             NaN             NaN             NaN
             NaN             NaN             NaN
             NaN             NaN             NaN
             NaN             NaN             NaN
             NaN             NaN             NaN
             NaN             NaN             NaN
             NaN             NaN             NaN
             NaN             NaN             NaN
             NaN             NaN             NaN
             NaN             NaN             NaN
             NaN             NaN             NaN
             NaN             NaN             NaN
             NaN             NaN             NaN
             NaN             NaN             NaN
             NaN             NaN             NaN
             NaN             NaN             NaN
             NaN             NaN             NaN
             NaN             NaN             NaN
             NaN             NaN             NaN
             NaN             NaN             NaN
             NaN             NaN             NaN
             NaN             NaN             NaN
             NaN             NaN             NaN
             NaN             NaN             NaN
             NaN             NaN             NaN
             NaN             NaN             NaN
             NaN             NaN             NaN
             NaN             NaN             NaN
             NaN             NaN             NaN
             NaN             NaN             NaN
             NaN             NaN             NaN
             NaN             NaN             NaN
             NaN             NaN             NaN
             NaN             NaN             NaN
             NaN             NaN             NaN
             NaN             NaN             NaN
             NaN             NaN             NaN
             NaN             NaN             NaN
             NaN             NaN             NaN
             NaN             NaN             NaN
             NaN             NaN             NaN
             NaN             NaN             NaN
             NaN             NaN             NaN
             NaN             NaN             NaN
             NaN             NaN             NaN
             NaN             NaN             NaN
             NaN             NaN             NaN
             NaN             NaN             NaN
             NaN             NaN             NaN
             NaN             NaN             NaN
             NaN             NaN             NaN
             NaN             NaN             NaN
             NaN             NaN             NaN
             NaN             NaN             NaN
             NaN             NaN             NaN
             NaN             NaN             NaN
             NaN             NaN             NaN
             NaN             NaN             NaN
             NaN             NaN             NaN
             NaN             NaN             NaN
             NaN             NaN             NaN
             NaN             NaN             NaN
