Mg15 Mn32 O64                           
   1.00000000000000     
    11.4344909999999995   -0.0008510000000000    0.0011760000000000
    -0.0006030000000000   11.4187279999999998    0.0000330000000000
     0.0006430000000000    0.0003360000000000    9.2388010000000005
   Mg   Mn   O 
    15    32    64
Direct
  0.4997754826698225  0.5048800387443801  0.4915699235847970
  0.9998301857381288  0.2332112418025124  0.7330099019866136
  0.9998756802812097  0.7321449808083768  0.7326863320152034
  0.4997294149075516  0.2374994798968939  0.7371168140342395
  0.9998668044346979  0.4837743422504953  0.4860908732072226
  0.0000455537693404  0.9825963029245840  0.4885984341906207
  0.4999469853528166  0.9812324081983003  0.4809981550207392
  0.2469988555789599  0.9882941010245179  0.2343323831819637
  0.2473242223046983  0.4835139782289334  0.2369459260262878
  0.7530365830344722  0.9876921963049766  0.2346901761667131
  0.7525821943715540  0.4828974909808934  0.2363978956569790
  0.2497557878774437  0.2340971270873541  0.9846820243475468
  0.2522203361716212  0.7348022664644506  0.9802529031699013
  0.7498985592061361  0.2336090219540531  0.9847954469570566
  0.7479531829322555  0.7347432100258435  0.9805866267482224
  0.1247207754088650  0.2337666979253621  0.3617496169290684
  0.1249492097217075  0.7358673113440521  0.3595675775227741
  0.6235028697368876  0.2388071194840289  0.3643428277861561
  0.6284954114656904  0.7376989796061090  0.3489070584483652
  0.3756927303233218  0.2372828504116675  0.3630376097054879
  0.3721084860321437  0.7388199930127208  0.3483581267177972
  0.8748245023507779  0.2323132009670925  0.3618339463038447
  0.8768268751332001  0.7345891283299694  0.3580129112233003
  0.1251959917039303  0.9827597262372837  0.8562209140846062
  0.1247523072539411  0.4820833337629878  0.8594264075211707
  0.6240933685776510  0.9851179406367891  0.8610861779375646
  0.6252153387562902  0.4861577481450546  0.8637955800429115
  0.3756850011097752  0.9850676753066345  0.8609858443345407
  0.3746859449607071  0.4859393344999989  0.8640249073310551
  0.8747565147376699  0.9824135737390010  0.8562016674732265
  0.8751657786327969  0.4819903143755787  0.8594787149279899
 -0.0000727916636081  0.1060485360454361  0.1097306093917336
  0.0006148848140352  0.6066919377186816  0.1082282014205923
  0.4997824492997721  0.1120026661552329  0.1116680347525935
  0.5006908959331456  0.6096754155144757  0.1071489759351019
  0.9998731374125108  0.3558864242139614  0.1100735144967091
  1.0000888952263258  0.8558534685717478  0.1043214269694399
  0.5000041996615073  0.3616676848136794  0.1169794085420136
  0.4999868051662325  0.8640415408902898  0.1064230695145698
  0.2510816695360314  0.3598411105572030  0.6110867575335137
  0.2541705115770290  0.8564914110607419  0.6100393889272013
  0.7491080779144083  0.3600590650072786  0.6114028646404436
  0.7454907463961686  0.8563187761742987  0.6092397350369066
  0.2529636885244613  0.1083893798842590  0.6102619217564200
  0.2516775179955619  0.6119280201340713  0.6094746653950367
  0.7470283049908852  0.1084002954197433  0.6105453904936661
  0.7483836353025995  0.6114149065554293  0.6073728061632292
  0.1387551143203152  0.2335754730445226  0.6071631323465039
  0.1370021918580562  0.7351335718460273  0.6045776504821393
  0.6359894844921240  0.2344253736295978  0.6077782148773602
  0.6398896438053544  0.7321328726972740  0.5810634840286926
  0.3636405078085853  0.2347203859424309  0.6078277202756798
  0.3599012149271105  0.7321090935774689  0.5823976823153449
  0.8610070771723516  0.2333889600960795  0.6072723696341933
  0.8628320268248331  0.7349805732191579  0.6043512850990796
  0.1404020694980210  0.9830953063067537  0.6132360104929090
  0.1378689578064939  0.4832896264844628  0.6137512699088294
  0.6336366986308397  0.9834188417639229  0.6147152245930646
  0.6360556546111279  0.4858611061923753  0.6192874486413467
  0.3663848023106457  0.9837423851278430  0.6150229854673208
  0.3636893733245160  0.4860933215773058  0.6194740820366639
  0.8596531177689631  0.9830760404816101  0.6130342823409615
  0.8617702513791837  0.4829652147917045  0.6137129410894675
 -0.0000405980111472  0.0950262405783146  0.8607799424500429
  1.0001174611394821  0.5944634772479812  0.8622195199307706
  0.4999698021901667  0.0991822757467805  0.8662719281396490
  0.4999391574678683  0.5956747555235222  0.9064922922516162
  0.9999621670329973  0.3687267001760449  0.8637974165857878
  1.0000073538304879  0.8698034119897130  0.8607322068669353
  0.4999208862137345  0.3738177957682301  0.8688125956754638
  0.4999360025714678  0.8766332804291078  0.9050455668321378
  0.9993934853765382  0.3453817102056974  0.3572802780225643
  0.0003319564579385  0.8478980000467482  0.3547770850525510
  0.4993344153228165  0.3545383472557801  0.3616140618441917
  0.4996313807436104  0.8538337652308181  0.3272525215904849
  0.9999017904315938  0.1196368560350711  0.3576782552341121
  0.0011583247503005  0.6214099049838563  0.3558336015612943
  0.4997086570699383  0.1248165283650096  0.3563999746168292
  0.5006290592277871  0.6253665329170103  0.3290240998372008
  0.3888485252266619  0.9850722730226361  0.1122634023423722
  0.3892630845917637  0.4881097304258314  0.1148249431542422
  0.8873107186245572  0.9820022465464635  0.1033621214121284
  0.8878026746266217  0.4813257008765806  0.1062112097859437
  0.1125962630509626  0.9821725915840621  0.1033319450942844
  0.1127212434446806  0.4812016175884034  0.1060826336758118
  0.6108428381653931  0.9851131069979457  0.1121182921649505
  0.6112357776668007  0.4879574607318536  0.1152375327085447
  0.3876040166958123  0.2366902630841344  0.1146763759346695
  0.3907142829885428  0.7368827666109333  0.1099817747651639
  0.8868193273539985  0.2313840428413853  0.1139785246028895
  0.8871239223194189  0.7318793430906262  0.1091640647462330
  0.1129782484964781  0.2313150946757622  0.1139143449504305
  0.1132503685329483  0.7322541421570345  0.1091068338108813
  0.6126785580542010  0.2368737312848278  0.1144698717658125
  0.6093353158091138  0.7365737555432691  0.1101859164404330
  0.2487578786340132  0.3478381232044591  0.3657777813012225
  0.2489514809680811  0.8494729639447214  0.3564797586715246
  0.7504756970272417  0.3475348397226848  0.3657364598990496
  0.7515135343129123  0.8477549490581099  0.3557921607959149
  0.2508885559851018  0.1229971934334909  0.3647787517507818
  0.2497076069511751  0.6238891777458694  0.3558483052321065
  0.7478736765895660  0.1228722000613312  0.3648244246138211
  0.7521966592654570  0.6221510924481173  0.3561143607804325
  0.2510842016106795  0.0966556526008364  0.8562846340550119
  0.2488400474729303  0.5959605432506906  0.8576223893367940
  0.7490744795353146  0.0965554550951457  0.8562294717590188
  0.7511739552544083  0.5957129805934068  0.8578052632893366
  0.2518252174408719  0.3716001900448048  0.8580432486621020
  0.2514982709887395  0.8723495681236514  0.8550617226955930
  0.7480478924102767  0.3714079626414997  0.8582945065041707
  0.7482957095555781  0.8720448279871916  0.8547312448671865
 
             NaN             NaN             NaN
             NaN             NaN             NaN
             NaN             NaN             NaN
             NaN             NaN             NaN
             NaN             NaN             NaN
             NaN             NaN             NaN
             NaN             NaN             NaN
             NaN             NaN             NaN
             NaN             NaN             NaN
             NaN             NaN             NaN
             NaN             NaN             NaN
             NaN             NaN             NaN
             NaN             NaN             NaN
             NaN             NaN             NaN
             NaN             NaN             NaN
             NaN             NaN             NaN
             NaN             NaN             NaN
             NaN             NaN             NaN
             NaN             NaN             NaN
             NaN             NaN             NaN
             NaN             NaN             NaN
             NaN             NaN             NaN
             NaN             NaN             NaN
             NaN             NaN             NaN
             NaN             NaN             NaN
             NaN             NaN             NaN
             NaN             NaN             NaN
             NaN             NaN             NaN
             NaN             NaN             NaN
             NaN             NaN             NaN
             NaN             NaN             NaN
             NaN             NaN             NaN
             NaN             NaN             NaN
             NaN             NaN             NaN
             NaN             NaN             NaN
             NaN             NaN             NaN
             NaN             NaN             NaN
             NaN             NaN             NaN
             NaN             NaN             NaN
             NaN             NaN             NaN
             NaN             NaN             NaN
             NaN             NaN             NaN
             NaN             NaN             NaN
             NaN             NaN             NaN
             NaN             NaN             NaN
             NaN             NaN             NaN
             NaN             NaN             NaN
             NaN             NaN             NaN
             NaN             NaN             NaN
             NaN             NaN             NaN
             NaN             NaN             NaN
             NaN             NaN             NaN
             NaN             NaN             NaN
             NaN             NaN             NaN
             NaN             NaN             NaN
             NaN             NaN             NaN
             NaN             NaN             NaN
             NaN             NaN             NaN
             NaN             NaN             NaN
             NaN             NaN             NaN
             NaN             NaN             NaN
             NaN             NaN             NaN
             NaN             NaN             NaN
             NaN             NaN             NaN
             NaN             NaN             NaN
             NaN             NaN             NaN
             NaN             NaN             NaN
             NaN             NaN             NaN
             NaN             NaN             NaN
             NaN             NaN             NaN
             NaN             NaN             NaN
             NaN             NaN             NaN
             NaN             NaN             NaN
             NaN             NaN             NaN
             NaN             NaN             NaN
             NaN             NaN             NaN
             NaN             NaN             NaN
             NaN             NaN             NaN
             NaN             NaN             NaN
             NaN             NaN             NaN
             NaN             NaN             NaN
             NaN             NaN             NaN
             NaN             NaN             NaN
             NaN             NaN             NaN
             NaN             NaN             NaN
             NaN             NaN             NaN
             NaN             NaN             NaN
             NaN             NaN             NaN
             NaN             NaN             NaN
             NaN             NaN             NaN
             NaN             NaN             NaN
             NaN             NaN             NaN
             NaN             NaN             NaN
             NaN             NaN             NaN
             NaN             NaN             NaN
             NaN             NaN             NaN
             NaN             NaN             NaN
             NaN             NaN             NaN
             NaN             NaN             NaN
             NaN             NaN             NaN
             NaN             NaN             NaN
             NaN             NaN             NaN
             NaN             NaN             NaN
             NaN             NaN             NaN
             NaN             NaN             NaN
             NaN             NaN             NaN
             NaN             NaN             NaN
             NaN             NaN             NaN
             NaN             NaN             NaN
             NaN             NaN             NaN
             NaN             NaN             NaN
