Mg15 Mn32 O64
1.0
11.434491 -0.000851 0.001176
-0.000603 11.418728 0.000033
0.000643 0.000336 9.238801
Mg Mn O
15 32 64
direct
0.500156 0.595163 0.593311 Mg
0.999686 0.250264 0.747047 Mg
1.000410 0.750044 0.748929 Mg
0.499734 0.252316 0.751964 Mg
0.999782 0.500282 0.501620 Mg
0.000073 -0.000108 0.502849 Mg
0.500077 -0.003992 0.498242 Mg
0.248585 0.001052 0.250679 Mg
0.248832 0.498946 0.251967 Mg
0.752179 0.000830 0.250469 Mg
0.750715 0.499177 0.252285 Mg
0.248042 0.249499 0.999486 Mg
0.251225 0.750560 0.996742 Mg
0.750438 0.249420 0.999340 Mg
0.750732 0.750668 0.997529 Mg
0.123639 0.249334 0.376945 Mn
0.124978 0.750768 0.375338 Mn
0.623334 0.250711 0.376604 Mn
0.626845 0.749080 0.371703 Mn
0.374239 0.250564 0.376198 Mn
0.373526 0.749062 0.371153 Mn
0.873475 0.249299 0.375919 Mn
0.876418 0.750844 0.374965 Mn
0.125866 0.001310 0.873800 Mn
0.124184 0.498869 0.874439 Mn
0.625247 0.998323 0.875072 Mn
0.625753 0.501497 0.877922 Mn
0.376169 0.998489 0.874341 Mn
0.374102 0.501416 0.877890 Mn
0.875747 1.001163 0.873521 Mn
0.875004 0.498969 0.874474 Mn
-0.000509 0.125114 0.124968 Mn
1.000582 0.625102 0.124441 Mn
0.499494 0.124831 0.125561 Mn
0.500428 0.624342 0.124780 Mn
0.998998 0.375030 0.125805 Mn
0.001968 0.875000 0.123643 Mn
0.499370 0.373796 0.127449 Mn
0.500818 0.875777 0.123373 Mn
0.251994 0.376003 0.625338 Mn
0.252365 0.873706 0.624276 Mn
0.747615 0.376083 0.625587 Mn
0.747889 0.873948 0.624576 Mn
0.252249 0.124881 0.625119 Mn
0.251948 0.624926 0.624810 Mn
0.747621 0.124948 0.625091 Mn
0.748543 0.626181 0.624951 Mn
0.138658 0.249686 0.621396 O
0.137549 0.750163 0.620706 O
0.635090 0.250370 0.620951 O
0.638817 0.749985 0.607193 O
0.364365 0.250311 0.620913 O
0.361380 0.749490 0.607339 O
0.860721 0.249825 0.621313 O
0.863127 0.750900 0.620849 O
0.139052 0.000433 0.628717 O
0.137640 0.499378 0.629041 O
0.635118 0.999589 0.629887 O
0.637340 0.501010 0.637921 O
0.365071 0.999634 0.629898 O
0.362912 0.500224 0.637940 O
0.861170 0.000728 0.628782 O
0.862067 0.499693 0.629182 O
0.000540 0.113962 0.877728 O
0.999782 0.612046 0.877897 O
0.500561 0.111627 0.878659 O
0.500017 0.612360 0.915537 O
0.999540 0.386110 0.878467 O
0.000845 0.888330 0.877230 O
0.499866 0.387982 0.889532 O
0.500563 0.887685 0.904555 O
0.998738 0.362293 0.372689 O
0.000751 0.863867 0.371217 O
0.498954 0.362533 0.356708 O
0.500196 0.862836 0.354255 O
0.998787 0.136587 0.372373 O
1.000575 0.637642 0.371584 O
0.498949 0.137338 0.372274 O
0.500348 0.636697 0.338643 O
0.388426 -0.001511 0.126095 O
0.389109 0.500895 0.127307 O
0.887965 0.999815 0.120524 O
0.886989 0.500155 0.122168 O
0.113418 0.001031 0.120329 O
0.112444 0.499356 0.122018 O
0.612137 -0.000774 0.126188 O
0.610750 0.500359 0.127319 O
0.387062 0.250186 0.125786 O
0.390210 0.749380 0.124034 O
0.886167 0.249773 0.129383 O
0.888424 0.750581 0.126785 O
0.111904 0.250009 0.129284 O
0.114123 0.750015 0.126706 O
0.611378 0.250375 0.125719 O
0.610995 0.749161 0.124022 O
0.249123 0.362088 0.379100 O
0.250319 0.862856 0.375101 O
0.748608 0.362211 0.379079 O
0.750521 0.862683 0.374974 O
0.249749 0.137362 0.379247 O
0.249514 0.637578 0.374966 O
0.748014 0.137270 0.379023 O
0.751351 0.637856 0.375087 O
0.251830 0.112785 0.871140 O
0.249272 0.612009 0.873561 O
0.749272 0.112539 0.871312 O
0.750490 0.612286 0.873843 O
0.250288 0.387368 0.873723 O
0.250671 0.888026 0.871060 O
0.749127 0.387301 0.873618 O
0.750684 0.887922 0.871364 O
