Li48 P16 O64                            
   1.00000000000000     
    10.4761696246320195   -0.0031679785480331   -0.0110655506529503
    -0.0036460275376163   12.1832787733654069   -0.0058878792051358
    -0.0104164829686905   -0.0047337297424232    9.8412347129988227
   Li   P    O 
    47    16    64
Direct
  0.4321726582227683  0.3680033209140561  0.0979066610601649
  0.6622744700570991  0.2531414627461857  0.6029894894202528
  0.6640134637319548  0.7504270189285478  0.0968999117901390
  0.6637367921542108  0.7522317371265217  0.5984282608628675
  0.1651122410566614  0.4981305085464669  0.1521857556569159
  0.1636037478549568  0.4993689930961906  0.6520602623628662
  0.1635526245497516  0.9958390251954370  0.1534290462785890
  0.1641890142502618  0.9988498734314675  0.6519347377142211
  0.3360959017116869  0.0010775924424919  0.4021658623217306
  0.3372449160116631  0.0014085635589893  0.9042520434193406
  0.3365751912341395  0.5006126113819036  0.4011608609626762
  0.3376619622062336  0.4993312124771663  0.9023822029439117
  0.8311711628695804  0.2493022656249906  0.3425878630685446
  0.8346944247902996  0.2488125739176326  0.8537899291844653
  0.8356219423612359  0.7488730981395548  0.3474980631074303
  0.8359813446552167  0.7490504284328665  0.8479751593087386
  0.3359883938970043  0.2497220225834909  0.4019761694464776
  0.3373739239391469  0.2479665783447160  0.9016056634256842
  0.3365594123407618  0.7492227880077778  0.4015460548744514
  0.3368649856621175  0.7496124039292624  0.9025290465796232
  0.8364044677991345  0.0022138640783140  0.3467062842489241
  0.8364870584786601  0.0022514242089642  0.8486298464962445
  0.8328721446492509  0.5002457525374382  0.3484983637976455
  0.8351331184391526  0.4994555843810886  0.8485918402816068
  0.6636392130048918  0.4925863734842366  0.0956942402856455
  0.6626283214552089  0.5018663864123809  0.5980984965858767
  0.6661939002081283  0.0032205611453691  0.1003406166970819
  0.6633870286691987  0.0017594669390064  0.5977880865548428
  0.1640624427831980  0.2492116115515088  0.1504996545016652
  0.1634032761487489  0.2504423258248423  0.6521647354941251
  0.1646814924741165  0.7498327009792760  0.1518668468591500
  0.1635831236640897  0.7509278727605704  0.6525964041909091
  0.9215872046047338  0.3735367570128787  0.1479391363422522
  0.9234840848883010  0.3743136639830738  0.6487065190361747
  0.9239017862215135  0.8757761254331058  0.1486389948048483
  0.9233377093922286  0.8758091911703048  0.6491021444569753
  0.4207524534833595  0.3759645024861484  0.6002411361693305
  0.4254760876988044  0.8759014568218433  0.1012629613801508
  0.4250087379726679  0.8762228472511495  0.6009952559443263
  0.0754853971032858  0.1252359288108380  0.3480347071698660
  0.0767955081363070  0.1245921429428094  0.8524675196595837
  0.0749631559379367  0.6240647770787575  0.3506463980136019
  0.0759483388487467  0.6242148379647006  0.8513151418742737
  0.5760189932390603  0.1292951388131343  0.3927778542743638
  0.5791439923146484  0.1318554037345692  0.9118129622080033
  0.5758543414326738  0.6249441409298342  0.3993696305924246
  0.5762556137550234  0.6234048806459356  0.8987516883726201
  0.9159938126533618  0.1252135596731989  0.0958983582516311
  0.9122056379372196  0.1254754654622587  0.5950416198194972
  0.9115407836974967  0.6247362486404171  0.0952473371614957
  0.9114023192094294  0.6251356675224642  0.5954065444412251
  0.4093877445818848  0.1217340682411461  0.1545381302118827
  0.4117751939088947  0.1246679940329685  0.6549184930796983
  0.4125365046953036  0.6241829839266515  0.1538421456204659
  0.4106258783182710  0.6268170492594649  0.6548549461152930
  0.0872817743256320  0.3754870918741773  0.4047141249389057
  0.0888554234258407  0.3750709101911269  0.9046542208401149
  0.0876956896837626  0.8742157659614449  0.4052456988070219
  0.0884692320389888  0.8740923944181986  0.9045847939015275
  0.5865843337994860  0.3775389642275613  0.3486327347107263
  0.5877814474396175  0.3742643254529980  0.8397043641867654
  0.5892676257421883  0.8753212706925027  0.3451633115508628
  0.5894578962702042  0.8758867942170099  0.8456386401435765
  0.8450145410146064  0.0215920433540617  0.1473116612386676
  0.8418592500329467  0.0219902411275257  0.6463279251973262
  0.8412563919576286  0.5219956196730706  0.1467491469736260
  0.8416392342263777  0.5221803664363946  0.6475544200205761
  0.3398579310638183  0.2250709774346333  0.1008618093715583
  0.3397228366299103  0.2274437961247386  0.6044654631046882
  0.3421760766640958  0.7279988286303336  0.1029500557625198
  0.3407606969080774  0.7306866277024398  0.6041960330191003
  0.1568165059620981  0.2722783380473501  0.3523617425787933
  0.1588361035033046  0.2719005014285827  0.8527946829853974
  0.1578888418938860  0.7708823322012250  0.3536053043860790
  0.1584209938674732  0.7706181568889434  0.8530835725522223
  0.6573951566574010  0.4808416424580955  0.4029599063033587
  0.6583049870408644  0.4769856622739681  0.8949170590231361
  0.6588750995590189  0.9789140599717712  0.3964959953102039
  0.6604339413849587  0.9780529651581773  0.8978975320695426
  0.1580912123122005  0.4787575639136961  0.3535254313724181
  0.1590792420952383  0.4784564188555507  0.8529492783571158
  0.1579606570476813  0.9773414490893941  0.3547783473636485
  0.1591056053035231  0.9769523249305223  0.8531784956211084
  0.6574521703417560  0.2748562088223423  0.4013947704956777
  0.6584670007180549  0.2695073854040402  0.8759995225990522
  0.6591956004306496  0.7721411898041239  0.3978392777718653
  0.6586521965962930  0.7713129183742780  0.8955780042154728
  0.8546583846512803  0.2288774191304839  0.1501839167732513
  0.8433001755682952  0.2286453257260277  0.6470364008563081
  0.8420522585581978  0.7284980724011731  0.1464140752087602
  0.8415267218883358  0.7286367143376040  0.6467473409271491
  0.3360389046727548  0.0181244349851255  0.1058394681171961
  0.3412936666664521  0.0209335281902909  0.6035040303844212
  0.3419385317846420  0.5212118856096737  0.1022853409821352
  0.3394643843733007  0.5245291916340662  0.6021928408682200
  0.5453540513551474  0.1168502255506780  0.1035024306752632
  0.5486743927105451  0.1254655490651544  0.5997095188126949
  0.5505488470017355  0.6248244432273964  0.1011587166198424
  0.5487316541366383  0.6280431814315151  0.6027934364605017
  0.0565311942256201  0.1199184383002319  0.1440639544010693
  0.0508033121822606  0.1242351161639235  0.6475958429326738
  0.0501630720539268  0.6246433602259316  0.1473983042234863
  0.0499372751503913  0.6252845168050101  0.6476025648105050
  0.4483735650594127  0.3759380120543696  0.4039488278845837
  0.4502247387941409  0.3737639041208354  0.8956646132493020
  0.4507317782161735  0.8748999291111943  0.3970601749722746
  0.4510499799280083  0.8752517168628273  0.8977833810972840
  0.9486980951367912  0.3768133752526737  0.3542478546091488
  0.9506434694797932  0.3754319029272253  0.8520589560703868
  0.9494162388496292  0.8742558601445936  0.3526641174589926
  0.9501908475310756  0.8744875531708018  0.8516818681484963
  0.5838251981368856  0.3822838537752702  0.1947326843893578
  0.5828924240539521  0.3822590488909796  0.6829516450208644
  0.5906896738414815  0.8742118352699748  0.1885864878373340
  0.5895886007621414  0.8764019387178692  0.6886177213301963
  0.0896439226799259  0.3752899421539624  0.0612437692286605
  0.0895590438839733  0.3752094194081508  0.5617290838826534
  0.0885256154446310  0.8728523704734883  0.0612122464283260
  0.0880212936777056  0.8739728632815300  0.5620379884733779
  0.4067998146134002  0.1246775097169035  0.3119174257341442
  0.4126029485566960  0.1239663648151037  0.8115414669784755
  0.4115904722601300  0.6250747398600254  0.3108177724083561
  0.4103040057718914  0.6255295187103442  0.8116253035822254
  0.9115926583314149  0.1253707576774730  0.4382819563402904
  0.9134690828954319  0.1240657622371444  0.9385394263210571
  0.9105669486550525  0.6251003918273028  0.4386376661096634
  0.9109816191615749  0.6247920566489782  0.9383379678356434
 
  0.00000000E+00  0.00000000E+00  0.00000000E+00
  0.00000000E+00  0.00000000E+00  0.00000000E+00
  0.00000000E+00  0.00000000E+00  0.00000000E+00
  0.00000000E+00  0.00000000E+00  0.00000000E+00
  0.00000000E+00  0.00000000E+00  0.00000000E+00
  0.00000000E+00  0.00000000E+00  0.00000000E+00
  0.00000000E+00  0.00000000E+00  0.00000000E+00
  0.00000000E+00  0.00000000E+00  0.00000000E+00
  0.00000000E+00  0.00000000E+00  0.00000000E+00
  0.00000000E+00  0.00000000E+00  0.00000000E+00
  0.00000000E+00  0.00000000E+00  0.00000000E+00
  0.00000000E+00  0.00000000E+00  0.00000000E+00
  0.00000000E+00  0.00000000E+00  0.00000000E+00
  0.00000000E+00  0.00000000E+00  0.00000000E+00
  0.00000000E+00  0.00000000E+00  0.00000000E+00
  0.00000000E+00  0.00000000E+00  0.00000000E+00
  0.00000000E+00  0.00000000E+00  0.00000000E+00
  0.00000000E+00  0.00000000E+00  0.00000000E+00
  0.00000000E+00  0.00000000E+00  0.00000000E+00
  0.00000000E+00  0.00000000E+00  0.00000000E+00
  0.00000000E+00  0.00000000E+00  0.00000000E+00
  0.00000000E+00  0.00000000E+00  0.00000000E+00
  0.00000000E+00  0.00000000E+00  0.00000000E+00
  0.00000000E+00  0.00000000E+00  0.00000000E+00
  0.00000000E+00  0.00000000E+00  0.00000000E+00
  0.00000000E+00  0.00000000E+00  0.00000000E+00
  0.00000000E+00  0.00000000E+00  0.00000000E+00
  0.00000000E+00  0.00000000E+00  0.00000000E+00
  0.00000000E+00  0.00000000E+00  0.00000000E+00
  0.00000000E+00  0.00000000E+00  0.00000000E+00
  0.00000000E+00  0.00000000E+00  0.00000000E+00
  0.00000000E+00  0.00000000E+00  0.00000000E+00
  0.00000000E+00  0.00000000E+00  0.00000000E+00
  0.00000000E+00  0.00000000E+00  0.00000000E+00
  0.00000000E+00  0.00000000E+00  0.00000000E+00
  0.00000000E+00  0.00000000E+00  0.00000000E+00
  0.00000000E+00  0.00000000E+00  0.00000000E+00
  0.00000000E+00  0.00000000E+00  0.00000000E+00
  0.00000000E+00  0.00000000E+00  0.00000000E+00
  0.00000000E+00  0.00000000E+00  0.00000000E+00
  0.00000000E+00  0.00000000E+00  0.00000000E+00
  0.00000000E+00  0.00000000E+00  0.00000000E+00
  0.00000000E+00  0.00000000E+00  0.00000000E+00
  0.00000000E+00  0.00000000E+00  0.00000000E+00
  0.00000000E+00  0.00000000E+00  0.00000000E+00
  0.00000000E+00  0.00000000E+00  0.00000000E+00
  0.00000000E+00  0.00000000E+00  0.00000000E+00
  0.00000000E+00  0.00000000E+00  0.00000000E+00
  0.00000000E+00  0.00000000E+00  0.00000000E+00
  0.00000000E+00  0.00000000E+00  0.00000000E+00
  0.00000000E+00  0.00000000E+00  0.00000000E+00
  0.00000000E+00  0.00000000E+00  0.00000000E+00
  0.00000000E+00  0.00000000E+00  0.00000000E+00
  0.00000000E+00  0.00000000E+00  0.00000000E+00
  0.00000000E+00  0.00000000E+00  0.00000000E+00
  0.00000000E+00  0.00000000E+00  0.00000000E+00
  0.00000000E+00  0.00000000E+00  0.00000000E+00
  0.00000000E+00  0.00000000E+00  0.00000000E+00
  0.00000000E+00  0.00000000E+00  0.00000000E+00
  0.00000000E+00  0.00000000E+00  0.00000000E+00
  0.00000000E+00  0.00000000E+00  0.00000000E+00
  0.00000000E+00  0.00000000E+00  0.00000000E+00
  0.00000000E+00  0.00000000E+00  0.00000000E+00
  0.00000000E+00  0.00000000E+00  0.00000000E+00
  0.00000000E+00  0.00000000E+00  0.00000000E+00
  0.00000000E+00  0.00000000E+00  0.00000000E+00
  0.00000000E+00  0.00000000E+00  0.00000000E+00
  0.00000000E+00  0.00000000E+00  0.00000000E+00
  0.00000000E+00  0.00000000E+00  0.00000000E+00
  0.00000000E+00  0.00000000E+00  0.00000000E+00
  0.00000000E+00  0.00000000E+00  0.00000000E+00
  0.00000000E+00  0.00000000E+00  0.00000000E+00
  0.00000000E+00  0.00000000E+00  0.00000000E+00
  0.00000000E+00  0.00000000E+00  0.00000000E+00
  0.00000000E+00  0.00000000E+00  0.00000000E+00
  0.00000000E+00  0.00000000E+00  0.00000000E+00
  0.00000000E+00  0.00000000E+00  0.00000000E+00
  0.00000000E+00  0.00000000E+00  0.00000000E+00
  0.00000000E+00  0.00000000E+00  0.00000000E+00
  0.00000000E+00  0.00000000E+00  0.00000000E+00
  0.00000000E+00  0.00000000E+00  0.00000000E+00
  0.00000000E+00  0.00000000E+00  0.00000000E+00
  0.00000000E+00  0.00000000E+00  0.00000000E+00
  0.00000000E+00  0.00000000E+00  0.00000000E+00
  0.00000000E+00  0.00000000E+00  0.00000000E+00
  0.00000000E+00  0.00000000E+00  0.00000000E+00
  0.00000000E+00  0.00000000E+00  0.00000000E+00
  0.00000000E+00  0.00000000E+00  0.00000000E+00
  0.00000000E+00  0.00000000E+00  0.00000000E+00
  0.00000000E+00  0.00000000E+00  0.00000000E+00
  0.00000000E+00  0.00000000E+00  0.00000000E+00
  0.00000000E+00  0.00000000E+00  0.00000000E+00
  0.00000000E+00  0.00000000E+00  0.00000000E+00
  0.00000000E+00  0.00000000E+00  0.00000000E+00
  0.00000000E+00  0.00000000E+00  0.00000000E+00
  0.00000000E+00  0.00000000E+00  0.00000000E+00
  0.00000000E+00  0.00000000E+00  0.00000000E+00
  0.00000000E+00  0.00000000E+00  0.00000000E+00
  0.00000000E+00  0.00000000E+00  0.00000000E+00
  0.00000000E+00  0.00000000E+00  0.00000000E+00
  0.00000000E+00  0.00000000E+00  0.00000000E+00
  0.00000000E+00  0.00000000E+00  0.00000000E+00
  0.00000000E+00  0.00000000E+00  0.00000000E+00
  0.00000000E+00  0.00000000E+00  0.00000000E+00
  0.00000000E+00  0.00000000E+00  0.00000000E+00
  0.00000000E+00  0.00000000E+00  0.00000000E+00
  0.00000000E+00  0.00000000E+00  0.00000000E+00
  0.00000000E+00  0.00000000E+00  0.00000000E+00
  0.00000000E+00  0.00000000E+00  0.00000000E+00
  0.00000000E+00  0.00000000E+00  0.00000000E+00
  0.00000000E+00  0.00000000E+00  0.00000000E+00
  0.00000000E+00  0.00000000E+00  0.00000000E+00
  0.00000000E+00  0.00000000E+00  0.00000000E+00
  0.00000000E+00  0.00000000E+00  0.00000000E+00
  0.00000000E+00  0.00000000E+00  0.00000000E+00
  0.00000000E+00  0.00000000E+00  0.00000000E+00
  0.00000000E+00  0.00000000E+00  0.00000000E+00
  0.00000000E+00  0.00000000E+00  0.00000000E+00
  0.00000000E+00  0.00000000E+00  0.00000000E+00
  0.00000000E+00  0.00000000E+00  0.00000000E+00
  0.00000000E+00  0.00000000E+00  0.00000000E+00
  0.00000000E+00  0.00000000E+00  0.00000000E+00
  0.00000000E+00  0.00000000E+00  0.00000000E+00
  0.00000000E+00  0.00000000E+00  0.00000000E+00
  0.00000000E+00  0.00000000E+00  0.00000000E+00
  0.00000000E+00  0.00000000E+00  0.00000000E+00
  0.00000000E+00  0.00000000E+00  0.00000000E+00
