Li47 P16 O64
1.0
10.476170 -0.003168 -0.011066
-0.003646 12.183279 -0.005888
-0.010416 -0.004734 9.841235
Li P O
47 16 64
direct
0.432173 0.368003 0.097907 Li
0.662274 0.253141 0.602989 Li
0.664013 0.750427 0.096900 Li
0.663737 0.752232 0.598428 Li
0.165112 0.498131 0.152186 Li
0.163604 0.499369 0.652060 Li
0.163553 0.995839 0.153429 Li
0.164189 0.998850 0.651935 Li
0.336096 0.001078 0.402166 Li
0.337245 0.001409 0.904252 Li
0.336575 0.500613 0.401161 Li
0.337662 0.499331 0.902382 Li
0.831171 0.249302 0.342588 Li
0.834694 0.248813 0.853790 Li
0.835622 0.748873 0.347498 Li
0.835981 0.749050 0.847975 Li
0.335988 0.249722 0.401976 Li
0.337374 0.247967 0.901606 Li
0.336559 0.749223 0.401546 Li
0.336865 0.749612 0.902529 Li
0.836404 0.002214 0.346706 Li
0.836487 0.002251 0.848630 Li
0.832872 0.500246 0.348498 Li
0.835133 0.499456 0.848592 Li
0.663639 0.492586 0.095694 Li
0.662628 0.501866 0.598098 Li
0.666194 1.003221 0.100341 Li
0.663387 1.001759 0.597788 Li
0.164062 0.249212 0.150500 Li
0.163403 0.250442 0.652165 Li
0.164681 0.749833 0.151867 Li
0.163583 0.750928 0.652596 Li
0.921587 0.373537 0.147939 Li
0.923484 0.374314 0.648707 Li
0.923902 0.875776 0.148639 Li
0.923338 0.875809 0.649102 Li
0.420752 0.375965 0.600241 Li
0.425476 0.875901 0.101263 Li
0.425009 0.876223 0.600995 Li
0.075485 0.125236 0.348035 Li
0.076796 0.124592 0.852468 Li
0.074963 0.624065 0.350646 Li
0.075948 0.624215 0.851315 Li
0.576019 0.129295 0.392778 Li
0.579144 0.131855 0.911813 Li
0.575854 0.624944 0.399370 Li
0.576256 0.623405 0.898752 Li
0.915994 0.125214 0.095898 P
0.912206 0.125475 0.595042 P
0.911541 0.624736 0.095247 P
0.911402 0.625136 0.595407 P
0.409388 0.121734 0.154538 P
0.411775 0.124668 0.654918 P
0.412537 0.624183 0.153842 P
0.410626 0.626817 0.654855 P
0.087282 0.375487 0.404714 P
0.088855 0.375071 0.904654 P
0.087696 0.874216 0.405246 P
0.088469 0.874092 0.904585 P
0.586584 0.377539 0.348633 P
0.587781 0.374264 0.839704 P
0.589268 0.875321 0.345163 P
0.589458 0.875887 0.845639 P
0.845015 0.021592 0.147312 O
0.841859 0.021990 0.646328 O
0.841256 0.521996 0.146749 O
0.841639 0.522180 0.647554 O
0.339858 0.225071 0.100862 O
0.339723 0.227444 0.604465 O
0.342176 0.727999 0.102950 O
0.340761 0.730687 0.604196 O
0.156817 0.272278 0.352362 O
0.158836 0.271901 0.852795 O
0.157889 0.770882 0.353605 O
0.158421 0.770618 0.853084 O
0.657395 0.480842 0.402960 O
0.658305 0.476986 0.894917 O
0.658875 0.978914 0.396496 O
0.660434 0.978053 0.897898 O
0.158091 0.478758 0.353525 O
0.159079 0.478456 0.852949 O
0.157961 0.977341 0.354778 O
0.159106 0.976952 0.853178 O
0.657452 0.274856 0.401395 O
0.658467 0.269507 0.876000 O
0.659196 0.772141 0.397839 O
0.658652 0.771313 0.895578 O
0.854658 0.228877 0.150184 O
0.843300 0.228645 0.647036 O
0.842052 0.728498 0.146414 O
0.841527 0.728637 0.646747 O
0.336039 0.018124 0.105839 O
0.341294 0.020934 0.603504 O
0.341939 0.521212 0.102285 O
0.339464 0.524529 0.602193 O
0.545354 0.116850 0.103502 O
0.548674 0.125466 0.599710 O
0.550549 0.624824 0.101159 O
0.548732 0.628043 0.602793 O
0.056531 0.119918 0.144064 O
0.050803 0.124235 0.647596 O
0.050163 0.624643 0.147398 O
0.049937 0.625285 0.647603 O
0.448374 0.375938 0.403949 O
0.450225 0.373764 0.895665 O
0.450732 0.874900 0.397060 O
0.451050 0.875252 0.897783 O
0.948698 0.376813 0.354248 O
0.950643 0.375432 0.852059 O
0.949416 0.874256 0.352664 O
0.950191 0.874488 0.851682 O
0.583825 0.382284 0.194733 O
0.582892 0.382259 0.682952 O
0.590690 0.874212 0.188586 O
0.589589 0.876402 0.688618 O
0.089644 0.375290 0.061244 O
0.089559 0.375209 0.561729 O
0.088526 0.872852 0.061212 O
0.088021 0.873973 0.562038 O
0.406800 0.124678 0.311917 O
0.412603 0.123966 0.811541 O
0.411590 0.625075 0.310818 O
0.410304 0.625530 0.811625 O
0.911593 0.125371 0.438282 O
0.913469 0.124066 0.938539 O
0.910567 0.625100 0.438638 O
0.910982 0.624792 0.938338 O
