Li16 Co18 O36                           
   1.00000000000000     
     8.0633520000000001    0.0216390000000000    2.3671690000000001
     3.6626080000000001    7.1811160000000003    2.3717779999999999
     0.0313660000000000    0.0121200000000000    9.8894839999999995
   Li   Co   O 
    16    18    36
Direct
  0.7844177062805855  0.4490739308073231  0.4738793948486091
  0.3336303074800995  0.3324901037978307  0.9987645484740710
  0.3341425812357031  0.3331585482800961  0.4983072344030575
  0.3332690061379324  0.6665839139657592  0.0006160023397968
  0.3545329278009461  0.6552327406121989  0.4999641083660649
  0.3338810400805556  0.9992632932397854  0.9992472213249854
  0.3334089822225295  0.9993336268504436  0.4986194824184125
  0.6672029863475615  0.3330432514697392  0.9998415353863805
  0.6648254001593727  0.6677390628206226  0.9991000066385851
  0.6667321826226953  0.9993833638327416  0.9990280388088451
  0.6678495247949527  0.9996543654499064  0.4981384365406072
  0.0021703274936087  0.3306581404046938  0.9988338441653113
  0.0011121950488402  0.6667193151334985  0.9986944932810289
  0.9897618757396955  0.6550832884021034  0.4995867268915859
  0.0007120593062737  0.9990252449704258  0.0005520640902859
  0.9899243631869794  0.0201813262073784  0.4997425804010192
  0.1685465668871586  0.1690138227323672  0.2481605525119051
  0.1652091561972000  0.1654231283780376  0.7484202965326929
  0.1677510398664381  0.5003265276434945  0.2473269992327758
  0.1642275046879433  0.4983406896964979  0.7518715137714551
  0.1662515758579559  0.8342871732030446  0.2500576642829060
  0.1646260383657747  0.8309732040347555  0.7531848003495654
  0.5016947370357840  0.1695874666517270  0.2444059878948437
  0.5001557774818508  0.1655576687436877  0.7487965090219504
  0.5011931374859913  0.5008374031780534  0.2485299512174564
  0.4967020125255033  0.4990664491751176  0.7530002286752477
  0.5011621206035457  0.8358616142815620  0.2488438792176666
  0.4995327213313558  0.8314781245624800  0.7480163605801025
  0.8332110199103226  0.1691067903979047  0.2480869027178940
  0.8324119537609675  0.1634076188301350  0.7530293688274341
  0.8359309155420860  0.5037955233663212  0.2399368237021164
  0.8323935829716334  0.4991118070738239  0.7528842708210490
  0.8325897343380433  0.8353728267483405  0.2473183163180295
  0.8318126636953167  0.8307492435598860  0.7521341199990914
  0.2603837713411110  0.2539966158548026  0.3517624443017056
  0.2532444108195904  0.2503660114175261  0.8584851792889125
  0.2541481146436055  0.5866612794987986  0.3575392951308416
  0.2511509475681208  0.5844402082289761  0.8626411755368224
  0.2542306971082127  0.9220430894855198  0.3579497576981083
  0.2534267766324376  0.9191302918352520  0.8593361878839332
  0.5865917991243634  0.2538808023583954  0.3519228393494629
  0.5843487938509639  0.2506502278326934  0.8614956482832667
  0.5912755161421828  0.5888449220268868  0.3510037142959135
  0.5840737973336800  0.5875335614504564  0.8613085507859140
  0.5865063514210362  0.9279809893286313  0.3518660137978600
  0.5842887864637589  0.9189767516393346  0.8587454792180935
  0.9217903066657342  0.2585599714686992  0.3505627326467149
  0.9210622632683680  0.2505312364306747  0.8613315083187203
  0.9213783736985874  0.5887042211875979  0.3501371062690239
  0.9183491590944470  0.5845990834286354  0.8628836765181873
  0.9191396546313584  0.9218628592751159  0.3573167814923153
  0.9181264846543158  0.9176077027790654  0.8627480940940657
  0.0811783228458367  0.0804629739701781  0.1398785684700954
  0.0781108227738443  0.0739208161152689  0.6459640797717086
  0.0840899304107126  0.4137950455594606  0.1352621151697662
  0.0778463787139003  0.4132380406826002  0.6453038435753484
  0.0806560148596205  0.7481552050922033  0.1392084309153176
  0.0778530262908959  0.7443387644186075  0.6449036784617306
  0.4139555753805837  0.0809746603555084  0.1369261497616563
  0.4127890182198186  0.0788267500499771  0.6392251489824758
  0.4139488858568470  0.4170505665042867  0.1367051995459860
  0.4082280228862558  0.4134229469898330  0.6459001065608305
  0.4129075649230742  0.7485405868575299  0.1403003013548414
  0.4076082024572969  0.7444403438592104  0.6457486293892458
  0.7494912368636264  0.0813729099379117  0.1366575281333056
  0.7475010407037104  0.0743170257133272  0.6458689488475642
  0.7467267263943214  0.4144650329973416  0.1358504809752858
  0.7413177447674926  0.4080338135707535  0.6596362879414954
  0.7460677500699759  0.7515156123531952  0.1355063382420596
  0.7471979621109952  0.7442626114538626  0.6451591684394629
 
  0.00000000E+00  0.00000000E+00  0.00000000E+00
  0.00000000E+00  0.00000000E+00  0.00000000E+00
  0.00000000E+00  0.00000000E+00  0.00000000E+00
  0.00000000E+00  0.00000000E+00  0.00000000E+00
  0.00000000E+00  0.00000000E+00  0.00000000E+00
  0.00000000E+00  0.00000000E+00  0.00000000E+00
  0.00000000E+00  0.00000000E+00  0.00000000E+00
  0.00000000E+00  0.00000000E+00  0.00000000E+00
  0.00000000E+00  0.00000000E+00  0.00000000E+00
  0.00000000E+00  0.00000000E+00  0.00000000E+00
  0.00000000E+00  0.00000000E+00  0.00000000E+00
  0.00000000E+00  0.00000000E+00  0.00000000E+00
  0.00000000E+00  0.00000000E+00  0.00000000E+00
  0.00000000E+00  0.00000000E+00  0.00000000E+00
  0.00000000E+00  0.00000000E+00  0.00000000E+00
  0.00000000E+00  0.00000000E+00  0.00000000E+00
  0.00000000E+00  0.00000000E+00  0.00000000E+00
  0.00000000E+00  0.00000000E+00  0.00000000E+00
  0.00000000E+00  0.00000000E+00  0.00000000E+00
  0.00000000E+00  0.00000000E+00  0.00000000E+00
  0.00000000E+00  0.00000000E+00  0.00000000E+00
  0.00000000E+00  0.00000000E+00  0.00000000E+00
  0.00000000E+00  0.00000000E+00  0.00000000E+00
  0.00000000E+00  0.00000000E+00  0.00000000E+00
  0.00000000E+00  0.00000000E+00  0.00000000E+00
  0.00000000E+00  0.00000000E+00  0.00000000E+00
  0.00000000E+00  0.00000000E+00  0.00000000E+00
  0.00000000E+00  0.00000000E+00  0.00000000E+00
  0.00000000E+00  0.00000000E+00  0.00000000E+00
  0.00000000E+00  0.00000000E+00  0.00000000E+00
  0.00000000E+00  0.00000000E+00  0.00000000E+00
  0.00000000E+00  0.00000000E+00  0.00000000E+00
  0.00000000E+00  0.00000000E+00  0.00000000E+00
  0.00000000E+00  0.00000000E+00  0.00000000E+00
  0.00000000E+00  0.00000000E+00  0.00000000E+00
  0.00000000E+00  0.00000000E+00  0.00000000E+00
  0.00000000E+00  0.00000000E+00  0.00000000E+00
  0.00000000E+00  0.00000000E+00  0.00000000E+00
  0.00000000E+00  0.00000000E+00  0.00000000E+00
  0.00000000E+00  0.00000000E+00  0.00000000E+00
  0.00000000E+00  0.00000000E+00  0.00000000E+00
  0.00000000E+00  0.00000000E+00  0.00000000E+00
  0.00000000E+00  0.00000000E+00  0.00000000E+00
  0.00000000E+00  0.00000000E+00  0.00000000E+00
  0.00000000E+00  0.00000000E+00  0.00000000E+00
  0.00000000E+00  0.00000000E+00  0.00000000E+00
  0.00000000E+00  0.00000000E+00  0.00000000E+00
  0.00000000E+00  0.00000000E+00  0.00000000E+00
  0.00000000E+00  0.00000000E+00  0.00000000E+00
  0.00000000E+00  0.00000000E+00  0.00000000E+00
  0.00000000E+00  0.00000000E+00  0.00000000E+00
  0.00000000E+00  0.00000000E+00  0.00000000E+00
  0.00000000E+00  0.00000000E+00  0.00000000E+00
  0.00000000E+00  0.00000000E+00  0.00000000E+00
  0.00000000E+00  0.00000000E+00  0.00000000E+00
  0.00000000E+00  0.00000000E+00  0.00000000E+00
  0.00000000E+00  0.00000000E+00  0.00000000E+00
  0.00000000E+00  0.00000000E+00  0.00000000E+00
  0.00000000E+00  0.00000000E+00  0.00000000E+00
  0.00000000E+00  0.00000000E+00  0.00000000E+00
  0.00000000E+00  0.00000000E+00  0.00000000E+00
  0.00000000E+00  0.00000000E+00  0.00000000E+00
  0.00000000E+00  0.00000000E+00  0.00000000E+00
  0.00000000E+00  0.00000000E+00  0.00000000E+00
  0.00000000E+00  0.00000000E+00  0.00000000E+00
  0.00000000E+00  0.00000000E+00  0.00000000E+00
  0.00000000E+00  0.00000000E+00  0.00000000E+00
  0.00000000E+00  0.00000000E+00  0.00000000E+00
  0.00000000E+00  0.00000000E+00  0.00000000E+00
  0.00000000E+00  0.00000000E+00  0.00000000E+00
