Li16 Co18 O36                           
   1.00000000000000     
     8.0633520000000001    0.0216390000000000    2.3671690000000001
     3.6626080000000001    7.1811160000000003    2.3717779999999999
     0.0313660000000000    0.0121200000000000    9.8894839999999995
   Li   Co   O 
    16    18    36
Direct
  0.7844177062805883  0.4490739308073210  0.4738793948486120
  0.3336303074801011  0.3324901037978307 -0.0012354515259264
  0.3341425812357003  0.3331585482800932  0.4983072344030574
  0.3332690061379290  0.6665839139657559  0.0006160023397961
  0.3545329278009491  0.6552327406121961  0.4999641083660679
  0.3338810400805530 -0.0007367067602152 -0.0007527786750126
  0.3334089822225268 -0.0006663731495560  0.4986194824184149
  0.6672029863475624  0.3330432514697405 -0.0001584646136176
  0.6648254001593711  0.6677390628206221 -0.0008999933614173
  0.6667321826226948 -0.0006166361672573  0.9990280388088461
  0.6678495247949525  0.9996543654499086  0.4981384365406106
  0.0021703274936122  0.3306581404046945 -0.0011661558346880
  1.0011121950488406  0.6667193151334950 -0.0013055067189684
  0.9897618757396962  0.6550832884021027  0.4995867268915891
  0.0007120593062757 -0.0009747550295766  0.0005520640902864
  0.9899243631869767  0.0201813262073795  0.4997425804010172
  0.1685465668871556  0.1690138227323707  0.2481605525119032
  0.1652091561971974  0.1654231283780389  0.7484202965326954
  0.1677510398664358  0.5003265276434959  0.2473269992327776
  0.1642275046879447  0.4983406896964998  0.7518715137714529
  0.1662515758579549  0.8342871732030418  0.2500576642829074
  0.1646260383657775  0.8309732040347571  0.7531848003495671
  0.5016947370357815  0.1695874666517305  0.2444059878948418
  0.5001557774818489  0.1655576687436872  0.7487965090219514
  0.5011931374859944  0.5008374031780539  0.2485299512174544
  0.4967020125255052  0.4990664491751152  0.7530002286752446
  0.5011621206035457  0.8358616142815590  0.2488438792176664
  0.4995327213313560  0.8314781245624767  0.7480163605801031
  0.8332110199103194  0.1691067903979075  0.2480869027178968
  0.8324119537609673  0.1634076188301382  0.7530293688274359
  0.8359309155420840  0.5037955233663237  0.2399368237021189
  0.8323935829716300  0.4991118070738230  0.7528842708210458
  0.8325897343380431  0.8353728267483376  0.2473183163180283
  0.8318126636953171  0.8307492435598876  0.7521341199990882
  0.2603837713411110  0.2539966158548008  0.3517624443017082
  0.2532444108195869  0.2503660114175267  0.8584851792889141
  0.2541481146436073  0.5866612794987974  0.3575392951308418
  0.2511509475681220  0.5844402082289790  0.8626411755368197
  0.2542306971082143  0.9220430894855189  0.3579497576981108
  0.2534267766324396  0.9191302918352521  0.8593361878839332
  0.5865917991243648  0.2538808023583983  0.3519228393494635
  0.5843487938509628  0.2506502278326935  0.8614956482832645
  0.5912755161421851  0.5888449220268890  0.3510037142959150
  0.5840737973336803  0.5875335614504554  0.8613085507859131
  0.5865063514210334  0.9279809893286283  0.3518660137978621
  0.5842887864637583  0.9189767516393368  0.8587454792180946
  0.9217903066657358  0.2585599714686974  0.3505627326467124
  0.9210622632683646  0.2505312364306735  0.8613315083187180
  0.9213783736985899  0.5887042211875949  0.3501371062690222
  0.9183491590944475  0.5845990834286356  0.8628836765181851
  0.9191396546313556  0.9218628592751177  0.3573167814923163
  0.9181264846543136  0.9176077027790673  0.8627480940940653
  0.0811783228458385  0.0804629739701753  0.1398785684700929
  0.0781108227738462  0.0739208161152694  0.6459640797717071
  0.0840899304107137  0.4137950455594597  0.1352621151697696
  0.0778463787139005  0.4132380406825967  0.6453038435753502
  0.0806560148596227  0.7481552050921999  0.1392084309153210
  0.0778530262908955  0.7443387644186079  0.6449036784617298
  0.4139555753805827  0.0809746603555113  0.1369261497616563
  0.4127890182198193  0.0788267500499795  0.6392251489824756
  0.4139488858568486  0.4170505665042901  0.1367051995459838
  0.4082280228862582  0.4134229469898310  0.6459001065608321
  0.4129075649230743  0.7485405868575306  0.1403003013548425
  0.4076082024572976  0.7444403438592113  0.6457486293892434
  0.7494912368636251  0.0813729099379149  0.1366575281333081
  0.7475010407037097  0.0743170257133270  0.6458689488475632
  0.7467267263943219  0.4144650329973399  0.1358504809752844
  0.7413177447674897  0.4080338135707501  0.6596362879414944
  0.7460677500699782  0.7515156123531945  0.1355063382420579
  0.7471979621109978  0.7442626114538593  0.6451591684394601
 
             NaN             NaN             NaN
             NaN             NaN             NaN
             NaN             NaN             NaN
             NaN             NaN             NaN
             NaN             NaN             NaN
             NaN             NaN             NaN
             NaN             NaN             NaN
             NaN             NaN             NaN
             NaN             NaN             NaN
             NaN             NaN             NaN
             NaN             NaN             NaN
             NaN             NaN             NaN
             NaN             NaN             NaN
             NaN             NaN             NaN
             NaN             NaN             NaN
             NaN             NaN             NaN
             NaN             NaN             NaN
             NaN             NaN             NaN
             NaN             NaN             NaN
             NaN             NaN             NaN
             NaN             NaN             NaN
             NaN             NaN             NaN
             NaN             NaN             NaN
             NaN             NaN             NaN
             NaN             NaN             NaN
             NaN             NaN             NaN
             NaN             NaN             NaN
             NaN             NaN             NaN
             NaN             NaN             NaN
             NaN             NaN             NaN
             NaN             NaN             NaN
             NaN             NaN             NaN
             NaN             NaN             NaN
             NaN             NaN             NaN
             NaN             NaN             NaN
             NaN             NaN             NaN
             NaN             NaN             NaN
             NaN             NaN             NaN
             NaN             NaN             NaN
             NaN             NaN             NaN
             NaN             NaN             NaN
             NaN             NaN             NaN
             NaN             NaN             NaN
             NaN             NaN             NaN
             NaN             NaN             NaN
             NaN             NaN             NaN
             NaN             NaN             NaN
             NaN             NaN             NaN
             NaN             NaN             NaN
             NaN             NaN             NaN
             NaN             NaN             NaN
             NaN             NaN             NaN
             NaN             NaN             NaN
             NaN             NaN             NaN
             NaN             NaN             NaN
             NaN             NaN             NaN
             NaN             NaN             NaN
             NaN             NaN             NaN
             NaN             NaN             NaN
             NaN             NaN             NaN
             NaN             NaN             NaN
             NaN             NaN             NaN
             NaN             NaN             NaN
             NaN             NaN             NaN
             NaN             NaN             NaN
             NaN             NaN             NaN
             NaN             NaN             NaN
             NaN             NaN             NaN
             NaN             NaN             NaN
             NaN             NaN             NaN
