Na47 P16 S64
1.0
14.011766 -0.009663 -0.000059
-0.009748 14.025878 -0.000006
-0.000036 -0.000044 14.401213
Na P S
47 16 64
direct
0.605870 0.747919 0.734121 Na
0.999913 0.250652 0.204013 Na
0.999519 0.250086 0.703304 Na
0.999275 0.750592 0.209371 Na
0.984757 0.752232 0.714512 Na
0.500095 0.249342 0.205384 Na
0.500487 0.249917 0.704921 Na
0.500724 0.749413 0.210600 Na
0.248841 0.999264 0.292634 Na
0.248496 0.998468 0.791667 Na
0.251884 0.500480 0.297193 Na
0.250411 0.503244 0.795985 Na
0.748179 0.998895 0.294224 Na
0.747440 0.981992 0.788965 Na
0.751093 0.501371 0.289664 Na
0.753654 0.516289 0.784660 Na
0.253354 0.999140 0.041857 Na
0.243147 0.999342 0.542542 Na
0.247171 0.500032 0.047064 Na
0.255895 0.503604 0.548093 Na
0.752997 1.000108 0.042913 Na
0.743669 0.997608 0.543152 Na
0.746487 0.500719 0.037713 Na
0.757282 0.499456 0.537600 Na
0.999786 0.248522 0.453657 Na
0.998553 0.252894 0.952432 Na
0.999925 0.748357 0.461339 Na
0.999757 0.753322 0.959938 Na
0.500216 0.251476 0.455237 Na
0.501448 0.247104 0.953403 Na
0.500070 0.751643 0.471252 Na
0.500243 0.746675 0.956098 Na
0.990847 0.997531 0.501257 Na
0.002975 0.008454 0.000358 Na
0.011628 0.496978 0.499221 Na
0.997008 0.500621 0.998320 Na
0.491352 0.001641 0.499711 Na
0.506895 0.996994 0.999392 Na
0.506152 0.503849 0.501754 Na
0.493123 0.493927 0.001435 Na
0.249177 0.251325 0.249821 Na
0.249093 0.252788 0.750084 Na
0.250917 0.748271 0.250400 Na
0.284374 0.749844 0.749769 Na
0.750827 0.248682 0.249324 Na
0.750916 0.247206 0.750726 Na
0.749087 0.751736 0.249903 Na
-0.000729 0.001185 0.249710 P
0.998802 0.002968 0.751393 P
0.001526 0.499502 0.249532 P
0.002591 0.498605 0.748339 P
0.499081 0.000289 0.250259 P
0.498024 1.000107 0.748926 P
0.500115 0.499022 0.250439 P
0.500582 0.498314 0.751981 P
0.249789 0.250505 0.000089 P
0.249739 0.250945 0.499560 P
0.250300 0.749101 0.001328 P
0.249110 0.751221 0.498636 P
0.750214 0.249493 0.000046 P
0.750264 0.249060 0.498925 P
0.749697 0.750896 0.002939 P
0.750883 0.748780 0.496345 P
0.155277 0.174168 0.081948 S
0.154623 0.175685 0.581247 S
0.153807 0.675706 0.083422 S
0.155459 0.675901 0.581329 S
0.655454 0.173977 0.082696 S
0.654269 0.175259 0.580801 S
0.655557 0.674443 0.085244 S
0.657264 0.669095 0.575142 S
0.345033 0.325332 0.082509 S
0.345411 0.325369 0.581317 S
0.345537 0.823946 0.083475 S
0.342879 0.829028 0.578898 S
0.844246 0.326521 0.082131 S
0.845712 0.323704 0.580722 S
0.845101 0.825906 0.085188 S
0.844391 0.825978 0.577575 S
0.174452 0.346409 0.418122 S
0.174392 0.346293 0.919484 S
0.172255 0.843306 0.414469 S
0.177267 0.842919 0.917286 S
0.676552 0.344429 0.416150 S
0.675687 0.343450 0.917203 S
0.672739 0.843181 0.415625 S
0.671852 0.847554 0.925210 S
0.324269 0.156132 0.416844 S
0.324411 0.156257 0.917388 S
0.327152 0.656766 0.417906 S
0.325750 0.651681 0.922161 S
0.824730 0.153037 0.417432 S
0.825514 0.153991 0.919300 S
0.827846 0.656746 0.412195 S
0.825129 0.657843 0.920337 S
0.096475 0.423571 0.168165 S
0.101251 0.422415 0.671038 S
0.093639 0.926499 0.166699 S
0.089966 0.925102 0.668266 S
0.594137 0.424060 0.167134 S
0.596226 0.425473 0.668714 S
0.594687 0.925253 0.169195 S
0.588654 0.924766 0.663368 S
0.405093 0.075188 0.166909 S
0.401518 0.076527 0.669446 S
0.404393 0.574285 0.169303 S
0.409089 0.578019 0.670747 S
0.904298 0.077181 0.168394 S
0.901000 0.075592 0.670303 S
0.907284 0.573965 0.166590 S
0.912284 0.572116 0.660895 S
0.075095 0.095303 0.332277 S
0.077177 0.100097 0.828723 S
0.076774 0.594640 0.331351 S
0.073444 0.594173 0.832786 S
0.573745 0.095571 0.332642 S
0.577686 0.093746 0.828884 S
0.575369 0.593526 0.332246 S
0.575354 0.586541 0.840920 S
0.425448 0.403849 0.332876 S
0.422489 0.400910 0.829394 S
0.423534 0.905746 0.332145 S
0.424035 0.908120 0.834780 S
0.925711 0.405268 0.332038 S
0.922652 0.405238 0.828213 S
0.924319 0.906085 0.331444 S
0.927168 0.911163 0.838916 S
