Mg7 Sc16 Se32                           
   1.00000000000000     
    11.2076309999999992    0.0000010000000000    0.0000010000000000
     0.0000010000000000   11.2076290000000007    0.0000000000000000
     0.0000010000000000    0.0000000000000000   11.2076309999999992
   Mg   Sc   Se
     7    16    32
Direct
  0.5573984478220865  0.5573981862978066  0.5573984391251302
  0.6241192177322790  0.1272006173998476  0.1272005815548565
  0.1272004930667477  0.6241191964859747  0.1272005455246352
  0.1272005164720248  0.1272006072024714  0.6241189407342114
  0.3746202895148541  0.8731147686977555  0.8731147573881990
  0.8731147390783474  0.3746204616024209  0.8731148483005283
  0.8731148749049976  0.8731149412094310  0.3746202057203470
  0.9931075278142745  0.7495810353990977  0.7495809238961884
  0.7495812573322750  0.9931077048612197  0.7495809694958750
  0.7495814170991827  0.7495812335154106  0.9931078620445032
  0.9995164971272862  0.9995166087108370  0.9995163062261269
  0.0064611651059980  0.2496945091006805  0.2496945628914733
  0.2496945306247533  0.0064612662719269  0.2496945302251644
  0.2496945065988292  0.2496945997972183  0.0064612825014840
  0.7469987795352053  0.5001150701447935  0.2504227897305754
  0.7469984912243091  0.2504227695260260  0.5001151917065625
  0.0119035832412726  0.4995444557186777  0.4995443920997685
  0.2504224930316518  0.5001149298114691  0.7469988333057047
  0.2504223181714140  0.7469987603560708  0.5001150297102358
  0.5001148111108094  0.7469987036730154  0.2504223609128286
  0.4995446789963161  0.0119023021769541  0.4995446309905843
  0.5001147976244326  0.2504226294307166  0.7469986611089268
  0.4995446788359746  0.4995446403445142  0.0119031503848772
  0.7566061616115513  0.9926412039591107  0.9926408997219714
  0.9926413128864308  0.7566062011523884  0.9926408340613585
  0.9926411875091878  0.9926410087449125  0.7566059983739902
  0.7547648538638821  0.7547650090103301  0.7547651188389567
  0.2419027904628843  0.0064735845823066  0.0064735477044353
  0.0064735154828685  0.2419027641541362  0.0064735507090025
  0.0064736270498614  0.0064735874945380  0.2419026559492904
  0.2435433114898626  0.2435434589170866  0.2435433917060777
  0.7645860839924724  0.4931444607935354  0.4931444589072509
  0.9921207848553339  0.2575306536820676  0.4926152175195614
  0.9921209226037380  0.4926152082380397  0.2575305980940107
  0.7609951075917016  0.2570734657845688  0.2570736673375916
  0.2509384538166753  0.5077894295081483  0.5077894871110841
  0.0079605562837857  0.7420672933563546  0.5065679352646763
  0.0079605371116130  0.5065679781157315  0.7420672282896649
  0.2384941726553327  0.7431885278743628  0.7431886239371439
  0.2575306580336341  0.9921208221211532  0.4926152202904912
  0.4931440745354758  0.7645855049599117  0.4931441667148777
  0.4926152026369143  0.9921208296582360  0.2575306204532094
  0.2570732796651793  0.7609951410072585  0.2570734910884146
  0.7420675133748311  0.0079606953071485  0.5065679956160856
  0.5077893234666203  0.2509373996817348  0.5077895319021236
  0.5065681754527480  0.0079605159762544  0.7420675126055877
  0.7431883577284342  0.2384944921305436  0.7431886999122526
  0.2575306428391629  0.4926152803476859  0.9921208282637544
  0.4926151615005031  0.2575306696947503  0.9921208370955219
  0.4931441618655478  0.4931444224359390  0.7645860954840753
  0.2570733179501994  0.2570733581800670  0.7609951844068815
  0.7420675127234588  0.5065681694513293  0.0079607918944879
  0.5065683164973135  0.7420674802140748  0.0079605108933678
  0.5077895141549406  0.5077894837434878  0.2509380622198465
  0.7431884678988773  0.7431886904247517  0.2384944755207299
 
             NaN             NaN             NaN
             NaN             NaN             NaN
             NaN             NaN             NaN
             NaN             NaN             NaN
             NaN             NaN             NaN
             NaN             NaN             NaN
             NaN             NaN             NaN
             NaN             NaN             NaN
             NaN             NaN             NaN
             NaN             NaN             NaN
             NaN             NaN             NaN
             NaN             NaN             NaN
             NaN             NaN             NaN
             NaN             NaN             NaN
             NaN             NaN             NaN
             NaN             NaN             NaN
             NaN             NaN             NaN
             NaN             NaN             NaN
             NaN             NaN             NaN
             NaN             NaN             NaN
             NaN             NaN             NaN
             NaN             NaN             NaN
             NaN             NaN             NaN
             NaN             NaN             NaN
             NaN             NaN             NaN
             NaN             NaN             NaN
             NaN             NaN             NaN
             NaN             NaN             NaN
             NaN             NaN             NaN
             NaN             NaN             NaN
             NaN             NaN             NaN
             NaN             NaN             NaN
             NaN             NaN             NaN
             NaN             NaN             NaN
             NaN             NaN             NaN
             NaN             NaN             NaN
             NaN             NaN             NaN
             NaN             NaN             NaN
             NaN             NaN             NaN
             NaN             NaN             NaN
             NaN             NaN             NaN
             NaN             NaN             NaN
             NaN             NaN             NaN
             NaN             NaN             NaN
             NaN             NaN             NaN
             NaN             NaN             NaN
             NaN             NaN             NaN
             NaN             NaN             NaN
             NaN             NaN             NaN
             NaN             NaN             NaN
             NaN             NaN             NaN
             NaN             NaN             NaN
             NaN             NaN             NaN
             NaN             NaN             NaN
             NaN             NaN             NaN
