Li46 P16 O64                            
   1.00000000000000     
    10.4276429999999998   -0.0013260000000000   -0.0108830000000000
    -0.0017310000000000   12.1927889999999994   -0.0026750000000000
    -0.0095780000000000   -0.0028610000000000    9.7875759999999996
   Li   P    O 
    46    16    64
Direct
  0.2168417869306584  0.2980633776530897  0.1635910789791142
  0.6669379821332904  0.2470025029127338  0.6059070883669021
  0.6629921361768339  0.7477812771596322  0.0972354071142079
  0.6646589096639534  0.7516262549791652  0.5994839003994356
  0.1620434290696987  0.5066037250067785  0.1492177205098370
  0.1649134017964577  0.5005376678372931  0.6530865014717425
  0.1659289383350327  0.9944550450402425  0.1541927214435354
  0.1650162084624511  0.9988093065491389  0.6526768475870827
  0.3361785721290019 -0.0002166391164688  0.4009004481869681
  0.3374884634231836 -0.0005608065398015  0.9031497269284020
  0.3351862047531421  0.5031700932490868  0.4026844029840508
  0.3387626282290996  0.4968742331045198  0.9089103160607912
  0.8383939825799483  0.2487032352402387  0.3463601314577210
  0.8356745281803103  0.2496879661798531  0.8535153359000645
  0.8359778140371678  0.7488090464032385  0.3486557347411583
  0.8361336411655035  0.7491924857757174  0.8477680613971348
  0.3377198628537561  0.2456111231960696  0.4096818143855951
  0.3399849515989959  0.2496587368727534  0.8999454776567363
  0.3365797904290624  0.7498900821096252  0.4008422838227459
  0.3360418178865825  0.7487293376818359  0.9028625208215268
  0.8381324280940188  0.0015986896187935  0.3494479861892344
  0.8367270505284742  0.0014434224176901  0.8460613949040717
  0.8370905086933552  0.5003793669538106  0.3459808689904044
  0.8350187292012797  0.4999589190185139  0.8496295175361862
  0.6592714411437108  0.4917766353174937  0.0920478119029831
  0.6676062028752895  0.5049554792935911  0.5962573686395374
  0.6689868625683111 -0.0039374814146041  0.0974074518957874
  0.6649018263260101  0.9995257273611069  0.5973317320357276
  0.1641637772535809  0.2509727099743415  0.6531636315425141
  0.1647522582039983  0.7508479776874940  0.1517233192525415
  0.1647327315525695  0.7515296037358667  0.6525082805904457
  0.9283208027352068  0.3742770510922814  0.1451586497607812
  0.9248375939012676  0.3750906722593673  0.6518225057503406
  0.9229338194849059  0.8733913481501827  0.1495055375264829
  0.9238054819866831  0.8751962105091554  0.6484494801995937
  0.4174838609053272  0.3766303508115012  0.6205890520936223
  0.4283315424478997  0.8712447697834207  0.1009778700182876
  0.4245416122143957  0.8753774663566172  0.6003985187785218
  0.0810679744117984  0.1285752363105831  0.3442478380448325
  0.0797573361519602  0.1262524695416279  0.8553413390370246
  0.0760214730967419  0.6263173000302413  0.3518689674814428
  0.0764747225012455  0.6248764782106503  0.8515095245329821
  0.5770584788891004  0.1232515393288479  0.3922679952799788
  0.5798290467426607  0.1285966229319760  0.9096245921087655
  0.5757599955909752  0.6274964185573160  0.3990182191647370
  0.5751343283352496  0.6237647086510067  0.8986292983282052
  0.9155520184997148  0.1229851166359166  0.0951929277174437
  0.9152573752275603  0.1251596257041597  0.5952089631357154
  0.9093572001732151  0.6248598595330858  0.0952917412905323
  0.9130454605464928  0.6253370881652419  0.5955185130192095
  0.4121121543927131  0.1179699842260574  0.1549035614268099
  0.4134453575823950  0.1232271343302914  0.6542214477085531
  0.4106586090043523  0.6245954989844817  0.1546195457569748
  0.4112452137948164  0.6264070362125106  0.6549701509591349
  0.0900860974711755  0.3766883708367391  0.4050301435984770
  0.0907339417041460  0.3762474617429587  0.9048946779822298
  0.0883779612199296  0.8750917140039477  0.4050106333271606
  0.0883050144885481  0.8747897234615214  0.9049542013440094
  0.5860006723697405  0.3752393912085555  0.3523624874392668
  0.5872058137378112  0.3748602466829316  0.8324586615020637
  0.5896600912485405  0.8747693284748314  0.3454413067741922
  0.5889809140067311  0.8744168476393078  0.8449540413453925
  0.8431953567643082  0.0213118661821973  0.1484945529368409
  0.8430795496226888  0.0222011830834497  0.6451989648618516
  0.8396961213897105  0.5204572710956911  0.1455271572668033
  0.8438254993577233  0.5220047417889958  0.6483028598891130
  0.3432014407241586  0.2172220657578119  0.0899665342076366
  0.3425381676127636  0.2275861525967295  0.6064005266832128
  0.3439425886538154  0.7303933967570014  0.1047223659960609
  0.3420455133414895  0.7298612625157667  0.6030942119342161
  0.1637987902846230  0.2754312506933772  0.3530669677118393
  0.1596363709790740  0.2733808722032716  0.8517926434102687
  0.1584825896067891  0.7717438588142040  0.3531990839299802
  0.1582241332670615  0.7712710272977498  0.8535215030242066
  0.6573880666396158  0.4791575863320509  0.3971151571165435
  0.6552973235674148  0.4760126095320000  0.8937010596391644
  0.6601937050743298  0.9779736604887099  0.3964008830832287
  0.6607993952912717  0.9770603095421345  0.8973707570233990
  0.1584218526312587  0.4804306424185646  0.3518819806028423
  0.1589755877592555  0.4796307516578928  0.8509422016389679
  0.1582304999452987  0.9780383401281865  0.3538038170830952
  0.1593522471350950  0.9776057538961446  0.8541595846951220
  0.6586504341886261  0.2723490718932443  0.3963664545191046
  0.6553957838061273  0.2692645844587574  0.8757858823332446
  0.6597823294510051  0.7715867522262113  0.3994611936290610
  0.6585726880913193  0.7704195287691860  0.8961193275054105
  0.8564453555648744  0.2287737786385961  0.1515970813034903
  0.8451209885570458  0.2285875424629344  0.6471285160704257
  0.8388542163852323  0.7274896619002098  0.1475632056120042
  0.8425154578157723  0.7284093291305097  0.6468115028276473
  0.3420576329085001  0.0127371788080178  0.1071155380873011
  0.3423434065799774  0.0214600054122275  0.6015251420097868
  0.3356918904297614  0.5253986162844502  0.1029376888721491
  0.3410663118534776  0.5236399584186535  0.6013441497835299
  0.5504905306766275  0.1127806262326037  0.1049006530972613
  0.5509474000470185  0.1249071974947746  0.5982434936113054
  0.5501951972086485  0.6218720325808460  0.1023447708226096
  0.5508365347367022  0.6265961944299043  0.6031097484172241
  0.0552125487193893  0.1190508416957222  0.1451100520092492
  0.0533202254422613  0.1244165702328799  0.6489217525955123
  0.0479370401006058  0.6264148250068310  0.1485351710302679
  0.0522915825556333  0.6260154946335079  0.6463901060215488
  0.4474956149702397  0.3750616187816971  0.4010122091956427
  0.4440756198375999  0.3740981919453684  0.8646204979615925
  0.4510900452581040  0.8750689146760557  0.3960734850577952
  0.4505108447458504  0.8744172730221603  0.8972323634408990
  0.9508171823520262  0.3748967157410316  0.3523744492576352
  0.9498136548779565  0.3754904288962920  0.8571556842256359
  0.9489046250895811  0.8744869198759191  0.3528512556923485
  0.9492370736158606  0.8751399736564479  0.8517476298008632
  0.5809276240419495  0.3703563391379486  0.1929227287346174
  0.5972726125619290  0.3797844278494114  0.6743946708707335
  0.5931261660030607  0.8723298175131009  0.1880024410389319
  0.5899071521153350  0.8756280366413500  0.6876757139651329
  0.0955138998190854  0.3785986309085453  0.0624501598949893
  0.0903746574882061  0.3764306571340341  0.5623187108157663
  0.0877906604952948  0.8737356248838045  0.0622969008230936
  0.0892640198487634  0.8748441747780942  0.5626144018432094
  0.4079721445621587  0.1255868882326030  0.3120023039983493
  0.4150118098566969  0.1214938770952812  0.8120890857339417
  0.4119037631907005  0.6250953862194346  0.3126610221674213
  0.4099212452422777  0.6251194371952263  0.8122724769685353
  0.9151573053624741  0.1260191553752271  0.4375493650619395
  0.9115338595397224  0.1239448514255775  0.9379501439846301
  0.9107340559842766  0.6242451439811678  0.4377576195407618
  0.9096055718647819  0.6250736864650350  0.9378060002540338
 
             NaN             NaN             NaN
             NaN             NaN             NaN
             NaN             NaN             NaN
             NaN             NaN             NaN
             NaN             NaN             NaN
             NaN             NaN             NaN
             NaN             NaN             NaN
             NaN             NaN             NaN
             NaN             NaN             NaN
             NaN             NaN             NaN
             NaN             NaN             NaN
             NaN             NaN             NaN
             NaN             NaN             NaN
             NaN             NaN             NaN
             NaN             NaN             NaN
             NaN             NaN             NaN
             NaN             NaN             NaN
             NaN             NaN             NaN
             NaN             NaN             NaN
             NaN             NaN             NaN
             NaN             NaN             NaN
             NaN             NaN             NaN
             NaN             NaN             NaN
             NaN             NaN             NaN
             NaN             NaN             NaN
             NaN             NaN             NaN
             NaN             NaN             NaN
             NaN             NaN             NaN
             NaN             NaN             NaN
             NaN             NaN             NaN
             NaN             NaN             NaN
             NaN             NaN             NaN
             NaN             NaN             NaN
             NaN             NaN             NaN
             NaN             NaN             NaN
             NaN             NaN             NaN
             NaN             NaN             NaN
             NaN             NaN             NaN
             NaN             NaN             NaN
             NaN             NaN             NaN
             NaN             NaN             NaN
             NaN             NaN             NaN
             NaN             NaN             NaN
             NaN             NaN             NaN
             NaN             NaN             NaN
             NaN             NaN             NaN
             NaN             NaN             NaN
             NaN             NaN             NaN
             NaN             NaN             NaN
             NaN             NaN             NaN
             NaN             NaN             NaN
             NaN             NaN             NaN
             NaN             NaN             NaN
             NaN             NaN             NaN
             NaN             NaN             NaN
             NaN             NaN             NaN
             NaN             NaN             NaN
             NaN             NaN             NaN
             NaN             NaN             NaN
             NaN             NaN             NaN
             NaN             NaN             NaN
             NaN             NaN             NaN
             NaN             NaN             NaN
             NaN             NaN             NaN
             NaN             NaN             NaN
             NaN             NaN             NaN
             NaN             NaN             NaN
             NaN             NaN             NaN
             NaN             NaN             NaN
             NaN             NaN             NaN
             NaN             NaN             NaN
             NaN             NaN             NaN
             NaN             NaN             NaN
             NaN             NaN             NaN
             NaN             NaN             NaN
             NaN             NaN             NaN
             NaN             NaN             NaN
             NaN             NaN             NaN
             NaN             NaN             NaN
             NaN             NaN             NaN
             NaN             NaN             NaN
             NaN             NaN             NaN
             NaN             NaN             NaN
             NaN             NaN             NaN
             NaN             NaN             NaN
             NaN             NaN             NaN
             NaN             NaN             NaN
             NaN             NaN             NaN
             NaN             NaN             NaN
             NaN             NaN             NaN
             NaN             NaN             NaN
             NaN             NaN             NaN
             NaN             NaN             NaN
             NaN             NaN             NaN
             NaN             NaN             NaN
             NaN             NaN             NaN
             NaN             NaN             NaN
             NaN             NaN             NaN
             NaN             NaN             NaN
             NaN             NaN             NaN
             NaN             NaN             NaN
             NaN             NaN             NaN
             NaN             NaN             NaN
             NaN             NaN             NaN
             NaN             NaN             NaN
             NaN             NaN             NaN
             NaN             NaN             NaN
             NaN             NaN             NaN
             NaN             NaN             NaN
             NaN             NaN             NaN
             NaN             NaN             NaN
             NaN             NaN             NaN
             NaN             NaN             NaN
             NaN             NaN             NaN
             NaN             NaN             NaN
             NaN             NaN             NaN
             NaN             NaN             NaN
             NaN             NaN             NaN
             NaN             NaN             NaN
             NaN             NaN             NaN
             NaN             NaN             NaN
             NaN             NaN             NaN
             NaN             NaN             NaN
             NaN             NaN             NaN
             NaN             NaN             NaN
             NaN             NaN             NaN
