Mg1 Ti16 S32                            
   1.00000000000000     
     9.9114030000000000    0.0064800000000000    0.0032970000000000
    -0.0022040000000000    9.9114350000000009    0.0011570000000000
    -0.0045110000000000   -0.0002220000000000    9.9138629999999992
   Mg   Ti   S 
     1    16    32
Direct
  0.3118130082808640  0.4382107177328185  0.8089917299598023
  0.2511675725250629  0.7580205829073754  0.0075215251097542
  0.5010837520781456  1.0004759876383884 -0.0009232403194507
  0.7495268563736828  0.2489248776228425 -0.0009197469003706
  0.9920023066567479  0.4988280276029718  0.0074918379967176
  0.5008575309859008  0.2491553763287055  0.2484741250391501
  0.2472301777710227  0.5027727140157300  0.2660866542486959
  0.2505264358010239  0.2395312063088453  0.4891501838314264
  0.5104680214942539  0.4994729536349852  0.4891384168441616
  0.5103064344241901  0.7585026669210256  0.7480129259344520
  0.7687842268974210  0.5022150162795791  0.7454448465231667
  0.7524124898176244  0.7522358092153913  0.4957173319249801
  0.2477948195873100  0.9812327650620110  0.7454559280786431
  0.7499187891097787  1.0001028356004631  0.2480587991789910
  0.9915197722408817  0.2397052772103754  0.7480092861101543
  0.9981477167117067  0.7518596941840393  0.2490149712291529
  0.9977688644538528  0.9975781999701677  0.4957072593629128
  0.7457869172962293  0.0042568266095630  0.0001463426614138
  0.0045361751627913  0.7454864377385221  0.0032564073161174
  0.0014946872570376 -0.0039900400716248  0.7439037260490075
  0.7540188909341697  0.7485218348627777  0.7438970639037317
  0.2517346091448287  0.9973319771421043  0.9926278765086697
  0.9949266800956100  0.2515772293976551  0.9957381239290202
  0.9958798790035004  0.9974673605688342  0.2501771638392134
  0.2518455005170639  0.2550608679922931  0.2501392519561735
  0.7541182891872200  0.5036515571182898  0.4993919620783829
  0.0041047805980286  0.2438066259854347  0.5017516786360594
  0.0016356332150369  0.5034055620366192  0.2512853325268438
  0.7458240426271797  0.2479248797508266  0.2436513359266442
  0.2592196410861864  0.4907986842840806  0.5070142486374845
  0.9976045898241171  0.7524162740660133  0.4946607237219872
  1.0098360847771741  0.4906630172999709  0.7567119110053570
  0.2593561949635052  0.7401904360471733  0.7567200410459826
  0.2463700665155384 -0.0041012024195731  0.4994047913022341
  0.5062113730421006  0.7459137018370097  0.5017570399359609
  0.5020923496710586  0.0041930842574267  0.2436589547500346
  0.2466036375149372  0.7483740744972831  0.2512880756675014
  0.7523397488755256  0.9976874795720450  0.4937383035347610
  0.4981781596221001  0.2518330067441140  0.4931219940012242
  0.4947729873587044  0.9977010773301563  0.7497493204840247
  0.7523185996621964  0.2552424529419752  0.7497316255958003
  0.2424476974688592  0.5075705251321920  0.0203813361443831
  0.5012761195057019  0.2487376760518735 -0.0003949713572080
  0.5230829030633606  0.5080477953655163  0.7398108800110265
  0.2419552248473045  0.2269357670886821  0.7398008806613324
  0.7527033803530123  0.4982847566599085  0.9926196362216596
  0.4984487227420134  0.7550935499895491  0.9957521395545522
  0.4949448285781851  0.4981653436921471  0.2501438146008671
  0.7525447861091082  0.7541415225265662  0.2501673953045239
 
             NaN             NaN             NaN
             NaN             NaN             NaN
             NaN             NaN             NaN
             NaN             NaN             NaN
             NaN             NaN             NaN
             NaN             NaN             NaN
             NaN             NaN             NaN
             NaN             NaN             NaN
             NaN             NaN             NaN
             NaN             NaN             NaN
             NaN             NaN             NaN
             NaN             NaN             NaN
             NaN             NaN             NaN
             NaN             NaN             NaN
             NaN             NaN             NaN
             NaN             NaN             NaN
             NaN             NaN             NaN
             NaN             NaN             NaN
             NaN             NaN             NaN
             NaN             NaN             NaN
             NaN             NaN             NaN
             NaN             NaN             NaN
             NaN             NaN             NaN
             NaN             NaN             NaN
             NaN             NaN             NaN
             NaN             NaN             NaN
             NaN             NaN             NaN
             NaN             NaN             NaN
             NaN             NaN             NaN
             NaN             NaN             NaN
             NaN             NaN             NaN
             NaN             NaN             NaN
             NaN             NaN             NaN
             NaN             NaN             NaN
             NaN             NaN             NaN
             NaN             NaN             NaN
             NaN             NaN             NaN
             NaN             NaN             NaN
             NaN             NaN             NaN
             NaN             NaN             NaN
             NaN             NaN             NaN
             NaN             NaN             NaN
             NaN             NaN             NaN
             NaN             NaN             NaN
             NaN             NaN             NaN
             NaN             NaN             NaN
             NaN             NaN             NaN
             NaN             NaN             NaN
             NaN             NaN             NaN
