Mg1 Ti16 S32
1.0
9.911403 0.006480 0.003297
-0.002204 9.911435 0.001157
-0.004511 -0.000222 9.913863
Mg Ti S
1 16 32
direct
0.312505 0.437532 0.749945 Mg
0.249230 0.755373 0.006217 Ti
0.500917 -0.001292 0.002848 Ti
0.751267 0.249034 0.002810 Ti
0.994361 0.500394 0.005888 Ti
0.501007 0.249116 0.249254 Ti
0.249542 0.500370 0.249778 Ti
0.248304 0.244519 0.492436 Ti
0.505568 0.501948 0.492533 Ti
0.505324 0.755747 0.750220 Ti
0.751813 0.501953 0.749936 Ti
0.750868 0.751229 0.498845 Ti
0.248099 -0.001837 0.750006 Ti
0.750423 -0.000375 0.250335 Ti
0.994288 0.244639 0.750066 Ti
0.998892 0.751036 0.251002 Ti
0.998843 0.999140 0.498812 Ti
0.746759 0.003275 0.003616 S
0.003067 0.746841 0.004636 S
0.002879 0.001600 0.747542 S
0.748422 0.747168 0.747559 S
0.252668 0.998394 0.996484 S
0.996227 0.253185 0.996584 S
0.996942 0.996854 0.253417 S
0.252806 0.253371 0.250709 S
0.748677 0.503120 0.503561 S
0.002694 0.245806 0.503455 S
0.003435 0.502680 0.248636 S
0.746740 0.247072 0.247296 S
0.254575 0.495439 0.496095 S
0.997041 0.752974 0.497278 S
0.997079 0.495511 0.754431 S
0.254496 0.752933 0.754524 S
0.246961 0.001348 0.503595 S
0.504210 0.747446 0.503515 S
0.503014 0.003387 0.247344 S
0.247260 0.746517 0.248781 S
0.753183 0.996918 0.497062 S
0.496338 0.253795 0.495374 S
0.496024 0.998642 0.753178 S
0.751397 0.254004 0.753119 S
0.245373 0.504571 0.003482 S
0.503417 0.246661 0.002981 S
0.503900 0.504720 0.744967 S
0.245321 0.246116 0.744928 S
0.751543 0.497357 0.996436 S
0.496735 0.753823 0.996668 S
0.496596 0.497301 0.250753 S
0.753110 0.753126 0.253422 S
