Li47 P16 O64                            
   1.00000000000000     
    10.5809619999999995    0.0010510000000000    0.0003630000000000
     0.0012270000000000   12.3171250000000008    0.0019370000000000
     0.0003160000000000    0.0015430000000000    9.9854350000000007
   Li   P    O 
    47    16    64
Direct
  0.3145796861534496  0.3644547756307571  0.1422152294670658
  0.6590437266541755  0.2519378778824570  0.0978993474892873
  0.6661249248578071  0.2484227934075421  0.5985118189881459
  0.6591950608718441  0.7476039114934958  0.0982926610573423
  0.6635161563597639  0.7501756065160771  0.5989374294087875
  0.1532442440528859  0.5095063307659314  0.1517120075770362
  0.1644914430544168  0.5017966502250165  0.6509080561335006
  0.1647564539708867  0.0012041670306937  0.1490830647544572
  0.1635831551846236  0.0005995093971017  0.6511298913860551
  0.3365279628412589  0.0004033031875787  0.3995744428520951
  0.3365494126435792  0.9990845513415347  0.9010350050845767
  0.3374177852513034  0.5011877372743806  0.4035462015813041
  0.3372157200190731  0.4993812257814785  0.9024238948911263
  0.8365308161419586  0.2493535241937720  0.3486952533727060
  0.8362354817358811  0.2496911634375344  0.8517268985000271
  0.8351580784952061  0.7486256924634634  0.3490691198114733
  0.8357063854200087  0.7495586135107930  0.8487363155705029
  0.3390986658597005  0.2456733883022701  0.4051412026142665
  0.3371365605006956  0.2477504583772613  0.8988024791804676
  0.3364191427507802  0.7484537479276405  0.4006973880481943
  0.3350579657737604  0.7478177112244514  0.9013606031126524
  0.8374512027269890  0.0018027362133488  0.3501400156667021
  0.8360880806562253  0.0007884739906840  0.8469628585238416
  0.8360247561045074  0.4989459361873461  0.3460961719941817
  0.8357076789188717  0.5008696637558658  0.8538599093507814
  0.6581031889963674  0.4948223455336503  0.0974157616637921
  0.6662791757108349  0.4995642538872477  0.5988228563812359
  0.6624099774811741  0.9933989634963754  0.0967021485614032
  0.6646391222964785  0.9974316485542846  0.5983666207497014
  0.1640015978917294  0.2525225206994048  0.6486021084839541
  0.1622641776438159  0.7531519408423558  0.1523271795772980
  0.1640109071149548  0.7527447373318673  0.6503345459339209
  0.9370909619859603  0.3690414147042819  0.1467881604116145
  0.9256506585993584  0.3760880995246251  0.6543545590509531
  0.9238745150018317  0.8741815444970825  0.1480307703716919
  0.9258806264759126  0.8757829640245962  0.6484385241107479
  0.4260742946547969  0.3742339229697655  0.6061736662172306
  0.4245846441731051  0.8717001270728252  0.1015365204321740
  0.4253255479807278  0.8743949048278734  0.6001987321959692
  0.0785959993333395  0.1326043609557805  0.3422934216116731
  0.0760973706047516  0.1279507150695354  0.8550070079046965
  0.0732741138789739  0.6270523415720504  0.3545604950363206
  0.0736347785608895  0.6262897060079654  0.8496267500402712
  0.5760795669148231  0.1237188728244236  0.3982317631448258
  0.5750569656116705  0.1225244131955608  0.8980479185335863
  0.5741981127235317  0.6233210558392851  0.3990589251988940
  0.5726689313264807  0.6228239883188840  0.8979300459105156
  0.9079717424744371  0.1228933461910570  0.0963401066461824
  0.9130834687218096  0.1259430223861178  0.5969858863342876
  0.9076022952603631  0.6262452202517658  0.0972803534621033
  0.9111324303684846  0.6255893563942826  0.5971515767742319
  0.4141082257557449  0.1215433762353304  0.1518951074937075
  0.4124869891038725  0.1229944368876394  0.6534581343354546
  0.4073677040795737  0.6228419409641889  0.1536374691446349
  0.4113595993821259  0.6247696741338926  0.6534608330198972
  0.0904072600526112  0.3760752636030554  0.4051581739359490
  0.0925208148473172  0.3775750516719123  0.9045039869696032
  0.0889726205283902  0.8762987838349428  0.4028019216317817
  0.0882854082240355  0.8756869844774521  0.9031528474877848
  0.5899237266241720  0.3736719578838490  0.3472047784094801
  0.5871392776321479  0.3738946194038200  0.8418780927034678
  0.5884322384387612  0.8733964261965786  0.3465798910212810
  0.5880774126560050  0.8727791052631501  0.8457482843046822
  0.8359088955211034  0.0198275033702134  0.1468294550014070
  0.8420069197804020  0.0222390048694750  0.6468305507889520
  0.8403799367087722  0.5210171544626370  0.1464645193581897
  0.8426706387621731  0.5226680240903039  0.6520912911735907
  0.3489787506842721  0.2231656722756882  0.0932710278493275
  0.3434616471960810  0.2273800160141211  0.6035117235318610
  0.3386601877798518  0.7273602727692905  0.1028502315800148
  0.3413265663316837  0.7280581633361104  0.6015199211599263
  0.1647192119611468  0.2727481920251720  0.3651756147443814
  0.1599108634514048  0.2743737710925066  0.8491689128958092
  0.1591993679494447  0.7723605607994128  0.3530811748321615
  0.1584850610820723  0.7723490654883501  0.8515553024525656
  0.6585138665217297  0.4773471846682983  0.4012749032502715
  0.6556803808662505  0.4766857768943508  0.8968339953192508
  0.6592880983637731  0.9766678794868574  0.3970657906808633
  0.6589620265362954  0.9757799887708731  0.8970158628996094
  0.1599903700070207  0.4792907813256775  0.3511183940224453
  0.1587631997193049  0.4811736082026925  0.8470949961300621
  0.1590525451233298  0.9792076840475107  0.3506732890546507
  0.1587379796672266  0.9791092527771637  0.8525442512404724
  0.6586254955721916  0.2702036139618810  0.4016861245348795
  0.6545147098816566  0.2702767280408944  0.8969886589222893
  0.6579956065676734  0.7700051707958543  0.3986642276979210
  0.6576156372000062  0.7690548913430999  0.8969014040849849
  0.8399119841544137  0.2272157331641818  0.1474931577727024
  0.8430412836921222  0.2290135267998512  0.6500426637714583
  0.8350839250664975  0.7286333144204418  0.1478731048630238
  0.8410536605438960  0.7293942098134077  0.6473435709219987
  0.3437946376970171  0.0177770438811081  0.1024895437222514
  0.3413501537621418  0.0207094420338114  0.6004506015285508
  0.3322234253246801  0.5213604786138586  0.1046147030381075
  0.3422044953157510  0.5213096878234076  0.6009962550171902
  0.5534753807842889  0.1198652784478585  0.1016324062640447
  0.5509745072379066  0.1226893563337114  0.6011523010222731
  0.5446638689850621  0.6213235849248515  0.0984800091401246
  0.5502239163447644  0.6247336540971836  0.6023673933269285
  0.0440853070728572  0.1177993164710858  0.1509762871522788
  0.0510012585423249  0.1258309609754872  0.6504711631995049
  0.0450134099002408  0.6302908140206620  0.1526217931443094
  0.0504275326959766  0.6275222452250515  0.6467602174687820
  0.4495837852221425  0.3737728457117404  0.3960415644115112
  0.4450084657229382  0.3740839705364867  0.8783660574378978
  0.4499385144711816  0.8742764702464407  0.3988317242312283
  0.4497492252313416  0.8730258351822590  0.8984038138121335
  0.9534031128580821  0.3734531299118760  0.3486698939087273
  0.9510431754459407  0.3757176823247382  0.8595729970299818
  0.9504337557402983  0.8751591803965316  0.3501031108904548
  0.9498964446290645  0.8754801764859256  0.8504864646991762
  0.5954639045975534  0.3732963856280648  0.1928806201736753
  0.5965555977012571  0.3739313547861702  0.6855683011099011
  0.5879830840747725  0.8720346456259581  0.1902698811245500
  0.5886956500373315  0.8736064598814322  0.6894475484311258
  0.1021232693260142  0.3816918202932095  0.0596000924255681
  0.0861480436177065  0.3806064967329015  0.5616805827008385
  0.0882061116018542  0.8754518726716936  0.0594636358466290
  0.0890477650548123  0.8768573459294967  0.5591590606111001
  0.4122367136793594  0.1241097479570168  0.3080145580619231
  0.4117481536284651  0.1215318790439347  0.8095456735663193
  0.4100591245613951  0.6238523211194269  0.3099695969597152
  0.4093947661641765  0.6246285888416109  0.8096366165679039
  0.9128331278945967  0.1266603502627908  0.4406695731552429
  0.9084460826244413  0.1239568747925697  0.9400190184672161
  0.9085319816756822  0.6235678584853260  0.4407413520490592
  0.9102927184832414  0.6267305148568422  0.9409145624168689
 
             NaN             NaN             NaN
             NaN             NaN             NaN
             NaN             NaN             NaN
             NaN             NaN             NaN
             NaN             NaN             NaN
             NaN             NaN             NaN
             NaN             NaN             NaN
             NaN             NaN             NaN
             NaN             NaN             NaN
             NaN             NaN             NaN
             NaN             NaN             NaN
             NaN             NaN             NaN
             NaN             NaN             NaN
             NaN             NaN             NaN
             NaN             NaN             NaN
             NaN             NaN             NaN
             NaN             NaN             NaN
             NaN             NaN             NaN
             NaN             NaN             NaN
             NaN             NaN             NaN
             NaN             NaN             NaN
             NaN             NaN             NaN
             NaN             NaN             NaN
             NaN             NaN             NaN
             NaN             NaN             NaN
             NaN             NaN             NaN
             NaN             NaN             NaN
             NaN             NaN             NaN
             NaN             NaN             NaN
             NaN             NaN             NaN
             NaN             NaN             NaN
             NaN             NaN             NaN
             NaN             NaN             NaN
             NaN             NaN             NaN
             NaN             NaN             NaN
             NaN             NaN             NaN
             NaN             NaN             NaN
             NaN             NaN             NaN
             NaN             NaN             NaN
             NaN             NaN             NaN
             NaN             NaN             NaN
             NaN             NaN             NaN
             NaN             NaN             NaN
             NaN             NaN             NaN
             NaN             NaN             NaN
             NaN             NaN             NaN
             NaN             NaN             NaN
             NaN             NaN             NaN
             NaN             NaN             NaN
             NaN             NaN             NaN
             NaN             NaN             NaN
             NaN             NaN             NaN
             NaN             NaN             NaN
             NaN             NaN             NaN
             NaN             NaN             NaN
             NaN             NaN             NaN
             NaN             NaN             NaN
             NaN             NaN             NaN
             NaN             NaN             NaN
             NaN             NaN             NaN
             NaN             NaN             NaN
             NaN             NaN             NaN
             NaN             NaN             NaN
             NaN             NaN             NaN
             NaN             NaN             NaN
             NaN             NaN             NaN
             NaN             NaN             NaN
             NaN             NaN             NaN
             NaN             NaN             NaN
             NaN             NaN             NaN
             NaN             NaN             NaN
             NaN             NaN             NaN
             NaN             NaN             NaN
             NaN             NaN             NaN
             NaN             NaN             NaN
             NaN             NaN             NaN
             NaN             NaN             NaN
             NaN             NaN             NaN
             NaN             NaN             NaN
             NaN             NaN             NaN
             NaN             NaN             NaN
             NaN             NaN             NaN
             NaN             NaN             NaN
             NaN             NaN             NaN
             NaN             NaN             NaN
             NaN             NaN             NaN
             NaN             NaN             NaN
             NaN             NaN             NaN
             NaN             NaN             NaN
             NaN             NaN             NaN
             NaN             NaN             NaN
             NaN             NaN             NaN
             NaN             NaN             NaN
             NaN             NaN             NaN
             NaN             NaN             NaN
             NaN             NaN             NaN
             NaN             NaN             NaN
             NaN             NaN             NaN
             NaN             NaN             NaN
             NaN             NaN             NaN
             NaN             NaN             NaN
             NaN             NaN             NaN
             NaN             NaN             NaN
             NaN             NaN             NaN
             NaN             NaN             NaN
             NaN             NaN             NaN
             NaN             NaN             NaN
             NaN             NaN             NaN
             NaN             NaN             NaN
             NaN             NaN             NaN
             NaN             NaN             NaN
             NaN             NaN             NaN
             NaN             NaN             NaN
             NaN             NaN             NaN
             NaN             NaN             NaN
             NaN             NaN             NaN
             NaN             NaN             NaN
             NaN             NaN             NaN
             NaN             NaN             NaN
             NaN             NaN             NaN
             NaN             NaN             NaN
             NaN             NaN             NaN
             NaN             NaN             NaN
             NaN             NaN             NaN
             NaN             NaN             NaN
             NaN             NaN             NaN
             NaN             NaN             NaN
