Li47 P16 O64                            
   1.00000000000000     
    10.5809619999999995    0.0010510000000000    0.0003630000000000
     0.0012270000000000   12.3171250000000008    0.0019370000000000
     0.0003160000000000    0.0015430000000000    9.9854350000000007
   Li   P    O 
    47    16    64
Direct
  0.3146754569039438  0.3645010881515937  0.1421578199444764
  0.6590432789343363  0.2519357576588915  0.0978979604853963
  0.6661186695373865  0.2484220685024276  0.5985173803328806
  0.6592014736945984  0.7476027431908739  0.0982954649107691
  0.6635203574253100  0.7501786181502432  0.5989385113098757
  0.1532631517578773  0.5094965012752447  0.1517073249281801
  0.1644951743905579  0.5017994120382785  0.6509087328684831
  0.1647615301785884  0.0012036832107577  0.1490869606125811
  0.1635852701925998  0.0005984465494345  0.6511253826455199
  0.3365306273653060  0.0004027393068266  0.3995689874981935
  0.3365587326412653  0.9990757955377499  0.9010364643418187
  0.3374123743931607  0.5011937467977765  0.4035394375646318
  0.3372103543663847  0.4993861600124845  0.9024165514252247
  0.8365226592302312  0.2493538262232962  0.3486976320802251
  0.8362379741820326  0.2496939176106976  0.8517384973379110
  0.8351620948749068  0.7486219977397751  0.3490672472183632
  0.8357087740069747  0.7495607142425564  0.8487421234692991
  0.3390858304263001  0.2456762842068133  0.4051493520263312
  0.3371346662505182  0.2477447640350496  0.8987957363088828
  0.3364210713831719  0.7484512799051500  0.4007023773139128
  0.3350598199457340  0.7478149552372104  0.9013594418928620
  0.8374551583504664  0.0017989879807019  0.3501373470647742
  0.8360866554865073  0.0007896200276145  0.8469632527098577
  0.8360146932008928  0.4989398383906758  0.3460941345828276
  0.8357050513734408  0.5008671648055585  0.8538655178459745
  0.6580984813060133  0.4948219599889064  0.0974146764749827
  0.6662734391583210  0.4995640106375940  0.5988250318182483
  0.6623982423383317  0.9933984713644507  0.0967002518013118
  0.6646353545555992  0.9974321719210214  0.5983625546146938
  0.1639973307956758  0.2525252761274056  0.6485927827271311
  0.1622711189907566  0.7531578307739283  0.1523292267290312
  0.1640091235180503  0.7527444287796909  0.6503353831543678
  0.9371218004134610  0.3690199254461590  0.1467879295802398
  0.9256570323780343  0.3760883867533205  0.6543728450527271
  0.9238746236853997  0.8741815319835018  0.1480202223137572
  0.9258862585862403  0.8757822912443920  0.6484397601059142
  0.4260608248965508  0.3742318714370598  0.6061675979026045
  0.4245777335729350  0.8717008235413573  0.1015441672309122
  0.4253272000268462  0.8743967294392708  0.6001912024396022
  0.0785938196996055  0.1325984555649269  0.3422946207897207
  0.0760989329132271  0.1279523364423671  0.8550102237126822
  0.0732722272611255  0.6270559432531199  0.3545648303307499
  0.0736327477238414  0.6262875109926298  0.8496242073098227
  0.5760775359660385  0.1237229952736148  0.3982281470425038
  0.5750588216933146  0.1225217426129696  0.8980509860849626
  0.5741943285079735  0.6233218433961031  0.3990569215666367
  0.5726706923177189  0.6228215009482312  0.8979299341289176
  0.9079652536771133  0.1228914401174170  0.0963335812470692
  0.9130807223302297  0.1259414221427550  0.5969905417017920
  0.9075922444236709  0.6262501146630377  0.0972829342738200
  0.9111305803292892  0.6255867293307300  0.5971545918714289
  0.4141085840336347  0.1215625942771885  0.1518831219767323
  0.4124886507501797  0.1229876404775872  0.6534534598808784
  0.4073631758434341  0.6228437405319979  0.1536405338622382
  0.4113625358643432  0.6247775539958043  0.6534573901181439
  0.0904024643736718  0.3760750311471585  0.4051607551450454
  0.0925307709987339  0.3775784646079341  0.9045029557634027
  0.0889759323222177  0.8762974503493787  0.4028018350027958
  0.0882869379232325  0.8756876088145771  0.9031513845011188
  0.5899173887877578  0.3736687763109186  0.3472096156758483
  0.5871329024420303  0.3738910554826745  0.8418692640643407
  0.5884328413286662  0.8733967818785429  0.3465783229599287
  0.5880786648552957  0.8727776977957548  0.8457499605953883
  0.8359106429100965  0.0198247158572150  0.1468293413322312
  0.8420026376229628  0.0222399406120223  0.6468308619264225
  0.8403863999393693  0.5210167757055629  0.1464631287099488
  0.8426697614371960  0.5226621152132571  0.6520978004529318
  0.3489897111803213  0.2231629207222375  0.0932945804227399
  0.3434610620181012  0.2273730424706065  0.6035148935601178
  0.3386606736987551  0.7273605228606175  0.1028566680912217
  0.3413290758551938  0.7280643394769134  0.6015228144245628
  0.1647069061549880  0.2727407511642185  0.3652115528946222
  0.1599092096211985  0.2743827476940096  0.8491658421638271
  0.1592030984527262  0.7723586486438798  0.3530856280331911
  0.1584837963420337  0.7723458334766585  0.8515570824378719
  0.6585047975423612  0.4773501383228261  0.4012753646604194
  0.6556704544709993  0.4766796137224467  0.8968338008095221
  0.6592937069034531  0.9766675181719499  0.3970565832409938
  0.6589621253120665  0.9757759201381613  0.8970213628968866
  0.1599907950345436  0.4792882652411976  0.3511161686534396
  0.1587612113969918  0.4811725755524089  0.8470897067447017
  0.1590575731607607  0.9792063213712922  0.3506769522775242
  0.1587415098264338  0.9791061463180796  0.8525417917769993
  0.6586220270748389  0.2702017137819949  0.4016903074448010
  0.6545137915411847  0.2702837558493079  0.8969867363984596
  0.6580022813076435  0.7700060810574412  0.3986641704388019
  0.6576166880875597  0.7690491886115250  0.8968999292652879
  0.8399171154512183  0.2272152043875565  0.1474975135517405
  0.8430410685437312  0.2290141339245640  0.6500531324440643
  0.8350558077237915  0.7286257318136219  0.1478646345022913
  0.8410558964612945  0.7293909163226486  0.6473442875143316
  0.3438080164068024  0.0178188079713962  0.1025033548573114
  0.3413504562808039  0.0207047816023928  0.6004450264487426
  0.3322201813588116  0.5213650029786695  0.1046122658211466
  0.3422058259454971  0.5213178139166316  0.6009919901741388
  0.5534505747520342  0.1198613558137601  0.1016592276117856
  0.5509775962458041  0.1226854916089374  0.6011520633647812
  0.5446553779617905  0.6213122542762270  0.0984716326370116
  0.5502249038927151  0.6247436371949614  0.6023637848816716
  0.0440747419830532  0.1177901265561107  0.1509810394861294
  0.0509960776475555  0.1258279190226365  0.6504759727819719
  0.0449979541418716  0.6303074121863226  0.1526253421124779
  0.0504253609987963  0.6275214227518118  0.6467602430915249
  0.4495733321108269  0.3737729370402709  0.3960356830511399
  0.4450027721031867  0.3740854931083198  0.8783728737360489
  0.4499387978337681  0.8742723734195561  0.3988317472627508
  0.4497514312794041  0.8730237342255501  0.8984094356366070
  0.9533987277023644  0.3734452711796209  0.3486677479913475
  0.9510578342966840  0.3757211608067791  0.8595982227673334
  0.9504394776209725  0.8751581354106662  0.3500967484829756
  0.9498980313787749  0.8754818541938891  0.8504859654097469
  0.5954538685134295  0.3732960024710100  0.1928848918517230
  0.5965460523367440  0.3739343675693763  0.6855619999282102
  0.5879746815148102  0.8720292391293151  0.1902666675834285
  0.5886977269684189  0.8736072161496844  0.6894498999968833
  0.1021597825695643  0.3816935828192544  0.0595939811843834
  0.0861365732509805  0.3806167368315282  0.5616828278525779
  0.0882045948581279  0.8754501105650495  0.0594633900411713
  0.0890443795090966  0.8768559845811555  0.5591564717446383
  0.4122523515421255  0.1241030398804175  0.3079627526089693
  0.4117514754467248  0.1215251043974021  0.8095396951439618
  0.4100491361215675  0.6238494162896736  0.3099665217829436
  0.4093987286925612  0.6246335544549184  0.8096349030544937
  0.9128282415791659  0.1266609861158725  0.4406733962381263
  0.9084487521666513  0.1239525964047585  0.9400141629610193
  0.9085281076380335  0.6235605166891575  0.4407466719710562
  0.9102862658754817  0.6267368671058007  0.9409198247275439
 
             NaN             NaN             NaN
             NaN             NaN             NaN
             NaN             NaN             NaN
             NaN             NaN             NaN
             NaN             NaN             NaN
             NaN             NaN             NaN
             NaN             NaN             NaN
             NaN             NaN             NaN
             NaN             NaN             NaN
             NaN             NaN             NaN
             NaN             NaN             NaN
             NaN             NaN             NaN
             NaN             NaN             NaN
             NaN             NaN             NaN
             NaN             NaN             NaN
             NaN             NaN             NaN
             NaN             NaN             NaN
             NaN             NaN             NaN
             NaN             NaN             NaN
             NaN             NaN             NaN
             NaN             NaN             NaN
             NaN             NaN             NaN
             NaN             NaN             NaN
             NaN             NaN             NaN
             NaN             NaN             NaN
             NaN             NaN             NaN
             NaN             NaN             NaN
             NaN             NaN             NaN
             NaN             NaN             NaN
             NaN             NaN             NaN
             NaN             NaN             NaN
             NaN             NaN             NaN
             NaN             NaN             NaN
             NaN             NaN             NaN
             NaN             NaN             NaN
             NaN             NaN             NaN
             NaN             NaN             NaN
             NaN             NaN             NaN
             NaN             NaN             NaN
             NaN             NaN             NaN
             NaN             NaN             NaN
             NaN             NaN             NaN
             NaN             NaN             NaN
             NaN             NaN             NaN
             NaN             NaN             NaN
             NaN             NaN             NaN
             NaN             NaN             NaN
             NaN             NaN             NaN
             NaN             NaN             NaN
             NaN             NaN             NaN
             NaN             NaN             NaN
             NaN             NaN             NaN
             NaN             NaN             NaN
             NaN             NaN             NaN
             NaN             NaN             NaN
             NaN             NaN             NaN
             NaN             NaN             NaN
             NaN             NaN             NaN
             NaN             NaN             NaN
             NaN             NaN             NaN
             NaN             NaN             NaN
             NaN             NaN             NaN
             NaN             NaN             NaN
             NaN             NaN             NaN
             NaN             NaN             NaN
             NaN             NaN             NaN
             NaN             NaN             NaN
             NaN             NaN             NaN
             NaN             NaN             NaN
             NaN             NaN             NaN
             NaN             NaN             NaN
             NaN             NaN             NaN
             NaN             NaN             NaN
             NaN             NaN             NaN
             NaN             NaN             NaN
             NaN             NaN             NaN
             NaN             NaN             NaN
             NaN             NaN             NaN
             NaN             NaN             NaN
             NaN             NaN             NaN
             NaN             NaN             NaN
             NaN             NaN             NaN
             NaN             NaN             NaN
             NaN             NaN             NaN
             NaN             NaN             NaN
             NaN             NaN             NaN
             NaN             NaN             NaN
             NaN             NaN             NaN
             NaN             NaN             NaN
             NaN             NaN             NaN
             NaN             NaN             NaN
             NaN             NaN             NaN
             NaN             NaN             NaN
             NaN             NaN             NaN
             NaN             NaN             NaN
             NaN             NaN             NaN
             NaN             NaN             NaN
             NaN             NaN             NaN
             NaN             NaN             NaN
             NaN             NaN             NaN
             NaN             NaN             NaN
             NaN             NaN             NaN
             NaN             NaN             NaN
             NaN             NaN             NaN
             NaN             NaN             NaN
             NaN             NaN             NaN
             NaN             NaN             NaN
             NaN             NaN             NaN
             NaN             NaN             NaN
             NaN             NaN             NaN
             NaN             NaN             NaN
             NaN             NaN             NaN
             NaN             NaN             NaN
             NaN             NaN             NaN
             NaN             NaN             NaN
             NaN             NaN             NaN
             NaN             NaN             NaN
             NaN             NaN             NaN
             NaN             NaN             NaN
             NaN             NaN             NaN
             NaN             NaN             NaN
             NaN             NaN             NaN
             NaN             NaN             NaN
             NaN             NaN             NaN
             NaN             NaN             NaN
             NaN             NaN             NaN
             NaN             NaN             NaN
