Mg1 Ti16 S32                            
   1.00000000000000     
     9.8639290000000006   -0.0022340000000000   -0.0023210000000000
    -0.0022340000000000    9.8639299999999999    0.0023290000000000
    -0.0023080000000000    0.0023170000000000    9.8647799999999997
   Mg   Ti   S 
     1    16    32
Direct
  0.4740360854093978  0.2759634342057493  0.7739525500208011
  0.2474725404874974  0.7495229079293061  0.0005563198926175
  0.4977848715938449  0.9931881793265168  0.0121908962618012
  0.7568113110904647  0.2522149246636459  0.0121907856602121
  1.0004768139321125  0.5025270932001134  0.0005562218444417
  0.5001219989691345  0.2498776912038097  0.2644153649914127
  0.2473728207282063  0.5026267143307720  0.2491919909658181
  0.2350273919400999  0.2510923547698915  0.4911236892126615
  0.4989073932409953  0.5149724019338816  0.4911236304056352
  0.5004339760011721  0.7660892553908671  0.7474563213595153
  0.7575099068512264  0.5148452147385224  0.7494422874719447
  0.7527462094232731  0.7523943465629114  0.4943634908516985
  0.2351542149670549  0.9924897384698692  0.7494423440732288
  0.7525427127444608  0.9974567771673145  0.2489012129029596
  0.9839103930134701  0.2495656588104149  0.7474562486483994
  0.9995433731322372  0.7504561772684254  0.2473708909026748
  0.9976052613841194  0.9972534772256061  0.4943633923457052
  0.7447383433919380  0.0052613758003109  0.0036361370465503
  0.0026507380646635  0.7473488427462708 -0.0005626410216112
  0.9942950504656094  0.0015187090858010  0.7446705693715617
  0.7484808977732968  0.7557044263044790  0.7446704907507238
  0.2503137781566256  0.9961921423755788  0.9968762621935924
 -0.0029942320384419  0.2519676123670356  0.9937348906273845
  0.9979965249377801  0.9967963868124819  0.2490346448744152
  0.2538779274993670  0.2522338762780478  0.2508959830734786
  0.7452226398721856  0.5065609840999149  0.5023824112387285
  0.9944225687073698  0.2473987330315519  0.4992448830235771
  0.0022965679876180  0.5022292249051021  0.2451863402850171
  0.7483122547499053  0.2474827730141743  0.2529643249490193
  0.2506483197964252  0.4993513077442211  0.4944507291697992
  0.9980211940369090  0.7519783165609814  0.4937734276512775
  0.9973277959339618  0.4960190349038995  0.7496333922166800
  0.2539805711283702  0.7526717987387023  0.7496334627295318
  0.2434386431915624  0.0047770569641233  0.5023824268286813
  0.5026010174726453  0.7555770072228541  0.4992448561656839
  0.5025166834320550  0.0016873116014523  0.2529644023454675
  0.2477703531742130  0.7477029649198332  0.2451863168815237
  0.7520183492428465  0.9979810622487802  0.4949504616596357
  0.4911194534852199  0.2588801225596584  0.5058194911947477
  0.4909042621556907  1.0077676017862753  0.7564145655902015
  0.7422320620068518  0.2590954083255604  0.7564147196770412
  0.2472330746544476  0.5027665090419187  0.0009993948648446
  0.5037848592414176  0.2462147830209644  0.0160917185524186
  0.5042278083507182  0.5181954866519368  0.7437953103242365
  0.2318041047756212  0.2457718087204574  0.7437953359504785
  0.7538074200039742  0.4996859251398173  0.9968762648856629
  0.4980320740937763  0.7529937885012119  0.9937349444810895
  0.4977658185439893  0.4961217935554372  0.2508958188730669
  0.7532033070591170  0.7520029585209731  0.2490348482241204
 
             NaN             NaN             NaN
             NaN             NaN             NaN
             NaN             NaN             NaN
             NaN             NaN             NaN
             NaN             NaN             NaN
             NaN             NaN             NaN
             NaN             NaN             NaN
             NaN             NaN             NaN
             NaN             NaN             NaN
             NaN             NaN             NaN
             NaN             NaN             NaN
             NaN             NaN             NaN
             NaN             NaN             NaN
             NaN             NaN             NaN
             NaN             NaN             NaN
             NaN             NaN             NaN
             NaN             NaN             NaN
             NaN             NaN             NaN
             NaN             NaN             NaN
             NaN             NaN             NaN
             NaN             NaN             NaN
             NaN             NaN             NaN
             NaN             NaN             NaN
             NaN             NaN             NaN
             NaN             NaN             NaN
             NaN             NaN             NaN
             NaN             NaN             NaN
             NaN             NaN             NaN
             NaN             NaN             NaN
             NaN             NaN             NaN
             NaN             NaN             NaN
             NaN             NaN             NaN
             NaN             NaN             NaN
             NaN             NaN             NaN
             NaN             NaN             NaN
             NaN             NaN             NaN
             NaN             NaN             NaN
             NaN             NaN             NaN
             NaN             NaN             NaN
             NaN             NaN             NaN
             NaN             NaN             NaN
             NaN             NaN             NaN
             NaN             NaN             NaN
             NaN             NaN             NaN
             NaN             NaN             NaN
             NaN             NaN             NaN
             NaN             NaN             NaN
             NaN             NaN             NaN
             NaN             NaN             NaN
