Mg1 Ti16 S32
1.0
9.863929 -0.002234 -0.002321
-0.002234 9.863930 0.002329
-0.002308 0.002317 9.864780
Mg Ti S
1 16 32
direct
0.468999 0.281000 0.749680 Mg
0.247461 0.750463 0.003858 Ti
0.500728 -0.008448 0.008975 Ti
0.758448 0.249270 0.008976 Ti
0.999536 0.502538 0.003857 Ti
0.500341 0.249658 0.249946 Ti
0.247733 0.502266 0.249633 Ti
0.241328 0.248595 0.490180 Ti
0.501403 0.508671 0.490178 Ti
0.500956 0.751047 0.750241 Ti
0.758619 0.508321 0.750452 Ti
0.752386 0.750687 0.497869 Ti
0.241680 -0.008620 0.750452 Ti
0.752603 0.997397 0.251165 Ti
0.998951 0.249043 0.750241 Ti
0.999557 0.750442 0.250608 Ti
0.999311 0.997612 0.497868 Ti
0.747298 0.002701 0.004311 S
0.002214 0.747787 0.003103 S
-0.000046 1.002290 0.747692 S
0.747708 0.750045 0.747691 S
0.252894 -0.003861 0.997066 S
1.000011 0.252405 0.997216 S
0.997832 0.997201 0.252256 S
0.252721 0.252496 0.249300 S
0.747489 0.504271 0.502905 S
-0.000080 0.247212 0.502671 S
0.002127 0.502594 0.248223 S
0.747479 0.247543 0.250082 S
0.253136 0.496865 0.495324 S
0.997966 0.752033 0.497439 S
0.999872 0.497066 0.752668 S
0.252934 0.750128 0.752669 S
0.245730 1.002510 0.502905 S
0.502788 0.750080 0.502672 S
0.502456 0.002521 0.250082 S
0.247405 0.747874 0.248222 S
0.752775 0.997225 0.497210 S
0.495411 0.254592 0.495075 S
0.495379 -0.004281 0.754467 S
0.754281 0.254620 0.754466 S
0.246799 0.503203 0.003078 S
0.504783 0.245217 0.004332 S
0.504783 0.504564 0.744893 S
0.245436 0.245217 0.744893 S
0.753860 0.497107 0.997066 S
0.497594 0.749991 0.997216 S
0.497504 0.497279 0.249300 S
0.752799 0.752168 0.252256 S
