Na47 P16 S64                            
   1.00000000000000     
    13.6766369999999995   -0.0020690000000000    0.0000010000000000
    -0.0021030000000000   13.6801750000000002   -0.0003160000000000
    -0.0001380000000000    0.0001380000000000   14.0922739999999997
   Na   P    S 
    47    16    64
Direct
  0.5448425666516413  0.7480503235852712  0.7281315953068510
  0.9997121706600109  0.2506772871074308  0.2065632921598262
  0.9990259763725090  0.2505312705008178  0.7060697919982494
  0.9987318595927400  0.7508047467382016  0.2110770488723596
  0.9767388098011051  0.7531722522038224  0.7183207077516101
  0.5002116477297256  0.2493134021107412  0.2071000819883148
  0.5012412602550683  0.2497238407681954  0.7063805266051900
  0.5008433418787269  0.7493841465391285  0.2115524378173689
  0.2493365802805253  0.9997046998439635  0.2925566543654984
  0.2494682134684633  0.9981716093142724  0.7930879102186564
  0.2508246487162282  0.5003612557006040  0.2937668499574786
  0.2506629281109293  0.5019972946649175  0.7935931415983604
  0.7491481023855795  0.9989214879590689  0.2898563474905109
  0.7471539377155650  0.9763868832036647  0.7822855980458358
  0.7507491057853451  0.5010579929594077  0.2887573674635771
  0.7543070472137333  0.5238855413334130  0.7812237714227396
  0.2520589174641584  0.9995262885973607  0.0428159015503263
  0.2448484139547215  0.9984721231688325  0.5437888016755557
  0.2471333751346769  0.5000540968106475  0.0441686708805920
  0.2556391980221643  0.5032927311978421  0.5457114864657672
  0.7518270382688390  0.9997575500996412  0.0371553416087868
  0.7455739992184620  0.9999002698702827  0.5377436795672262
  0.7466681791864658  0.5001187465909765  0.0359918045523202
  0.7561858366229381  0.4998380822692448  0.5366092656831238
  0.5004438746732763  0.2524518226092816  0.4566183726929997
  0.5016153577038294  0.2458623196759972  0.9553601868345574
  0.5006157777034332  0.7522522590823866  0.4662121308849380
  0.4996020835242044  0.7443006245727227  0.9646176777912634
  0.9999432518251070  0.2478660850404021  0.4560540002279251
  0.9980875220059608  0.2541074634732937  0.9550702725795586
  1.0004052739447724  0.7474751569943582  0.4637519513443301
  0.9999500925207511  0.7546665351734186  0.9622089521503358
  0.9946740225414044  0.9965801254446491  0.5018363978021768
  0.0047425902440746  0.0099061785332028  0.0011952273297056
  0.0104551204172638  0.4944988970012634  0.4986567012172372
  0.9962572925114647  0.5038129136690930  0.9979974451883834
  0.4893593246661038  0.0054200600078584  0.4981075715732751
  0.5039354053416496  0.9953815577600614  0.9977499979144538
  0.5051469880546665  0.5041267887639433  0.5024661587487819
  0.4921501555798582  0.4892057896107504  0.0026507562669538
  0.2497558557033446  0.2504833807191286  0.2500269235393405
  0.2497946320486980  0.2505066987943992  0.7499549572266025
  0.2502567359825211  0.7497152198369198  0.2508493939623042
  0.2606545580713504  0.7493333372690798  0.7492074960602354
  0.7503317527004313  0.2495773118168682  0.2490256088998375
  0.7503280043108337  0.2495424178714394  0.7503609603461375
  0.7495031054418446  0.7503304239986909  0.2493427259053080
  0.4999774044511138  0.4995730067066217  0.2503747772003492
  0.5012486410095661  0.4973594627542308  0.7538454372106514
  0.4995061274915999 -0.0000609613312068  0.2497082089510760
  0.4973802238646341  1.0001169492054180  0.7466486140325993
  0.0006140856480862  0.5000168841636184  0.2498548910027797
  0.0028556893597059  0.4999712067595603  0.7471665336782235
  0.9998335099537530  0.0005975687023520  0.2498959771453496
  0.9998155788024862  0.0028443561528323  0.7526984443747912
  0.2499778623317391  0.2500285452901042  0.0000906311988358
  0.2500487854841439  0.2506109096720651  0.4997855311872915
  0.2501869543451559  0.7494066829870282  0.0012309991826011
  0.2501585733641556  0.7506830691391865  0.5003471012908398
  0.7499162254326435  0.2495622016015218  0.9994366179783172
  0.7502464673761408  0.2499801914756062  0.4987142376323307
  0.7495583328575176  0.7496570637277542  0.0012687310533625
  0.7512263363196710  0.7498419582289401  0.4973762549984069
  0.1534733436214861  0.1740348927266460  0.0830836593593916
  0.1532379192701366  0.1746405626615403  0.5820993249317771
  0.1525431518781122  0.6750822313842815  0.0843230205601741
  0.1548635755218200  0.6751969232201124  0.5843096417423569
  0.6540858225107202  0.1729803208021106  0.0830709611310104
  0.6529614344479219  0.1752239436908411  0.5813673170985725
  0.6542347371554139  0.6729222245133377  0.0856279860045378
  0.6560744817929968  0.6703420968691132  0.5777330527018523
  0.3468491944655565  0.3258778791440110  0.0830715809965036
  0.3470560080183107  0.3262659299280424  0.5822786501298631
  0.3471456982894490  0.8250586413758875  0.0841176796510442
  0.3466059679667750  0.8271248793904080  0.5818364715422157
  0.8456650313113122  0.3268774333198852  0.0826408806524181
  0.8475857118783473  0.3248760389976620  0.5812938243026884
  0.8446839472640416  0.8273320908925720  0.0848355415448971
  0.8467206647558186  0.8288928860137842  0.5775722275968541
  0.1741320919309255  0.3473741648847319  0.4170810879420274
  0.1742453659559929  0.3470946087879948  0.9179656161597552
  0.1725292631989312  0.8454399687360541  0.4163589036581956
  0.1757499394755887  0.8455745658421738  0.9172794105172115
  0.6754010047041725  0.3472073048537157  0.4155976247987651
  0.6743347608896807  0.3454606676975562  0.9165431100013026
  0.6731484898149233  0.8449408893851972  0.4140717570741744
  0.6700944981100678  0.8446453696085915  0.9204292513272133
  0.3259086314856839  0.1539592458454788  0.4167454044521290
  0.3256403246970050  0.1532947110149194  0.9174982018961431
  0.3270764467241365  0.6545372045069174  0.4172564455087565
  0.3257443945742365  0.6514620744874861  0.9198263560649089
  0.8251555986790734  0.1524878073925905  0.4158791376958860
  0.8257042483604222  0.1530019086858982  0.9170871955496013
  0.8281014990517326  0.6548388027845580  0.4130632814460606
  0.8288451140078358  0.6540706729416932  0.9216065843702290
  0.0968496668020465  0.4239956408492225  0.1667829481919739
  0.1026964255355432  0.4215403369649207  0.6698864302052632
  0.0961651411755669  0.9246490526248567  0.1667403111905892
  0.0926562152186822  0.9223151163826792  0.6701129435982985
  0.5958950451693259  0.4234672692393370  0.1669531394921301
  0.5988296372745481  0.4248421871094399  0.6692078648353913
  0.5958778108061491  0.9240300245121964  0.1670543981871393
  0.5893120488951803  0.9279050964837433  0.6568230471214778
  0.4034426646624874  0.0757661095707518  0.1662885534607919
  0.3976205522182777  0.0787643476943519  0.6697054611203888
  0.4029645852713959  0.5754644298578843  0.1678640029856520
  0.4106437488840684  0.5816816797760411  0.6723596093238389
  0.9034309813131068  0.0768084983268010  0.1670906768531542
  0.9013050444037424  0.0755807341943498  0.6692173073766661
  0.9045932751706678  0.5758024380623427  0.1667744337335716
  0.9115622835335575  0.5734772034940601  0.6577547341701326
  0.0759578433124874  0.0966700622962157  0.3331021197088382
  0.0787108969889064  0.1022923967120967  0.8300815578125259
  0.0767825448963088  0.5961762876416500  0.3329522216702434
  0.0750659119692920  0.5979118421574290  0.8314188997331002
  0.5753028016812048  0.0966377389664972  0.3326494228854946
  0.5781461911383178  0.0930430107650503  0.8293115159384955
  0.5759901199110912  0.5957580062792633  0.3330160563449130
  0.5754444688720711  0.5853769697350785  0.8460169284824074
  0.4242758810327181  0.4032893780069812  0.3336781671284103
  0.4208476991108725  0.3975848419583968  0.8293150779160127
  0.4234295508227316  0.9037345479171225  0.3327813211221071
  0.4254128638917884  0.9012455728090335  0.8303414861598992
  0.9245554209464196  0.4033883817969411  0.3326156083767680
  0.9216649991990923  0.4065422582070021  0.8289626142479071
  0.9241054029051287  0.9043688819157144  0.3327481928165254
  0.9267096085918469  0.9110767541241349  0.8420092933048831
 
             NaN             NaN             NaN
             NaN             NaN             NaN
             NaN             NaN             NaN
             NaN             NaN             NaN
             NaN             NaN             NaN
             NaN             NaN             NaN
             NaN             NaN             NaN
             NaN             NaN             NaN
             NaN             NaN             NaN
             NaN             NaN             NaN
             NaN             NaN             NaN
             NaN             NaN             NaN
             NaN             NaN             NaN
             NaN             NaN             NaN
             NaN             NaN             NaN
             NaN             NaN             NaN
             NaN             NaN             NaN
             NaN             NaN             NaN
             NaN             NaN             NaN
             NaN             NaN             NaN
             NaN             NaN             NaN
             NaN             NaN             NaN
             NaN             NaN             NaN
             NaN             NaN             NaN
             NaN             NaN             NaN
             NaN             NaN             NaN
             NaN             NaN             NaN
             NaN             NaN             NaN
             NaN             NaN             NaN
             NaN             NaN             NaN
             NaN             NaN             NaN
             NaN             NaN             NaN
             NaN             NaN             NaN
             NaN             NaN             NaN
             NaN             NaN             NaN
             NaN             NaN             NaN
             NaN             NaN             NaN
             NaN             NaN             NaN
             NaN             NaN             NaN
             NaN             NaN             NaN
             NaN             NaN             NaN
             NaN             NaN             NaN
             NaN             NaN             NaN
             NaN             NaN             NaN
             NaN             NaN             NaN
             NaN             NaN             NaN
             NaN             NaN             NaN
             NaN             NaN             NaN
             NaN             NaN             NaN
             NaN             NaN             NaN
             NaN             NaN             NaN
             NaN             NaN             NaN
             NaN             NaN             NaN
             NaN             NaN             NaN
             NaN             NaN             NaN
             NaN             NaN             NaN
             NaN             NaN             NaN
             NaN             NaN             NaN
             NaN             NaN             NaN
             NaN             NaN             NaN
             NaN             NaN             NaN
             NaN             NaN             NaN
             NaN             NaN             NaN
             NaN             NaN             NaN
             NaN             NaN             NaN
             NaN             NaN             NaN
             NaN             NaN             NaN
             NaN             NaN             NaN
             NaN             NaN             NaN
             NaN             NaN             NaN
             NaN             NaN             NaN
             NaN             NaN             NaN
             NaN             NaN             NaN
             NaN             NaN             NaN
             NaN             NaN             NaN
             NaN             NaN             NaN
             NaN             NaN             NaN
             NaN             NaN             NaN
             NaN             NaN             NaN
             NaN             NaN             NaN
             NaN             NaN             NaN
             NaN             NaN             NaN
             NaN             NaN             NaN
             NaN             NaN             NaN
             NaN             NaN             NaN
             NaN             NaN             NaN
             NaN             NaN             NaN
             NaN             NaN             NaN
             NaN             NaN             NaN
             NaN             NaN             NaN
             NaN             NaN             NaN
             NaN             NaN             NaN
             NaN             NaN             NaN
             NaN             NaN             NaN
             NaN             NaN             NaN
             NaN             NaN             NaN
             NaN             NaN             NaN
             NaN             NaN             NaN
             NaN             NaN             NaN
             NaN             NaN             NaN
             NaN             NaN             NaN
             NaN             NaN             NaN
             NaN             NaN             NaN
             NaN             NaN             NaN
             NaN             NaN             NaN
             NaN             NaN             NaN
             NaN             NaN             NaN
             NaN             NaN             NaN
             NaN             NaN             NaN
             NaN             NaN             NaN
             NaN             NaN             NaN
             NaN             NaN             NaN
             NaN             NaN             NaN
             NaN             NaN             NaN
             NaN             NaN             NaN
             NaN             NaN             NaN
             NaN             NaN             NaN
             NaN             NaN             NaN
             NaN             NaN             NaN
             NaN             NaN             NaN
             NaN             NaN             NaN
             NaN             NaN             NaN
             NaN             NaN             NaN
             NaN             NaN             NaN
             NaN             NaN             NaN
             NaN             NaN             NaN
             NaN             NaN             NaN
