Mg7 Sc16 Se32
1.0
11.207922 0.000001 0.000001
0.000001 11.207921 0.000000
0.000001 0.000000 11.207922
Mg Sc Se
7 16 32
direct
0.530602 0.530602 0.530602 Mg
0.623487 0.126513 0.126513 Mg
0.126513 0.623487 0.126513 Mg
0.126513 0.126513 0.623487 Mg
0.375865 0.874135 0.874135 Mg
0.874135 0.375865 0.874135 Mg
0.874135 0.874135 0.375865 Mg
0.997628 0.749988 0.749988 Sc
0.749988 0.997629 0.749988 Sc
0.749988 0.749988 0.997628 Sc
0.999988 0.999988 0.999988 Sc
0.004052 0.250153 0.250153 Sc
0.250153 0.004052 0.250153 Sc
0.250153 0.250153 0.004052 Sc
0.745923 0.499871 0.252512 Sc
0.745924 0.252512 0.499871 Sc
0.001693 0.499871 0.499871 Sc
0.252512 0.499871 0.745924 Sc
0.252512 0.745924 0.499871 Sc
0.499871 0.745924 0.252512 Sc
0.499871 0.001693 0.499871 Sc
0.499871 0.252512 0.745923 Sc
0.499871 0.499871 0.001693 Sc
0.757412 0.992995 0.992995 Se
0.992995 0.757412 0.992995 Se
0.992995 0.992995 0.757412 Se
0.756815 0.756815 0.756815 Se
0.242321 0.007109 0.007109 Se
0.007109 0.242321 0.007109 Se
0.007109 0.007109 0.242321 Se
0.243566 0.243566 0.243566 Se
0.758714 0.493078 0.493078 Se
0.991095 0.257113 0.492480 Se
0.991095 0.492480 0.257113 Se
0.759312 0.257113 0.257113 Se
0.242475 0.506487 0.506487 Se
0.008200 0.742838 0.507733 Se
0.008200 0.507733 0.742838 Se
0.241230 0.742838 0.742838 Se
0.257113 0.991095 0.492480 Se
0.493078 0.758714 0.493078 Se
0.492480 0.991095 0.257113 Se
0.257113 0.759312 0.257113 Se
0.742838 0.008200 0.507733 Se
0.506487 0.242475 0.506487 Se
0.507733 0.008200 0.742838 Se
0.742838 0.241230 0.742838 Se
0.257113 0.492480 0.991095 Se
0.492480 0.257113 0.991095 Se
0.493078 0.493078 0.758714 Se
0.257113 0.257113 0.759312 Se
0.742838 0.507733 0.008200 Se
0.507733 0.742838 0.008200 Se
0.506487 0.506487 0.242475 Se
0.742838 0.742838 0.241230 Se
