Mg15 Mn32 O64
1.0
11.435138 -0.001027 -0.000278
-0.000774 11.419523 -0.000093
0.001733 0.000556 9.238257
Mg Mn O
15 32 64
direct
0.500655 0.506093 0.498392 Mg
0.999585 0.250154 0.747048 Mg
1.000865 0.750247 0.750038 Mg
0.499787 0.250033 0.752044 Mg
1.000324 0.500420 0.502774 Mg
-0.000063 -0.000208 0.502849 Mg
0.500040 -0.006423 0.498351 Mg
0.246898 0.001650 0.250877 Mg
0.247863 0.498278 0.251134 Mg
0.752267 0.001279 0.250469 Mg
0.753232 0.498669 0.250694 Mg
0.248415 0.249991 0.999544 Mg
0.253442 0.750069 0.995215 Mg
0.749060 0.250130 0.999601 Mg
0.749447 0.750093 0.996568 Mg
0.122872 0.250001 0.377561 Mn
0.125018 0.750112 0.375007 Mn
0.622746 0.249638 0.377916 Mn
0.628372 0.749971 0.370107 Mn
0.373632 0.249441 0.378047 Mn
0.372511 0.749949 0.369892 Mn
0.872709 0.250060 0.375915 Mn
0.877421 0.750088 0.374466 Mn
0.125113 0.002060 0.874050 Mn
0.125182 0.498193 0.873754 Mn
0.624619 0.997623 0.876914 Mn
0.624728 0.502382 0.876645 Mn
0.375496 0.997596 0.875476 Mn
0.375610 0.502263 0.876716 Mn
0.874958 1.001876 0.874128 Mn
0.875050 0.498304 0.874151 Mn
-0.001935 0.125359 0.125066 Mn
1.002185 0.625296 0.122842 Mn
0.498004 0.124862 0.127239 Mn
0.500871 0.623098 0.123845 Mn
0.999681 0.374901 0.125019 Mn
0.001953 0.874811 0.122917 Mn
0.499238 0.373865 0.128137 Mn
0.500132 0.876090 0.123670 Mn
0.252330 0.375460 0.625320 Mn
0.252412 0.873318 0.624098 Mn
0.747713 0.375736 0.625390 Mn
0.748005 0.873587 0.624556 Mn
0.252171 0.124508 0.625405 Mn
0.252754 0.626413 0.624389 Mn
0.747575 0.124626 0.625322 Mn
0.749316 0.627724 0.624530 Mn
0.138705 0.250051 0.621839 O
0.137129 0.749785 0.620746 O
0.635547 0.250247 0.622013 O
0.641615 0.750245 0.600090 O
0.363998 0.249901 0.621925 O
0.359550 0.750070 0.600199 O
0.860618 0.250143 0.621455 O
0.864504 0.750928 0.620844 O
0.138927 0.000694 0.628894 O
0.139169 0.499256 0.628979 O
0.634655 0.999345 0.630932 O
0.635548 0.501575 0.630757 O
0.365497 0.999475 0.631057 O
0.365783 0.500397 0.630818 O
0.861138 0.001146 0.629144 O
0.861644 0.499380 0.629151 O
-0.000155 0.114561 0.878177 O
1.000415 0.611255 0.877237 O
0.499900 0.110584 0.879882 O
0.500356 0.611223 0.921618 O
1.000064 0.385732 0.878140 O
0.000305 0.889055 0.877352 O
0.500126 0.389328 0.879992 O
0.500048 0.888569 0.921353 O
0.998274 0.362994 0.372800 O
0.001196 0.863433 0.370997 O
0.498488 0.363171 0.373567 O
0.500372 0.864167 0.344621 O
0.998080 0.137201 0.372795 O
1.001227 0.636837 0.371050 O
0.498356 0.136079 0.373507 O
0.500713 0.635552 0.344656 O
0.387767 -0.002423 0.128655 O
0.388863 0.501399 0.129063 O
0.887403 0.999727 0.120372 O
0.888371 0.500217 0.120513 O
0.112360 0.001579 0.120243 O
0.113391 0.498960 0.120274 O
0.610749 -0.001237 0.128958 O
0.611726 0.500553 0.129165 O
0.385956 0.249747 0.128625 O
0.390951 0.749547 0.125827 O
0.885500 0.250556 0.129229 O
0.889015 0.749989 0.125031 O
0.111665 0.249772 0.129185 O
0.115120 0.750222 0.125053 O
0.611068 0.249228 0.128390 O
0.610391 0.749947 0.125611 O
0.248952 0.362217 0.379873 O
0.249496 0.862942 0.373321 O
0.747835 0.362490 0.379279 O
0.751954 0.862548 0.372861 O
0.248592 0.137345 0.379978 O
0.249633 0.637213 0.373260 O
0.747940 0.137300 0.379301 O
0.752238 0.637538 0.372977 O
0.251693 0.112870 0.871498 O
0.250142 0.611708 0.871535 O
0.748231 0.112741 0.871981 O
0.750553 0.611899 0.872178 O
0.251759 0.387288 0.871749 O
0.249885 0.888361 0.871363 O
0.748391 0.387409 0.871839 O
0.750360 0.888282 0.872143 O
