Li17 Co18 O36                           
   1.00000000000000     
     8.0553070000000009   -0.0035970000000000    2.3742649999999998
     3.6795390000000001    7.1668409999999998    2.3718100000000000
    -0.0124880000000000   -0.0046280000000000    9.8894099999999998
   Li   Co   O 
    17    18    36
Direct
  0.2900587421029852  0.4720336446284520  0.5163399775984483
  0.3322936717462576  0.3358557437827890  0.9980016171315936
  0.3352443088173296  0.6682594286491640  0.9970485676969804
  0.3317427277474987 -0.0050557953241136  0.5062592283372811
  0.3367733629173789 -0.0030821818798844  0.9962338204846420
  0.6611634672116170  0.3398513203650680  0.5053442952566219
  0.6688519410084529  0.3354073842440668  0.9973904278376464
  0.6458471264589243  0.6649471694523319  0.5045778207058800
  0.6678503491438722  0.6675930726389521  0.9993141666930404
  0.6526817728432722  0.0125421197369662  0.5064748710141963
  0.6695097079640230 -0.0025625530148448  0.9969684757535289
  0.0040818337678586  0.3345290824111454  0.5038340172266711
  0.9982816930163860  0.3364536278142850  0.9988191984404160
  0.9700011738145510  0.6844051483329898  0.5013806783197635
 -0.0012935423568412  0.6682755721279244  0.9988426910640272
  0.0091223714475358  0.9898043552881713  0.5034003018688852
  1.0030180903545678 -0.0007687639648634  0.9946406189212722
  0.1648980402204222  0.1693939467349949  0.2473900898652506
  0.1688445721695905  0.1657392198369011  0.7510075492687898
  0.1645055790150265  0.5043819145535804  0.2454542750113035
  0.1662694178272873  0.4989521926261993  0.7561784120816067
  0.1634847913705826  0.8384728309095189  0.2484434598653021
  0.1681700486588843  0.8313164206620669  0.7500097276434131
  0.4959433336624513  0.1708091303525403  0.2517762646859513
  0.5007583195178813  0.1639012809021924  0.7554263590676860
  0.4998780455285542  0.5047138600393923  0.2462726935607651
  0.5008730862110961  0.4994909337409797  0.7551691574830104
  0.4989451229395243  0.8340553456717947  0.2505226978719804
  0.4993927283412570  0.8313816884077847  0.7547376042163846
  0.8302916369569233  0.1690523386003207  0.2510138374812860
  0.8345032269567393  0.1650496245223708  0.7507230306413178
  0.8339126982379040  0.5015408357663363  0.2489565273040601
  0.8335581287341627  0.4997421395957333  0.7518731191838067
  0.8293886049425487  0.8351483914990994  0.2508408016802782
  0.8327387266509578  0.8318519174708091  0.7508640004339181
  0.2553696784005958  0.2565978067565459  0.3538200105085118
  0.2531026786392733  0.2507645600828921  0.8652291479155760
  0.2495806268133265  0.5966491228073955  0.3459593509768575
  0.2530916757785988  0.5870481718596989  0.8644277402856366
  0.2524269802592429  0.9287491728676072  0.3570629493553265
  0.2515138366849372  0.9199160867679370  0.8626062117671784
  0.5808722672893967  0.2578446212583632  0.3566969085829058
  0.5898885120692440  0.2505782887268106  0.8645428864644983
  0.5897931730809605  0.5865120702900449  0.3560419734730473
  0.5891567425997575  0.5839198411855665  0.8647242563263846
  0.5821582073837611  0.9249888235335084  0.3606156318809399
  0.5880516687346907  0.9179171031514486  0.8646135011421587
  0.9200569533743252  0.2544464339560944  0.3587583448689648
  0.9213643459507397  0.2522262842900062  0.8609170070668936
  0.9201461940330552  0.5884406373274969  0.3588752815831553
  0.9188564283256858  0.5864511048068884  0.8626744020278337
  0.9067088711384705  0.9258433977600887  0.3645072253254930
  0.9205258529287420  0.9190921427841388  0.8601948530302997
  0.0759308763583432  0.0821833530414233  0.1398253442210540
  0.0815317910722125  0.0793518005696798  0.6400382055336061
  0.0791940331047836  0.4153214317079403  0.1369345057706369
  0.0812677381365172  0.4155380802296852  0.6418434134405708
  0.0732114615285792  0.7505937808670752  0.1358490827424696
  0.0781610703440305  0.7423351949501673  0.6433281198747308
  0.4163247952364248  0.0832566031879228  0.1413656697596186
  0.4149612118105286  0.0749099767307758  0.6463883013505476
  0.4135341229814208  0.4127781397174895  0.1383238706362687
  0.4175227094432400  0.4076496512287348  0.6525677881654507
  0.4220899564885546  0.7472093827639145  0.1335696967800198
  0.4150079149990579  0.7456129094245912  0.6466754437002354
  0.7374553355588479  0.0836274026637087  0.1429684770610545
  0.7457954610442098  0.0794678413684876  0.6418035298482800
  0.7481464487100223  0.4128819324881565  0.1393952162640667
  0.7468760510276325  0.4127828360095644  0.6420224144918497
  0.7453972713141345  0.7488691287487610  0.1403935110110563
  0.7435265340693417  0.7458757957539343  0.6427111498223136
 
             NaN             NaN             NaN
             NaN             NaN             NaN
             NaN             NaN             NaN
             NaN             NaN             NaN
             NaN             NaN             NaN
             NaN             NaN             NaN
             NaN             NaN             NaN
             NaN             NaN             NaN
             NaN             NaN             NaN
             NaN             NaN             NaN
             NaN             NaN             NaN
             NaN             NaN             NaN
             NaN             NaN             NaN
             NaN             NaN             NaN
             NaN             NaN             NaN
             NaN             NaN             NaN
             NaN             NaN             NaN
             NaN             NaN             NaN
             NaN             NaN             NaN
             NaN             NaN             NaN
             NaN             NaN             NaN
             NaN             NaN             NaN
             NaN             NaN             NaN
             NaN             NaN             NaN
             NaN             NaN             NaN
             NaN             NaN             NaN
             NaN             NaN             NaN
             NaN             NaN             NaN
             NaN             NaN             NaN
             NaN             NaN             NaN
             NaN             NaN             NaN
             NaN             NaN             NaN
             NaN             NaN             NaN
             NaN             NaN             NaN
             NaN             NaN             NaN
             NaN             NaN             NaN
             NaN             NaN             NaN
             NaN             NaN             NaN
             NaN             NaN             NaN
             NaN             NaN             NaN
             NaN             NaN             NaN
             NaN             NaN             NaN
             NaN             NaN             NaN
             NaN             NaN             NaN
             NaN             NaN             NaN
             NaN             NaN             NaN
             NaN             NaN             NaN
             NaN             NaN             NaN
             NaN             NaN             NaN
             NaN             NaN             NaN
             NaN             NaN             NaN
             NaN             NaN             NaN
             NaN             NaN             NaN
             NaN             NaN             NaN
             NaN             NaN             NaN
             NaN             NaN             NaN
             NaN             NaN             NaN
             NaN             NaN             NaN
             NaN             NaN             NaN
             NaN             NaN             NaN
             NaN             NaN             NaN
             NaN             NaN             NaN
             NaN             NaN             NaN
             NaN             NaN             NaN
             NaN             NaN             NaN
             NaN             NaN             NaN
             NaN             NaN             NaN
             NaN             NaN             NaN
             NaN             NaN             NaN
             NaN             NaN             NaN
             NaN             NaN             NaN
