Li17 Co18 O36                           
   1.00000000000000     
     8.0553070000000009   -0.0035970000000000    2.3742649999999998
     3.6795390000000001    7.1668409999999998    2.3718100000000000
    -0.0124880000000000   -0.0046280000000000    9.8894099999999998
   Li   Co   O 
    17    18    36
Direct
  0.2894592649269115  0.5151654735741866  0.5172370274635211
  0.3329054143319083  0.3352749161174425  0.9973590119005328
  0.3323493203207439  0.6707820058409398  0.9975052649119185
  0.3314360985330421  0.9940190506854895  0.5050567859325178
  0.3338430524033479  0.9984148716868007  0.9963005510317084
  0.6617680520855690  0.3369688548815853  0.5065075053413769
  0.6675479894214773  0.3360768182809434  0.9963837752407740
  0.6502408012134538  0.6613591604442492  0.5052867338238929
  0.6670748480166822  0.6672526224831072  0.9999040656434861
  0.6492147445910668  0.0145941776845369  0.5064036801138185
  0.6688193033703564  0.9974483859614763  0.9962928075074985
  0.0048617035043145  0.3332879423619485  0.5043370030115751
 -0.0004197502608149  0.3336146782223400  0.9995026936101680
  0.9721958523636689  0.6795520863709406  0.5017054916926704
  0.9989629028714555  0.6672518475643031  0.9989629218677649
  0.0125117512642153  0.9866594135182616  0.5021199233597223
  0.0055443498051647  0.9983573932022913  0.9940844146656617
  0.1644926815532349  0.1691557595747447  0.2462682001019761
  0.1691034251821220  0.1650356634950506  0.7509868681137761
  0.1637149231197778  0.5041073597551552  0.2463153571864255
  0.1663148965656838  0.4961434786656997  0.7579995023723267
  0.1638976961343717  0.8402195062697455  0.2461030460350369
  0.1689662885982721  0.8294591034067037  0.7507745305245531
  0.4956376831068731  0.1709550682739359  0.2509120315198777
  0.5012643843337820  0.1630711001845964  0.7553276928377799
  0.4978008422387554  0.5048213262174140  0.2472189098020654
  0.5009717467766610  0.4988892209596965  0.7554641876398315
  0.4978871452605576  0.8349547301895206  0.2510338042212188
  0.4995111088766095  0.8309830688907447  0.7545507452271760
  0.8303309732070752  0.1699282306831672  0.2501066996863707
  0.8349822412556519  0.1643120592013317  0.7506436185035631
  0.8321131722412003  0.5012048372148629  0.2506830600829247
  0.8340503160509942  0.4983151467847480  0.7529581421900396
  0.8298520051135493  0.8353856061452390  0.2498156180106169
  0.8335571292345004  0.8299235769632866  0.7513723521500274
  0.2561020935967575  0.2540307834514334  0.3530697030055248
  0.2537235616779796  0.2492975471320918  0.8656109268694602
  0.2478068880540974  0.5968196657928104  0.3450073406543681
  0.2533173746733756  0.5856877720851672  0.8653051784442414
  0.2505117809275745  0.9273270044539649  0.3549384720677497
  0.2520395507775969  0.9189102861289645  0.8625251212782161
  0.5806832151953295  0.2570009027107082  0.3561590928732439
  0.5903258456508305  0.2498148334583713  0.8643980501617887
  0.5863684896237202  0.5873748789257631  0.3576334492095424
  0.5886255325338295  0.5839151068352926  0.8651231798995146
  0.5816418353195175  0.9264708188112306  0.3598941554041231
  0.5886384418752127  0.9167584021126890  0.8645963744042815
  0.9199235030931888  0.2546705727255546  0.3592222987418723
  0.9213651889519744  0.2509762827215172  0.8610626441211493
  0.9175743524030103  0.5894804207274785  0.3601557977802257
  0.9192203727200738  0.5847374654942202  0.8634082559099948
  0.9164454084297696  0.9233031022081141  0.3597007147221827
  0.9210483762837192  0.9178301600518572  0.8603136446452095
  0.0754753879299008  0.0854898306508856  0.1368084518401609
  0.0822162316601791  0.0776234685846963  0.6402996792574903
  0.0775183174055599  0.4161610678204146  0.1380653907109726
  0.0807555991986255  0.4145376246146119  0.6432465981295028
  0.0741102176683519  0.7521782476023242  0.1366197210777727
  0.0806732524382729  0.7389744705884792  0.6431939468412097
  0.4162055994086287  0.0832113548580101  0.1404220290700424
  0.4152189810517829  0.0738596713573202  0.6468036438904640
  0.4141015912408567  0.4124954373079741  0.1380682934917513
  0.4182547918143885  0.4056761965336245  0.6541642597178587
  0.4131254657986333  0.7506440516888189  0.1374942334270685
  0.4152200180660301  0.7447392370010787  0.6464988622958190
  0.7364438937027247  0.0845755143168358  0.1421554651485281
  0.7465737988685541  0.0775633871910021  0.6418140567521742
  0.7453353951124618  0.4152967443605419  0.1400381733724956
  0.7467856551666240  0.4118241962818056  0.6423058598579945
  0.7441912620727253  0.7483582516688544  0.1403424211286806
  0.7443869841800705  0.7446354296278381  0.6428692970142561
 
             NaN             NaN             NaN
             NaN             NaN             NaN
             NaN             NaN             NaN
             NaN             NaN             NaN
             NaN             NaN             NaN
             NaN             NaN             NaN
             NaN             NaN             NaN
             NaN             NaN             NaN
             NaN             NaN             NaN
             NaN             NaN             NaN
             NaN             NaN             NaN
             NaN             NaN             NaN
             NaN             NaN             NaN
             NaN             NaN             NaN
             NaN             NaN             NaN
             NaN             NaN             NaN
             NaN             NaN             NaN
             NaN             NaN             NaN
             NaN             NaN             NaN
             NaN             NaN             NaN
             NaN             NaN             NaN
             NaN             NaN             NaN
             NaN             NaN             NaN
             NaN             NaN             NaN
             NaN             NaN             NaN
             NaN             NaN             NaN
             NaN             NaN             NaN
             NaN             NaN             NaN
             NaN             NaN             NaN
             NaN             NaN             NaN
             NaN             NaN             NaN
             NaN             NaN             NaN
             NaN             NaN             NaN
             NaN             NaN             NaN
             NaN             NaN             NaN
             NaN             NaN             NaN
             NaN             NaN             NaN
             NaN             NaN             NaN
             NaN             NaN             NaN
             NaN             NaN             NaN
             NaN             NaN             NaN
             NaN             NaN             NaN
             NaN             NaN             NaN
             NaN             NaN             NaN
             NaN             NaN             NaN
             NaN             NaN             NaN
             NaN             NaN             NaN
             NaN             NaN             NaN
             NaN             NaN             NaN
             NaN             NaN             NaN
             NaN             NaN             NaN
             NaN             NaN             NaN
             NaN             NaN             NaN
             NaN             NaN             NaN
             NaN             NaN             NaN
             NaN             NaN             NaN
             NaN             NaN             NaN
             NaN             NaN             NaN
             NaN             NaN             NaN
             NaN             NaN             NaN
             NaN             NaN             NaN
             NaN             NaN             NaN
             NaN             NaN             NaN
             NaN             NaN             NaN
             NaN             NaN             NaN
             NaN             NaN             NaN
             NaN             NaN             NaN
             NaN             NaN             NaN
             NaN             NaN             NaN
             NaN             NaN             NaN
             NaN             NaN             NaN
