Li17 Co18 O36                           
   1.00000000000000     
     8.0553070000000009   -0.0035970000000000    2.3742649999999998
     3.6795390000000001    7.1668409999999998    2.3718100000000000
    -0.0124880000000000   -0.0046280000000000    9.8894099999999998
   Li   Co   O 
    17    18    36
Direct
  0.2879377958154891  0.4772792178323112  0.5179318036419017
  0.3325479553401904  0.3353395128311374  0.9979624805500292
  0.3318503121220985  0.6701900048994057  0.9976705580861374
  0.3312645778992874  0.9953353590142224  0.5046231670104587
  0.3329782930268844 -0.0003415919866657  0.9971975053062779
  0.6632567023230851  0.3383677863224138  0.5060392036410868
  0.6684202513990157  0.3352543452809353  0.9965949972909174
  0.6478607522585023  0.6649429691432799  0.5053283237256827
  0.6672800562220449  0.6685797924353520  0.9992312223251284
  0.6504747222144049  0.0129708020607817  0.5065312293462585
  0.6688930649480920  0.9979630621775465  0.9970384312731077
  0.0072911880928728  0.3337553056213458  0.5030437227092062
  0.0005532586760936  0.3336777028595713  0.9994390727919068
  0.9712798699975893  0.6848327151321265  0.5005604176655195
  0.9989153451298114  0.6682060041550912  0.9997257579114476
  0.0134245025461041  0.9866861802184804  0.5014713654945180
  0.0036311759592251  0.9994024657329568  0.9960462018140019
  0.1637968250600993  0.1698383689948794  0.2463663324129814
  0.1690690702473400  0.1652026377862245  0.7511257917077909
  0.1643981066271218  0.5044356844723549  0.2458349036813660
  0.1659605965891942  0.4978775569191464  0.7573856964208127
  0.1642815896600357  0.8385172323070760  0.2476424363624918
  0.1683936174352708  0.8308336406186154  0.7501807630042250
  0.4961366090643080  0.1709889053424161  0.2510443178215142
  0.5010879911567045  0.1635643403136372  0.7553509029314096
  0.4979138809091042  0.5050174121328086  0.2476417267226262
  0.5009102092541275  0.4994227605511694  0.7551941908448095
  0.4976194739631029  0.8350313917539107  0.2515228798824510
  0.4994038648265404  0.8313364377131955  0.7547222653817780
  0.8309405414649517  0.1701671473687802  0.2495278730376684
  0.8349719631109789  0.1645799212200648  0.7505484542403457
  0.8319597172037013  0.5028773259386676  0.2494622952869633
  0.8338620548158872  0.4986972147702401  0.7526243532431746
  0.8305678326971118  0.8354904547115117  0.2495513368152864
  0.8330566437906671  0.8304337136838346  0.7517672809365109
  0.2553863743631062  0.2556432372484479  0.3531176068534485
  0.2536008921741633  0.2499782374041745  0.8654418720729918
  0.2488277732377923  0.5958154809537936  0.3471243895746571
  0.2530967660050341  0.5866455665200869  0.8648378272646411
  0.2497934315903753  0.9284624156811708  0.3549408680965356
  0.2517395628737887  0.9195470868351846  0.8625692744085098
  0.5816391434731768  0.2573669430125776  0.3559473141060867
  0.5902188779415535  0.2503470578381067  0.8643506005363740
  0.5879962427241183  0.5872909817180040  0.3570908153159571
  0.5887773430016180  0.5841484222759910  0.8650621210269831
  0.5830300958206119  0.9257611650386732  0.3603324034857930
  0.5877430568676691  0.9175339536694236  0.8650464115034834
  0.9193035786774466  0.2554628773132647  0.3581361673758986
  0.9215305566027177  0.2514068366837071  0.8610709791684510
  0.9196284512419244  0.5896522184186636  0.3586056394480110
  0.9188214560821247  0.5853167544421111  0.8636629007565496
  0.9172132348052627  0.9234446148110697  0.3585256645260256
  0.9208459091794550  0.9185221754170042  0.8605023438227513
  0.0754351743955668  0.0846121109487383  0.1377059216714375
  0.0820259041252261  0.0787670743951313  0.6398981039887016
  0.0778082399776199  0.4166395937543914  0.1369249229907475
  0.0812719701755469  0.4147886584525916  0.6426233076316804
  0.0753062483334008  0.7516777400511778  0.1374799299005226
  0.0784078441230145  0.7410529438628711  0.6438948415834930
  0.4160311998459026  0.0834188243854410  0.1410000933372861
  0.4150321538354784  0.0747659352899633  0.6463398019202014
  0.4133513776614373  0.4131577883068975  0.1385413902676240
  0.4175333594764655  0.4072561452947666  0.6530826984865705
  0.4126207388828343  0.7504962765374087  0.1385350194125788
  0.4151122811399442  0.7455617721030683  0.6464939941746697
  0.7376673589598153  0.0840139220688314  0.1422258470026746
  0.7464197803081066  0.0781781281985307  0.6417014846700241
  0.7448478573606961  0.4156622203116958  0.1398960566518399
  0.7472039497202015  0.4123999354714560  0.6422542593729890
  0.7441508723960167  0.7493882469315084  0.1405313036298889
  0.7441898484060969  0.7451901492084111  0.6427988736269941
 
             NaN             NaN             NaN
             NaN             NaN             NaN
             NaN             NaN             NaN
             NaN             NaN             NaN
             NaN             NaN             NaN
             NaN             NaN             NaN
             NaN             NaN             NaN
             NaN             NaN             NaN
             NaN             NaN             NaN
             NaN             NaN             NaN
             NaN             NaN             NaN
             NaN             NaN             NaN
             NaN             NaN             NaN
             NaN             NaN             NaN
             NaN             NaN             NaN
             NaN             NaN             NaN
             NaN             NaN             NaN
             NaN             NaN             NaN
             NaN             NaN             NaN
             NaN             NaN             NaN
             NaN             NaN             NaN
             NaN             NaN             NaN
             NaN             NaN             NaN
             NaN             NaN             NaN
             NaN             NaN             NaN
             NaN             NaN             NaN
             NaN             NaN             NaN
             NaN             NaN             NaN
             NaN             NaN             NaN
             NaN             NaN             NaN
             NaN             NaN             NaN
             NaN             NaN             NaN
             NaN             NaN             NaN
             NaN             NaN             NaN
             NaN             NaN             NaN
             NaN             NaN             NaN
             NaN             NaN             NaN
             NaN             NaN             NaN
             NaN             NaN             NaN
             NaN             NaN             NaN
             NaN             NaN             NaN
             NaN             NaN             NaN
             NaN             NaN             NaN
             NaN             NaN             NaN
             NaN             NaN             NaN
             NaN             NaN             NaN
             NaN             NaN             NaN
             NaN             NaN             NaN
             NaN             NaN             NaN
             NaN             NaN             NaN
             NaN             NaN             NaN
             NaN             NaN             NaN
             NaN             NaN             NaN
             NaN             NaN             NaN
             NaN             NaN             NaN
             NaN             NaN             NaN
             NaN             NaN             NaN
             NaN             NaN             NaN
             NaN             NaN             NaN
             NaN             NaN             NaN
             NaN             NaN             NaN
             NaN             NaN             NaN
             NaN             NaN             NaN
             NaN             NaN             NaN
             NaN             NaN             NaN
             NaN             NaN             NaN
             NaN             NaN             NaN
             NaN             NaN             NaN
             NaN             NaN             NaN
             NaN             NaN             NaN
             NaN             NaN             NaN
