Li17 Co18 O36                           
   1.00000000000000     
     8.0553070000000009   -0.0035970000000000    2.3742649999999998
     3.6795390000000001    7.1668409999999998    2.3718100000000000
    -0.0124880000000000   -0.0046280000000000    9.8894099999999998
   Li   Co   O 
    17    18    36
Direct
  0.2826022001903241  0.4748510190309098  0.5214922063488392
  0.3342919379277892  0.3347014242449979  0.9972511326481380
  0.3329060552853993  0.6660309739780877 -0.0050802941713072
  0.3279925746950628  0.0010614257001209  0.5074397182322210
  0.3343707341453498  1.0030446097001582 -0.0052273254153122
  0.6564963732702130  0.3367340867847635  0.5066397323527674
  0.6681706137766847  0.3340539505002922 -0.0032751507685420
  0.6553767297595077  0.6620045955331990  0.5076711656683583
  0.6697822219109738  0.6655255002510712 -0.0036035089647365
  0.6558260297557749  0.0127148793431029  0.5073731010972421
  0.6695059361478725  1.0007654626444429  0.9948054257855806
  0.0065681850369491  0.3322004661109494  0.5023778285336874
  0.9990895885594102  0.3332979935633242  0.9986884319806762
 -0.0313087959364281  0.6855858930094380  0.5009544177022944
  0.0003767782369016  0.6684535909855187  0.9973986072267587
  0.0046850687121519  0.9945929434005734  0.5048897310324790
  0.9986397509585769  1.0019419511010119  0.9945937004811940
  0.1661294237400893  0.1676213740764383  0.2466029990076804
  0.1676692031620645  0.1666562283755535  0.7501427124175877
  0.1654486956590236  0.5031010848416676  0.2459083965150033
  0.1659498407634932  0.4991862058099644  0.7575035125749133
  0.1612292498140829  0.8395477002299866  0.2495114181939290
  0.1682185690917301  0.8314027361449531  0.7499225365296958
  0.4957874533017859  0.1722793455684381  0.2530727019645729
  0.5008401648125973  0.1648676823208395  0.7549915938818832
  0.5020584039209492  0.4996794226500557  0.2481267438520760
  0.4999952448268618  0.5009426901303904  0.7548166341955446
  0.4992255727293783  0.8293800268754783  0.2544521608034085
  0.4985532888370474  0.8324349264189048  0.7536939981819857
  0.8311804849854941  0.1688710525536020  0.2493132020601345
  0.8342792533444531  0.1657651147539464  0.7501144783723631
  0.8352836289481043  0.4990141395114826  0.2493445287757899
  0.8327979102140223  0.5004979037326420  0.7514693384223419
  0.8330564893237662  0.8331704937985984  0.2489319933877938
  0.8334653757776714  0.8313927797076649  0.7508359168346438
  0.2447873661692327  0.2574370443573661  0.3584291477690267
  0.2533217061445540  0.2504231110547235  0.8646025884623157
  0.2523878647958248  0.5915353605587129  0.3490254935280029
  0.2533621062021565  0.5876317417243807  0.8642347521680906
  0.2511796617392602  0.9280872786066607  0.3624337267377667
  0.2517749416071567  0.9207206982484168  0.8618521810652153
  0.5885750768800651  0.2590312925150340  0.3617360497051334
  0.5896791982127562  0.2506378551690066  0.8634320194092814
  0.5923804393394304  0.5806682387327761  0.3599022372977282
  0.5891730987180217  0.5859524080744827  0.8638058403835909
  0.5865222403305659  0.9090058720324168  0.3622617049007615
  0.5878801076751521  0.9176463216445276  0.8637138800781964
  0.9223851348314274  0.2532634255605667  0.3570526845101845
  0.9209487986806657  0.2534872542404263  0.8595206044825003
  0.9207795022287840  0.5874952812563946  0.3587715257726935
  0.9180080714640093  0.5865420296596692  0.8631262017933861
  0.9075973504833595  0.9251652406962982  0.3638442734807928
  0.9202445982742715  0.9195417466109972  0.8592871603081345
  0.0769339166116861  0.0854658247189034  0.1335099976878752
  0.0807948382160969  0.0805315590607684  0.6395842721516706
  0.0796025647948882  0.4133984749660274  0.1370412167977738
  0.0804128997208279  0.4157460404794753  0.6426526658940934
  0.0741242528370601  0.7497427191385804  0.1339709132255630
  0.0781341912417331  0.7424153863734085  0.6434312725136367
  0.4143554909447026  0.0771342456507601  0.1352361076322343
  0.4145156358214435  0.0760042470211828  0.6446885715295887
  0.4120023809215127  0.4223314270582340  0.1337295140835641
  0.4170263216305370  0.4080432914287629  0.6533012394155507
  0.4247781892990734  0.7475714018609321  0.1384261258701542
  0.4152132892117315  0.7465481972461263  0.6451317030430513
  0.7481067030532749  0.0789529377148446  0.1378161147785179
  0.7461541421449210  0.0787685824570164  0.6415862452219814
  0.7474987392885307  0.4135312247358702  0.1388298703257911
  0.7472859017260469  0.4133349129587232  0.6412598179993187
  0.7496393401000051  0.7451482053035385  0.1378192880109479
  0.7435989626717840  0.7467694433971468  0.6419423485219711
 
             NaN             NaN             NaN
             NaN             NaN             NaN
             NaN             NaN             NaN
             NaN             NaN             NaN
             NaN             NaN             NaN
             NaN             NaN             NaN
             NaN             NaN             NaN
             NaN             NaN             NaN
             NaN             NaN             NaN
             NaN             NaN             NaN
             NaN             NaN             NaN
             NaN             NaN             NaN
             NaN             NaN             NaN
             NaN             NaN             NaN
             NaN             NaN             NaN
             NaN             NaN             NaN
             NaN             NaN             NaN
             NaN             NaN             NaN
             NaN             NaN             NaN
             NaN             NaN             NaN
             NaN             NaN             NaN
             NaN             NaN             NaN
             NaN             NaN             NaN
             NaN             NaN             NaN
             NaN             NaN             NaN
             NaN             NaN             NaN
             NaN             NaN             NaN
             NaN             NaN             NaN
             NaN             NaN             NaN
             NaN             NaN             NaN
             NaN             NaN             NaN
             NaN             NaN             NaN
             NaN             NaN             NaN
             NaN             NaN             NaN
             NaN             NaN             NaN
             NaN             NaN             NaN
             NaN             NaN             NaN
             NaN             NaN             NaN
             NaN             NaN             NaN
             NaN             NaN             NaN
             NaN             NaN             NaN
             NaN             NaN             NaN
             NaN             NaN             NaN
             NaN             NaN             NaN
             NaN             NaN             NaN
             NaN             NaN             NaN
             NaN             NaN             NaN
             NaN             NaN             NaN
             NaN             NaN             NaN
             NaN             NaN             NaN
             NaN             NaN             NaN
             NaN             NaN             NaN
             NaN             NaN             NaN
             NaN             NaN             NaN
             NaN             NaN             NaN
             NaN             NaN             NaN
             NaN             NaN             NaN
             NaN             NaN             NaN
             NaN             NaN             NaN
             NaN             NaN             NaN
             NaN             NaN             NaN
             NaN             NaN             NaN
             NaN             NaN             NaN
             NaN             NaN             NaN
             NaN             NaN             NaN
             NaN             NaN             NaN
             NaN             NaN             NaN
             NaN             NaN             NaN
             NaN             NaN             NaN
             NaN             NaN             NaN
             NaN             NaN             NaN
