Li17 Co18 O36                           
   1.00000000000000     
     8.0553070000000009   -0.0035970000000000    2.3742649999999998
     3.6795390000000001    7.1668409999999998    2.3718100000000000
    -0.0124880000000000   -0.0046280000000000    9.8894099999999998
   Li   Co   O 
    17    18    36
Direct
  0.2884251090144632  0.4837483166488893  0.5182840609702326
  0.3324989142968278  0.3345466402906260  0.9980202056327793
  0.3315936544263319  0.6704128939102797  0.9977111414427383
  0.3304545776772956  0.9964060233745154  0.5053249875041672
  0.3322148077481553  1.0000530773097436  0.9967367018824866
  0.6635025176658054  0.3375835136993828  0.5062680626959426
  0.6689399582609551  0.3349360223501436  0.9963868910300516
  0.6487360210566612  0.6644264641490595  0.5058774703599824
  0.6675168567408173  0.6686177238433262  0.9991193140200580
  0.6513284548443740  0.0122041975429537  0.5067876083377769
  0.6691362594558427  0.9975764274486171  0.9968973920417252
  0.0063456402516639  0.3337891581360645  0.5031117794069525
  1.0010935378134451  0.3332470860230923  0.9991056477361161
  0.9725220258783912  0.6834429099355909  0.5004815309750654
  0.9990258131770450  0.6682881599502021  0.9997921973977171
  0.0128027731309658  0.9871512843176682  0.5012985656421739
  0.0040293381775219  0.9993327141323354  0.9961162132422570
  0.1640564171756181  0.1694125717821938  0.2462123403164589
  0.1688426477856119  0.1660124730010608  0.7506708908638682
  0.1646453864827265  0.5036360034689041  0.2460388778711197
  0.1657903855331592  0.4981487392290690  0.7573555287557692
  0.1642563897979407  0.8379539524385159  0.2472722307051155
  0.1682587364713858  0.8311787815799563  0.7500112016494405
  0.4963142311298189  0.1704578124067380  0.2518422620545276
  0.5009735879141356  0.1636855614410825  0.7554214811383957
  0.4982964092844042  0.5039061378797223  0.2482250705952489
  0.5008013054407612  0.4995539519974430  0.7553436561746358
  0.4971111635077430  0.8350626256160849  0.2518619938232108
  0.4993104053364764  0.8314816319567379  0.7546291887709823
  0.8311757262380918  0.1699541348602773  0.2495503517634586
  0.8348162815818999  0.1648906556129713  0.7505141592632444
  0.8322140757272449  0.5026648925829695  0.2493454776286438
  0.8335220829745711  0.4997303089438974  0.7518984080722866
  0.8307344448854433  0.8352181283761870  0.2494654755801778
  0.8329616259934697  0.8313935646323661  0.7511399709008536
  0.2554233911021743  0.2546725069332896  0.3533823671645735
  0.2533278774271184  0.2502983929911483  0.8652646310399618
  0.2486151552052733  0.5953617963461596  0.3471035917813783
  0.2529420529931924  0.5869174153203947  0.8648531855727558
  0.2487286086503361  0.9285161029728393  0.3553335176502665
  0.2514895006996263  0.9200942054663201  0.8623310922486418
  0.5827689042619683  0.2568512845321722  0.3570736657304689
  0.5901585395237662  0.2503729015773388  0.8644670269404128
  0.5881025813241545  0.5869247644651161  0.3574092463003946
  0.5887632947189184  0.5844439369469100  0.8648922716677371
  0.5834414161505146  0.9257391389054078  0.3608503439053313
  0.5878359250320525  0.9176147612888923  0.8648322754505207
  0.9196613041915117  0.2553120100309829  0.3579473812018972
  0.9213408391069483  0.2523053735777215  0.8606172345979234
  0.9197968716865563  0.5893468625491761  0.3585637247873266
  0.9185579545749237  0.5861260644387527  0.8631220377015457
  0.9175412449255067  0.9231503657779625  0.3581550469443895
  0.9208085196330642  0.9188773338988983  0.8603230002998444
  0.0754520397438954  0.0843874673269876  0.1372782629943641
  0.0817434060188446  0.0792381010878763  0.6397823241942766
  0.0781762239976820  0.4161803066162453  0.1368785669729465
  0.0811361207080096  0.4157249065729126  0.6421155289622528
  0.0756794450388669  0.7505147449504247  0.1371461078204627
  0.0787266953124578  0.7413171692424694  0.6435277683348970
  0.4156808300122413  0.0827171066309675  0.1404698308795203
  0.4149825133225323  0.0749573851955153  0.6463405487211531
  0.4138122593544612  0.4120765802656414  0.1392335703266631
  0.4176884527079284  0.4071165268228155  0.6536064626615875
  0.4126226403596837  0.7490234402879512  0.1387105432766804
  0.4149941393334075  0.7456748127010013  0.6464820767505350
  0.7377206237445769  0.0839293787358988  0.1423857136791726
  0.7462506461750580  0.0787549443990715  0.6415626393251127
  0.7446834336918424  0.4155481215753379  0.1400663680279312
  0.7469620308867597  0.4126543422844837  0.6421141053153708
  0.7445515524109766  0.7491474344184604  0.1402321341682241
  0.7439914055819806  0.7461480099835966  0.6422110100578529
 
             NaN             NaN             NaN
             NaN             NaN             NaN
             NaN             NaN             NaN
             NaN             NaN             NaN
             NaN             NaN             NaN
             NaN             NaN             NaN
             NaN             NaN             NaN
             NaN             NaN             NaN
             NaN             NaN             NaN
             NaN             NaN             NaN
             NaN             NaN             NaN
             NaN             NaN             NaN
             NaN             NaN             NaN
             NaN             NaN             NaN
             NaN             NaN             NaN
             NaN             NaN             NaN
             NaN             NaN             NaN
             NaN             NaN             NaN
             NaN             NaN             NaN
             NaN             NaN             NaN
             NaN             NaN             NaN
             NaN             NaN             NaN
             NaN             NaN             NaN
             NaN             NaN             NaN
             NaN             NaN             NaN
             NaN             NaN             NaN
             NaN             NaN             NaN
             NaN             NaN             NaN
             NaN             NaN             NaN
             NaN             NaN             NaN
             NaN             NaN             NaN
             NaN             NaN             NaN
             NaN             NaN             NaN
             NaN             NaN             NaN
             NaN             NaN             NaN
             NaN             NaN             NaN
             NaN             NaN             NaN
             NaN             NaN             NaN
             NaN             NaN             NaN
             NaN             NaN             NaN
             NaN             NaN             NaN
             NaN             NaN             NaN
             NaN             NaN             NaN
             NaN             NaN             NaN
             NaN             NaN             NaN
             NaN             NaN             NaN
             NaN             NaN             NaN
             NaN             NaN             NaN
             NaN             NaN             NaN
             NaN             NaN             NaN
             NaN             NaN             NaN
             NaN             NaN             NaN
             NaN             NaN             NaN
             NaN             NaN             NaN
             NaN             NaN             NaN
             NaN             NaN             NaN
             NaN             NaN             NaN
             NaN             NaN             NaN
             NaN             NaN             NaN
             NaN             NaN             NaN
             NaN             NaN             NaN
             NaN             NaN             NaN
             NaN             NaN             NaN
             NaN             NaN             NaN
             NaN             NaN             NaN
             NaN             NaN             NaN
             NaN             NaN             NaN
             NaN             NaN             NaN
             NaN             NaN             NaN
             NaN             NaN             NaN
             NaN             NaN             NaN
