Na47 P16 S64
1.0
13.743819 -0.006411 -0.000003
-0.006475 13.755033 -0.000556
-0.000098 -0.000248 14.186693
Na P S
47 16 64
direct
0.589304 0.748053 0.729443 Na
0.999834 0.250564 0.204971 Na
0.999262 0.250298 0.704401 Na
0.999258 0.750551 0.209630 Na
0.982821 0.752496 0.715581 Na
0.500168 0.249433 0.205640 Na
0.500735 0.249707 0.705273 Na
0.500733 0.749457 0.208719 Na
0.249308 0.999467 0.293541 Na
0.248744 0.998622 0.792699 Na
0.251142 0.500534 0.295878 Na
0.250627 0.501994 0.794921 Na
0.748876 0.998898 0.292862 Na
0.747180 0.981580 0.786849 Na
0.750675 0.501102 0.290533 Na
0.753464 0.517812 0.784639 Na
0.252585 0.999320 0.042747 Na
0.244876 0.999150 0.544111 Na
0.247601 0.499906 0.045846 Na
0.254861 0.502994 0.546954 Na
0.752634 1.000048 0.041310 Na
0.744748 0.998099 0.541712 Na
0.747171 0.500756 0.038223 Na
0.755526 0.499725 0.538864 Na
0.500149 0.251703 0.455880 Na
0.501508 0.246781 0.953869 Na
0.500217 0.751945 0.466771 Na
0.500385 0.746382 0.954733 Na
0.999835 0.248289 0.454551 Na
0.998519 0.253220 0.953516 Na
0.999789 0.748045 0.461924 Na
0.999612 0.753617 0.959961 Na
0.993585 0.997061 0.501476 Na
0.003512 0.008144 0.000565 Na
0.009254 0.495840 0.499314 Na
0.996723 0.502014 0.998402 Na
0.491906 0.002323 0.499697 Na
0.505806 0.996181 0.998900 Na
0.505241 0.504789 0.501861 Na
0.493940 0.493659 0.001069 Na
0.249586 0.250680 0.249979 Na
0.249554 0.251172 0.750088 Na
0.250743 0.749381 0.250465 Na
0.271594 0.749457 0.749287 Na
0.750427 0.249326 0.249353 Na
0.750432 0.248834 0.750703 Na
0.749248 0.750620 0.249849 Na
0.499749 0.499397 0.250239 P
0.500611 0.498085 0.752136 P
0.499365 0.000247 0.250364 P
0.497805 0.999912 0.748228 P
0.000968 0.499571 0.249903 P
0.002470 0.499233 0.747989 P
-0.000066 0.000794 0.249774 P
0.999139 0.002764 0.751888 P
0.249887 0.250258 0.999990 P
0.249754 0.250523 0.499935 P
0.250264 0.749011 0.000832 P
0.249686 0.751219 0.499710 P
0.750136 0.249745 0.999837 P
0.750238 0.249463 0.499042 P
0.749726 0.750998 0.002310 P
0.750335 0.748768 0.497176 P
0.153721 0.174348 0.082333 S
0.153074 0.175051 0.581682 S
0.152834 0.675229 0.083516 S
0.154776 0.675831 0.582962 S
0.654391 0.173678 0.082809 S
0.653457 0.175066 0.581395 S
0.654378 0.674098 0.084924 S
0.654795 0.669731 0.576202 S
0.346405 0.325434 0.082573 S
0.346361 0.325438 0.582085 S
0.346855 0.824408 0.082967 S
0.345373 0.828174 0.580382 S
0.845525 0.326560 0.082568 S
0.847079 0.324438 0.580991 S
0.845905 0.826287 0.085489 S
0.845090 0.826258 0.578775 S
0.174425 0.347126 0.417776 S
0.174485 0.347130 0.918583 S
0.172398 0.845026 0.415786 S
0.176405 0.844313 0.916844 S
0.675678 0.346065 0.416311 S
0.675083 0.345362 0.917302 S
0.673316 0.844570 0.414944 S
0.671768 0.848382 0.923806 S
0.324915 0.154342 0.417228 S
0.324875 0.154133 0.917632 S
0.326694 0.655371 0.417594 S
0.325568 0.650795 0.920658 S
0.824954 0.152427 0.416876 S
0.825564 0.153394 0.918237 S
0.827604 0.655000 0.413143 S
0.826231 0.656532 0.919998 S
0.097266 0.423896 0.167836 S
0.101902 0.422330 0.670142 S
0.095920 0.925473 0.166962 S
0.092131 0.923998 0.669300 S
0.595171 0.423978 0.166926 S
0.597381 0.424812 0.668371 S
0.595817 0.925040 0.168540 S
0.589798 0.925102 0.661999 S
0.403690 0.075449 0.167118 S
0.399778 0.077214 0.669083 S
0.402760 0.574742 0.168570 S
0.407400 0.577957 0.670813 S
0.903869 0.076671 0.167636 S
0.900945 0.075623 0.669431 S
0.905509 0.574753 0.166935 S
0.910679 0.572927 0.660496 S
0.075693 0.096631 0.332408 S
0.077364 0.101330 0.829702 S
0.076406 0.595486 0.332601 S
0.074365 0.595974 0.832409 S
0.574531 0.096834 0.332825 S
0.577574 0.094575 0.828995 S
0.575304 0.595303 0.332205 S
0.575339 0.588244 0.840625 S
0.424783 0.403136 0.333147 S
0.422587 0.399223 0.829984 S
0.423664 0.904380 0.332691 S
0.423789 0.905594 0.833508 S
0.924983 0.403407 0.332087 S
0.922483 0.404868 0.828719 S
0.924622 0.904837 0.332112 S
0.926500 0.910197 0.839515 S
