Li46 P16 O64                            
   1.00000000000000     
    10.6516079999999995   -0.0063490000000000   -0.0178630000000000
    -0.0074130000000000   12.4496020000000005   -0.0098900000000000
    -0.0168260000000000   -0.0080010000000000   10.0801110000000005
   Li   P    O 
    46    16    64
Direct
  0.2981133184483621  0.3489775090271485  0.1489215347241157
  0.6647843700626228  0.2515956106702382  0.5987198121756117
  0.6588891927254023  0.7459539219795202  0.0975897259449163
  0.6630881043801263  0.7507871851041839  0.6000827284162631
  0.1529642184173904  0.5091161960469068  0.1514776685811183
  0.1643057028405529  0.5007005901707412  0.6506779380559353
  0.1650647948753970  0.9950720732231804  0.1505877903698465
  0.1642033596695178  0.0003260607418910  0.6517846463617364
  0.3378878793955518  0.0004575490450437  0.3998519024863783
  0.3394269629110800  0.0004235945613255  0.9057791768465508
  0.3392400182666896  0.5003174236174406  0.4029917631685220
  0.3397866520556015  0.4960788583988743  0.9023238358240842
  0.8322026419743377  0.2489240887417597  0.3428145080377603
  0.8333782627930448  0.2487440216792534  0.8585404246019162
  0.8359146510074863  0.7484318843073513  0.3488065523035261
  0.8361998469177494  0.7487096695688330  0.8491149114829233
  0.3401944112606618  0.2455488355615147  0.4070864404052269
  0.3422069417748542  0.2483443181684314  0.9019100181345505
  0.3378505275773751  0.7484235441965492  0.4002941545484286
  0.3368478807519931  0.7483153570669608  0.9022055083446426
  0.8398887947450074  0.0032648974855596  0.3470126966979999
  0.8373857870676819  0.0023921682665618  0.8487744207936964
  0.8326595255588398  0.4971499390795324  0.3461649645876254
  0.8342587202495414  0.4984860502301528  0.8535712323056922
  0.6532963768870930  0.4834513939216691  0.0924773431193073
  0.6651338627945320  0.5007405279969753  0.5961488615269369
  0.6649875699415422  0.9969443660873315  0.1005067316240395
  0.6640571334719483  0.0007112696818303  0.5986426551368912
  0.1645621933189953  0.2519270542793270  0.6517888921925548
  0.1621278751153144  0.7512347525978846  0.1525753524464759
  0.1638258717186608  0.7519773492591705  0.6505182683727365
  0.9383055395781471  0.3633837669268315  0.1486924960930392
  0.9270143375562454  0.3740657806378432  0.6526692685407869
  0.9246377951922335  0.8766737713068826  0.1485940002305708
  0.9262073729851399  0.8765647407054444  0.6486244342645795
  0.4272458098800740  0.3747188165203665  0.6051902975078317
  0.4275165778721037  0.8735253106434024  0.1023563540443914
  0.4275315875979679  0.8756540851675326  0.6011006659433407
  0.0802703613510247  0.1367995499235239  0.3313388053622753
  0.0765400987724182  0.1282107667704390  0.8621268481425205
  0.0718378236329386  0.6255246633035741  0.3543254370035650
  0.0732575141440734  0.6242948186994759  0.8493544000050254
  0.5750296114766503  0.1291365989547957  0.3876709764369748
  0.5768466701270973  0.1357865426685619  0.9185286477661805
  0.5741535465266043  0.6215163934220620  0.3989663342961173
  0.5721530313202843  0.6199861969754178  0.8977357374201389
  0.9147646055640021  0.1203325859753480  0.0984020459991411
  0.9149522688383471  0.1259480236101581  0.5962375791789721
  0.9068348264980646  0.6252524519837324  0.0976944775804097
  0.9110981539940819  0.6253577641768482  0.5972882250270862
  0.4101592616859528  0.1164101636892478  0.1516997442865482
  0.4131422402377637  0.1221827511761856  0.6543673268438835
  0.4065768549316685  0.6222329407699054  0.1521960468850455
  0.4104115492507657  0.6267639684141402  0.6534295126674143
  0.0916273026103347  0.3773644742700962  0.4046835136251313
  0.0927853083842832  0.3780644776586578  0.9035428728169203
  0.0896002521628390  0.8745323368776067  0.4040776505242382
  0.0889500703691460  0.8733489027291421  0.9022827257777644
  0.5862098612167731  0.3761703798779957  0.3485454574487295
  0.5868695211464914  0.3735774222195130  0.8335619646655991
  0.5906176449552983  0.8726531663620011  0.3478355385057499
  0.5905911240574480  0.8729674757055427  0.8470789363143790
  0.8386094501029695  0.0191387453456470  0.1473628214283450
  0.8436663646932078  0.0230700939927780  0.6455590117696086
  0.8393696469153467  0.5219073081772396  0.1463159511445128
  0.8435824903376101  0.5234052002665920  0.6512554955327867
  0.3441126248446306  0.2148133399920018  0.0909160806452891
  0.3416645893325231  0.2242122708276942  0.6051197532644763
  0.3389111293201129  0.7270646013730889  0.1031599519726851
  0.3414139147996616  0.7299052552633938  0.6026895259484556
  0.1667525529726147  0.2778569822328565  0.3579903881883235
  0.1603519895663878  0.2757438918648474  0.8501041073464469
  0.1584731126779018  0.7707000091025992  0.3548951562625570
  0.1585606082493777  0.7709462469885028  0.8503575406955910
  0.6572577470190399  0.4787231699480006  0.4048968671106445
  0.6549085180369673  0.4754802898888965  0.8924582175885551
  0.6607667168748355  0.9754306766732711  0.3971413275549051
  0.6627614449332865  0.9731072138253009  0.8988651571770989
  0.1591528460074769  0.4816357782356251  0.3533283914564653
  0.1588421296311827  0.4806117208192538  0.8461495029243400
  0.1607176291898538  0.9752498714574025  0.3535679193955314
  0.1597387492725192  0.9756133716103372  0.8534020138434130
  0.6572572999361800  0.2739283575584606  0.4018814030948973
  0.6555726930307842  0.2704050152644348  0.8767019093594905
  0.6597215224350902  0.7704277709939289  0.4010112385183955
  0.6579727981883524  0.7682863762383267  0.8957346212587736
  0.8582221484434246  0.2246117799014378  0.1543727155639929
  0.8456565328352154  0.2281123274024635  0.6476869339747445
  0.8360347309207448  0.7276128869710431  0.1474922387630726
  0.8416248178295301  0.7281537792629948  0.6477758358409157
  0.3383798594324738  0.0111420694820406  0.1074629757898503
  0.3425174722252161  0.0195230744956474  0.6027799373212611
  0.3296025929761124  0.5228434528614393  0.1043508336594756
  0.3403121449414494  0.5255095152398828  0.6002953787170904
  0.5467573912765141  0.1072987189233040  0.1045548599972213
  0.5490582773141696  0.1229828122559125  0.5981303036563621
  0.5423233395367365  0.6207640467595061  0.0956648337002248
  0.5481870789086145  0.6274778399238515  0.6024003341821419
  0.0520459621699486  0.1080985045524629  0.1442064253499462
  0.0516767824499460  0.1247955680872154  0.6518867988994449
  0.0438331204887868  0.6291394941313702  0.1530003956698207
  0.0497381549817028  0.6273053244989275  0.6470138874791576
  0.4488460734742449  0.3744946840769790  0.4069353486683785
  0.4458917172641093  0.3742676098589774  0.8706703519479011
  0.4530081792729696  0.8733285464305186  0.4002373615003377
  0.4528871530001003  0.8728274777408793  0.8991736938173983
  0.9544663043876389  0.3757955177490278  0.3508338691987253
  0.9525147955895037  0.3760171253501426  0.8569699358427735
  0.9518835319683622  0.8735971202215704  0.3509108662950182
  0.9515792105244595  0.8739814185038419  0.8482453503052815
  0.5825193219762501  0.3806063156294371  0.1984862586320927
  0.5948895007277073  0.3800859998965393  0.6780935712115523
  0.5904726523034103  0.8690641668306786  0.1930640867336616
  0.5904789662148828  0.8743495995701486  0.6915303579070410
  0.1013277134823532  0.3833860597199190  0.0575488061290740
  0.0893019944841561  0.3791084277825688  0.5604040790761533
  0.0873663357704857  0.8704665634950679  0.0570080003963111
  0.0887939361265651  0.8748374618279684  0.5594714173696349
  0.4067835336947467  0.1229631603483807  0.3078779809111798
  0.4143484521284068  0.1207332834607884  0.8091276089794553
  0.4108154465127788  0.6243027453557048  0.3076664019800802
  0.4088323634132716  0.6258458642802762  0.8084041043904758
  0.9160527876773069  0.1261481459765862  0.4411140585962160
  0.9094431553454727  0.1226598535159624  0.9420670479250595
  0.9082713101164289  0.6240771224881437  0.4420852934343636
  0.9100903945032917  0.6258439253463077  0.9422901540596837
 
             NaN             NaN             NaN
             NaN             NaN             NaN
             NaN             NaN             NaN
             NaN             NaN             NaN
             NaN             NaN             NaN
             NaN             NaN             NaN
             NaN             NaN             NaN
             NaN             NaN             NaN
             NaN             NaN             NaN
             NaN             NaN             NaN
             NaN             NaN             NaN
             NaN             NaN             NaN
             NaN             NaN             NaN
             NaN             NaN             NaN
             NaN             NaN             NaN
             NaN             NaN             NaN
             NaN             NaN             NaN
             NaN             NaN             NaN
             NaN             NaN             NaN
             NaN             NaN             NaN
             NaN             NaN             NaN
             NaN             NaN             NaN
             NaN             NaN             NaN
             NaN             NaN             NaN
             NaN             NaN             NaN
             NaN             NaN             NaN
             NaN             NaN             NaN
             NaN             NaN             NaN
             NaN             NaN             NaN
             NaN             NaN             NaN
             NaN             NaN             NaN
             NaN             NaN             NaN
             NaN             NaN             NaN
             NaN             NaN             NaN
             NaN             NaN             NaN
             NaN             NaN             NaN
             NaN             NaN             NaN
             NaN             NaN             NaN
             NaN             NaN             NaN
             NaN             NaN             NaN
             NaN             NaN             NaN
             NaN             NaN             NaN
             NaN             NaN             NaN
             NaN             NaN             NaN
             NaN             NaN             NaN
             NaN             NaN             NaN
             NaN             NaN             NaN
             NaN             NaN             NaN
             NaN             NaN             NaN
             NaN             NaN             NaN
             NaN             NaN             NaN
             NaN             NaN             NaN
             NaN             NaN             NaN
             NaN             NaN             NaN
             NaN             NaN             NaN
             NaN             NaN             NaN
             NaN             NaN             NaN
             NaN             NaN             NaN
             NaN             NaN             NaN
             NaN             NaN             NaN
             NaN             NaN             NaN
             NaN             NaN             NaN
             NaN             NaN             NaN
             NaN             NaN             NaN
             NaN             NaN             NaN
             NaN             NaN             NaN
             NaN             NaN             NaN
             NaN             NaN             NaN
             NaN             NaN             NaN
             NaN             NaN             NaN
             NaN             NaN             NaN
             NaN             NaN             NaN
             NaN             NaN             NaN
             NaN             NaN             NaN
             NaN             NaN             NaN
             NaN             NaN             NaN
             NaN             NaN             NaN
             NaN             NaN             NaN
             NaN             NaN             NaN
             NaN             NaN             NaN
             NaN             NaN             NaN
             NaN             NaN             NaN
             NaN             NaN             NaN
             NaN             NaN             NaN
             NaN             NaN             NaN
             NaN             NaN             NaN
             NaN             NaN             NaN
             NaN             NaN             NaN
             NaN             NaN             NaN
             NaN             NaN             NaN
             NaN             NaN             NaN
             NaN             NaN             NaN
             NaN             NaN             NaN
             NaN             NaN             NaN
             NaN             NaN             NaN
             NaN             NaN             NaN
             NaN             NaN             NaN
             NaN             NaN             NaN
             NaN             NaN             NaN
             NaN             NaN             NaN
             NaN             NaN             NaN
             NaN             NaN             NaN
             NaN             NaN             NaN
             NaN             NaN             NaN
             NaN             NaN             NaN
             NaN             NaN             NaN
             NaN             NaN             NaN
             NaN             NaN             NaN
             NaN             NaN             NaN
             NaN             NaN             NaN
             NaN             NaN             NaN
             NaN             NaN             NaN
             NaN             NaN             NaN
             NaN             NaN             NaN
             NaN             NaN             NaN
             NaN             NaN             NaN
             NaN             NaN             NaN
             NaN             NaN             NaN
             NaN             NaN             NaN
             NaN             NaN             NaN
             NaN             NaN             NaN
             NaN             NaN             NaN
             NaN             NaN             NaN
             NaN             NaN             NaN
             NaN             NaN             NaN
             NaN             NaN             NaN
