Li47 P16 O64
1.0
10.588913 -0.000424 -0.012130
-0.000489 12.401247 -0.000632
-0.011457 -0.000505 10.020175
Li P O
47 16 64
direct
0.626106 0.267988 0.097832 Li
0.665624 0.250140 0.598954 Li
0.662788 0.750115 0.098780 Li
0.663865 0.750705 0.599466 Li
0.164520 0.497674 0.149774 Li
0.165082 0.498540 0.651368 Li
0.164134 0.998109 0.151118 Li
0.164664 0.998831 0.651447 Li
0.337467 0.000909 0.399678 Li
0.337101 0.000846 0.903536 Li
0.339913 0.498641 0.395827 Li
0.338720 0.496604 0.908017 Li
0.835062 0.249041 0.347893 Li
0.833813 0.249085 0.851279 Li
0.836974 0.748516 0.349325 Li
0.836766 0.748809 0.849110 Li
0.339856 0.251391 0.395898 Li
0.338650 0.253066 0.907901 Li
0.337504 0.749124 0.399619 Li
0.337068 0.749281 0.903353 Li
0.837028 0.001621 0.349208 Li
0.836857 0.001380 0.849224 Li
0.835346 0.500894 0.348730 Li
0.833914 0.500723 0.850547 Li
0.654644 0.495633 0.097731 Li
0.665684 0.500455 0.598396 Li
0.663056 1.000419 0.099159 Li
0.663819 0.999744 0.599445 Li
0.164402 0.251954 0.149573 Li
0.165067 0.251443 0.651337 Li
0.164253 0.751376 0.150957 Li
0.164607 0.751146 0.651562 Li
0.921620 0.374764 0.148284 Li
0.924533 0.374875 0.649606 Li
0.924493 0.875134 0.149480 Li
0.925902 0.875114 0.649087 Li
0.429132 0.375128 0.605262 Li
0.429184 0.875175 0.102249 Li
0.426545 0.875143 0.600825 Li
0.075342 0.125936 0.350236 Li
0.075447 0.126053 0.852616 Li
0.075305 0.623977 0.350534 Li
0.075369 0.623829 0.852499 Li
0.573987 0.127185 0.398624 Li
0.572272 0.127206 0.900672 Li
0.573966 0.623329 0.399375 Li
0.571910 0.623540 0.899162 Li
0.910803 0.124804 0.097374 P
0.912958 0.124510 0.597269 P
0.910190 0.625191 0.097218 P
0.912885 0.625570 0.597377 P
0.408226 0.120277 0.152004 P
0.410851 0.124477 0.653212 P
0.408604 0.629208 0.151916 P
0.410747 0.625701 0.653225 P
0.088550 0.375069 0.403079 P
0.086544 0.375009 0.903004 P
0.088593 0.874897 0.403778 P
0.088338 0.874891 0.903789 P
0.592491 0.375357 0.349568 P
0.587468 0.374913 0.840101 P
0.590558 0.875031 0.347576 P
0.589705 0.875085 0.845923 P
0.841184 0.021445 0.148255 O
0.842783 0.021448 0.647861 O
0.839263 0.522977 0.147645 O
0.843301 0.523319 0.649708 O
0.331510 0.215756 0.096714 O
0.341583 0.226858 0.600046 O
0.343683 0.736792 0.106347 O
0.341567 0.729118 0.601333 O
0.158450 0.272285 0.352044 O
0.156475 0.272366 0.851713 O
0.158136 0.772015 0.352529 O
0.158523 0.772065 0.853063 O
0.661065 0.478862 0.404210 O
0.655175 0.477593 0.896929 O
0.659934 0.978089 0.399346 O
0.659522 0.977858 0.897570 O
0.158609 0.477848 0.352157 O
0.156501 0.477685 0.851756 O
0.158172 0.977749 0.352700 O
0.158591 0.977659 0.853082 O
0.661005 0.271822 0.403844 O
0.655187 0.271952 0.894546 O
0.659982 0.772011 0.399457 O
0.659236 0.771995 0.897334 O
0.841036 0.227133 0.148175 O
0.843472 0.226789 0.649572 O
0.840828 0.728591 0.148107 O
0.842749 0.728640 0.647925 O
0.342867 0.012760 0.106715 O
0.341634 0.021065 0.601212 O
0.331716 0.533825 0.096840 O
0.341551 0.523375 0.599854 O
0.546461 0.121875 0.099208 O
0.549828 0.124087 0.602446 O
0.547147 0.627055 0.099054 O
0.549831 0.626330 0.602749 O
0.049434 0.124023 0.149523 O
0.051645 0.124005 0.649145 O
0.048590 0.625256 0.149868 O
0.051554 0.625955 0.649222 O
0.454051 0.375130 0.402440 O
0.445999 0.374828 0.874609 O
0.451944 0.874973 0.398867 O
0.451094 0.875048 0.896620 O
0.949908 0.375237 0.350900 O
0.947703 0.375045 0.850799 O
0.949796 0.874913 0.351977 O
0.950066 0.874941 0.850520 O
0.599931 0.376044 0.196632 O
0.600149 0.375915 0.684622 O
0.592987 0.874928 0.191781 O
0.591222 0.875132 0.689886 O
0.085958 0.375015 0.058840 O
0.088904 0.375039 0.559205 O
0.087501 0.874733 0.059597 O
0.089573 0.874858 0.559800 O
0.410400 0.123864 0.308504 O
0.408610 0.124235 0.808953 O
0.410918 0.626094 0.308369 O
0.408447 0.625722 0.808989 O
0.911861 0.124969 0.441294 O
0.910577 0.124482 0.941181 O
0.911786 0.625074 0.441398 O
0.910235 0.625414 0.941081 O
