Li7 Mn16 O32                            
   1.00000000000000     
     8.6028199999999995    0.0293580000000000   -0.0255070000000000
     0.0258380000000000    8.0921319999999994   -0.0928920000000000
    -0.0254980000000000    0.0022590000000000    8.0680150000000008
   Li   Mn   O 
     7    16    32
Direct
  0.1650090837744765  0.5854039200902307  0.6649403147258330
  0.8664788270082060  0.8758958135112788  0.8786459149997159
  0.1393494275360372  0.1287035748174198  0.1214542175055393
  0.8670090227738871  0.3713794248692647  0.3737626611131801
  0.3643166205365590  0.8707178320209974  0.3794863125239530
  0.6342332481760187  0.1235935580086461  0.6253906174209417
  0.6336592586338248  0.6250210246950905  0.1266669679469105
  0.5000285905772074  0.2487320293796287  0.2496601214909334
  0.2512085267258668  0.4990966363732565  0.2478540707941254
  0.2517493652245680  0.2512441766133526  0.5043529744410161
  0.5074899121298817  0.4976565710705582  0.4996452152215726
  0.5074772765834111  0.7505982731441592  0.7514261369169412
  0.7497562708369715  0.5000581529638517  0.7501434109256971
  0.7572437398919986  0.7478402468291758  0.4999440455467979
  0.2511703307054299  0.0021955162295023  0.7509056601129903
  0.2517857639999261  0.7459025934813454  0.9986928535401238
  0.5002380945694571  0.0001293721263229  0.0011958592922432
  0.7505068610477461  0.9994075424794334  0.2499267273875297
  0.7431645376152306  0.2516630632885277  0.0004338607233448
  0.9936874637268832  0.2478517477592769  0.7494105797060027
  0.9938294986264773  0.5012952344019854  0.0020098381357540
  0.0008854638868985  0.7499593775037390  0.2507745534825493
  0.0005846514161797  0.9992028620264608  0.4998819780431368
  0.7239526845406368  0.0097129871968176  0.0128751251250299
  0.9954131867493584  0.7356014236881835  0.0155627582740574
  0.9966794631962784  0.0155339873309890  0.7371666118815039
  0.7341130604032970  0.7352105452850803  0.7387703060344828
  0.2765958146968259  0.9857325163360400  0.9873572942424657
  0.9946005644905647  0.2661786537177098  0.9853361597306215
  0.0036516801517324  0.9845976227807042  0.2646550402410598
  0.2766876071969274  0.2629410151986484  0.2639349295014224
  0.7331273195443743  0.5072234051016570  0.5146769747810038
  0.9948416662006992  0.2340174916671933  0.5145755895896407
  0.9971779618352549  0.5135888322100242  0.2350014187438202
  0.7242775838272533  0.2390253078718234  0.2376063075695466
  0.2855478067856542  0.4877765428817371  0.4934967232212486
  0.0057562445667967  0.7650826503924992  0.4856386597450370
  0.9762931941995208  0.4881067680320723  0.7610620850565299
  0.2858751377114030  0.7570702632765708  0.7614003868388898
  0.2250125192666423  0.0121869164890300  0.5147867890109584
  0.5059259591520194  0.7326715760311703  0.5158258548557634
  0.4985158223810431  0.0132933943769173  0.2375136930220016
  0.2250614624565683  0.7349105565155916  0.2384265425592509
  0.7777028908205595  0.9879428595780205  0.4883173773577139
  0.5059150116899374  0.2641485123576335  0.4864981420463192
  0.5035831822589325  0.9830001132353524  0.7640929905576690
  0.7669136956298320  0.2651223408805007  0.7623589169612176
  0.2126150112108923  0.5125403545067444  0.0070279606384617
  0.4982806480780297  0.2305442201086845  0.0185684185915228
  0.5295198489881668  0.5124929991302143  0.7384967262707688
  0.2121132550451812  0.2425227424754853  0.7383175599456212
  0.7682813783288619  0.4924391966856972  0.9851071615854593
  0.5059557194065097  0.7638678804488808  0.9856729192821272
  0.5033826535657558  0.4851101489710393  0.2666435816708731
  0.7777494690162398  0.7593788106251067  0.2635021850561821
 
             NaN             NaN             NaN
             NaN             NaN             NaN
             NaN             NaN             NaN
             NaN             NaN             NaN
             NaN             NaN             NaN
             NaN             NaN             NaN
             NaN             NaN             NaN
             NaN             NaN             NaN
             NaN             NaN             NaN
             NaN             NaN             NaN
             NaN             NaN             NaN
             NaN             NaN             NaN
             NaN             NaN             NaN
             NaN             NaN             NaN
             NaN             NaN             NaN
             NaN             NaN             NaN
             NaN             NaN             NaN
             NaN             NaN             NaN
             NaN             NaN             NaN
             NaN             NaN             NaN
             NaN             NaN             NaN
             NaN             NaN             NaN
             NaN             NaN             NaN
             NaN             NaN             NaN
             NaN             NaN             NaN
             NaN             NaN             NaN
             NaN             NaN             NaN
             NaN             NaN             NaN
             NaN             NaN             NaN
             NaN             NaN             NaN
             NaN             NaN             NaN
             NaN             NaN             NaN
             NaN             NaN             NaN
             NaN             NaN             NaN
             NaN             NaN             NaN
             NaN             NaN             NaN
             NaN             NaN             NaN
             NaN             NaN             NaN
             NaN             NaN             NaN
             NaN             NaN             NaN
             NaN             NaN             NaN
             NaN             NaN             NaN
             NaN             NaN             NaN
             NaN             NaN             NaN
             NaN             NaN             NaN
             NaN             NaN             NaN
             NaN             NaN             NaN
             NaN             NaN             NaN
             NaN             NaN             NaN
             NaN             NaN             NaN
             NaN             NaN             NaN
             NaN             NaN             NaN
             NaN             NaN             NaN
             NaN             NaN             NaN
             NaN             NaN             NaN
