Li7 Mn16 O32                            
   1.00000000000000     
     8.6028199999999995    0.0293580000000000   -0.0255070000000000
     0.0258380000000000    8.0921319999999994   -0.0928920000000000
    -0.0254980000000000    0.0022590000000000    8.0680150000000008
   Li   Mn   O 
     7    16    32
Direct
  0.1658420421380985  0.5845236160838381  0.6657151941775439
  0.8663336867717875  0.8760373861029006  0.8785129024262828
  0.1391922185566010  0.1288618601072848  0.1212107612154068
  0.8668924610133886  0.3715628711367464  0.3736434871934380
  0.3641427217315711  0.8707825399631537  0.3793186540595721
  0.6340363348278960  0.1237125401804630  0.6253111707917322
  0.6335055390679871  0.6251911900371668  0.1265265960876487
  0.4999862669030116  0.2487971145831332  0.2495993645124987
  0.2511702666447705  0.4991347241938716  0.2476883092564950
  0.2516978639480252  0.2512193799956218  0.5042352282554282
  0.5074535527011786  0.4977476130201181  0.4995514962442288
  0.5074540535887991  0.7506645039611392  0.7514038829806708
  0.7497486300280867  0.5001167066190626  0.7501139791887261
  0.7573400100494917  0.7478956266555682  0.4999077949664237
  0.2511117092802916  0.0023262402866114  0.7508733907643618
  0.2517362082725350  0.7460406051437359  0.9987041145530587
  0.5001989611807035  0.0001895843757116  0.0011402572241331
  0.7503707468038713  0.9995492507637143  0.2499729426303619
  0.7430950356462453  0.2517167888239426  0.0003647101851349
  0.9936205113876796  0.2478949455221716  0.7493253068408890
  0.9937571107431943  0.5013654388773955  0.0019492955063086
  1.0008662609385885  0.7500637757339856  0.2507546258814157
  1.0005908220740252 -0.0007632816108364  0.4998132885275149
  0.7238361077082529  0.0098687857553384  0.0127927766527664
  0.9952933425735808  0.7356551108397907  0.0154084553584708
  0.9966011433395177  0.0156138261217888  0.7371064748212856
  0.7340256266528916  0.7353375127556074  0.7387276411818099
  0.2764846808685101  0.9858942090966544  0.9872266222904083
  0.9945128950528537  0.2662349660743202  0.9852434967082586
  0.0035361274060192  0.9847227302612553  0.2645762853584446
  0.2766112387600540  0.2629859884905848  0.2637776903918077
  0.7330816047306783  0.5074821154000636  0.5145344388771242
  0.9947238317255109  0.2341305457928851  0.5144885054738975
  0.9970587901432333  0.5136651817925078  0.2348699074722584
  0.7241950065580313  0.2390474130509576  0.2376247850387554
  0.2855107015509982  0.4878352154935271  0.4932877937601352
  0.0056320938691559  0.7652288723501534  0.4854767505087325
  0.9762127021701309  0.4881747545418080  0.7609424479317444
  0.2858249891630248  0.7571470766074783  0.7613304094767412
  0.2249063540175160  0.0122685257195529  0.5147123171576995
  0.5057691134125246  0.7328157802745988  0.5157184274688463
  0.4983967944519708  0.0133221856170536  0.2374668277113671
  0.2249518952866650  0.7349708672430142  0.2382648396895894
  0.7775642490128629  0.9879665987603478  0.4884013805456668
  0.5058388729995940  0.2642688633277385  0.4864327570216532
  0.5034665359760362  0.9830801111228051  0.7640086980454212
  0.7668179787424020  0.2652520601414361  0.7622376444028859
  0.2125440972952780  0.5126221981398047  0.0068442890945852
  0.4981619792095425  0.2305975256534441  0.0185390688856594
  0.5294681945601476  0.5125922243112435  0.7383808798828103
  0.2120330686011727  0.2426860518734566  0.7381708105258949
  0.7681768859994739  0.4924763556272061  0.9849866305779640
  0.5058602492837871  0.7639499774988816  0.9855717992943763
  0.5033326972991111  0.4851712656761545  0.2665523705237568
  0.7776076294472672  0.7596290072003464  0.2633344070503816
 
             NaN             NaN             NaN
             NaN             NaN             NaN
             NaN             NaN             NaN
             NaN             NaN             NaN
             NaN             NaN             NaN
             NaN             NaN             NaN
             NaN             NaN             NaN
             NaN             NaN             NaN
             NaN             NaN             NaN
             NaN             NaN             NaN
             NaN             NaN             NaN
             NaN             NaN             NaN
             NaN             NaN             NaN
             NaN             NaN             NaN
             NaN             NaN             NaN
             NaN             NaN             NaN
             NaN             NaN             NaN
             NaN             NaN             NaN
             NaN             NaN             NaN
             NaN             NaN             NaN
             NaN             NaN             NaN
             NaN             NaN             NaN
             NaN             NaN             NaN
             NaN             NaN             NaN
             NaN             NaN             NaN
             NaN             NaN             NaN
             NaN             NaN             NaN
             NaN             NaN             NaN
             NaN             NaN             NaN
             NaN             NaN             NaN
             NaN             NaN             NaN
             NaN             NaN             NaN
             NaN             NaN             NaN
             NaN             NaN             NaN
             NaN             NaN             NaN
             NaN             NaN             NaN
             NaN             NaN             NaN
             NaN             NaN             NaN
             NaN             NaN             NaN
             NaN             NaN             NaN
             NaN             NaN             NaN
             NaN             NaN             NaN
             NaN             NaN             NaN
             NaN             NaN             NaN
             NaN             NaN             NaN
             NaN             NaN             NaN
             NaN             NaN             NaN
             NaN             NaN             NaN
             NaN             NaN             NaN
             NaN             NaN             NaN
             NaN             NaN             NaN
             NaN             NaN             NaN
             NaN             NaN             NaN
             NaN             NaN             NaN
             NaN             NaN             NaN
