Na47 P16 S64                            
   1.00000000000000     
    13.6863720000000004   -0.0124040000000000    0.0000340000000000
    -0.0124600000000000   13.7075750000000003   -0.0001470000000000
     0.0000070000000000    0.0001860000000000   14.0497019999999999
   Na   P    S 
    47    16    64
Direct
  0.6553716482351515  0.7527109214776019  0.7487544362368441
  0.9999285242825432  0.2502546701304048  0.2068071443452021
  0.9997282106065256  0.2499324029533649  0.7058013202754683
  0.9992598429143723  0.7504106654382795  0.2120030217665228
  0.9909940108290652  0.7508114692416497  0.7158129392775943
  0.4999879553776028  0.2497884977795951  0.2087096623116168
  0.5003825237317646  0.2501489597565127  0.7077966849573647
  0.5002226523022330  0.7498176904804371  0.2103856814856089
  0.2495599379266403  0.9997036765451873  0.2898078774789012
  0.2479201456896180  0.9987846677005533  0.7887731653044587
  0.2512028982322937  0.5008644198756299  0.2946249418962050
  0.2506613313065676  0.5025208268483876  0.7927050248326643
  0.7487624121340912  0.9989653168360856  0.2932162538165994
  0.7490141202888037  0.9925527751082327  0.7894854422575175
  0.7503304740494264  0.5007453598605891  0.2883759535531463
  0.7531068705268086  0.5069853777592921  0.7852374947486966
  0.2524670703043076  0.9988198550887344  0.0384653648121790
  0.2444679561942162  0.0007579528527778  0.5393314672105090
  0.2469356123285413  0.4995248332404714  0.0450943085620309
  0.2544781228554661  0.5037481034371700  0.5453938090608967
  0.7522105766294245  0.0006189122147025  0.0428328243497580
  0.7458248469199827  0.9974683978515262  0.5419111770769208
  0.7469004957486228  0.5008677966589558  0.0364104030611247
  0.7564759174381902  0.4982119274443997  0.5359711719927299
  0.5000867245286661  0.2511520532601871  0.4587933969519121
  0.5005490318146878  0.2487129278394292  0.9566697201395706
  0.5000354661019301  0.7512227144710684  0.4741498015137035
  0.4979859523706713  0.7484721464067554  0.9529251291072611
  0.9999710643377208  0.2491392942167923  0.4559838031605344
  0.9993543090032945  0.2513584344955179  0.9559532408434640
  1.0000122766365871  0.7491032183263409  0.4649008450062263
  0.9997942269108089  0.7514563454640066  0.9604212785768490
  0.9939957741563746  0.0001201637375259  0.5008336310204473
  0.0019350942618638  0.0069600980215220  0.0001172803025344
  0.0088559041037709  0.4962006900795918  0.4996433118325156
  0.9985466921539158  0.4983029309611441  0.9989152300085857
  0.4926195275915456  1.0008363956857702  0.4995076121956250
  0.5053283234940295  0.9987741436257966  0.9994683457892692
  0.5039365933955798  0.5038994071047940  0.5013699225270807
  0.4918414355144101  0.4957762985906083  0.0017060342397802
  0.2490313923491834  0.2519244039166767  0.2498932195796631
  0.2489097032026559  0.2523979040437425  0.7499530446879397
  0.2514983422648490  0.7491839462793238  0.2501776838771627
  0.2915060024342819  0.7482781584720206  0.7495858426925456
  0.7510915331198388  0.2481780475549943  0.2493920929786776
  0.7512708155311577  0.2476455216366999  0.7498785835213074
  0.7479892483455358  0.7509760656058334  0.2489017749442405
  0.4998961296073236  0.4998992519994483  0.2505266075520431
  0.5001148641316926  0.4992029741920133  0.7509521639503043
  0.4999553151727037  0.9999651409513264  0.2501310451781580
  0.4971961448562013  1.0002012333838046  0.7489322429031918
  0.0006229073666363  0.4997251071688835  0.2498144103544677
  0.0024578008746076  0.4977844939547182  0.7488524897950259
  0.9993167374351891  0.0005888029541484  0.2497622318425819
  0.9990869586100950  0.0025809604348871  0.7510159551788923
  0.2500166076066418  0.2504807240022023  1.0001383293662756
  0.2495609923117646  0.2511515214029638  0.4993494525104740
  0.2500773643260881  0.7477916896370219  0.0010169990523762
  0.2493319341595246  0.7528620189374595  0.4992938137890261
  0.7498844906253660  0.2494158700764705  0.9994650211826744
  0.7504505625039904  0.2486935255633094  0.4990456095099729
  0.7491005546668548  0.7510659339928242  0.0005299319105247
  0.7511454209190155  0.7475975215787843  0.4975336072138122
  0.1541808821385087  0.1734803425333424  0.0832341000673059
  0.1527283730462852  0.1748377743577748  0.5816455219708616
  0.1520722797207665  0.6748768957579511  0.0849944481104529
  0.1561025617966237  0.6774283014711004  0.5858165167727194
  0.6533791322020497  0.1738823903659827  0.0831973901843554
  0.6535891634735466  0.1740704588491541  0.5824526357625033
  0.6528667342172613  0.6742474003351000  0.0831821826983129
  0.6556922601324003  0.6660894555286262  0.5757183129924833
  0.3467568385053972  0.3260248010245728  0.0836222991514280
  0.3462321196195722  0.3262360185867099  0.5826046830825785
  0.3466664727404336  0.8248339250733577  0.0831300076068222
  0.3453171269405742  0.8318811532356848  0.5785579838018112
  0.8456404676872499  0.3267269392578515  0.0825756572560752
  0.8473812242608517  0.3246152097121782  0.5815794314584496
  0.8460009446400746  0.8259050540315770  0.0843471008779844
  0.8439944185997033  0.8246536852532407  0.5826178430894069
  0.1737685648181951  0.3482354657634963  0.4170124611260447
  0.1738140294709110  0.3476287402102118  0.9186147407004417
  0.1705986067760757  0.8449109639762220  0.4136432208424326
  0.1768191402765234  0.8414937101127943  0.9139192250777363
  0.6753507643045065  0.3447576621508149  0.4150907478024048
  0.6747803175830728  0.3447385209371776  0.9154210077962538
  0.6728619892892261  0.8438652160738065  0.4159111467487842
  0.6712198118716574  0.8508289996076546  0.9223394007202894
  0.3251785814141671  0.1552705169403939  0.4155008395761050
  0.3253806775614755  0.1549247280682685  0.9163929012451170
  0.3266307221106686  0.6559137606312300  0.4173418490902278
  0.3262221904745757  0.6475230225351202  0.9224931106754959
  0.8260026561235509  0.1513825548084120  0.4167587001570095
  0.8259908022618117  0.1521304048723612  0.9179256066456160
  0.8294959515255840  0.6554178074121252  0.4119141973342925
  0.8240453236000812  0.6575800683454424  0.9150449843388471
  0.0972165486507558  0.4232654377508698  0.1675144107453594
  0.1019984384871766  0.4216009810760118  0.6692161766548669
  0.0946073781355153  0.9249828875594091  0.1653602191998148
  0.0922544863385788  0.9250184563778748  0.6667199423527636
  0.5950811598148736  0.4240891324018464  0.1660418884442363
  0.5969011719516214  0.4245880257785961  0.6668067106169474
  0.5972665723936628  0.9243240538675082  0.1681771455478699
  0.5902381655454889  0.9245178364105078  0.6629141508515192
  0.4046922414226799  0.0755660555525303  0.1655879338159137
  0.4006037694051497  0.0776025577953432  0.6671488722163126
  0.4022915635204009  0.5755390209525597  0.1686918497588610
  0.4073649206925719  0.5793025901246261  0.6691032333155287
  0.9025670819654221  0.0771302175489756  0.1675977016379912
  0.9002907745266286  0.0765653862121596  0.6687174415079629
  0.9053741230354470  0.5752679344802736  0.1654809206062842
  0.9096753018629353  0.5722156444861799  0.6617736632229253
  0.0760991868942484  0.0964079240608351  0.3328372846998156
  0.0776327072478176  0.1008553720582709  0.8303860074999018
  0.0764530467133614  0.5958316483754713  0.3332541710842106
  0.0747208352242296  0.5942252404353217  0.8342662491424537
  0.5750536390743592  0.0966299574184622  0.3338464062788384
  0.5768391005398997  0.0961556537832113  0.8300705294340561
  0.5761694444048749  0.5961109054066892  0.3328798580244526
  0.5766821414092700  0.5870900571437615  0.8418692237168368
  0.4247982682312563  0.4034166213700803  0.3344148960959561
  0.4219092704823923  0.4005331607999508  0.8303119446629360
  0.4235727158110965  0.9037940372868134  0.3327338510113708
  0.4217312073824314  0.9080181201438491  0.8359199953179771
  0.9238961379559330  0.4036747851657909  0.3327517056408426
  0.9230947454811007  0.4019388854221689  0.8300810982174646
  0.9237182557711521  0.9043993406740884  0.3330703521091813
  0.9261176664480874  0.9088584787890186  0.8384736080965622
 
             NaN             NaN             NaN
             NaN             NaN             NaN
             NaN             NaN             NaN
             NaN             NaN             NaN
             NaN             NaN             NaN
             NaN             NaN             NaN
             NaN             NaN             NaN
             NaN             NaN             NaN
             NaN             NaN             NaN
             NaN             NaN             NaN
             NaN             NaN             NaN
             NaN             NaN             NaN
             NaN             NaN             NaN
             NaN             NaN             NaN
             NaN             NaN             NaN
             NaN             NaN             NaN
             NaN             NaN             NaN
             NaN             NaN             NaN
             NaN             NaN             NaN
             NaN             NaN             NaN
             NaN             NaN             NaN
             NaN             NaN             NaN
             NaN             NaN             NaN
             NaN             NaN             NaN
             NaN             NaN             NaN
             NaN             NaN             NaN
             NaN             NaN             NaN
             NaN             NaN             NaN
             NaN             NaN             NaN
             NaN             NaN             NaN
             NaN             NaN             NaN
             NaN             NaN             NaN
             NaN             NaN             NaN
             NaN             NaN             NaN
             NaN             NaN             NaN
             NaN             NaN             NaN
             NaN             NaN             NaN
             NaN             NaN             NaN
             NaN             NaN             NaN
             NaN             NaN             NaN
             NaN             NaN             NaN
             NaN             NaN             NaN
             NaN             NaN             NaN
             NaN             NaN             NaN
             NaN             NaN             NaN
             NaN             NaN             NaN
             NaN             NaN             NaN
             NaN             NaN             NaN
             NaN             NaN             NaN
             NaN             NaN             NaN
             NaN             NaN             NaN
             NaN             NaN             NaN
             NaN             NaN             NaN
             NaN             NaN             NaN
             NaN             NaN             NaN
             NaN             NaN             NaN
             NaN             NaN             NaN
             NaN             NaN             NaN
             NaN             NaN             NaN
             NaN             NaN             NaN
             NaN             NaN             NaN
             NaN             NaN             NaN
             NaN             NaN             NaN
             NaN             NaN             NaN
             NaN             NaN             NaN
             NaN             NaN             NaN
             NaN             NaN             NaN
             NaN             NaN             NaN
             NaN             NaN             NaN
             NaN             NaN             NaN
             NaN             NaN             NaN
             NaN             NaN             NaN
             NaN             NaN             NaN
             NaN             NaN             NaN
             NaN             NaN             NaN
             NaN             NaN             NaN
             NaN             NaN             NaN
             NaN             NaN             NaN
             NaN             NaN             NaN
             NaN             NaN             NaN
             NaN             NaN             NaN
             NaN             NaN             NaN
             NaN             NaN             NaN
             NaN             NaN             NaN
             NaN             NaN             NaN
             NaN             NaN             NaN
             NaN             NaN             NaN
             NaN             NaN             NaN
             NaN             NaN             NaN
             NaN             NaN             NaN
             NaN             NaN             NaN
             NaN             NaN             NaN
             NaN             NaN             NaN
             NaN             NaN             NaN
             NaN             NaN             NaN
             NaN             NaN             NaN
             NaN             NaN             NaN
             NaN             NaN             NaN
             NaN             NaN             NaN
             NaN             NaN             NaN
             NaN             NaN             NaN
             NaN             NaN             NaN
             NaN             NaN             NaN
             NaN             NaN             NaN
             NaN             NaN             NaN
             NaN             NaN             NaN
             NaN             NaN             NaN
             NaN             NaN             NaN
             NaN             NaN             NaN
             NaN             NaN             NaN
             NaN             NaN             NaN
             NaN             NaN             NaN
             NaN             NaN             NaN
             NaN             NaN             NaN
             NaN             NaN             NaN
             NaN             NaN             NaN
             NaN             NaN             NaN
             NaN             NaN             NaN
             NaN             NaN             NaN
             NaN             NaN             NaN
             NaN             NaN             NaN
             NaN             NaN             NaN
             NaN             NaN             NaN
             NaN             NaN             NaN
             NaN             NaN             NaN
             NaN             NaN             NaN
             NaN             NaN             NaN
