Na47 P16 S64
1.0
13.686372 -0.012404 0.000034
-0.012460 13.707575 -0.000147
0.000007 0.000186 14.049702
Na P S
47 16 64
direct
0.654966 0.750134 0.742460 Na
0.999946 0.250182 0.206834 Na
0.999681 0.250138 0.705781 Na
0.999792 0.750191 0.211748 Na
0.993203 0.750874 0.715984 Na
0.500059 0.249820 0.208781 Na
0.500312 0.249861 0.708099 Na
0.500225 0.749813 0.209397 Na
0.249785 0.999719 0.289705 Na
0.248054 0.998843 0.788070 Na
0.251207 0.500784 0.294678 Na
0.250695 0.502837 0.792671 Na
0.748784 0.999055 0.293480 Na
0.748565 0.990685 0.789378 Na
0.750220 0.500444 0.288504 Na
0.752683 0.507645 0.784773 Na
0.252528 0.998749 0.038137 Na
0.245287 1.001040 0.539081 Na
0.247845 0.499457 0.044849 Na
0.253868 0.503317 0.545008 Na
0.752214 1.000540 0.042988 Na
0.745991 0.997168 0.543056 Na
0.747418 0.501252 0.036279 Na
0.754832 0.498476 0.537135 Na
0.500062 0.250618 0.459430 Na
0.500515 0.248837 0.956963 Na
0.500067 0.750670 0.473509 Na
0.500030 0.748697 0.948397 Na
0.999934 0.249395 0.455884 Na
0.999487 0.251166 0.955900 Na
0.999935 0.749336 0.464351 Na
0.999970 0.751298 0.960718 Na
0.994146 1.000625 0.500824 Na
0.001350 0.005825 0.000094 Na
0.007204 0.496896 0.499902 Na
0.999209 0.497888 0.999180 Na
0.495167 -0.000914 0.500395 Na
0.506017 0.998252 0.999901 Na
0.503474 0.503418 0.501312 Na
0.493437 0.498041 0.000816 Na
0.249117 0.251767 0.249879 Na
0.248836 0.252428 0.750039 Na
0.251807 0.749196 0.250045 Na
0.289342 0.748989 0.750064 Na
0.750893 0.248236 0.249636 Na
0.751161 0.247576 0.750129 Na
0.748213 0.750803 0.249805 Na
0.499887 0.499882 0.250539 P
0.500791 0.499503 0.750865 P
0.499916 -0.000034 0.250466 P
0.498572 0.999741 0.749273 P
0.000702 0.499723 0.249829 P
0.001933 0.498450 0.749224 P
-0.000504 0.000419 0.249899 P
0.998686 0.002297 0.750814 P
0.250076 0.250459 -0.000046 P
0.249444 0.251216 0.499526 P
0.250713 0.747918 0.000490 P
0.249482 0.752536 0.499422 P
0.749929 0.249541 0.999794 P
0.750553 0.248786 0.499182 P
0.749287 0.752084 0.000817 P
0.750520 0.747461 0.498598 P
0.154183 0.173457 0.082994 S
0.152698 0.174865 0.581901 S
0.152826 0.674629 0.084386 S
0.155842 0.676790 0.585163 S
0.653455 0.173834 0.083433 S
0.653861 0.173972 0.582664 S
0.653384 0.674540 0.083180 S
0.654991 0.667583 0.577845 S
0.346808 0.325875 0.083451 S
0.346057 0.326256 0.582922 S
0.347128 0.824845 0.082663 S
0.345173 0.831571 0.579280 S
0.845564 0.326831 0.082984 S
0.847380 0.324905 0.581648 S
0.846661 0.825983 0.084903 S
0.844002 0.824058 0.583727 S
0.173672 0.348263 0.417171 S
0.173840 0.347647 0.918430 S
0.171214 0.845007 0.413925 S
0.176998 0.841711 0.913770 S
0.675205 0.344761 0.415308 S
0.674709 0.344872 0.915802 S
0.672979 0.844091 0.416612 S
0.671904 0.851414 0.922496 S
0.325054 0.155401 0.415675 S
0.325291 0.154920 0.916043 S
0.326960 0.655809 0.417500 S
0.327025 0.648141 0.921561 S
0.826072 0.151570 0.416813 S
0.826163 0.152546 0.918185 S
0.828847 0.655070 0.413042 S
0.824083 0.658724 0.914715 S
0.097350 0.423253 0.167620 S
0.101051 0.422341 0.669142 S
0.094980 0.924854 0.165646 S
0.092047 0.925325 0.666128 S
0.595046 0.424351 0.165829 S
0.596747 0.424058 0.666531 S
0.597343 0.924321 0.168638 S
0.591749 0.922408 0.665229 S
0.404708 0.075451 0.165791 S
0.402206 0.076834 0.666770 S
0.402279 0.575542 0.168773 S
0.407177 0.578891 0.668791 S
0.902899 0.076943 0.167662 S
0.899978 0.076774 0.668916 S
0.905405 0.575286 0.165517 S
0.909013 0.573380 0.662578 S
0.076217 0.096239 0.333006 S
0.077210 0.099916 0.830755 S
0.076438 0.595894 0.333281 S
0.074669 0.594569 0.834695 S
0.574906 0.096758 0.334108 S
0.577397 0.096251 0.830480 S
0.576247 0.595995 0.333057 S
0.578032 0.588907 0.839343 S
0.424934 0.403227 0.334320 S
0.422631 0.401257 0.830802 S
0.423543 0.903846 0.333092 S
0.421606 0.908566 0.836329 S
0.923939 0.403776 0.332793 S
0.922737 0.402576 0.830438 S
0.923773 0.904264 0.333245 S
0.925687 0.907958 0.837709 S
