Mg7 Sc16 Se32
1.0
11.207631 0.000001 0.000001
0.000001 11.207629 0.000000
0.000001 0.000000 11.207631
Mg Sc Se
7 16 32
direct
0.561261 0.561261 0.561261 Mg
0.623184 0.126816 0.126816 Mg
0.126816 0.623184 0.126816 Mg
0.126816 0.126816 0.623184 Mg
0.375577 0.874423 0.874423 Mg
0.874423 0.375577 0.874423 Mg
0.874423 0.874423 0.375577 Mg
0.998377 0.750034 0.750034 Sc
0.750034 0.998377 0.750034 Sc
0.750034 0.750034 0.998377 Sc
0.999950 0.999950 0.999950 Sc
0.004827 0.250219 0.250219 Sc
0.250219 0.004827 0.250219 Sc
0.250219 0.250219 0.004827 Sc
0.745156 0.499797 0.251792 Sc
0.745156 0.251792 0.499797 Sc
0.003255 0.499797 0.499797 Sc
0.251792 0.499797 0.745156 Sc
0.251792 0.745156 0.499797 Sc
0.499797 0.745156 0.251792 Sc
0.499797 0.003255 0.499797 Sc
0.499797 0.251792 0.745156 Sc
0.499797 0.499797 0.003255 Sc
0.757263 0.993008 0.993008 Se
0.993008 0.757263 0.993008 Se
0.993008 0.993008 0.757263 Se
0.756865 0.756865 0.756865 Se
0.242185 0.007131 0.007131 Se
0.007131 0.242185 0.007131 Se
0.007131 0.007131 0.242185 Se
0.243679 0.243679 0.243679 Se
0.759144 0.493006 0.493006 Se
0.990729 0.257121 0.492607 Se
0.990729 0.492607 0.257121 Se
0.759543 0.257121 0.257121 Se
0.242952 0.506356 0.506356 Se
0.007858 0.742834 0.507851 Se
0.007858 0.507851 0.742834 Se
0.241457 0.742834 0.742834 Se
0.257121 0.990729 0.492607 Se
0.493006 0.759144 0.493006 Se
0.492607 0.990729 0.257121 Se
0.257121 0.759543 0.257121 Se
0.742834 0.007858 0.507851 Se
0.506356 0.242952 0.506356 Se
0.507851 0.007858 0.742834 Se
0.742834 0.241457 0.742834 Se
0.257121 0.492607 0.990729 Se
0.492607 0.257121 0.990729 Se
0.493006 0.493006 0.759144 Se
0.257121 0.257121 0.759543 Se
0.742834 0.507851 0.007858 Se
0.507851 0.742834 0.007858 Se
0.506356 0.506356 0.242952 Se
0.742834 0.742834 0.241457 Se
