Li47 P16 O64                            
   1.00000000000000     
    10.4326709999999991   -0.0004490000000000   -0.0125860000000000
    -0.0005180000000000   12.2481410000000004    0.0007050000000000
    -0.0119300000000000    0.0005650000000000    9.8295499999999993
   Li   P    O 
    47    16    64
Direct
  0.1877924622603137  0.2731311190227071  0.1568249105827822
  0.6566731459287374  0.2526365013654090  0.0975264904216903
  0.6676475368174469  0.2487267004651417  0.5966415822819020
  0.6616304312584452  0.7489791228631313  0.0968292441968018
  0.6640689766989873  0.7502229659117942  0.5983384370169502
  0.1624586050239133  0.5042630304793456  0.1511593585972823
  0.1658412195497777  0.5002451580778092  0.6512982651237305
  0.1651176819508670  0.0010078512558187  0.1502510905942712
  0.1654855234623582  1.0000610773056717  0.6530201536614415
  0.3371116960913250  0.0008423618766763  0.4000175918195642
  0.3371109630242975  0.0005522665856135  0.9049952409850298
  0.3402124915984375  0.4982282902629138  0.3975731851916636
  0.3386196222719868  0.4960334230808356  0.9094234556643394
  0.8364069469758466  0.2493142109714019  0.3464764003855718
  0.8342101570566680  0.2494725051203563  0.8498788423649397
  0.8359498273883929  0.7488869921225912  0.3476077273030779
  0.8361324029467514  0.7495089921969177  0.8472106360740883
  0.3426353042428774  0.2501633603193590  0.4022876611784622
  0.3407154033556590  0.2527655598036164  0.9064434581387799
  0.3374906678934635  0.7488986271364160  0.4006875311963811
  0.3360475941128132  0.7483612934219148  0.9046094880552993
  0.8381614224701434  0.0026054988284372  0.3478247169824518
  0.8366748359756198  0.0017796083382225  0.8466260172020929
  0.8357243404081053  0.5003298677948240  0.3458452783481116
  0.8340116884918556  0.5011698098082161  0.8505489508560627
  0.6556774471347740  0.4956029009759328  0.0967455026739548
  0.6674861392321235  0.5001406158574142  0.5969583484558940
  0.6655307554351622  0.9974867252007281  0.0977851178844919
  0.6653868589849715  0.9986864085135143  0.5975084228416050
  0.1663096132653449  0.2526316008930409  0.6529884135964940
  0.1647948726447388  0.7532383131142683  0.1527630109513200
  0.1656035959942767  0.7525944610092601  0.6515279580746838
  0.9231699613549902  0.3738457690510343  0.1468296012999870
  0.9231686118588559  0.3755938760005961  0.6509998763025719
  0.9223794655091290  0.8755334778096433  0.1488972532904262
  0.9244619236992127  0.8757339006318817  0.6479849149280710
  0.4283826810386940  0.3751395685712687  0.6092303329716759
  0.4271324572942658  0.8742653346230221  0.1016415253616814
  0.4246017886900956  0.8748239534258104  0.6001130824657429
  0.0798444870764665  0.1298041500500148  0.3445846064813681
  0.0787769589599957  0.1276035795374820  0.8554363438899740
  0.0766807630182704  0.6267659141409744  0.3519492699268777
  0.0771654584858674  0.6256001764868688  0.8503799504235567
  0.5777530504966005  0.1256683758216048  0.3979850591676989
  0.5756450720461598  0.1248080563848994  0.9008016488415109
  0.5765461256526403  0.6226055926813006  0.3993820092991661
  0.5735597802685902  0.6227284551021934  0.8987259663826934
  0.9123966709259046  0.1254207484087689  0.0951330746646940
  0.9153588379836872  0.1255054635052498  0.5953701488433953
  0.9101505967336508  0.6263294864219542  0.0952309810208126
  0.9132924365763910  0.6261583740626239  0.5952587071958884
  0.4129286911671347  0.1205784105716498  0.1538297242155176
  0.4128242068597152  0.1236418370093709  0.6548762370250861
  0.4089192974027526  0.6278781594324896  0.1539481289117760
  0.4117020495464630  0.6251550612185144  0.6546778786112187
  0.0894465278479786  0.3772385294366575  0.4047228391503210
  0.0881426065880446  0.3771771567504935  0.9045210715372800
  0.0885205169184407  0.8765132466417183  0.4046138988697465
  0.0878808963377738  0.8757025364267628  0.9048217889083411
  0.5924412787384475  0.3743190802022154  0.3478306925045317
  0.5877422559165241  0.3744754900899252  0.8381469399883901
  0.5899158856075685  0.8742707457228527  0.3456023340300123
  0.5887601323254594  0.8740731740830109  0.8445723063441711
  0.8426637727355228  0.0219497534393246  0.1469048247916988
  0.8443313566052897  0.0222391113344318  0.6450737437340112
  0.8405855028782810  0.5229953829173742  0.1451602065676250
  0.8446189285172817  0.5238721152548618  0.6494658546924272
  0.3405857541577710  0.2173647120000343  0.0957956716999763
  0.3433513033176850  0.2264422363641951  0.6025225432085572
  0.3436250316895381  0.7354995779170467  0.1075386263717953
  0.3427061711331918  0.7287318218412713  0.6021565361657464
  0.1632783332828520  0.2760651870205632  0.3537322133245972
  0.1582769696714743  0.2744603170229780  0.8533466227636524
  0.1586878699754123  0.7734929174033588  0.3539324974749415
  0.1581960042999531  0.7729450082022975  0.8533491957474911
  0.6616819539347388  0.4779600879189483  0.4021074541558888
  0.6550566284290082  0.4771362875742767  0.8959997737588840
  0.6604104233257374  0.9771210494506553  0.3972024169535303
  0.6595090060672512  0.9765428425425359  0.8965552291154248
  0.1576994393507437  0.4810475726986739  0.3537568317364559
  0.1566137529629885  0.4797849879315395  0.8504122496741041
  0.1578102899214644  0.9792942644444566  0.3523366070494621
  0.1585863025386924  0.9785393445217231  0.8543197621516316
  0.6617629857020755  0.2707072703910283  0.4019555403867367
  0.6543392886043934  0.2716135043493704  0.8963602970265923
  0.6590265947526247  0.7711957293032553  0.3983988856597525
  0.6582268534911817  0.7706939659795865  0.8957418054902269
  0.8405392474494445  0.2275380631446664  0.1457040423173414
  0.8449963689325994  0.2274871421447463  0.6482336556938527
  0.8390238778139956  0.7289676124180762  0.1462337944893897
  0.8430264111772665  0.7292564869247802  0.6461296958090773
  0.3457127064821939  0.0139383299729495  0.1073396947863020
  0.3427581357935364  0.0207608282757182  0.6020541956405955
  0.3314672216179422  0.5324703500802527  0.0994730988358346
  0.3425416147530855  0.5229896762408275  0.6003150635202060
  0.5528518629984056  0.1199771407800998  0.1037000248171596
  0.5521208555176533  0.1231996839631113  0.6036209216704909
  0.5477247669868693  0.6257298233426896  0.1003705118860143
  0.5515605914702143  0.6254166549161913  0.6049482642136440
  0.0514035516498445  0.1265103214995665  0.1463197052098201
  0.0538493350627345  0.1252910524802509  0.6489870717868319
  0.0485576084356692  0.6284498997107105  0.1491908964045114
  0.0529253389989194  0.6274946356648476  0.6455895631378931
  0.4542146325175361  0.3744241068795937  0.4022310576664915
  0.4446591789118207  0.3751517412294950  0.8668951898093403
  0.4509129140123550  0.8750209063194851  0.3971026838030307
  0.4498262327481078  0.8742504166528539  0.8956786214603916
  0.9510105750720872  0.3748516832624764  0.3507464735453135
  0.9479550338575069  0.3756050629077583  0.8547204352633363
  0.9491809985277742  0.8752464481972247  0.3528735663804990
  0.9492030783390016  0.8756450594975054  0.8512083492537146
  0.5999457749328251  0.3743244566497261  0.1936705822178464
  0.6042242744061891  0.3743298524918746  0.6818735385590505
  0.5921497938516963  0.8735782988310746  0.1888144466697503
  0.5904292581031002  0.8746662335839229  0.6875403921981028
  0.0898179296267679  0.3796447510865255  0.0614211034224892
  0.0887796228119037  0.3764450386995910  0.5617299807628013
  0.0873461132002657  0.8756309549244173  0.0616589143849988
  0.0898282426064523  0.8767711325568064  0.5617048065533922
  0.4121516939287801  0.1241448018320512  0.3113977287413346
  0.4108356444518995  0.1229913545430829  0.8116605626440709
  0.4117906784767399  0.6256852397896545  0.3114622684601476
  0.4083628741257865  0.6251158248809935  0.8114322027761925
  0.9152823529429258  0.1263817594697526  0.4382996925236901
  0.9104062001917689  0.1246246442076991  0.9378179418009426
  0.9106663128353962  0.6249647420802795  0.4382645596991523
  0.9110202317813303  0.6266274924711583  0.9380907036178727
 
             NaN             NaN             NaN
             NaN             NaN             NaN
             NaN             NaN             NaN
             NaN             NaN             NaN
             NaN             NaN             NaN
             NaN             NaN             NaN
             NaN             NaN             NaN
             NaN             NaN             NaN
             NaN             NaN             NaN
             NaN             NaN             NaN
             NaN             NaN             NaN
             NaN             NaN             NaN
             NaN             NaN             NaN
             NaN             NaN             NaN
             NaN             NaN             NaN
             NaN             NaN             NaN
             NaN             NaN             NaN
             NaN             NaN             NaN
             NaN             NaN             NaN
             NaN             NaN             NaN
             NaN             NaN             NaN
             NaN             NaN             NaN
             NaN             NaN             NaN
             NaN             NaN             NaN
             NaN             NaN             NaN
             NaN             NaN             NaN
             NaN             NaN             NaN
             NaN             NaN             NaN
             NaN             NaN             NaN
             NaN             NaN             NaN
             NaN             NaN             NaN
             NaN             NaN             NaN
             NaN             NaN             NaN
             NaN             NaN             NaN
             NaN             NaN             NaN
             NaN             NaN             NaN
             NaN             NaN             NaN
             NaN             NaN             NaN
             NaN             NaN             NaN
             NaN             NaN             NaN
             NaN             NaN             NaN
             NaN             NaN             NaN
             NaN             NaN             NaN
             NaN             NaN             NaN
             NaN             NaN             NaN
             NaN             NaN             NaN
             NaN             NaN             NaN
             NaN             NaN             NaN
             NaN             NaN             NaN
             NaN             NaN             NaN
             NaN             NaN             NaN
             NaN             NaN             NaN
             NaN             NaN             NaN
             NaN             NaN             NaN
             NaN             NaN             NaN
             NaN             NaN             NaN
             NaN             NaN             NaN
             NaN             NaN             NaN
             NaN             NaN             NaN
             NaN             NaN             NaN
             NaN             NaN             NaN
             NaN             NaN             NaN
             NaN             NaN             NaN
             NaN             NaN             NaN
             NaN             NaN             NaN
             NaN             NaN             NaN
             NaN             NaN             NaN
             NaN             NaN             NaN
             NaN             NaN             NaN
             NaN             NaN             NaN
             NaN             NaN             NaN
             NaN             NaN             NaN
             NaN             NaN             NaN
             NaN             NaN             NaN
             NaN             NaN             NaN
             NaN             NaN             NaN
             NaN             NaN             NaN
             NaN             NaN             NaN
             NaN             NaN             NaN
             NaN             NaN             NaN
             NaN             NaN             NaN
             NaN             NaN             NaN
             NaN             NaN             NaN
             NaN             NaN             NaN
             NaN             NaN             NaN
             NaN             NaN             NaN
             NaN             NaN             NaN
             NaN             NaN             NaN
             NaN             NaN             NaN
             NaN             NaN             NaN
             NaN             NaN             NaN
             NaN             NaN             NaN
             NaN             NaN             NaN
             NaN             NaN             NaN
             NaN             NaN             NaN
             NaN             NaN             NaN
             NaN             NaN             NaN
             NaN             NaN             NaN
             NaN             NaN             NaN
             NaN             NaN             NaN
             NaN             NaN             NaN
             NaN             NaN             NaN
             NaN             NaN             NaN
             NaN             NaN             NaN
             NaN             NaN             NaN
             NaN             NaN             NaN
             NaN             NaN             NaN
             NaN             NaN             NaN
             NaN             NaN             NaN
             NaN             NaN             NaN
             NaN             NaN             NaN
             NaN             NaN             NaN
             NaN             NaN             NaN
             NaN             NaN             NaN
             NaN             NaN             NaN
             NaN             NaN             NaN
             NaN             NaN             NaN
             NaN             NaN             NaN
             NaN             NaN             NaN
             NaN             NaN             NaN
             NaN             NaN             NaN
             NaN             NaN             NaN
             NaN             NaN             NaN
             NaN             NaN             NaN
             NaN             NaN             NaN
             NaN             NaN             NaN
             NaN             NaN             NaN
