Li47 P16 O64                            
   1.00000000000000     
    10.5650200000000005    0.0002810000000000   -0.0049080000000000
     0.0003280000000000   12.3436409999999999   -0.0009740000000000
    -0.0046310000000000   -0.0007750000000000    9.9805039999999998
   Li   P    O 
    47    16    64
Direct
  0.5920774933606109  0.2673598947918722  0.0794521712075276
  0.6655598902994484  0.2497714690223488  0.5993853428064136
  0.6643606529530107  0.7516433793531672  0.0983342066818329
  0.6646031612643277  0.7516902690122165  0.5995306553541028
  0.1633280703899280  0.4974261860036158  0.1511237101853906
  0.1642370336649492  0.4991190384742547  0.6516590891937667
  0.1628057016953856  0.9955984025424494  0.1533657340452435
  0.1636782873354237  0.9987379405841744  0.6515589413058606
  0.3360326210781611  0.9998683715968648  0.4014500822336304
  0.3357274536399880  0.0005108437022188  0.9015573110311706
  0.3372795755339295  0.5007223515037719  0.3986224707153572
  0.3373696490369691  0.4976940670105924  0.9073769580698524
  0.8352340175251417  0.2491811731999854  0.3473433849445732
  0.8335232086686369  0.2497314117697887  0.8540954858106199
  0.8368704356585934  0.7489237379130386  0.3495349799324418
  0.8369877564826164  0.7489173858320293  0.8488961405513143
  0.3374248240195093  0.2501375767012217  0.3972798897771846
  0.3359063145621248  0.2525194028737101  0.9056306833641707
  0.3363951294731290  0.7499473865819024  0.4011841549172319
  0.3365534879209652  0.7502050306934267  0.9014412927803017
  0.8368145968429764  0.0016851963099745  0.3503147421004607
  0.8373095809365897  0.0012076694258323  0.8489572334833910
  0.8360877921991091  0.5019813941081407  0.3489515622512453
  0.8356883080492229  0.5016108074915245  0.8495565556912166
  0.6589097949146594  0.4990915422941339  0.0967487216031390
  0.6659965976258660  0.5023268465153092  0.5999624480401576
  0.6648875223344834  0.0014610121251322  0.0998907464211900
  0.6642650225793056  0.9995060510794742  0.5986052615980534
  0.1649133625658317  0.2525136132982772  0.1497179965815105
  0.1636661351585232  0.2509147148667635  0.6513945612528478
  0.1627114026135447  0.7515671619607179  0.1518385452211879
  0.1639980739548334  0.7513111545152862  0.6520730489283812
  0.9215802811292699  0.3757166818114239  0.1470476335672991
  0.9244143383315186  0.3746510849612100  0.6499163749989151
  0.9239058331244207  0.8751994058172091  0.1497607864527551
  0.9251720656936033  0.8752061936322670  0.6490078194665304
  0.4241723001431275  0.3757952237567896  0.6067333994034058
  0.4297699435716840  0.8759294817774261  0.1004337783299511
  0.4261174293638795  0.8752590457400351  0.6014780986155116
  0.0751989583741545  0.1249668565232207  0.3519167626425638
  0.0751887942655090  0.1255379438904261  0.8522057688153111
  0.0752059010146724  0.6246040854607465  0.3512835649690444
  0.0757147552230573  0.6244815118883988  0.8526521537051238
  0.5741163267087480  0.1255898712981744  0.3976058802377628
  0.5751669794290076  0.1221513627706884  0.8949501819950514
  0.5747935816654134  0.6260898835335503  0.4008527138963376
  0.5728912430783752  0.6253721567839741  0.8970499699544591
  0.9124571191264258  0.1252360752556673  0.0978969927501444
  0.9118883559191586  0.1250013503623029  0.5975788238217998
  0.9104341594799521  0.6254369122272928  0.0970536544276795
  0.9127046708269915  0.6255291583078005  0.5972259063674538
  0.4059948605128574  0.1185901324145963  0.1523298331037319
  0.4107397929452926  0.1249608817355650  0.6532552236205683
  0.4101047592516636  0.6299435119129259  0.1530047107390129
  0.4106201193303331  0.6260563753157650  0.6540098537903491
  0.0883344020375938  0.3752493003491966  0.4035698639611767
  0.0868740769349763  0.3751478487007615  0.9035574568409382
  0.0881292752741815  0.8746755804281341  0.4046470878513123
  0.0880219112218746  0.8748728482920719  0.9041157783210307
  0.5906933971545119  0.3772881800045861  0.3513411624557702
  0.5867089391208159  0.3763643965550073  0.8384797967933924
  0.5898374684642076  0.8754372110433368  0.3472013876135659
  0.5899046111416811  0.8751200480826904  0.8458371803387258
  0.8418679422677058  0.0223824759276194  0.1497429270302686
  0.8417667015611254  0.0214696879906150  0.6481333196961175
  0.8388425758123880  0.5228836239214892  0.1478485619579198
  0.8429301970256272  0.5226229837642691  0.6494249388332057
  0.3332909382122728  0.2170044119448582  0.0965996385835693
  0.3412030370895078  0.2279973019313626  0.6004037348341090
  0.3435006114193178  0.7366872213940273  0.1063945080875955
  0.3411204699051665  0.7295361880220648  0.6021333725443677
  0.1577035064228378  0.2717482283551077  0.3518686720931514
  0.1566548522126759  0.2719446874959475  0.8518708594157686
  0.1581817225409513  0.7715867587997712  0.3528333495238919
  0.1587170133024329  0.7716567289583965  0.8535465659403665
  0.6600868671855445  0.4801286477931189  0.4050283724715323
  0.6558172056541751  0.4786324665648133  0.8946979257436947
  0.6592405216672222  0.9789966324076020  0.3987911673805707
  0.6603689454005333  0.9779382932470034  0.8978884258124659
  0.1589329121841941  0.4781277254577952  0.3523161002291444
  0.1572019863752903  0.4781108039652084  0.8520604988287994
  0.1580627480333704  0.9780002673442714  0.3536904028910854
  0.1584190180165529  0.9780010280416477  0.8530851072357710
  0.6589032908849862  0.2726768883248102  0.4016434306767072
  0.6526529427839932  0.2722656246294944  0.8942199091980115
  0.6598429588366094  0.7722379488673640  0.3990477672579141
  0.6592095250534671  0.7714898171458688  0.8971028213212947
  0.8476006236675777  0.2293630866907659  0.1506707645411740
  0.8419345666350265  0.2276445354867442  0.6505059663798760
  0.8409150716313836  0.7291261065881820  0.1481147078238726
  0.8422436565615461  0.7287749057935456  0.6480796657075026
  0.3393096143034066  0.0122513567775929  0.1061030328992947
  0.3412384363001675  0.0214184416142493  0.6016210370954562
  0.3311538831555600  0.5350736632158486  0.0965847469030186
  0.3414120393558701  0.5230990429850826  0.6005709341123958
  0.5441444312631566  0.1205922228420530  0.0977272168431571
  0.5499388735539157  0.1249549346817083  0.6019312874022216
  0.5479742989113400  0.6271457787973616  0.0988603480499194
  0.5499900768533585  0.6267385544569259  0.6034085655758015
  0.0521886809274698  0.1229691684620576  0.1484137105641949
  0.0508593869675315  0.1244975031109154  0.6491939275954065
  0.0489479147217896  0.6249359594060888  0.1499187516945620
  0.0514771699694367  0.6257450976545941  0.6492066338316436
  0.4515592535481610  0.3759916206642150  0.4021248582745041
  0.4458707714313041  0.3756483620643419  0.8786080887261107
  0.4510200640605583  0.8750080255240781  0.3988587396672925
  0.4510505075382880  0.8755458697880490  0.8972501914496132
  0.9493297062918762  0.3758056692929131  0.3519279097272522
  0.9477962521882994  0.3753253881543602  0.8517298856997743
  0.9493419437511154  0.8749628691298642  0.3525010221909394
  0.9496923992669274  0.8749142382838474  0.8507415376617739
  0.5945756141540806  0.3805011853952152  0.1968961664113593
  0.5961098896881174  0.3764386040954890  0.6825868925403464
  0.5920111759905223  0.8755715799404733  0.1908178642723130
  0.5907992083398416  0.8756331922588265  0.6894741464888734
  0.0868908144576949  0.3751860779233548  0.0597829284688940
  0.0891660910574505  0.3750050839784541  0.5600356828762009
  0.0869412061204758  0.8744660408915427  0.0604226454641228
  0.0890854553762799  0.8745756819394229  0.5610179558447347
  0.4091360698429813  0.1229048717023582  0.3088479942353489
  0.4092387489350479  0.1249699887385978  0.8095167383285942
  0.4118476869046830  0.6261409595271250  0.3093184226357619
  0.4084520233727684  0.6255929125304875  0.8102325222416612
  0.9107729078998239  0.1258365435320216  0.4411163954324059
  0.9105721731204386  0.1248533173826523  0.9413645583432357
  0.9116433644278744  0.6251291061761056  0.4407748976420322
  0.9105593896863581  0.6254093149008789  0.9405562582963615
 
             NaN             NaN             NaN
             NaN             NaN             NaN
             NaN             NaN             NaN
             NaN             NaN             NaN
             NaN             NaN             NaN
             NaN             NaN             NaN
             NaN             NaN             NaN
             NaN             NaN             NaN
             NaN             NaN             NaN
             NaN             NaN             NaN
             NaN             NaN             NaN
             NaN             NaN             NaN
             NaN             NaN             NaN
             NaN             NaN             NaN
             NaN             NaN             NaN
             NaN             NaN             NaN
             NaN             NaN             NaN
             NaN             NaN             NaN
             NaN             NaN             NaN
             NaN             NaN             NaN
             NaN             NaN             NaN
             NaN             NaN             NaN
             NaN             NaN             NaN
             NaN             NaN             NaN
             NaN             NaN             NaN
             NaN             NaN             NaN
             NaN             NaN             NaN
             NaN             NaN             NaN
             NaN             NaN             NaN
             NaN             NaN             NaN
             NaN             NaN             NaN
             NaN             NaN             NaN
             NaN             NaN             NaN
             NaN             NaN             NaN
             NaN             NaN             NaN
             NaN             NaN             NaN
             NaN             NaN             NaN
             NaN             NaN             NaN
             NaN             NaN             NaN
             NaN             NaN             NaN
             NaN             NaN             NaN
             NaN             NaN             NaN
             NaN             NaN             NaN
             NaN             NaN             NaN
             NaN             NaN             NaN
             NaN             NaN             NaN
             NaN             NaN             NaN
             NaN             NaN             NaN
             NaN             NaN             NaN
             NaN             NaN             NaN
             NaN             NaN             NaN
             NaN             NaN             NaN
             NaN             NaN             NaN
             NaN             NaN             NaN
             NaN             NaN             NaN
             NaN             NaN             NaN
             NaN             NaN             NaN
             NaN             NaN             NaN
             NaN             NaN             NaN
             NaN             NaN             NaN
             NaN             NaN             NaN
             NaN             NaN             NaN
             NaN             NaN             NaN
             NaN             NaN             NaN
             NaN             NaN             NaN
             NaN             NaN             NaN
             NaN             NaN             NaN
             NaN             NaN             NaN
             NaN             NaN             NaN
             NaN             NaN             NaN
             NaN             NaN             NaN
             NaN             NaN             NaN
             NaN             NaN             NaN
             NaN             NaN             NaN
             NaN             NaN             NaN
             NaN             NaN             NaN
             NaN             NaN             NaN
             NaN             NaN             NaN
             NaN             NaN             NaN
             NaN             NaN             NaN
             NaN             NaN             NaN
             NaN             NaN             NaN
             NaN             NaN             NaN
             NaN             NaN             NaN
             NaN             NaN             NaN
             NaN             NaN             NaN
             NaN             NaN             NaN
             NaN             NaN             NaN
             NaN             NaN             NaN
             NaN             NaN             NaN
             NaN             NaN             NaN
             NaN             NaN             NaN
             NaN             NaN             NaN
             NaN             NaN             NaN
             NaN             NaN             NaN
             NaN             NaN             NaN
             NaN             NaN             NaN
             NaN             NaN             NaN
             NaN             NaN             NaN
             NaN             NaN             NaN
             NaN             NaN             NaN
             NaN             NaN             NaN
             NaN             NaN             NaN
             NaN             NaN             NaN
             NaN             NaN             NaN
             NaN             NaN             NaN
             NaN             NaN             NaN
             NaN             NaN             NaN
             NaN             NaN             NaN
             NaN             NaN             NaN
             NaN             NaN             NaN
             NaN             NaN             NaN
             NaN             NaN             NaN
             NaN             NaN             NaN
             NaN             NaN             NaN
             NaN             NaN             NaN
             NaN             NaN             NaN
             NaN             NaN             NaN
             NaN             NaN             NaN
             NaN             NaN             NaN
             NaN             NaN             NaN
             NaN             NaN             NaN
             NaN             NaN             NaN
             NaN             NaN             NaN
             NaN             NaN             NaN
             NaN             NaN             NaN
             NaN             NaN             NaN
