Li17 Co18 O36                           
   1.00000000000000     
     8.1357079999999993   -0.0000400000000000    2.4095080000000002
     3.7111070000000002    7.2399920000000000    2.4095000000000000
    -0.0105240000000000   -0.0064280000000000    9.9945760000000003
   Li   Co   O 
    17    18    36
Direct
  0.2982456817451419  0.4699310054149543  0.5151098540049143
  0.3360324121180903  0.3306056819633822  0.9979918058339980
  0.3348168388568308  0.6694269000369816 -0.0031654791875687
  0.3340395793485321  1.0002237223864168 -0.0006310820977827
  0.3322357883229189  0.9952629807162383  0.5045682151732590
  0.6699349048462327  0.3325499950735167 -0.0023370844280526
  0.6671324209190532  0.3332062237589627  0.5028088215160534
  0.6657936029332067  0.6685386102322297 -0.0005337655583601
  0.6410179190508892  0.6665428245381146  0.5045699476926681
  0.6661379413692085  0.9995861814031212  0.0000978696569680
  0.6454334807651847  1.0199148967932585  0.5033977166702048
 -0.0004380266146249  0.3321644445006132  0.9979087091315290
  0.0091308812333736  0.3310945918066618  0.5037502461712634
 -0.0030411014150579  0.6700189715921248  0.9972894853404337
 -0.0301795952386723  0.6855933678751097  0.5027331225271325
 -0.0004204458250592  1.0034302380183220 -0.0035960522823538
  0.0128000784566427  0.9851289227494310  0.5015295974200804
  0.1638765107315336  0.1694120356433727  0.2470228639575454
  0.1692798794321877  0.1663291145235096  0.7506603551537798
  0.1631988666839148  0.5020475487403532  0.2468484340187394
  0.1675076149334229  0.4987918523554543  0.7568604998038244
  0.1632146459598302  0.8385694177384568  0.2469726072623602
  0.1688741830551738  0.8316259529007589  0.7503887912174690
  0.4966173464548040  0.1689553577952920  0.2511072037791626
  0.5018092923969503  0.1634427272288196  0.7552128320055360
  0.4979898242601615  0.5028218822759609  0.2481369068676114
  0.5017971502564857  0.4995113495894938  0.7548641394904407
  0.4960791369226692  0.8349232040698916  0.2508579957711496
  0.5005871201223950  0.8320057821336372  0.7549531622626711
  0.8303195048800880  0.1692588635728582  0.2497110551313100
  0.8353152605388250  0.1658180715047511  0.7506415934590346
  0.8304230178259561  0.5018585431557229  0.2488964683744168
  0.8345739029627534  0.4999013503824771  0.7520869363423420
  0.8291249912111612  0.8359987247195209  0.2504187804778349
  0.8341310793804562  0.8319652436242601  0.7526573746354797
  0.2476840492276958  0.2602539469681381  0.3534572943998535
  0.2537866072608961  0.2508704518083140  0.8645529370242558
  0.2460072348228901  0.5940629423126286  0.3459933614011682
  0.2539866047112551  0.5871107405309012  0.8645743710756968
  0.2480842841915853  0.9279040405425377  0.3540760124230957
  0.2521528058815968  0.9203394813552757  0.8620046352828288
  0.5848232762474254  0.2576736238551556  0.3576142222869048
  0.5906254059668904  0.2508024699495199  0.8639581739711427
  0.5878139393822022  0.5859044548845641  0.3559926798537718
  0.5896183310025469  0.5840080383692382  0.8646781100629378
  0.5831672699591720  0.9224231825828183  0.3605423464171106
  0.5885868542223973  0.9178148354140825  0.8649741221317887
  0.9184240143553313  0.2559669512896622  0.3574268239982458
  0.9219243610246053  0.2526771337030109  0.8602713559019796
  0.9216647855534329  0.5869963040512803  0.3571203823085096
  0.9199654373798539  0.5857102322582581  0.8634735320246774
  0.9177761197432259  0.9223107013843317  0.3583858615167687
  0.9218441395586613  0.9196393822163946  0.8606701853753472
  0.0765894922801769  0.0830831434511231  0.1380706250378781
  0.0825167721727322  0.0793973447019909  0.6399134662343298
  0.0785002641787045  0.4183164015964038  0.1383137417315027
  0.0822378596327456  0.4160432274329287  0.6424467147286999
  0.0758198237257491  0.7468245825197580  0.1395929252657433
  0.0791607440361444  0.7423374790613576  0.6445214125938824
  0.4116760825761405  0.0816137451197973  0.1406148922846894
  0.4155024773392436  0.0751264823815607  0.6467646498371892
  0.4077486627379999  0.4155935012803806  0.1403141918748006
  0.4187136632557882  0.4074629933713344  0.6535859597168474
  0.4108514684087408  0.7494772461728563  0.1389773300381153
  0.4157106823701760  0.7461874762149238  0.6472992128684683
  0.7426919339341180  0.0811999765913379  0.1417758864364653
  0.7472474598120409  0.0785379146310486  0.6426791666986451
  0.7441440138266782  0.4152564796284006  0.1401186842231290
  0.7476618362004787  0.4135494351308280  0.6420891079592222
  0.7434781132398598  0.7487826953694146  0.1413973559933310
  0.7454124885997595  0.7462472244717624  0.6439582687934143
 
             NaN             NaN             NaN
             NaN             NaN             NaN
             NaN             NaN             NaN
             NaN             NaN             NaN
             NaN             NaN             NaN
             NaN             NaN             NaN
             NaN             NaN             NaN
             NaN             NaN             NaN
             NaN             NaN             NaN
             NaN             NaN             NaN
             NaN             NaN             NaN
             NaN             NaN             NaN
             NaN             NaN             NaN
             NaN             NaN             NaN
             NaN             NaN             NaN
             NaN             NaN             NaN
             NaN             NaN             NaN
             NaN             NaN             NaN
             NaN             NaN             NaN
             NaN             NaN             NaN
             NaN             NaN             NaN
             NaN             NaN             NaN
             NaN             NaN             NaN
             NaN             NaN             NaN
             NaN             NaN             NaN
             NaN             NaN             NaN
             NaN             NaN             NaN
             NaN             NaN             NaN
             NaN             NaN             NaN
             NaN             NaN             NaN
             NaN             NaN             NaN
             NaN             NaN             NaN
             NaN             NaN             NaN
             NaN             NaN             NaN
             NaN             NaN             NaN
             NaN             NaN             NaN
             NaN             NaN             NaN
             NaN             NaN             NaN
             NaN             NaN             NaN
             NaN             NaN             NaN
             NaN             NaN             NaN
             NaN             NaN             NaN
             NaN             NaN             NaN
             NaN             NaN             NaN
             NaN             NaN             NaN
             NaN             NaN             NaN
             NaN             NaN             NaN
             NaN             NaN             NaN
             NaN             NaN             NaN
             NaN             NaN             NaN
             NaN             NaN             NaN
             NaN             NaN             NaN
             NaN             NaN             NaN
             NaN             NaN             NaN
             NaN             NaN             NaN
             NaN             NaN             NaN
             NaN             NaN             NaN
             NaN             NaN             NaN
             NaN             NaN             NaN
             NaN             NaN             NaN
             NaN             NaN             NaN
             NaN             NaN             NaN
             NaN             NaN             NaN
             NaN             NaN             NaN
             NaN             NaN             NaN
             NaN             NaN             NaN
             NaN             NaN             NaN
             NaN             NaN             NaN
             NaN             NaN             NaN
             NaN             NaN             NaN
             NaN             NaN             NaN
