Mg7 Sc16 Se32                           
   1.00000000000000     
    11.1295830000000002   -0.0000070000000000   -0.0000130000000000
    -0.0000070000000000   11.1295819999999992   -0.0000170000000000
    -0.0000130000000000   -0.0000160000000000   11.1297359999999994
   Mg   Sc   Se
     7    16    32
Direct
  0.4974984755882979  0.4975251725593388  0.4975295565354526
  0.6243453805516167  0.1270678486432519  0.1270696222876487
  0.1270575900019759  0.6243785802913661  0.1270741727431973
  0.1270509586218421  0.1270696234936572  0.6243793057717232
  0.3754895133769987  0.8727729401236448  0.8727812104788739
  0.8727692592273523  0.3755337265425047  0.8727950439485124
  0.8727862235385329  0.8727998290509142  0.3755457200841333
  0.9936705882360656  0.7499682289043139  0.7499695641231562
  0.7499304513504337  0.9936748077099845  0.7499459648950143
  0.7499860862522248  0.7499823880216951  0.9936565330607540
  1.0000190267909914  1.0000296609053221  1.0000379596675522
  0.0062714576164967  0.2500029005008132  0.2500055388030101
  0.2500062073326132  0.0062696415401479  0.2500024936916532
  0.2499820976731554  0.2499903594349889  0.0062839425621717
  0.7475073720968289  0.4998048954016360  0.2525348456953377
  0.7474748757250681  0.2525081731186216  0.4998802446333500
 -0.0004541777874541  0.5000491873220467  0.5000561795609468
  0.2525068092472219  0.4998831995283166  0.7474962146698586
  0.2525339296641591  0.7474984981030176  0.4997249486197215
  0.5000536528821117  0.7474528202625902  0.2524700441153342
  0.5000436599671603 -0.0004538984650964  0.5000445100022978
  0.4998671944385526  0.2524879877134446  0.7474778557446595
  0.5000402315114542  0.5000393256892371 -0.0004481275187906
  0.7567877610493392  0.9935919133204331  0.9935982430589250
  0.9935780017221029  0.7568148767150681  0.9935918285729258
  0.9935760174931939  0.9935942853386127  0.7568067917719824
  0.7558232293209765  0.7558298036656664  0.7558409132860594
  0.2431430473907740  0.0063543047970460  0.0063471083584997
  0.0063336193534646  0.2431660149210539  0.0063572795433562
  0.0063411330625615  0.0063504522348135  0.2431728699601156
  0.2441226506787314  0.2441315299296453  0.2441247897690068
  0.7505787587092170  0.4946575672125630  0.4946752847435137
  0.9918536976061011  0.2577540718835137  0.4935721555826654
  0.9918667137483003  0.4935600768569728  0.2577615176346730
  0.7603187397291199  0.2565932591435320  0.2566223432539830
  0.2482644690682321  0.5050019503349812  0.5050016894091891
  0.0079755631591986  0.7421955970227689  0.5063758973867233
  0.0079667487511391  0.5063839011844822  0.7422005400509741
  0.2395757837995646  0.7432167620938193  0.7431587786364531
  0.2577351482405427  0.9918717113062566  0.4935576334006645
  0.4946688621511444  0.7505881510316471  0.4946408526829572
  0.4935609775818726  0.9918590187019756  0.2577532002594248
  0.2566868029889676  0.7603274416507875  0.2565520557482430
  0.7421749618168380  0.0079798037197255  0.5063899945581661
  0.5049821126411916  0.2482746058294066  0.5050019748601677
  0.5063646295416219  0.0079655808509733  0.7421924338335405
  0.7431982850694607  0.2395779057523149  0.7432197569979605
  0.2577464804043131  0.4935680249548847  0.9918794599789640
  0.4935463774954874  0.2577540940818521  0.9918723250695363
  0.4946481434717218  0.4946501088986671  0.7505958601628239
  0.2566031050686616  0.2566128007869780  0.7603294109045420
  0.7421809089591480  0.5063816358583049  0.0079852149532774
  0.5063798121353427  0.7421907950801263  0.0079621401928801
  0.5050096857347616  0.5049882985531897  0.2482753341675539
  0.7432838002074645  0.7431886225393267  0.2395825717088506
 
             NaN             NaN             NaN
             NaN             NaN             NaN
             NaN             NaN             NaN
             NaN             NaN             NaN
             NaN             NaN             NaN
             NaN             NaN             NaN
             NaN             NaN             NaN
             NaN             NaN             NaN
             NaN             NaN             NaN
             NaN             NaN             NaN
             NaN             NaN             NaN
             NaN             NaN             NaN
             NaN             NaN             NaN
             NaN             NaN             NaN
             NaN             NaN             NaN
             NaN             NaN             NaN
             NaN             NaN             NaN
             NaN             NaN             NaN
             NaN             NaN             NaN
             NaN             NaN             NaN
             NaN             NaN             NaN
             NaN             NaN             NaN
             NaN             NaN             NaN
             NaN             NaN             NaN
             NaN             NaN             NaN
             NaN             NaN             NaN
             NaN             NaN             NaN
             NaN             NaN             NaN
             NaN             NaN             NaN
             NaN             NaN             NaN
             NaN             NaN             NaN
             NaN             NaN             NaN
             NaN             NaN             NaN
             NaN             NaN             NaN
             NaN             NaN             NaN
             NaN             NaN             NaN
             NaN             NaN             NaN
             NaN             NaN             NaN
             NaN             NaN             NaN
             NaN             NaN             NaN
             NaN             NaN             NaN
             NaN             NaN             NaN
             NaN             NaN             NaN
             NaN             NaN             NaN
             NaN             NaN             NaN
             NaN             NaN             NaN
             NaN             NaN             NaN
             NaN             NaN             NaN
             NaN             NaN             NaN
             NaN             NaN             NaN
             NaN             NaN             NaN
             NaN             NaN             NaN
             NaN             NaN             NaN
             NaN             NaN             NaN
             NaN             NaN             NaN
