Li7 Mn16 O32                            
   1.00000000000000     
     8.2213080000000005   -0.0162680000000000    0.0298500000000000
    -0.0149590000000000    8.6161709999999996   -0.0669770000000000
     0.0251240000000000   -0.0695090000000000    8.2563709999999997
   Li   Mn   O 
     7    16    32
Direct
  0.3427566841697851  0.4148940236185760  0.8471597443892960
  0.8735920122069768  0.8775429371272859  0.8763403262395308
  0.1279544670505972  0.1174896737621190  0.1183462015712146
  0.8759360456808780  0.3786446581568811  0.3744708418490985
  0.3696424454768925  0.8810495804842923  0.3785739124687163
  0.6284914521292405  0.1223072423466557  0.6232769488905894
  0.6246206111869426  0.6204966782297014  0.1269584090035451
  0.4973683487115278  0.2480446612474088  0.2490587320535154
  0.2479778333176654  0.5020761580872569  0.2536719175430953
  0.2484934529136848  0.2508185707468537  0.5012532036659907
  0.5002584703432453  0.4920819833103212  0.5012963761642509
  0.4972539592381610  0.7411243984526917  0.7489892705606743
  0.7529293262163964  0.5004982008005930  0.7488872385098332
  0.7553920403899635  0.7440267524809051  0.4952407987257598
  0.2482704871232517  0.9969955558047092  0.7506428092056192
  0.2527386467781139  0.7476356913726520  0.9975269300882484
  0.5011728421898933  0.9966110469048083  0.9995388395281710
  0.7490694878080032  0.0006485627698526  0.2462535132446631
  0.7432092656643787  0.2588253284857493  0.0037299908310429
  0.0020066499330968  0.2570315383797440  0.7542559627072165
 -0.0023123312310829  0.5088329626482848  0.9979981736162606
  0.9998899331617885  0.7574772110679977  0.2460403380419954
  0.9967326048272026  0.0061514567595047  0.4970884725071500
  0.7290778162847676  0.0042726841384042  0.0112842060264451
  0.0143655957102170  0.7335240040056613  0.0069892337530452
  0.0139158836402145  0.0365621232334468  0.7618384826012843
  0.7398800713003922  0.7268131903106874  0.7330579734268508
  0.2652286516679476  0.9731080064905666  0.9848301228133939
  0.9915969289815527  0.2825104002573726  0.9891918709644689
  0.9838304634990843  0.9753991852791734  0.2336555357954631
  0.2631697682346197  0.2444315700180145  0.2702303999819596
  0.7323535297743794  0.4916116006258782  0.5195515550686424
  0.0132600928327653  0.2412062003270323  0.5179436259172903
  0.0111613204893872  0.5251143349985319  0.2347765580035061
  0.7300342899652009  0.2582273832442856  0.2331661338890074
  0.2659002820505701  0.4743221330705261  0.4880653742283910
  0.9924016943525441  0.7777961920607038  0.4744101022324606
  0.9844287527306226  0.4842880635376544  0.7638367773309178
  0.2709265953740854  0.7387551752280280  0.7685323630097219
  0.2358795545694734  0.0241186543268328  0.5171939225384402
  0.5086779202617611  0.7182529278495463  0.5119824394381435
  0.5107136932624967  0.0266726293024429  0.2472566582948332
  0.2342834430980152  0.7559331585863936  0.2297037973531972
  0.7668700032218495  0.0014895590261794  0.4808713359562684
  0.4853986439673770  0.2653385782803261  0.4907749532394863
  0.4887152435480604  0.9638548873572119  0.7506521230892657
  0.7621120376616572  0.2726390472883958  0.7660021928983010
  0.2335597880145838  0.5225260900153309  0.0150704491743194
  0.5030366634265483  0.2451437819372258  0.0209961176184793
  0.5161560066237005  0.5132738553477876  0.7364730657738091
  0.2319489160928536  0.2580466015309417  0.7335709400994177
  0.7679785630342916  0.5096815035532563  0.9792046474584295
  0.4851943509798162  0.7460088457887591  0.9824799080870071
  0.4857809517149059  0.4778752053432204  0.2671605332123901
  0.7669310380957450  0.7441427143227268  0.2648089324655504
 
             NaN             NaN             NaN
             NaN             NaN             NaN
             NaN             NaN             NaN
             NaN             NaN             NaN
             NaN             NaN             NaN
             NaN             NaN             NaN
             NaN             NaN             NaN
             NaN             NaN             NaN
             NaN             NaN             NaN
             NaN             NaN             NaN
             NaN             NaN             NaN
             NaN             NaN             NaN
             NaN             NaN             NaN
             NaN             NaN             NaN
             NaN             NaN             NaN
             NaN             NaN             NaN
             NaN             NaN             NaN
             NaN             NaN             NaN
             NaN             NaN             NaN
             NaN             NaN             NaN
             NaN             NaN             NaN
             NaN             NaN             NaN
             NaN             NaN             NaN
             NaN             NaN             NaN
             NaN             NaN             NaN
             NaN             NaN             NaN
             NaN             NaN             NaN
             NaN             NaN             NaN
             NaN             NaN             NaN
             NaN             NaN             NaN
             NaN             NaN             NaN
             NaN             NaN             NaN
             NaN             NaN             NaN
             NaN             NaN             NaN
             NaN             NaN             NaN
             NaN             NaN             NaN
             NaN             NaN             NaN
             NaN             NaN             NaN
             NaN             NaN             NaN
             NaN             NaN             NaN
             NaN             NaN             NaN
             NaN             NaN             NaN
             NaN             NaN             NaN
             NaN             NaN             NaN
             NaN             NaN             NaN
             NaN             NaN             NaN
             NaN             NaN             NaN
             NaN             NaN             NaN
             NaN             NaN             NaN
             NaN             NaN             NaN
             NaN             NaN             NaN
             NaN             NaN             NaN
             NaN             NaN             NaN
             NaN             NaN             NaN
             NaN             NaN             NaN
