Li7 Mn16 O32
1.0
8.221308 -0.016268 0.029850
-0.014959 8.616171 -0.066977
0.025124 -0.069509 8.256371
Li Mn O
7 16 32
direct
0.340536 0.413108 0.846791 Li
0.874163 0.877646 0.876467 Li
0.128730 0.116612 0.119476 Li
0.875474 0.378929 0.374579 Li
0.368935 0.881500 0.377824 Li
0.629128 0.121816 0.624009 Li
0.626166 0.619525 0.127407 Li
0.497519 0.248357 0.250062 Mn
0.248393 0.501879 0.253873 Mn
0.249161 0.251562 0.503066 Mn
0.499806 0.491653 0.503222 Mn
0.496743 0.739542 0.749975 Mn
0.752723 0.499745 0.749626 Mn
0.754274 0.745153 0.495483 Mn
0.248671 -0.003467 0.750972 Mn
0.252989 0.745709 0.997304 Mn
0.501367 0.995548 -0.000373 Mn
0.749592 0.000749 0.246351 Mn
0.745132 0.257118 0.003813 Mn
0.005007 0.257444 0.754938 Mn
0.000263 0.507518 0.997899 Mn
-0.000324 0.756392 0.246029 Mn
0.997098 0.006618 0.497594 Mn
0.730480 0.005540 0.011200 O
0.014917 0.732570 0.006805 O
0.013951 0.036148 0.759915 O
0.738878 0.726260 0.733394 O
0.264847 0.971971 0.984995 O
0.994897 0.281947 0.989433 O
0.984482 0.975132 0.236043 O
0.263897 0.244375 0.271213 O
0.731250 0.490840 0.519330 O
0.014735 0.243796 0.519136 O
0.011329 0.524801 0.234630 O
0.730460 0.257551 0.232881 O
0.265276 0.474832 0.488207 O
0.991248 0.774910 0.474874 O
-0.014200 0.484371 0.763914 O
0.270092 0.740377 0.767980 O
0.236187 0.024324 0.517497 O
0.508300 0.717647 0.512974 O
0.511037 0.026385 0.246079 O
0.234021 0.755368 0.229813 O
0.767086 1.001905 0.481176 O
0.486067 0.265027 0.491324 O
0.489640 0.963479 0.752396 O
0.763886 0.271795 0.767423 O
0.235927 0.520807 0.015423 O
0.502669 0.245739 0.021319 O
0.515426 0.511564 0.738437 O
0.234656 0.257544 0.735418 O
0.769971 0.507758 0.981064 O
0.485258 0.743999 0.982832 O
0.486457 0.477493 0.268315 O
0.766448 0.745251 0.264571 O
