Li46 P16 O64                            
   1.00000000000000     
    10.5818949999999994    0.0038600000000000   -0.0041330000000000
     0.0045020000000000   12.3392820000000007   -0.0012630000000000
    -0.0039090000000000   -0.0010400000000000    9.9915520000000004
   Li   P    O 
    46    16    64
Direct
  0.3843155954073730  0.3692389313058320  0.1360538780417369
  0.6635631362033226  0.2487922432038223  0.6019927895325967
  0.6608560984551749  0.7467777088621158  0.0986698896656580
  0.6632457969771924  0.7506157794673743  0.5996339549488868
  0.1586473883470823  0.5014192497795124  0.1528378197693533
  0.1635946445404212  0.5016182930569216  0.6511594978772240
  0.1657568271535676  0.9943821842115628  0.1532207429054785
  0.1632268801791811  0.9994611525932791  0.6515428233102862
  0.3362304173164432  0.9995099102143286  0.4023720729926875
  0.3369409892942626  0.9990536766062955  0.9004510952912732
  0.3353430766098005  0.5018985874494170  0.4047423550219388
  0.3364063152255809  0.4988082332714462  0.9024618395178845
  0.8347338994382364  0.2493170150832608  0.3478816778654295
  0.8360755686178650  0.2496238195488422  0.8537040569982297
  0.8355415109850196  0.7482684984794029  0.3491967227707999
  0.8358583811045749  0.7486610662442762  0.8489696406125880
  0.3359103852938519  0.2452310234673049  0.4049144664043241
  0.3362076085161348  0.2473241014783917  0.8996396300913606
  0.3365166180138188  0.7483098718112196  0.4011296468074250
  0.3357805183377560  0.7476350119234134  0.9011794100139628
  0.8376971292499173  0.0013212655399473  0.3510263880838299
  0.8359911159589872  0.0009548850574390  0.8464984684461713
  0.8344206921155177  0.4995491989808939  0.3463373681330528
  0.8355415741455696  0.4999646754086310  0.8513265598799842
  0.6593155735448473  0.4881642323660602  0.0949749553236724
  0.6650599493578881  0.5013718626022794  0.5968797935579548
  0.6659053346335244  0.9945032374195323  0.0977557013463764
  0.6636786566911044  0.9985610436284428  0.5986529513516167
  0.1627061413348322  0.2514044598740441  0.6495119593776417
  0.1622673917911832  0.7498453330926178  0.1516865523786605
  0.1635126382666235  0.7516327173537899  0.6508877599323997
  0.9333703842131590  0.3727710921336915  0.1471139678723155
  0.9243769242010712  0.3755821811409021  0.6521722218017891
  0.9241362416082155  0.8726017660429574  0.1491052593778880
  0.9251783896803436  0.8752326943783141  0.6484748293802884
  0.4210891585234003  0.3746780333075825  0.6047613362545807
  0.4259177971861069  0.8709463598368621  0.1012640538399474
  0.4257214529504027  0.8743793063425204  0.6014303508861918
  0.0789561227016918  0.1300731834808320  0.3431038451419323
  0.0768009698623418  0.1269731982149101  0.8555768015809810
  0.0730610981342792  0.6250638524821354  0.3531711295352712
  0.0735607772090293  0.6249663423833384  0.8502175237455450
  0.5756893960435059  0.1246383288445484  0.3943101780372916
  0.5772837057727026  0.1270063919755214  0.9064562801934993
  0.5739876691571776  0.6243272939656933  0.3988162836222696
  0.5738918629345967  0.6219224864026635  0.8986744946960015
  0.9126784231018439  0.1212837972575138  0.0967340473676290
  0.9127657745235883  0.1255118262055400  0.5962559685454041
  0.9084673478310735  0.6242874775555455  0.0972502132378522
  0.9106302310848332  0.6253523326576427  0.5966446786849080
  0.4112272782350742  0.1190009308228796  0.1530154546458608
  0.4120996364313204  0.1228509373896187  0.6542021294345001
  0.4093741431017707  0.6226171745815968  0.1533993862055464
  0.4109821933062712  0.6253289423337394  0.6540234557945073
  0.0893123939969345  0.3754876638006538  0.4061149776736014
  0.0898987671299350  0.3772951427914215  0.9027942302530660
  0.0887417354539021  0.8746351625181689  0.4037675357280568
  0.0881388249100541  0.8745247148414865  0.9032624308017799
  0.5839540306294712  0.3751602317423029  0.3481109643953818
  0.5864757818276441  0.3735291493778259  0.8384956039029329
  0.5889433176597131  0.8735308882201736  0.3467908667778821
  0.5889415411585721  0.8730851168454704  0.8468607394126776
  0.8381964494387637  0.0208666640519908  0.1488608713806191
  0.8416465807749731  0.0222110620043139  0.6464913076920941
  0.8392091927253621  0.5202934630858559  0.1467614846686327
  0.8413149405549342  0.5226359014272824  0.6500778759303765
  0.3504788759054011  0.2226969770911046  0.0941763512922885
  0.3411132071959554  0.2264189334082281  0.6048160370609188
  0.3399919274740407  0.7265532712275830  0.1024011110533643
  0.3412314027126073  0.7290074681784814  0.6031626585712749
  0.1606006921231037  0.2707045491298711  0.3667163674731614
  0.1589338568611307  0.2736573544726235  0.8508720056429061
  0.1586553516619976  0.7708899816600758  0.3532448155388820
  0.1582001507361159  0.7712103555416606  0.8519342783891526
  0.6565594083004359  0.4775167497244404  0.3996289352191826
  0.6568357207816725  0.4742738793456168  0.8957099375887798
  0.6592504547538987  0.9768741867834385  0.3971571499698533
  0.6602652807512468  0.9753814006342225  0.8984727174841541
  0.1592258193632542  0.4781253230068049  0.3529060136608285
  0.1590666725676545  0.4798183372784838  0.8467905252658380
  0.1594659369639174  0.9772221680549066  0.3524981710983665
  0.1586487192780505  0.9776693292905978  0.8529311724717923
  0.6559538644019466  0.2720269094645121  0.3971088640370315
  0.6556801979790835  0.2673004600294903  0.8770618226638258
  0.6585676409422311  0.7703553236257845  0.3990394437076661
  0.6579038123200515  0.7688947461283845  0.8972633190467070
  0.8573220416909839  0.2280050021432443  0.1534614179201866
  0.8423866529894855  0.2287663165088424  0.6474101947077952
  0.8375128860321949  0.7273711280060486  0.1482115566771967
  0.8407931614147255  0.7289921817829692  0.6472831486570373
  0.3387580505427947  0.0166069744569217  0.1033606715689546
  0.3412947707626340  0.0200714929381724  0.6021704152921445
  0.3357462289919145  0.5206508350875187  0.1038692592918051
  0.3404095148295325  0.5228782651758995  0.6016830005980867
  0.5483365833216872  0.1123752396191406  0.1007131287921034
  0.5495144700410132  0.1236038861641415  0.5989061255937114
  0.5469331140402357  0.6209063656987898  0.0991536582104011
  0.5494179474753684  0.6255429552449807  0.6017883639134871
  0.0501185062292565  0.1131191572490991  0.1483074445146270
  0.0504060799395599  0.1252105954681477  0.6509115005519236
  0.0463566565849517  0.6261065391039401  0.1516703444743893
  0.0496257640880751  0.6266481319825902  0.6471897700163264
  0.4461387248233949  0.3737921640370606  0.4044364824122339
  0.4463816357980554  0.3727107872955092  0.8837546422993015
  0.4503526783087805  0.8740305782928166  0.3987548260048308
  0.4505070911887948  0.8733592118650045  0.8995138323723507
  0.9516230296089463  0.3743395098146891  0.3511805801166427
  0.9502804922255103  0.3753094285269153  0.8519991507183294
  0.9503127586954142  0.8743939800803622  0.3507058387142411
  0.9496980072030354  0.8748572849871228  0.8506518591163503
  0.5743650385589106  0.3785317755812336  0.1940868496560442
  0.5894807060764776  0.3790084284746166  0.6818466927883252
  0.5892909934812991  0.8719449640731967  0.1904919467172873
  0.5891728066257446  0.8742427021314007  0.6905571774239264
  0.0920630206742906  0.3824681337073465  0.0569662533239183
  0.0864230008830223  0.3796575215172698  0.5626259941847256
  0.0878436166954559  0.8733775515617470  0.0596418476104805
  0.0886230532005835  0.8752043562356074  0.5599928516708731
  0.4089772559247238  0.1227480561039243  0.3087737205799891
  0.4129086904814592  0.1215932757587214  0.8101081086994247
  0.4104808642418377  0.6236191344827871  0.3097791730889236
  0.4102947051182684  0.6242102007739561  0.8102030982151893
  0.9132446397240718  0.1257099653147842  0.4400737253998704
  0.9093655915907308  0.1231417846027574  0.9410125888629819
  0.9085327802883656  0.6237259944055296  0.4402988994436569
  0.9099686728144930  0.6250548313441233  0.9408746565964916
 
             NaN             NaN             NaN
             NaN             NaN             NaN
             NaN             NaN             NaN
             NaN             NaN             NaN
             NaN             NaN             NaN
             NaN             NaN             NaN
             NaN             NaN             NaN
             NaN             NaN             NaN
             NaN             NaN             NaN
             NaN             NaN             NaN
             NaN             NaN             NaN
             NaN             NaN             NaN
             NaN             NaN             NaN
             NaN             NaN             NaN
             NaN             NaN             NaN
             NaN             NaN             NaN
             NaN             NaN             NaN
             NaN             NaN             NaN
             NaN             NaN             NaN
             NaN             NaN             NaN
             NaN             NaN             NaN
             NaN             NaN             NaN
             NaN             NaN             NaN
             NaN             NaN             NaN
             NaN             NaN             NaN
             NaN             NaN             NaN
             NaN             NaN             NaN
             NaN             NaN             NaN
             NaN             NaN             NaN
             NaN             NaN             NaN
             NaN             NaN             NaN
             NaN             NaN             NaN
             NaN             NaN             NaN
             NaN             NaN             NaN
             NaN             NaN             NaN
             NaN             NaN             NaN
             NaN             NaN             NaN
             NaN             NaN             NaN
             NaN             NaN             NaN
             NaN             NaN             NaN
             NaN             NaN             NaN
             NaN             NaN             NaN
             NaN             NaN             NaN
             NaN             NaN             NaN
             NaN             NaN             NaN
             NaN             NaN             NaN
             NaN             NaN             NaN
             NaN             NaN             NaN
             NaN             NaN             NaN
             NaN             NaN             NaN
             NaN             NaN             NaN
             NaN             NaN             NaN
             NaN             NaN             NaN
             NaN             NaN             NaN
             NaN             NaN             NaN
             NaN             NaN             NaN
             NaN             NaN             NaN
             NaN             NaN             NaN
             NaN             NaN             NaN
             NaN             NaN             NaN
             NaN             NaN             NaN
             NaN             NaN             NaN
             NaN             NaN             NaN
             NaN             NaN             NaN
             NaN             NaN             NaN
             NaN             NaN             NaN
             NaN             NaN             NaN
             NaN             NaN             NaN
             NaN             NaN             NaN
             NaN             NaN             NaN
             NaN             NaN             NaN
             NaN             NaN             NaN
             NaN             NaN             NaN
             NaN             NaN             NaN
             NaN             NaN             NaN
             NaN             NaN             NaN
             NaN             NaN             NaN
             NaN             NaN             NaN
             NaN             NaN             NaN
             NaN             NaN             NaN
             NaN             NaN             NaN
             NaN             NaN             NaN
             NaN             NaN             NaN
             NaN             NaN             NaN
             NaN             NaN             NaN
             NaN             NaN             NaN
             NaN             NaN             NaN
             NaN             NaN             NaN
             NaN             NaN             NaN
             NaN             NaN             NaN
             NaN             NaN             NaN
             NaN             NaN             NaN
             NaN             NaN             NaN
             NaN             NaN             NaN
             NaN             NaN             NaN
             NaN             NaN             NaN
             NaN             NaN             NaN
             NaN             NaN             NaN
             NaN             NaN             NaN
             NaN             NaN             NaN
             NaN             NaN             NaN
             NaN             NaN             NaN
             NaN             NaN             NaN
             NaN             NaN             NaN
             NaN             NaN             NaN
             NaN             NaN             NaN
             NaN             NaN             NaN
             NaN             NaN             NaN
             NaN             NaN             NaN
             NaN             NaN             NaN
             NaN             NaN             NaN
             NaN             NaN             NaN
             NaN             NaN             NaN
             NaN             NaN             NaN
             NaN             NaN             NaN
             NaN             NaN             NaN
             NaN             NaN             NaN
             NaN             NaN             NaN
             NaN             NaN             NaN
             NaN             NaN             NaN
             NaN             NaN             NaN
             NaN             NaN             NaN
             NaN             NaN             NaN
             NaN             NaN             NaN
             NaN             NaN             NaN
             NaN             NaN             NaN
