Na15 V32 O64                            
   1.00000000000000     
     9.2545420000000007    0.0005950000000000    0.0008650000000000
     0.0006470000000000   11.8410860000000007    0.0213450000000000
     0.0004630000000000    0.0201730000000000   10.7955620000000003
   Na   V    O 
    15    32    64
Direct
  0.7467110790561935  0.3093396386504939  0.1480530756475439
  0.7536457472248886  0.0536790511013247  0.1523936441566559
  0.7449928226636809  0.7906611615262710  0.1527065998893225
  0.2460706541867764  0.0586186173715596  0.3474961662969173
  0.2500242351837398  0.3089712087050501  0.3486619979392850
  0.2474086251621858  0.5600610416850289  0.3508246867098613
  0.2470827521540305  0.8100957471326707  0.3436836368144633
  0.2606893142810240  0.1860620507336229  0.8455730764515770
  0.2577108158136374  0.4359601688038957  0.8524419491267750
  0.2604797353340517  0.6835658745971454  0.8453336441572444
  0.2604209989138963  0.9355567057741834  0.8586467986802541
  0.7676658638661917  0.1818479255127076  0.6537860110149890
  0.7545594546465787  0.4342267591493383  0.6492743572664169
  0.7662004672550455  0.6817881965254236  0.6541578603719078
  0.7588839184652746  0.9328968513276730  0.6510579128619033
  0.5871122041010070  0.0600992260015526  0.9016101656259466
  0.5838590839354361  0.3067512132619691  0.8911026902674944
  0.5885486215614831  0.5601847626671943  0.9024450452594686
  0.5863019136079224  0.8078057381826845  0.8941923992444976
  0.0869905038481054  0.0597984477462912  0.6062267872847659
  0.0844551009818060  0.3120200135475567  0.6003816920230367
  0.0856628950487646  0.5582290372904521  0.6052207571224673
  0.0865571478248558  0.8088826134058765  0.6014729946830182
  0.4220950021313860  0.1879100395486621  0.1038321993224262
  0.4198418310320659  0.4347082430852424  0.1046023009600048
  0.4213678131070562  0.6826420343045548  0.1012880956508528
  0.4227349615961876  0.9341020449440921  0.1097847958636405
  0.9232878189832112  0.1837133554765036  0.3940570658418375
  0.9190531039732410  0.4371752363835502  0.3948816746455475
  0.9213888168718863  0.6862455628684957  0.3954532966610227
  0.9256422889743022  0.9358559454866303  0.3976664998186717
  0.5696940917505798  0.0594919842572055  0.3849769051424350
  0.5711910749528580  0.3038385557389252  0.3902145556421878
  0.5715119114178553  0.5605014171816953  0.3838633616840590
  0.5672650018333918  0.8049383636741045  0.3872953361444003
  0.0723169870780901  0.0580780064910528  0.1116102957402695
  0.0663972717732534  0.3099475356909167  0.1135973728887712
  0.0612475767697976  0.5579449284399449  0.1136533199603367
  0.0659401846566302  0.8084630358644496  0.1118571339542069
  0.4434912738754617  0.1749977652949835  0.6120097885939649
  0.4356071930605432  0.4315670593504506  0.6125247557387700
  0.4443044338298470  0.6843530287485877  0.6129169515062338
  0.4424166170821796  0.9317105310696790  0.6158100391016637
  0.9428064288380387  0.1864899490477492  0.8876933118382720
  0.9353192542227059  0.4325509159784874  0.8873517787107477
  0.9418251331680646  0.6849579717204362  0.8878825617238516
  0.9378055099908810  0.9324287590469137  0.8862865131371702
  0.7963663341077125  0.0606746210975392  0.8481725715615744
  0.7963624260567319  0.2999390994421116  0.8477609266412722
  0.7958980353122682  0.5608462496486517  0.8446541285132788
  0.7977376364215012  0.8004921652820780  0.8472824256257857
  0.3005213878490839  0.0640501766484074  0.6518537708322240
  0.2996752571391883  0.3056036057658399  0.6468584406398237
  0.3004603944990388  0.5573926500170255  0.6478744892414391
  0.3010545608360085  0.7980763229581478  0.6512010693908825
  0.2124914068787154  0.1890076680930632  0.1532547967194323
  0.2089577287062905  0.4277888748026591  0.1501066585595118
  0.2076838149040616  0.6908100644602909  0.1501918419539623
  0.2122898963453292  0.9291049352642806  0.1501593164520995
  0.7125587377839694  0.1732146916790955  0.3484844464127382
  0.7097999548385445  0.4308113096786084  0.3559611602627806
  0.7105888702976179  0.6944131798402868  0.3543815468090832
  0.7117934264684773  0.9347235508291669  0.3536500591174805
  0.8935890653318688  0.0547506725575759  0.5211892285267098
  0.8890042459076883  0.3149146386756198  0.5180617025317203
  0.8893845896880034  0.5570381770769162  0.5201923005008507
  0.8923792842847424  0.8153283479137080  0.5210055403537687
  0.3891313188223634  0.0659633979408115  0.9851480567066981
  0.3905443348608677  0.3060553603406267  0.9791554192814466
  0.3863791246815655  0.5629003360461681  0.9793317798692236
  0.3914689985988327  0.8040382987988753  0.9833674836085264
  0.1169547462228727  0.1911440462438477  0.4823786300182150
  0.1171630675823655  0.4315907985654767  0.4776676488859433
  0.1172683345568876  0.6913066367934232  0.4820603907663042
  0.1224830860714111  0.9317514596094034  0.4794520964404940
  0.6177169482247780  0.1820647585398297  0.0221984180209374
  0.6144468964497847  0.4389344538182098  0.0115892075743258
  0.6151588198725564  0.6804949445295382  0.0196787863213896
  0.6177749666135279  0.9407167255219919  0.0180283757200859
  0.9845864793521596  0.0519825923820671  0.2829008047849750
  0.9779094080033631  0.3117037752666909  0.2800569524541414
  0.9867412262371255  0.5532289976468929  0.2886102966149763
  0.9808996692791717  0.8147811823967712  0.2811998389124352
  0.4804827018985918  0.0628258814752427  0.2215845350511514
  0.4825003036806506  0.3020453167768852  0.2185901425030342
  0.4676792064872390  0.5667000541997556  0.2188175409116127
  0.4852445999230509  0.8053703001476494  0.2199821398553884
  0.0263562882751598  0.1869978563237576  0.7186588512453942
  0.0300996246028766  0.4239328490620043  0.7162864593890481
  0.0274378447871247  0.6851139558354996  0.7184041378308103
  0.0341127200305376  0.9239743703247081  0.7158726920717843
  0.5245738168668310  0.1728269889113337  0.7843053937135530
  0.5211207192443282  0.4332882858381923  0.7746084737262340
  0.5249150697528188  0.6738408703053471  0.7842442370141058
  0.5261381147733620  0.9352777596751116  0.7840089958956002
  0.5854073124294981  0.0601837347712962  0.5705445895219566
  0.5768947725247427  0.2996917049264246  0.5771157793361260
  0.5766642939106889  0.5631011172480191  0.5718645682735322
  0.5844735892162775  0.8032075441610185  0.5737953449916980
  0.0785826224084610  0.0636866464616455  0.9254579579416057
  0.0826738503952121  0.3051151584282528  0.9293547100561141
  0.0764446102800266  0.5633242976871659  0.9266470622251354
  0.0832191883832581  0.8051322708855512  0.9284845228595527
  0.4252856404683670  0.1752937231735654  0.4303562327645947
  0.4274682459800699  0.4318031220499446  0.4372057173103958
  0.4246539757766392  0.6895986576012588  0.4299819948894717
  0.4358341654387891  0.9320809337870793  0.4277581197107357
  0.9281647766982709  0.1869848238492750  0.0719856320638506
  0.9284119047059870  0.4269408315041618  0.0697719387955968
  0.9277386874566954  0.6887589486808187  0.0701312810039787
  0.9288304445219093  0.9284667655152543  0.0701926751183979
 
             NaN             NaN             NaN
             NaN             NaN             NaN
             NaN             NaN             NaN
             NaN             NaN             NaN
             NaN             NaN             NaN
             NaN             NaN             NaN
             NaN             NaN             NaN
             NaN             NaN             NaN
             NaN             NaN             NaN
             NaN             NaN             NaN
             NaN             NaN             NaN
             NaN             NaN             NaN
             NaN             NaN             NaN
             NaN             NaN             NaN
             NaN             NaN             NaN
             NaN             NaN             NaN
             NaN             NaN             NaN
             NaN             NaN             NaN
             NaN             NaN             NaN
             NaN             NaN             NaN
             NaN             NaN             NaN
             NaN             NaN             NaN
             NaN             NaN             NaN
             NaN             NaN             NaN
             NaN             NaN             NaN
             NaN             NaN             NaN
             NaN             NaN             NaN
             NaN             NaN             NaN
             NaN             NaN             NaN
             NaN             NaN             NaN
             NaN             NaN             NaN
             NaN             NaN             NaN
             NaN             NaN             NaN
             NaN             NaN             NaN
             NaN             NaN             NaN
             NaN             NaN             NaN
             NaN             NaN             NaN
             NaN             NaN             NaN
             NaN             NaN             NaN
             NaN             NaN             NaN
             NaN             NaN             NaN
             NaN             NaN             NaN
             NaN             NaN             NaN
             NaN             NaN             NaN
             NaN             NaN             NaN
             NaN             NaN             NaN
             NaN             NaN             NaN
             NaN             NaN             NaN
             NaN             NaN             NaN
             NaN             NaN             NaN
             NaN             NaN             NaN
             NaN             NaN             NaN
             NaN             NaN             NaN
             NaN             NaN             NaN
             NaN             NaN             NaN
             NaN             NaN             NaN
             NaN             NaN             NaN
             NaN             NaN             NaN
             NaN             NaN             NaN
             NaN             NaN             NaN
             NaN             NaN             NaN
             NaN             NaN             NaN
             NaN             NaN             NaN
             NaN             NaN             NaN
             NaN             NaN             NaN
             NaN             NaN             NaN
             NaN             NaN             NaN
             NaN             NaN             NaN
             NaN             NaN             NaN
             NaN             NaN             NaN
             NaN             NaN             NaN
             NaN             NaN             NaN
             NaN             NaN             NaN
             NaN             NaN             NaN
             NaN             NaN             NaN
             NaN             NaN             NaN
             NaN             NaN             NaN
             NaN             NaN             NaN
             NaN             NaN             NaN
             NaN             NaN             NaN
             NaN             NaN             NaN
             NaN             NaN             NaN
             NaN             NaN             NaN
             NaN             NaN             NaN
             NaN             NaN             NaN
             NaN             NaN             NaN
             NaN             NaN             NaN
             NaN             NaN             NaN
             NaN             NaN             NaN
             NaN             NaN             NaN
             NaN             NaN             NaN
             NaN             NaN             NaN
             NaN             NaN             NaN
             NaN             NaN             NaN
             NaN             NaN             NaN
             NaN             NaN             NaN
             NaN             NaN             NaN
             NaN             NaN             NaN
             NaN             NaN             NaN
             NaN             NaN             NaN
             NaN             NaN             NaN
             NaN             NaN             NaN
             NaN             NaN             NaN
             NaN             NaN             NaN
             NaN             NaN             NaN
             NaN             NaN             NaN
             NaN             NaN             NaN
             NaN             NaN             NaN
             NaN             NaN             NaN
             NaN             NaN             NaN
             NaN             NaN             NaN
