Na15 V32 O64
1.0
9.254542 0.000595 0.000865
0.000647 11.841086 0.021345
0.000463 0.020173 10.795562
Na V O
15 32 64
direct
0.748417 0.463552 0.152942 Na
0.743923 0.074329 0.152558 Na
0.743696 0.805121 0.153294 Na
0.243097 0.064130 0.349522 Na
0.244347 0.314014 0.347477 Na
0.244233 0.563461 0.349191 Na
0.243638 0.813050 0.347690 Na
0.256032 0.187302 0.845587 Na
0.256132 0.437716 0.853215 Na
0.256814 0.687782 0.846606 Na
0.253966 0.937811 0.851377 Na
0.756717 0.187345 0.652005 Na
0.755910 0.437408 0.650353 Na
0.758583 0.686767 0.651966 Na
0.756351 0.937603 0.649627 Na
0.581580 0.060445 0.896426 V
0.582173 0.311724 0.894688 V
0.583338 0.563725 0.899372 V
0.583004 0.811931 0.896798 V
0.081782 0.062666 0.603684 V
0.081919 0.313319 0.603031 V
0.082045 0.561815 0.604299 V
0.079672 0.814865 0.601632 V
0.416746 0.185917 0.101522 V
0.417171 0.437128 0.108464 V
0.418198 0.688203 0.101966 V
0.417847 0.937598 0.106096 V
0.916927 0.189902 0.396255 V
0.919242 0.437588 0.396142 V
0.919050 0.688111 0.394833 V
0.917696 0.939626 0.394143 V
0.564286 0.063831 0.389134 V
0.565883 0.313595 0.385265 V
0.566489 0.563431 0.386261 V
0.564875 0.810974 0.387125 V
0.064531 0.061670 0.111686 V
0.060987 0.311704 0.111889 V
0.062752 0.564530 0.112908 V
0.063374 0.812490 0.112210 V
0.435362 0.187567 0.614157 V
0.436858 0.439185 0.612595 V
0.437468 0.686452 0.613507 V
0.435224 0.934049 0.611228 V
0.937621 0.188283 0.886724 V
0.933786 0.437344 0.887151 V
0.938710 0.687751 0.886521 V
0.931571 0.937148 0.887443 V
0.791159 0.066429 0.846992 O
0.793085 0.305492 0.847919 O
0.793636 0.566275 0.847303 O
0.792688 0.805824 0.847368 O
0.294750 0.064077 0.648030 O
0.295695 0.310336 0.649618 O
0.294414 0.559296 0.650866 O
0.295171 0.815451 0.650818 O
0.207285 0.188653 0.150294 O
0.210610 0.434391 0.149032 O
0.207446 0.688942 0.150782 O
0.206058 0.936046 0.150415 O
0.705382 0.188105 0.355353 O
0.707085 0.436576 0.353637 O
0.707954 0.689540 0.353033 O
0.706185 0.936800 0.350298 O
0.886133 0.062866 0.519130 O
0.886130 0.314686 0.521242 O
0.887813 0.561529 0.519191 O
0.886451 0.815343 0.518662 O
0.384040 0.065041 0.979549 O
0.386638 0.306508 0.982821 O
0.384789 0.566647 0.982898 O
0.386004 0.807795 0.981369 O
0.112893 0.190503 0.481548 O
0.115033 0.437412 0.479497 O
0.114572 0.690639 0.482956 O
0.113582 0.938253 0.477866 O
0.610343 0.184125 0.014578 O
0.608009 0.440277 0.016188 O
0.612785 0.687935 0.020288 O
0.613900 0.938476 0.019900 O
0.976215 0.061461 0.281811 O
0.980477 0.314334 0.284516 O
0.979832 0.562143 0.282847 O
0.977432 0.813200 0.281192 O
0.476386 0.071225 0.217457 O
0.473456 0.309622 0.219805 O
0.474172 0.567235 0.217340 O
0.477746 0.806998 0.218657 O
0.023663 0.187339 0.718664 O
0.024912 0.434101 0.716019 O
0.023621 0.687796 0.717911 O
0.023246 0.935062 0.715256 O
0.518151 0.186618 0.776806 O
0.522348 0.435376 0.783063 O
0.521385 0.683273 0.783785 O
0.520160 0.937914 0.784225 O
0.573432 0.060284 0.573832 O
0.574576 0.312693 0.572222 O
0.577935 0.561471 0.571856 O
0.578056 0.812742 0.572655 O
0.074325 0.066263 0.926455 O
0.077200 0.308077 0.927613 O
0.075913 0.567942 0.926556 O
0.076542 0.808867 0.927592 O
0.421968 0.188647 0.433991 O
0.425029 0.437634 0.427959 O
0.424050 0.688670 0.429609 O
0.424300 0.936430 0.427143 O
0.924275 0.187735 0.069986 O
0.930041 0.435879 0.071187 O
0.923166 0.688748 0.070137 O
0.924096 0.935752 0.071597 O
