Li7 Mn16 O32                            
   1.00000000000000     
     8.3895330000000001    0.0670170000000000   -0.0047090000000000
     0.0383760000000000    8.1816490000000002    0.0131300000000000
    -0.0176490000000000   -0.0220950000000000    8.2504709999999992
   Li   Mn   O 
     7    16    32
Direct
  0.1557943667584841  0.5904368060916061  0.6506131978954688
  0.8796199769498748  0.8751422208288504  0.8797558200714244
  0.1196430432060301  0.1289272928842377  0.1237957955971251
  0.8832325955185056  0.3705553095740135  0.3804154405423837
  0.3787263444196692  0.8743690135561538  0.3807097071058398
  0.6157864041430565  0.1294716035005458  0.6269708389791240
  0.6196940799085382  0.6247071377787752  0.1193175753296066
  0.5020334135868841  0.2532443881128091  0.2480054417167179
  0.2517289272978082  0.4942007133596900  0.2403113257266479
  0.2537743116782335  0.2485742521577524  0.5030125754761056
  0.5045362896377354  0.5000509213400316  0.4990043178544279
  0.5032298048050797  0.7502293842470994  0.7519236793575016
  0.7614677009707110  0.5038189658854679  0.7423245074732254
  0.7528782268195370  0.7522794864923651  0.4976034139338221
  0.2408349652366529  0.9968788892086538  0.7553835147988830
  0.2448508312487578  0.7466913196713413  0.9974147596753934
  0.4934270398584379  0.0023648872049200  0.0042818348093265
  0.7453437563608767  0.0043037092519869  0.2553722957274427
  0.7521285196264570  0.2497183912810895  0.0016183040289162
  0.0017580361611443  0.2466231653130074  0.7518501576193642
  0.0033631041917922  0.4959283919670707  0.9982517878321682
  0.9981958138553925  0.7497484765460889  0.2499593210749968
  0.9959040931952923  0.0045465782770570  0.5000550289517083
  0.7520137933741280  0.0122114937163423  0.0267724789838933
  0.0136006943944664  0.7295620448360991  0.0150155450779601
  0.0113904440029089  0.0130508732936791  0.7387312792695858
  0.7590552860060410  0.7377326895954606  0.7290859249473474
  0.2368397258266417  0.9756612781905692  0.9874409579469069
  0.9843095568594387  0.2629662610720126  0.9836960193605864
  0.9712934722776277  0.0082693312381502  0.2688819498733876
  0.2752277241715698  0.2640683407756513  0.2396667746527743
  0.7609219062155114  0.5198176560910186  0.5133605054842829
  0.0187805673231725  0.2400220726259863  0.5219890628664012
  0.0229113161736725  0.4901858720844577  0.2263386947866918
  0.7279193561580127  0.2357536963876996  0.2622975913578270
  0.2513581348207468  0.4834771602552452  0.4710527410214311
  0.9805381652896018  0.7661401018954066  0.4805767618161988
  0.9932669919433366  0.4823006223360051  0.7658054821106575
  0.2462560207344762  0.7613990012750067  0.7692909106493688
  0.2523845825937054  0.0128493835308007  0.5266040119260385
  0.5235760235380291  0.7347334386309151  0.5104952783883929
  0.5135296454675355  0.0168607986475721  0.2395992700977532
  0.2394050827364828  0.7303106132913888  0.2326899033460396
  0.7398187838493927  0.9818389372671915  0.4865075631107119
  0.4860339516989193  0.2660008581438932  0.4823897881595050
  0.4721821423674359  0.9874831193960342  0.7695849432354085
  0.7730646103546989  0.2707624016502885  0.7426228325336807
  0.2312678011932055  0.5126307831727345  0.0083137809640663
  0.5254324374528320  0.2391590593958313  0.0209337048018174
  0.5370132900666235  0.5174902846742084  0.7374744178386445
  0.2233175376856689  0.2255551596059067  0.7615484487260468
  0.7739340906604378  0.4952679832698293  0.9799149584423459
  0.4720278357975592  0.7605050837331885  0.9915030060123128
  0.4826686668189435  0.4865624273185054  0.2547585999949539
  0.7567894983901229  0.7670130066151875  0.2636948767519079
 
             NaN             NaN             NaN
             NaN             NaN             NaN
             NaN             NaN             NaN
             NaN             NaN             NaN
             NaN             NaN             NaN
             NaN             NaN             NaN
             NaN             NaN             NaN
             NaN             NaN             NaN
             NaN             NaN             NaN
             NaN             NaN             NaN
             NaN             NaN             NaN
             NaN             NaN             NaN
             NaN             NaN             NaN
             NaN             NaN             NaN
             NaN             NaN             NaN
             NaN             NaN             NaN
             NaN             NaN             NaN
             NaN             NaN             NaN
             NaN             NaN             NaN
             NaN             NaN             NaN
             NaN             NaN             NaN
             NaN             NaN             NaN
             NaN             NaN             NaN
             NaN             NaN             NaN
             NaN             NaN             NaN
             NaN             NaN             NaN
             NaN             NaN             NaN
             NaN             NaN             NaN
             NaN             NaN             NaN
             NaN             NaN             NaN
             NaN             NaN             NaN
             NaN             NaN             NaN
             NaN             NaN             NaN
             NaN             NaN             NaN
             NaN             NaN             NaN
             NaN             NaN             NaN
             NaN             NaN             NaN
             NaN             NaN             NaN
             NaN             NaN             NaN
             NaN             NaN             NaN
             NaN             NaN             NaN
             NaN             NaN             NaN
             NaN             NaN             NaN
             NaN             NaN             NaN
             NaN             NaN             NaN
             NaN             NaN             NaN
             NaN             NaN             NaN
             NaN             NaN             NaN
             NaN             NaN             NaN
             NaN             NaN             NaN
             NaN             NaN             NaN
             NaN             NaN             NaN
             NaN             NaN             NaN
             NaN             NaN             NaN
             NaN             NaN             NaN
