Li7 Mn16 O32
1.0
8.389533 0.067017 -0.004709
0.038376 8.181649 0.013130
-0.017649 -0.022095 8.250471
Li Mn O
7 16 32
direct
0.153053 0.591302 0.650835 Li
0.879589 0.875905 0.879774 Li
0.119487 0.128926 0.123321 Li
0.882877 0.370458 0.379595 Li
0.378600 0.874846 0.380268 Li
0.615580 0.129554 0.626851 Li
0.619497 0.624437 0.118987 Li
0.501957 0.252963 0.248629 Mn
0.252339 0.494007 0.240490 Mn
0.252980 0.250908 0.504212 Mn
0.503672 0.500680 0.499329 Mn
0.501648 0.749538 0.751843 Mn
0.760645 0.503021 0.743683 Mn
0.751637 0.751973 0.497285 Mn
0.241415 0.997609 0.755323 Mn
0.245185 0.747058 0.997129 Mn
0.493197 0.002389 0.004232 Mn
0.745440 0.004193 0.255164 Mn
0.751899 0.249697 0.001181 Mn
0.001784 0.247554 0.750858 Mn
0.004176 0.496129 0.996899 Mn
0.998257 0.749671 0.248216 Mn
0.995618 0.005866 0.499630 Mn
0.751886 0.012212 0.026685 O
0.014312 0.730045 0.013629 O
0.011192 0.013530 0.737385 O
0.756002 0.737580 0.729484 O
0.236619 0.976057 0.987297 O
0.984166 0.263293 0.982627 O
0.971461 0.008473 0.269217 O
0.275592 0.263730 0.239961 O
0.758758 0.519443 0.513323 O
0.018549 0.241740 0.521575 O
0.023869 0.490304 0.226290 O
0.727843 0.235489 0.261973 O
0.252197 0.485907 0.470696 O
0.979921 0.765551 0.480248 O
0.991450 0.483616 0.763480 O
0.247013 0.762446 0.767413 O
0.251958 0.013976 0.526359 O
0.522975 0.734815 0.510024 O
0.513751 0.016558 0.239705 O
0.238681 0.730800 0.232511 O
0.739990 0.981618 0.486320 O
0.485653 0.266732 0.482650 O
0.471847 0.990016 0.770223 O
0.773267 0.270224 0.742686 O
0.235466 0.513412 0.009158 O
0.524445 0.239009 0.021042 O
0.535952 0.513702 0.735157 O
0.223513 0.226283 0.761881 O
0.770286 0.494304 0.978849 O
0.472157 0.760785 0.991201 O
0.483663 0.486581 0.256570 O
0.757178 0.766919 0.263324 O
