Li47 P16 O64                            
   1.00000000000000     
    10.4452949999999998   -0.0013720000000000   -0.0058790000000000
    -0.0015810000000000   12.2289949999999994    0.0021340000000000
    -0.0055900000000000    0.0017160000000000    9.8330680000000008
   Li   P    O 
    47    16    64
Direct
  0.2448701761763629  0.3256917108944543  0.1657081973263396
  0.6575906508117970  0.2515408519614430  0.0973638569527637
  0.6675693343923903  0.2486326775831635  0.5965582901785883
  0.6595328618765127  0.7479336475155789  0.0968656561922837
  0.6636514842034494  0.7499926933081397  0.5981599908667093
  0.1566336647653005  0.5113418952808928  0.1498747182848619
  0.1655886942391974  0.5007517276533080  0.6511812100169979
  0.1645850232868269  0.0019944431996695  0.1496176583604202
  0.1648753464622182  0.0006414337767042  0.6530820876708523
  0.3366178569733440  0.0007387667116826  0.4001755229805148
  0.3366007465769151  1.0003439192673906  0.9050115848037091
  0.3395521941002366  0.4993361303788580  0.4007232325970119
  0.3385086728166799  0.4962741709938702  0.9080161202693071
  0.8362764288355231  0.2490923727167327  0.3458681649077519
  0.8346404132949312  0.2493511844664640  0.8508372349831422
  0.8353289841268139  0.7491410481924485  0.3477474387540845
  0.8354018325144068  0.7497372678677591  0.8472545180490417
  0.3426042690572162  0.2470695424162802  0.4063907979389803
  0.3401605120645056  0.2509256007091287  0.9048642571275699
  0.3368841005653111  0.7484259923701211  0.4013439210959914
  0.3350948413173809  0.7476728549243182  0.9037163696311474
  0.8381199603811832  0.0028431588213251  0.3471488044269064
  0.8357061518516929  0.0014286501544797  0.8462670962578637
  0.8355294184519276  0.4989267283045182  0.3450069799934695
  0.8345915146457470  0.5005648134264983  0.8517625149033651
  0.6569377420257849  0.4943685770430445  0.0958228535628370
  0.6673103052000441  0.4993361057948880  0.5968660252421077
  0.6632521257928844  0.9955960170843344  0.0972463113652391
  0.6652634657594098  0.9981125327002148  0.5973589834658668
  0.1660512905136683  0.2526659864558176  0.6524404118325926
  0.1637206590196804  0.7538602996180496  0.1535885157309757
  0.1651093436967489  0.7528953268383376  0.6512202511581371
  0.9299047728491414  0.3698100792447372  0.1461956638386275
  0.9244881577190184  0.3755091416997113  0.6525514394938087
  0.9218027728139389  0.8759896627931959  0.1486404264641884
  0.9245387244951608  0.8760677587076726  0.6480451058932867
  0.4278535915915118  0.3745408318803030  0.6085265502218932
  0.4244260353561045  0.8728084278564581  0.1019438618033429
  0.4240179358041867  0.8746197270453356  0.6001942556925118
  0.0815601378303543  0.1336872659379499  0.3377183528114565
  0.0779867809091698  0.1282578488067460  0.8582674868781126
  0.0753844004101378  0.6276849280766942  0.3534392458882236
  0.0761557354317825  0.6259997000102963  0.8490533227494393
  0.5778541725757791  0.1248150528665845  0.3971770476730498
  0.5759473499315598  0.1241914031869978  0.9015353489644864
  0.5763313509518684  0.6223043538016996  0.3994235671997999
  0.5735880162499939  0.6220012279620095  0.8982864760571062
  0.9096987750065557  0.1227775939978235  0.0950175912650344
  0.9154552581804745  0.1259384504485153  0.5952076411552887
  0.9085672836618522  0.6267144361785342  0.0952615379279806
  0.9124535435114972  0.6258960768640377  0.5952445142597305
  0.4136985932466678  0.1207900892801871  0.1537314081113665
  0.4131905044655048  0.1230891128127171  0.6551274812117052
  0.4077583178626448  0.6242399585486674  0.1544421416330548
  0.4116820288226974  0.6247125294087195  0.6548835295701495
  0.0908294105179662  0.3775953237101132  0.4040762761188301
  0.0910437707331486  0.3776728341663950  0.9051173340682249
  0.0886941740076702  0.8769225843595587  0.4045487803524060
  0.0876396007904493  0.8755540302928557  0.9046916773933004
  0.5910133824473036  0.3737829424705646  0.3461927964296661
  0.5872314872672069  0.3740142074982080  0.8385183309077137
  0.5888065718803611  0.8734721020430571  0.3455971576115338
  0.5876716339376739  0.8732542185472217  0.8446110564746934
  0.8370112701637806  0.0200156477978160  0.1456404324864101
  0.8438912886699144  0.0225004729070333  0.6445337321197099
  0.8412600631241596  0.5220373868230792  0.1447239169217457
  0.8443753141530285  0.5233423037107455  0.6502190624952283
  0.3450960893030764  0.2191831929163145  0.0951243840201127
  0.3437194762643326  0.2263139060161327  0.6035598721647351
  0.3409024740945222  0.7304976457186094  0.1055834830702816
  0.3423481260123813  0.7281813539145118  0.6025841106167703
  0.1683810231040327  0.2788287684533770  0.3527260219804952
  0.1596975585152711  0.2751445884984768  0.8514695127565289
  0.1587988631892581  0.7733054782863563  0.3544696911728371
  0.1578400644066769  0.7726741912020302  0.8526411752964401
  0.6600112335325184  0.4774315250081491  0.4010406950819040
  0.6553715876011307  0.4767826163410859  0.8953291446857236
  0.6597142804329619  0.9762814722414752  0.3967077658720239
  0.6584217233271571  0.9757800481472626  0.8960698839788812
  0.1580411806217911  0.4822797608210801  0.3519562991794316
  0.1575958880041584  0.4808908215567007  0.8487411064653636
  0.1585065414990238  0.9793516903035659  0.3523315366067667
  0.1583639429050786  0.9785132424068256  0.8542491004023454
  0.6602820954698998  0.2704852205281480  0.4012029992251462
  0.6543030900478413  0.2711316334746630  0.8959736336083268
  0.6581763803798102  0.7703702803059587  0.3983197892618445
  0.6571653490485159  0.7697234446306741  0.8957525637902526
  0.8399316392617394  0.2263208581017917  0.1460016924423078
  0.8449898669217294  0.2282102900647252  0.6481841989394317
  0.8362325480917933  0.7287341988554865  0.1461866419441276
  0.8423115283956439  0.7291778856325765  0.6460775588001840
  0.3453586701714903  0.0148955781893174  0.1064417995859171
  0.3425873153827764  0.0205188340853969  0.6022510933788476
  0.3309325147289051  0.5260025957313680  0.1038996830151048
  0.3425356775521843  0.5223177910364686  0.6007604478973851
  0.5537106962542784  0.1187601792684059  0.1043796948586400
  0.5520247825480360  0.1227541643263327  0.6030178091245147
  0.5458225049453157  0.6227933755363814  0.0995949106342347
  0.5512240646522373  0.6248998312261818  0.6047759719447726
  0.0468566580189201  0.1196983261702327  0.1461409622871583
  0.0532941691188333  0.1257048907582572  0.6498145477441684
  0.0463464502960143  0.6310018793893269  0.1502004453695865
  0.0521559591791195  0.6276496696223743  0.6446352910274107
  0.4519490290767244  0.3737973808097889  0.3990643079589034
  0.4446686821259749  0.3749113192954265  0.8693852551847940
  0.4501215316360586  0.8743596163452825  0.3978450597758176
  0.4489418870842585  0.8732547509097188  0.8962628233384494
  0.9527571806212739  0.3739804184498531  0.3500047227820861
  0.9498074872034389  0.3757236928935790  0.8588049634751173
  0.9496272863026147  0.8751871673330522  0.3524529370879085
  0.9491125803252443  0.8754429626590979  0.8512249588650069
  0.5985425241533976  0.3736767575834192  0.1921384663237246
  0.6020973818095877  0.3739219304197399  0.6819836689598986
  0.5894328131001764  0.8720222154761346  0.1888932812277559
  0.5892140957574549  0.8738561982662076  0.6876117691213463
  0.0977495253630344  0.3816673636879709  0.0617409846056591
  0.0891291892944459  0.3774714956766730  0.5610595123928993
  0.0873322658656061  0.8750017312509685  0.0613942913903276
  0.0894675465396477  0.8770330833901762  0.5616427478163424
  0.4121410763081734  0.1239457126928233  0.3112544267176687
  0.4116622038473253  0.1222300978965818  0.8117207336447263
  0.4113657526256363  0.6247849187820044  0.3117486380015214
  0.4085629204363850  0.6245524628034816  0.8115652672793476
  0.9161163729989403  0.1269788319076243  0.4382393000391134
  0.9077936441761333  0.1236512227529164  0.9374707403521002
  0.9092324836323420  0.6242929421417460  0.4383138349690357
  0.9107119727986551  0.6270022153935120  0.9382427444405346
 
             NaN             NaN             NaN
             NaN             NaN             NaN
             NaN             NaN             NaN
             NaN             NaN             NaN
             NaN             NaN             NaN
             NaN             NaN             NaN
             NaN             NaN             NaN
             NaN             NaN             NaN
             NaN             NaN             NaN
             NaN             NaN             NaN
             NaN             NaN             NaN
             NaN             NaN             NaN
             NaN             NaN             NaN
             NaN             NaN             NaN
             NaN             NaN             NaN
             NaN             NaN             NaN
             NaN             NaN             NaN
             NaN             NaN             NaN
             NaN             NaN             NaN
             NaN             NaN             NaN
             NaN             NaN             NaN
             NaN             NaN             NaN
             NaN             NaN             NaN
             NaN             NaN             NaN
             NaN             NaN             NaN
             NaN             NaN             NaN
             NaN             NaN             NaN
             NaN             NaN             NaN
             NaN             NaN             NaN
             NaN             NaN             NaN
             NaN             NaN             NaN
             NaN             NaN             NaN
             NaN             NaN             NaN
             NaN             NaN             NaN
             NaN             NaN             NaN
             NaN             NaN             NaN
             NaN             NaN             NaN
             NaN             NaN             NaN
             NaN             NaN             NaN
             NaN             NaN             NaN
             NaN             NaN             NaN
             NaN             NaN             NaN
             NaN             NaN             NaN
             NaN             NaN             NaN
             NaN             NaN             NaN
             NaN             NaN             NaN
             NaN             NaN             NaN
             NaN             NaN             NaN
             NaN             NaN             NaN
             NaN             NaN             NaN
             NaN             NaN             NaN
             NaN             NaN             NaN
             NaN             NaN             NaN
             NaN             NaN             NaN
             NaN             NaN             NaN
             NaN             NaN             NaN
             NaN             NaN             NaN
             NaN             NaN             NaN
             NaN             NaN             NaN
             NaN             NaN             NaN
             NaN             NaN             NaN
             NaN             NaN             NaN
             NaN             NaN             NaN
             NaN             NaN             NaN
             NaN             NaN             NaN
             NaN             NaN             NaN
             NaN             NaN             NaN
             NaN             NaN             NaN
             NaN             NaN             NaN
             NaN             NaN             NaN
             NaN             NaN             NaN
             NaN             NaN             NaN
             NaN             NaN             NaN
             NaN             NaN             NaN
             NaN             NaN             NaN
             NaN             NaN             NaN
             NaN             NaN             NaN
             NaN             NaN             NaN
             NaN             NaN             NaN
             NaN             NaN             NaN
             NaN             NaN             NaN
             NaN             NaN             NaN
             NaN             NaN             NaN
             NaN             NaN             NaN
             NaN             NaN             NaN
             NaN             NaN             NaN
             NaN             NaN             NaN
             NaN             NaN             NaN
             NaN             NaN             NaN
             NaN             NaN             NaN
             NaN             NaN             NaN
             NaN             NaN             NaN
             NaN             NaN             NaN
             NaN             NaN             NaN
             NaN             NaN             NaN
             NaN             NaN             NaN
             NaN             NaN             NaN
             NaN             NaN             NaN
             NaN             NaN             NaN
             NaN             NaN             NaN
             NaN             NaN             NaN
             NaN             NaN             NaN
             NaN             NaN             NaN
             NaN             NaN             NaN
             NaN             NaN             NaN
             NaN             NaN             NaN
             NaN             NaN             NaN
             NaN             NaN             NaN
             NaN             NaN             NaN
             NaN             NaN             NaN
             NaN             NaN             NaN
             NaN             NaN             NaN
             NaN             NaN             NaN
             NaN             NaN             NaN
             NaN             NaN             NaN
             NaN             NaN             NaN
             NaN             NaN             NaN
             NaN             NaN             NaN
             NaN             NaN             NaN
             NaN             NaN             NaN
             NaN             NaN             NaN
             NaN             NaN             NaN
             NaN             NaN             NaN
             NaN             NaN             NaN
             NaN             NaN             NaN
             NaN             NaN             NaN
             NaN             NaN             NaN
