Na47 P16 S64                            
   1.00000000000000     
    13.7530269999999994   -0.0149180000000000   -0.0000410000000000
    -0.0150240000000000   13.7792650000000005   -0.0002420000000000
    -0.0000200000000000   -0.0000350000000000   14.1464429999999997
   Na   P    S 
    47    16    64
Direct
  0.6714198391854190  0.7520575496471734  0.7493366196778067
  0.9999790777301235  0.2501406589411646  0.2053365365134059
  0.9998584133520432  0.2500571917816986  0.7043459707939647
  0.9998016965848222  0.7501484516322756  0.2098428108854570
  0.9958946444996308  0.7504915204105133  0.7131702285120906
  0.5000245398515853  0.2498947671555907  0.2072057859433295
  0.5001657271259308  0.2500359794878287  0.7065224073201981
  0.5001477515527173  0.7498743062348544  0.2081685146999463
  0.2495522443889531  0.9990981181308879  0.2911313206074431
  0.2475153772621119  0.9984868814505268  0.7888919094969628
  0.2515336466355450  0.5009952270061008  0.2964405832058290
  0.2508443172760619  0.5029841180411501  0.7940458388660380
  0.7485015803952284  0.9989335857093207  0.2957656385405601
  0.7491381621199709  0.9942457136950673  0.7924667997229727
  0.7504042116563441  0.5010246597832601  0.2903744491662913
  0.7532153912295058  0.5046752840966453  0.7873505835196725
  0.2524219626473489  0.9987758948734823  0.0390592420107868
  0.2445225443349265  0.0010147967292712  0.5400617430280017
  0.2478086081166324  0.4994630330253394  0.0462500807414847
  0.2545908861908079  0.5038941973735109  0.5468007960736813
  0.7520633606025267  0.0006921386071140  0.0453278515892299
  0.7455916310260183  0.9966609711364880  0.5453557980157393
  0.7475662604167985  0.5012268962816158  0.0380918584351602
  0.7559104589505453  0.4982740090503922  0.5387245602018544
  0.5000077717082402  0.2504524007852270  0.4576648607284547
  0.5003438669928698  0.2493171789797084  0.9551427360371004
  0.4997914863572804  0.7506127507724734  0.4737179709701883
  0.4989144188978029  0.7493035730905996  0.9474488445844325
  0.9999922348544454  0.2495878349070720  0.4546596636045332
  0.9996434871346440  0.2506863605725108  0.9542340917258607
  1.0000727253954782  0.7495733102101345  0.4623395410429288
  0.9999139690798650  0.7507525030049278  0.9581159599806135
  0.9926560250457995  0.0003599969060066  0.5005454930643264
  0.0004282319624461  0.0055217968908052  0.9994413424184256
  0.0082653766550670  0.4979520073708090  0.5000510851365315
  0.9996077412748355  0.4968932396384200  0.9990460702627677
  0.4943657217999466  0.9978229424519113  0.5007676770119293
  0.5061420954969813  0.9990751404710926  0.0003171008624788
  0.5044830528824310  0.5039379612443344  0.5014456757250036
  0.4933411341097214  0.4985564546029031  0.0011361592389449
  0.2489884928081106  0.2516353029690863  0.2500106685504745
  0.2488126291921346  0.2528130918173317  0.7501692820983376
  0.2517987284772809  0.7484464920077935  0.2498556926030748
  0.3007909905023169  0.7483897923489320  0.7495002201613433
  0.7510554996157696  0.2483648350467823  0.2498333270796609
  0.7511853352651666  0.2471682368757919  0.7502924014671244
  0.7481491280248314  0.7515349635299677  0.2495416679892152
  0.5000040393889724  0.4998793721050052  0.2505783953039351
  0.5006771245239311  0.4994091074940485  0.7506880083367250
  0.4999689527447094  0.0000285178952186  0.2505496905605232
  0.4982749955688487  0.0004677710146916  0.7501643276161220
  0.0009187439270877  0.4996160045457229  0.2496547082582930
  0.0021793369102520  0.4975707708530642  0.7493651177178372
  0.9992118264304476  0.0005175391498541  0.2496049731892839
  0.9984120972838626  0.0026880212985029  0.7502124459847543
  0.2497122058265551  0.2506485669294237  0.0002617859346198
  0.2493839182639088  0.2512055051149945  0.4996344111226104
  0.2505582712525026  0.7475977504950941  0.0004222572565981
  0.2491591749373087  0.7529841221536526  0.4986790017340123
  0.7502246962827727  0.2493455426715994  0.0000987044637515
  0.7505199884866994  0.2486801489567305  0.4994251180646843
  0.7492695263089314  0.7516119830583248  0.0006365914361847
  0.7509423274275611  0.7473191920729173  0.4975397742870933
  0.1541563595662329  0.1738729152876496  0.0826993318251766
  0.1528453772796642  0.1753737193738534  0.5813727886316531
  0.1528446220207468  0.6748503764761693  0.0837355106977654
  0.1559739153994409  0.6776125714612504  0.5841472230665224
  0.6539355657717482  0.1743086983548364  0.0832533572875282
  0.6541296606703252  0.1744063996899066  0.5822462906559418
  0.6536586721094133  0.6750007772290850  0.0825767764261616
  0.6554897890208145  0.6668504517391833  0.5752511318326693
  0.3461542104466980  0.3255956741021946  0.0832796898547470
  0.3457816460084276  0.3257772411702833  0.5823968960106010
  0.3463024752294236  0.8245239896580934  0.0822569695053160
  0.3445608314295989  0.8321989965313177  0.5773888952704938
  0.8457568738964335  0.3262251974334676  0.0826295193515152
  0.8472156820601456  0.3243545518835506  0.5812758749289565
  0.8464109419951026  0.8255897355679412  0.0836354567800243
  0.8438863028945405  0.8231151667767416  0.5826522088493286
  0.1741661973767843  0.3479211197390410  0.4176469800249374
  0.1740291523624481  0.3476216541140492  0.9192738376657102
  0.1710564289001661  0.8444607500362643  0.4131805766625086
  0.1776340292979182  0.8403858447251566  0.9134051210538713
  0.6758203921310605  0.3443874651223078  0.4159995196361297
  0.6756654209562903  0.3444926070162286  0.9167337950046195
  0.6733512630483052  0.8438265296884817  0.4167437092420140
  0.6719734443026389  0.8516353813216863  0.9232443004333079
  0.3244120863042180  0.1555571600137096  0.4163323744848478
  0.3244299409261637  0.1554434248816148  0.9169342935750553
  0.3264311029978642  0.6562692817668886  0.4175990003614433
  0.3268738903204247  0.6475353526780467  0.9229554543119112
  0.8257294345234740  0.1518379188335023  0.4174981130523370
  0.8258410326248063  0.1523137939356551  0.9190869670703943
  0.8291809388812836  0.6556914810748601  0.4121760689925713
  0.8230281731296235  0.6588327865886399  0.9146103872525330
  0.0972963594278953  0.4234462338124559  0.1681254093081040
  0.1014092726580591  0.4224373531228189  0.6697617355654358
  0.0941609800532979  0.9255650642990721  0.1654672128482291
  0.0913956600881796  0.9269057666058125  0.6655261524203251
  0.5948530348636576  0.4245927009653345  0.1664640364040902
  0.5965572650149110  0.4244533256261962  0.6671995467820518
  0.5971633156924980  0.9250335377130567  0.1691260095527384
  0.5914619765766316  0.9237416069335861  0.6665817612842447
  0.4049911431039266  0.0752043884697709  0.1664191007268466
  0.4022871743101221  0.0765138860854170  0.6673891878091305
  0.4026129030234278  0.5749138135718488  0.1691337633415140
  0.4074172962936770  0.5779751444715402  0.6691037132738393
  0.9027691682212410  0.0767298287626724  0.1681641014600568
  0.8994224129776821  0.0769204074256995  0.6694975066305183
  0.9059929996932682  0.5745659244715103  0.1655432468117184
  0.9096239452216615  0.5721952029129289  0.6633860146984976
  0.0756357459493125  0.0958954103754035  0.3323013946435665
  0.0766369429083731  0.0999812578013502  0.8296843307466292
  0.0761922991126197  0.5955511969045486  0.3323791747229634
  0.0740107345346082  0.5930616451419879  0.8348732659284587
  0.5745165009878718  0.0964112599843737  0.3338233260958659
  0.5767426357886256  0.0971475571733253  0.8303590310196063
  0.5757303288894091  0.5957473701027025  0.3323516211600724
  0.5776992687480648  0.5877847269481530  0.8397295572208052
  0.4253288460166729  0.4035649072663841  0.3338917545130045
  0.4230834611007835  0.4016063413511786  0.8305494157219441
  0.4240466251390985  0.9041328503241585  0.3324497040770337
  0.4216933304086486  0.9104448536883506  0.8374448419243663
  0.9244537840643832  0.4041451354936346  0.3322498174247834
  0.9234197437017428  0.4013701234767919  0.8296133084880508
  0.9240382691876121  0.9044923502346328  0.3322617849979995
  0.9263587735131416  0.9081232950911247  0.8363046721977956
 
             NaN             NaN             NaN
             NaN             NaN             NaN
             NaN             NaN             NaN
             NaN             NaN             NaN
             NaN             NaN             NaN
             NaN             NaN             NaN
             NaN             NaN             NaN
             NaN             NaN             NaN
             NaN             NaN             NaN
             NaN             NaN             NaN
             NaN             NaN             NaN
             NaN             NaN             NaN
             NaN             NaN             NaN
             NaN             NaN             NaN
             NaN             NaN             NaN
             NaN             NaN             NaN
             NaN             NaN             NaN
             NaN             NaN             NaN
             NaN             NaN             NaN
             NaN             NaN             NaN
             NaN             NaN             NaN
             NaN             NaN             NaN
             NaN             NaN             NaN
             NaN             NaN             NaN
             NaN             NaN             NaN
             NaN             NaN             NaN
             NaN             NaN             NaN
             NaN             NaN             NaN
             NaN             NaN             NaN
             NaN             NaN             NaN
             NaN             NaN             NaN
             NaN             NaN             NaN
             NaN             NaN             NaN
             NaN             NaN             NaN
             NaN             NaN             NaN
             NaN             NaN             NaN
             NaN             NaN             NaN
             NaN             NaN             NaN
             NaN             NaN             NaN
             NaN             NaN             NaN
             NaN             NaN             NaN
             NaN             NaN             NaN
             NaN             NaN             NaN
             NaN             NaN             NaN
             NaN             NaN             NaN
             NaN             NaN             NaN
             NaN             NaN             NaN
             NaN             NaN             NaN
             NaN             NaN             NaN
             NaN             NaN             NaN
             NaN             NaN             NaN
             NaN             NaN             NaN
             NaN             NaN             NaN
             NaN             NaN             NaN
             NaN             NaN             NaN
             NaN             NaN             NaN
             NaN             NaN             NaN
             NaN             NaN             NaN
             NaN             NaN             NaN
             NaN             NaN             NaN
             NaN             NaN             NaN
             NaN             NaN             NaN
             NaN             NaN             NaN
             NaN             NaN             NaN
             NaN             NaN             NaN
             NaN             NaN             NaN
             NaN             NaN             NaN
             NaN             NaN             NaN
             NaN             NaN             NaN
             NaN             NaN             NaN
             NaN             NaN             NaN
             NaN             NaN             NaN
             NaN             NaN             NaN
             NaN             NaN             NaN
             NaN             NaN             NaN
             NaN             NaN             NaN
             NaN             NaN             NaN
             NaN             NaN             NaN
             NaN             NaN             NaN
             NaN             NaN             NaN
             NaN             NaN             NaN
             NaN             NaN             NaN
             NaN             NaN             NaN
             NaN             NaN             NaN
             NaN             NaN             NaN
             NaN             NaN             NaN
             NaN             NaN             NaN
             NaN             NaN             NaN
             NaN             NaN             NaN
             NaN             NaN             NaN
             NaN             NaN             NaN
             NaN             NaN             NaN
             NaN             NaN             NaN
             NaN             NaN             NaN
             NaN             NaN             NaN
             NaN             NaN             NaN
             NaN             NaN             NaN
             NaN             NaN             NaN
             NaN             NaN             NaN
             NaN             NaN             NaN
             NaN             NaN             NaN
             NaN             NaN             NaN
             NaN             NaN             NaN
             NaN             NaN             NaN
             NaN             NaN             NaN
             NaN             NaN             NaN
             NaN             NaN             NaN
             NaN             NaN             NaN
             NaN             NaN             NaN
             NaN             NaN             NaN
             NaN             NaN             NaN
             NaN             NaN             NaN
             NaN             NaN             NaN
             NaN             NaN             NaN
             NaN             NaN             NaN
             NaN             NaN             NaN
             NaN             NaN             NaN
             NaN             NaN             NaN
             NaN             NaN             NaN
             NaN             NaN             NaN
             NaN             NaN             NaN
             NaN             NaN             NaN
             NaN             NaN             NaN
             NaN             NaN             NaN
             NaN             NaN             NaN
             NaN             NaN             NaN
             NaN             NaN             NaN
