Li17 Co18 O36                           
   1.00000000000000     
     8.1357079999999993   -0.0000400000000000    2.4095080000000002
     3.7111070000000002    7.2399920000000000    2.4095000000000000
    -0.0105240000000000   -0.0064280000000000    9.9945760000000003
   Li   Co   O 
    17    18    36
Direct
  0.2919742138632188  0.5145384094740011  0.5167424153514690
  0.3336196860746680  0.3321526121858101  1.0019463883780289
  0.3324925477356019  0.6669147090976669  0.0005249001323749
  0.3326652523234320  0.9999703821874566  0.0011451360173112
  0.3313284744001980  1.0008997175903274  0.5006263067721556
  0.6669849293734199  0.3326622159528826  0.0008706265139657
  0.6675153335217574  0.3324611138801744  0.5009644099885081
  0.6660449860918086  0.6668435930127268  0.0013145920274016
  0.6451356929563880  0.6660404227797350  0.5016134123709896
  0.6664676240176775  0.9990431433317918  0.0018520693679057
  0.6446328750701298  1.0209725975959090  0.5014695421508365
 -0.0006674474531023  0.3323241689917195  1.0011185174296797
  0.0131454413396832  0.3338776897079902  0.4995311056413108
 -0.0014928783265511  0.6675572443460018  1.0010642616191032
 -0.0325365400887591  0.6834814174533738  0.4981580670418471
 -0.0004620822661791  1.0006103937717452 -0.0007672417171334
  0.0124127410582328  0.9866473964097219  0.4993358996993336
  0.1636770836265464  0.1690914419236013  0.2468770696708449
  0.1696014550585866  0.1658291881139178  0.7503211786292393
  0.1632641736577343  0.5015577538691278  0.2460436429932908
  0.1676871645856694  0.4966624198982160  0.7580817342026275
  0.1631865414947959  0.8375901571881483  0.2460467860586473
  0.1695791283848512  0.8307583813435502  0.7502148301558716
  0.4961594265755905  0.1688271512135281  0.2510673635595859
  0.5024518495274674  0.1619893264253812  0.7554461355720010
  0.4972838985172245  0.5018456345755351  0.2480625904318539
  0.5024092941616649  0.4983090849529405  0.7554760874101271
  0.4960837587191406  0.8341228968871408  0.2510769175355989
  0.5012272206310634  0.8310179925428193  0.7547430188324713
  0.8304880865850204  0.1686748460625083  0.2492359082316930
  0.8358483646463372  0.1650826511142063  0.7504357357074837
  0.8305800400120580  0.5009956179289002  0.2492067912474580
  0.8349267220281578  0.4990428511404590  0.7522905951738650
  0.8295558586599613  0.8351304093682647  0.2500429999663564
  0.8349308540042956  0.8309195696900938  0.7522208688387950
  0.2490007259545864  0.2553069892881074  0.3536568767023696
  0.2546945682323517  0.2493059893186398  0.8641699656246454
  0.2466846629890384  0.5949136364648169  0.3450330227745763
  0.2545298261796177  0.5864233655625938  0.8641112850428112
  0.2489683271949897  0.9263317312517113  0.3536005125312309
  0.2530524588856406  0.9196606351126821  0.8608131635791029
  0.5858497888948456  0.2566663711849882  0.3567035023963072
  0.5913430767750272  0.2496422562604703  0.8633829618437476
  0.5858551668312054  0.5861388263470925  0.3566476289808728
  0.5895408038271203  0.5839621269346807  0.8642359459707813
  0.5827049510156282  0.9215872234178772  0.3607609297409669
  0.5896087796719340  0.9167842154426491  0.8641963776882042
  0.9184142180837547  0.2547447812494672  0.3577008385048387
  0.9225976512192112  0.2518461023887930  0.8595660302828112
  0.9179239189782586  0.5878014001146669  0.3582054501282038
  0.9201082729712101  0.5855064415957379  0.8630923823521863
  0.9178784425086645  0.9219229850350608  0.3582085365342287
  0.9226256342889761  0.9188169468409288  0.8595127533094252
  0.0762415976199054  0.0829316717905409  0.1372510778222097
  0.0829024523777963  0.0783537143092484  0.6402584359050060
  0.0764000100891091  0.4155485508057609  0.1372305313257395
  0.0816200730781390  0.4154124472969781  0.6442184715670831
  0.0745340003903016  0.7501481675476415  0.1376858894680502
  0.0815904750005172  0.7398631570281312  0.6441169121917173
  0.4118889490767416  0.0804240424691019  0.1406530155705465
  0.4161732275426360  0.0736042403815376  0.6478469486281333
  0.4114648241495610  0.4134613629297611  0.1387898948218816
  0.4193354005159310  0.4051209834133225  0.6553021973737856
  0.4112523868146875  0.7490585125796871  0.1386886439059963
  0.4162239959908121  0.7446714201826534  0.6478448887418302
  0.7429280779130476  0.0811246243803806  0.1412715329216879
  0.7474309621939252  0.0776805595799241  0.6427830677583477
  0.7443276826326822  0.4142891041527755  0.1399034276440361
  0.7474156490193999  0.4127021024167384  0.6428878202508922
  0.7428751797968033  0.7482714138559030  0.1413604248835574
  0.7457331606974861  0.7455450334329022  0.6442711958971473
 
             NaN             NaN             NaN
             NaN             NaN             NaN
             NaN             NaN             NaN
             NaN             NaN             NaN
             NaN             NaN             NaN
             NaN             NaN             NaN
             NaN             NaN             NaN
             NaN             NaN             NaN
             NaN             NaN             NaN
             NaN             NaN             NaN
             NaN             NaN             NaN
             NaN             NaN             NaN
             NaN             NaN             NaN
             NaN             NaN             NaN
             NaN             NaN             NaN
             NaN             NaN             NaN
             NaN             NaN             NaN
             NaN             NaN             NaN
             NaN             NaN             NaN
             NaN             NaN             NaN
             NaN             NaN             NaN
             NaN             NaN             NaN
             NaN             NaN             NaN
             NaN             NaN             NaN
             NaN             NaN             NaN
             NaN             NaN             NaN
             NaN             NaN             NaN
             NaN             NaN             NaN
             NaN             NaN             NaN
             NaN             NaN             NaN
             NaN             NaN             NaN
             NaN             NaN             NaN
             NaN             NaN             NaN
             NaN             NaN             NaN
             NaN             NaN             NaN
             NaN             NaN             NaN
             NaN             NaN             NaN
             NaN             NaN             NaN
             NaN             NaN             NaN
             NaN             NaN             NaN
             NaN             NaN             NaN
             NaN             NaN             NaN
             NaN             NaN             NaN
             NaN             NaN             NaN
             NaN             NaN             NaN
             NaN             NaN             NaN
             NaN             NaN             NaN
             NaN             NaN             NaN
             NaN             NaN             NaN
             NaN             NaN             NaN
             NaN             NaN             NaN
             NaN             NaN             NaN
             NaN             NaN             NaN
             NaN             NaN             NaN
             NaN             NaN             NaN
             NaN             NaN             NaN
             NaN             NaN             NaN
             NaN             NaN             NaN
             NaN             NaN             NaN
             NaN             NaN             NaN
             NaN             NaN             NaN
             NaN             NaN             NaN
             NaN             NaN             NaN
             NaN             NaN             NaN
             NaN             NaN             NaN
             NaN             NaN             NaN
             NaN             NaN             NaN
             NaN             NaN             NaN
             NaN             NaN             NaN
             NaN             NaN             NaN
             NaN             NaN             NaN
