Na47 P16 S64                            
   1.00000000000000     
    13.9325609999999998   -0.0025730000000000    0.0000090000000000
    -0.0025990000000000   13.9361899999999999    0.0001750000000000
     0.0000340000000000    0.0001420000000000   14.3030950000000008
   Na   P    S 
    47    16    64
Direct
  0.5486085946046728  0.7470107857717068  0.7271653194380008
  0.9997675849131582  0.2510671040634449  0.2064800938659985
  0.9988363898254633  0.2504585391025458  0.7058025086719582
  0.9989537437512581  0.7510530153121664  0.2120329002445445
  0.9736184714175096  0.7534714778739513  0.7196425840299909
  0.5002140533304527  0.2489342892090747  0.2068505824040230
  0.5012070184803292  0.2496472621765236  0.7061910529392392
  0.5009667508039897  0.7489806789704616  0.2119923602785505
  0.2488600284340450  0.9996369846542450  0.2925930350700625
  0.2492480694005295  0.9986079322892394  0.7929818193642859
  0.2513335640645167  0.5003478827549515  0.2939778056969971
  0.2504921867001357  0.5016900719040507  0.7941682082504187
  0.7487330318838588  0.9989473272606304  0.2892833968880879
  0.7467277731125392  0.9733728136573419  0.7814921145275306
  0.7510512550484094  0.5010913049984396  0.2878498117762760
  0.7545594738261840  0.5264953127433003  0.7803160186299607
  0.2527988214846175  0.9994094810644825  0.0428362279965953
  0.2438190747891795  0.9981019219571792  0.5437850663904129
  0.2470916964701289  0.5001791561903559  0.0444427615912986
  0.2560570925851451  0.5031325362135277  0.5456692445080833
  0.7528562082851167  0.0001070962829530  0.0366340289754561
  0.7439896901382355  0.9997029370343142  0.5370590837605747
  0.7467922743493531  0.5002889868206708  0.0350181529104319
  0.7572188681321421  0.4993415443825242  0.5354953902524642
  0.9996808205162182  0.2475716458407717  0.4559058381985466
  0.9978096788533506  0.2550753815709754  0.9548215456904714
  0.0001111659705799  0.7472950630054385  0.4649650438604169
  0.9999985598667962  0.7557837532978482  0.9635930988421677
  0.5003726539377666  0.2524516154992327  0.4563572083481304
  0.5021051175137785  0.2449378297295581  0.9551484533665615
  0.4999654981460324  0.7525626422625962  0.4672284589082238
  0.4994547069720809  0.7439776885053178  0.9638905222142711
  0.9933300641122145  0.9964074568150920  0.5020658590541984
  0.0050828869020663  0.0111126217648305  0.0014250570545329
  0.0116436999619651  0.4945697657481247  0.4985413713319815
  0.9960456327248579  0.5046526016577673  0.9978579306259050
  0.4886508595110186  0.0049193932392129  0.4982561752087449
  0.5048692121132206  0.9945467497745071  0.9980422288954713
  0.5059764829839466  0.5041531698801904  0.5021689290508746
  0.4932876702406617  0.4893948647000030  0.0022105873399454
  0.2496838678252260  0.2503758503304852  0.2499614757612463
  0.2497206588091387  0.2506709250314501  0.7499879803493812
  0.2503322623215212  0.7495936858549541  0.2508415142518032
  0.2596848913877210  0.7495210202506044  0.7490073576109921
  0.7503421690706773  0.2496322149723440  0.2490725471249249
  0.7502967696372806  0.2492721999766516  0.7506060632877123
  0.7495797210241193  0.7504033779010371  0.2497669275166317
  0.9995815335675147  0.0010864962991377  0.2500489701225348
  0.9993809673368119  0.0030705387023389  0.7528030100636940
  0.0011223999778736  0.5001554116016464  0.2498267558323377
  0.0029532569770296  0.4999940009855450  0.7471742830172872
  0.4990727881291832  0.9997420622212516  0.2498429681099239
  0.4973173334200922  0.0000329902402498  0.7470925117333422
  0.5002527472867087  0.4990610773568633  0.2502819374207803
  0.5008105621264818  0.4974052129966182  0.7531925439610845
  0.2499262714586195  0.2500368274593257  0.0002528743607968
  0.2498873935927080  0.2503530451997023  0.4996249735227281
  0.2501136197967497  0.7494785843086689  0.0013730660797933
  0.2498302867172555  0.7507460976275269  0.4999030088331438
  0.7500150717532392  0.2498576701801412  0.9997396276140691
  0.7500796490659951  0.2497573258271757  0.4986426935733661
  0.7496720349444459  0.7499283636923479  0.0024587464813237
  0.7506871666414980  0.7496374847185621  0.4965313021118689
  0.1545717207671586  0.1741232488012230  0.0828056755548090
  0.1542931734570274  0.1748233591085224  0.5818269019417528
  0.1535324699346177  0.6756314847442084  0.0841874846240458
  0.1558287300157915  0.6753666523605020  0.5835097733713326
  0.6555062599844774  0.1730035249086797  0.0829425800312933
  0.6538962777138195  0.1754669744389830  0.5810367524138229
  0.6555694668034917  0.6729408840822089  0.0858223844405899
  0.6567290741428522  0.6692681125758355  0.5756040480606472
  0.3455616582179530  0.3255488361066483  0.0829077222728429
  0.3457627407556672  0.3256820815130936  0.5818785848311450
  0.3462252712490610  0.8243663075481251  0.0839354726269406
  0.3447874793836263  0.8270736275722186  0.5813700630248348
  0.8444120469262657  0.3272181495895765  0.0826669421484567
  0.8462794546272718  0.3243227907146107  0.5809793948827178
  0.8437189708793724  0.8274186273305162  0.0856856772366115
  0.8444638360555956  0.8285163353794189  0.5769453612145767
  0.1742760993451924  0.3459463503799256  0.4172167380687526
  0.1744492348090034  0.3459116283748997  0.9183714756344088
  0.1721800321390248  0.8440384750673999  0.4162624025257458
  0.1761607581945910  0.8448709291067118  0.9178590063717920
  0.6758160253154486  0.3458764908147316  0.4156872364342163
  0.6746680443059674  0.3444757072702487  0.9170487652053581
  0.6725677056799384  0.8437486299244270  0.4141562455972903
  0.6703772604244307  0.8442440940987979  0.9224370535911319
  0.3254105696385281  0.1548470290803863  0.4169315116048580
  0.3252626453582508  0.1545929028989050  0.9177357064232297
  0.3271046146994010  0.6558757663174717  0.4173189453608899
  0.3250174019058747  0.6525597638593581  0.9200745587598291
  0.8246103848814741  0.1533096086725010  0.4161656814995141
  0.8256429226277078  0.1546865871931971  0.9176248971216694
  0.8281868049296719  0.6563283552506576  0.4126627050597520
  0.8288133929411430  0.6558690271688548  0.9227118861951169
  0.0959454072572186  0.4242299104234277  0.1669065078201513
  0.1018420930288997  0.4217625637576248  0.6706054907806731
  0.0947337326745483  0.9255867725661489  0.1670030643891351
  0.0906708979172421  0.9221834414395715  0.6706867961290683
  0.5950406877776757  0.4230860405509205  0.1673099769955826
  0.5974137673217399  0.4253039209633300  0.6691370303015276
  0.5946125773994879  0.9242287025937301  0.1677898768027504
  0.5878277605541413  0.9278123261101996  0.6571843002313003
  0.4044905525293672  0.0753405083987815  0.1663813139108967
  0.3985487589600893  0.0782717988964237  0.6704387263610414
  0.4045441500719988  0.5746195111695158  0.1678621779832383
  0.4111021749195274  0.5810401456302969  0.6722410045675602
  0.9044248950328395  0.0772869220918011  0.1676900334477622
  0.9017407440517857  0.0750333953775879  0.6696270355006391
  0.9060934553396365  0.5755756182472282  0.1671219869081568
  0.9131628287723359  0.5732371988785303  0.6575213611411428
  0.0755330501411606  0.0956871525056542  0.3332062921511465
  0.0781197644548612  0.1015833155434933  0.8293182888442772
  0.0771672080618231  0.5952192230834257  0.3324021178222125
  0.0745134814560728  0.5969054233221414  0.8312178355267790
  0.5743881544101441  0.0952015360537146  0.3327087737495589
  0.5783185592414029  0.0917221104246053  0.8288462634404681
  0.5758287992732534  0.5942684944468866  0.3325019885134068
  0.5750046837834688  0.5848510363569588  0.8447386587703107
  0.4247029209739850  0.4041631486787978  0.3334928364410530
  0.4213490646521265  0.3988173781828692  0.8290205709565441
  0.4229413351017683  0.9046878542972792  0.3323723598321493
  0.4259318706145123  0.9024612598072963  0.8305753803839337
  0.9253148599199577  0.4049258507467002  0.3325579708836202
  0.9214563659991057  0.4081152519026858  0.8283884963739538
  0.9241315800292895  0.9057611030407173  0.3323822883192449
  0.9267599328115992  0.9127738516558139  0.8424816305021778
 
             NaN             NaN             NaN
             NaN             NaN             NaN
             NaN             NaN             NaN
             NaN             NaN             NaN
             NaN             NaN             NaN
             NaN             NaN             NaN
             NaN             NaN             NaN
             NaN             NaN             NaN
             NaN             NaN             NaN
             NaN             NaN             NaN
             NaN             NaN             NaN
             NaN             NaN             NaN
             NaN             NaN             NaN
             NaN             NaN             NaN
             NaN             NaN             NaN
             NaN             NaN             NaN
             NaN             NaN             NaN
             NaN             NaN             NaN
             NaN             NaN             NaN
             NaN             NaN             NaN
             NaN             NaN             NaN
             NaN             NaN             NaN
             NaN             NaN             NaN
             NaN             NaN             NaN
             NaN             NaN             NaN
             NaN             NaN             NaN
             NaN             NaN             NaN
             NaN             NaN             NaN
             NaN             NaN             NaN
             NaN             NaN             NaN
             NaN             NaN             NaN
             NaN             NaN             NaN
             NaN             NaN             NaN
             NaN             NaN             NaN
             NaN             NaN             NaN
             NaN             NaN             NaN
             NaN             NaN             NaN
             NaN             NaN             NaN
             NaN             NaN             NaN
             NaN             NaN             NaN
             NaN             NaN             NaN
             NaN             NaN             NaN
             NaN             NaN             NaN
             NaN             NaN             NaN
             NaN             NaN             NaN
             NaN             NaN             NaN
             NaN             NaN             NaN
             NaN             NaN             NaN
             NaN             NaN             NaN
             NaN             NaN             NaN
             NaN             NaN             NaN
             NaN             NaN             NaN
             NaN             NaN             NaN
             NaN             NaN             NaN
             NaN             NaN             NaN
             NaN             NaN             NaN
             NaN             NaN             NaN
             NaN             NaN             NaN
             NaN             NaN             NaN
             NaN             NaN             NaN
             NaN             NaN             NaN
             NaN             NaN             NaN
             NaN             NaN             NaN
             NaN             NaN             NaN
             NaN             NaN             NaN
             NaN             NaN             NaN
             NaN             NaN             NaN
             NaN             NaN             NaN
             NaN             NaN             NaN
             NaN             NaN             NaN
             NaN             NaN             NaN
             NaN             NaN             NaN
             NaN             NaN             NaN
             NaN             NaN             NaN
             NaN             NaN             NaN
             NaN             NaN             NaN
             NaN             NaN             NaN
             NaN             NaN             NaN
             NaN             NaN             NaN
             NaN             NaN             NaN
             NaN             NaN             NaN
             NaN             NaN             NaN
             NaN             NaN             NaN
             NaN             NaN             NaN
             NaN             NaN             NaN
             NaN             NaN             NaN
             NaN             NaN             NaN
             NaN             NaN             NaN
             NaN             NaN             NaN
             NaN             NaN             NaN
             NaN             NaN             NaN
             NaN             NaN             NaN
             NaN             NaN             NaN
             NaN             NaN             NaN
             NaN             NaN             NaN
             NaN             NaN             NaN
             NaN             NaN             NaN
             NaN             NaN             NaN
             NaN             NaN             NaN
             NaN             NaN             NaN
             NaN             NaN             NaN
             NaN             NaN             NaN
             NaN             NaN             NaN
             NaN             NaN             NaN
             NaN             NaN             NaN
             NaN             NaN             NaN
             NaN             NaN             NaN
             NaN             NaN             NaN
             NaN             NaN             NaN
             NaN             NaN             NaN
             NaN             NaN             NaN
             NaN             NaN             NaN
             NaN             NaN             NaN
             NaN             NaN             NaN
             NaN             NaN             NaN
             NaN             NaN             NaN
             NaN             NaN             NaN
             NaN             NaN             NaN
             NaN             NaN             NaN
             NaN             NaN             NaN
             NaN             NaN             NaN
             NaN             NaN             NaN
             NaN             NaN             NaN
             NaN             NaN             NaN
             NaN             NaN             NaN
             NaN             NaN             NaN
             NaN             NaN             NaN
