Na15 V32 O64                            
   1.00000000000000     
     9.2153919999999996    0.0000810000000000   -0.0023630000000000
     0.0001020000000000   11.5240899999999993   -0.0000260000000000
    -0.0027410000000000   -0.0000250000000000   10.7091069999999995
   Na   V    O 
    15    32    64
Direct
  0.7380087720329890  0.4909813067683014  0.1652246035598025
  0.7412669291959609  0.0775755999412921  0.1526571887909956
  0.7418238967911658  0.8031763503500691  0.1516664256141320
  0.2417426815486903  0.0625381953248593  0.3484830695669074
  0.2421779211457249  0.3128993276577524  0.3477639483762476
  0.2417115587321203  0.5619070964724515  0.3480457077118263
  0.2415669498323599  0.8126258031796114  0.3481696644300832
  0.2584242103071243  0.1867620867934069  0.8482024220518015
  0.2590797406877229  0.4374575021349713  0.8477947074472909
  0.2582607695401640  0.6878639137672029  0.8486539119662430
  0.2582334334873048  0.9373903439236735  0.8489743849442478
  0.7583639547476779  0.1870905632669061  0.6508037292204406
  0.7577670077156523  0.4376473723504975  0.6508900532454208
  0.7584938008898651  0.6873012501927722  0.6508579623904526
  0.7584507134098979  0.9377206877778348  0.6510118042715610
  0.5864894350861773  0.0619299712245425  0.8956217788040898
  0.5891858080374603  0.3107615826560271  0.8973570027953434
  0.5872260519193300  0.5630744915238948  0.8952686746072087
  0.5868472702226927  0.8126883423654346  0.8965494739263316
  0.0874813980196587  0.0620158987093922  0.6035581650149426
  0.0875560369247263  0.3117168860454103  0.6040013426554957
  0.0884918392710556  0.5632036774451096  0.6040621736269459
  0.0859804140564699  0.8128917249274397  0.6034085409324497
  0.4136205172972484  0.1881847194144042  0.1037032069903828
  0.4096369883539651  0.4363591791701156  0.1025579999003497
  0.4149184414272616  0.6864723909911655  0.1039561523262252
  0.4141235180588074  0.9375183620257800  0.1043370659216286
  0.9125899008294497  0.1877589508352493  0.3957370343452856
  0.9145529535737290  0.4364972753198227  0.3987480450492668
  0.9124830433287332  0.6868235338461934  0.3956527584004507
  0.9122472198761068  0.9376020237263804  0.3952640879090210
  0.5602737231962125  0.0633476468402518  0.3860478339440269
  0.5632539747670333  0.3110858578318129  0.3817279209818785
  0.5600610195692786  0.5636475395926184  0.3864215424530141
  0.5613751425229363  0.8117256972435043  0.3851320240534947
  0.0615985611599257  0.0628294930652969  0.1146725623579261
  0.0558158451084566  0.3095821919015548  0.1154409419061890
  0.0596112038932757  0.5648028509020654  0.1143515425278010
  0.0612898659735254  0.8114796761254538  0.1147464134657173
  0.4393100210453649  0.1892571588446278  0.6144789033967192
  0.4402755723733548  0.4353214099756573  0.6144358219357234
  0.4384887762706758  0.6894018508442212  0.6151698719394553
  0.4385923426780561  0.9358653980772896  0.6147764481547395
  0.9390814566625229  0.1872618780285003  0.8845972294888031
  0.9407940210169347  0.4368566377124529  0.8839151425065749
  0.9385732607853978  0.6875702874560325  0.8847783883927113
  0.9390399102376896  0.9372268168640662  0.8858585267559300
  0.7930491194349630  0.0621572388069721  0.8527483112907904
  0.7940941935524722  0.3124316498721779  0.8514284856548482
  0.7936628053571152  0.5619613662942078  0.8521058501654060
  0.7929266430063688  0.8124530916838320  0.8529681077142021
  0.2940382712650708  0.0622237750547084  0.6460319074979819
  0.2929735312455224  0.3124098096058491  0.6473489611633421
  0.2946453908514349  0.5624588896623544  0.6460596215512450
  0.2917313268932368  0.8126781091182984  0.6474791097089556
  0.2068638858777773  0.1872917805391430  0.1474061427628818
  0.2045826627294375  0.4374025557619595  0.1459313738701365
  0.2078727525328894  0.6872212704731381  0.1479512963345742
  0.2068286640332190  0.9372074324927439  0.1467124310411786
  0.7069737717961915  0.1856370947007196  0.3581321102636777
  0.7063719292539108  0.4376229827941148  0.3650035024171696
  0.7066650206448142  0.6876228258302693  0.3568797461183489
  0.7058481697844078  0.9375501001686614  0.3551863266164802
  0.8894813600188920  0.0622101457507552  0.5198951580153969
  0.8901681022650918  0.3117731635985281  0.5216490008895133
  0.8905516747091611  0.5626692338484686  0.5212503501052431
  0.8888701192379527  0.8125356718322608  0.5195869328723385
  0.3882227722775222  0.0618017743218009  0.9802013197376316
  0.3861124579082168  0.3114210346563598  0.9792157362133286
  0.3867889284030379  0.5628889755486971  0.9796291019428049
  0.3887892523612034  0.8125097904048307  0.9806509569140895
  0.1120636556350427  0.1871049219937232  0.4797420063436242
  0.1127735719879005  0.4374199538931997  0.4803421915991519
  0.1117134245727021  0.6876867406313124  0.4794296973108423
  0.1113235597004657  0.9374326643561260  0.4791602907439537
  0.6087256089750657  0.1871054713352542  0.0172534264974766
  0.6046191189944248  0.4363641083749690  0.0132646199112221
  0.6103723872011625  0.6864492561753398  0.0184737734486501
  0.6119644372281852  0.9376100292571427  0.0206042318012535
  0.9790022209867988  0.0628429003367082  0.2822607166531545
  0.9798494609531011  0.3127377910687464  0.2842995676849844
  0.9772615073320312  0.5611962861109772  0.2826271460867135
  0.9787840399924144  0.8118096014874736  0.2823802204167047
  0.4797186970491119  0.0629573745252866  0.2174575686598336
  0.4775807334014562  0.3134963340338955  0.2166627081431216
  0.4808071707681383  0.5602823168870075  0.2165132311393750
  0.4804851584344387  0.8118667372516088  0.2173364657101815
  0.0209833133717736  0.1867915704012291  0.7166342518446440
  0.0217664366975856  0.4376438118385822  0.7163618568793521
  0.0206129399873614  0.6877668922582301  0.7166962514511882
  0.0204120494172232  0.9374826181955722  0.7170897715495383
  0.5205934042151915  0.1874206247247411  0.7820904784305943
  0.5208505489942229  0.4369028568427159  0.7817916360066661
  0.5199098903011472  0.6881206903492265  0.7825186741608583
  0.5194812443580893  0.9367988234140997  0.7829524512460198
  0.5766925473592294  0.0622086125746323  0.5718206857988498
  0.5798957242006382  0.3116333695471960  0.5696215475858395
  0.5765378569044010  0.5634102257506253  0.5719734699461858
  0.5796684647169893  0.8125115268077672  0.5708449591316367
  0.0791455809299446  0.0618540956889728  0.9286260379493180
  0.0792505710062213  0.3111932157128185  0.9275357422114596
  0.0792428786087731  0.5634435610361798  0.9274792496203331
  0.0790338298646766  0.8123954200617738  0.9291107648583766
  0.4209493283761043  0.1878581456055561  0.4290111562969188
  0.4229021447564372  0.4370668714931705  0.4291024316766934
  0.4200801912636292  0.6879547085669020  0.4293125229689958
  0.4216702299395347  0.9370256413711702  0.4292182906339730
  0.9232042340119169  0.1866484610663079  0.0679937129436507
  0.9298401377391343  0.4368623691351026  0.0668320678200062
  0.9217736917438547  0.6869487275351677  0.0688245987045879
  0.9221419771804709  0.9373657410896541  0.0709378936827386
 
             NaN             NaN             NaN
             NaN             NaN             NaN
             NaN             NaN             NaN
             NaN             NaN             NaN
             NaN             NaN             NaN
             NaN             NaN             NaN
             NaN             NaN             NaN
             NaN             NaN             NaN
             NaN             NaN             NaN
             NaN             NaN             NaN
             NaN             NaN             NaN
             NaN             NaN             NaN
             NaN             NaN             NaN
             NaN             NaN             NaN
             NaN             NaN             NaN
             NaN             NaN             NaN
             NaN             NaN             NaN
             NaN             NaN             NaN
             NaN             NaN             NaN
             NaN             NaN             NaN
             NaN             NaN             NaN
             NaN             NaN             NaN
             NaN             NaN             NaN
             NaN             NaN             NaN
             NaN             NaN             NaN
             NaN             NaN             NaN
             NaN             NaN             NaN
             NaN             NaN             NaN
             NaN             NaN             NaN
             NaN             NaN             NaN
             NaN             NaN             NaN
             NaN             NaN             NaN
             NaN             NaN             NaN
             NaN             NaN             NaN
             NaN             NaN             NaN
             NaN             NaN             NaN
             NaN             NaN             NaN
             NaN             NaN             NaN
             NaN             NaN             NaN
             NaN             NaN             NaN
             NaN             NaN             NaN
             NaN             NaN             NaN
             NaN             NaN             NaN
             NaN             NaN             NaN
             NaN             NaN             NaN
             NaN             NaN             NaN
             NaN             NaN             NaN
             NaN             NaN             NaN
             NaN             NaN             NaN
             NaN             NaN             NaN
             NaN             NaN             NaN
             NaN             NaN             NaN
             NaN             NaN             NaN
             NaN             NaN             NaN
             NaN             NaN             NaN
             NaN             NaN             NaN
             NaN             NaN             NaN
             NaN             NaN             NaN
             NaN             NaN             NaN
             NaN             NaN             NaN
             NaN             NaN             NaN
             NaN             NaN             NaN
             NaN             NaN             NaN
             NaN             NaN             NaN
             NaN             NaN             NaN
             NaN             NaN             NaN
             NaN             NaN             NaN
             NaN             NaN             NaN
             NaN             NaN             NaN
             NaN             NaN             NaN
             NaN             NaN             NaN
             NaN             NaN             NaN
             NaN             NaN             NaN
             NaN             NaN             NaN
             NaN             NaN             NaN
             NaN             NaN             NaN
             NaN             NaN             NaN
             NaN             NaN             NaN
             NaN             NaN             NaN
             NaN             NaN             NaN
             NaN             NaN             NaN
             NaN             NaN             NaN
             NaN             NaN             NaN
             NaN             NaN             NaN
             NaN             NaN             NaN
             NaN             NaN             NaN
             NaN             NaN             NaN
             NaN             NaN             NaN
             NaN             NaN             NaN
             NaN             NaN             NaN
             NaN             NaN             NaN
             NaN             NaN             NaN
             NaN             NaN             NaN
             NaN             NaN             NaN
             NaN             NaN             NaN
             NaN             NaN             NaN
             NaN             NaN             NaN
             NaN             NaN             NaN
             NaN             NaN             NaN
             NaN             NaN             NaN
             NaN             NaN             NaN
             NaN             NaN             NaN
             NaN             NaN             NaN
             NaN             NaN             NaN
             NaN             NaN             NaN
             NaN             NaN             NaN
             NaN             NaN             NaN
             NaN             NaN             NaN
             NaN             NaN             NaN
             NaN             NaN             NaN
             NaN             NaN             NaN
