Na15 V32 O64
1.0
9.215392 0.000081 -0.002363
0.000102 11.524090 -0.000026
-0.002741 -0.000025 10.709107
Na V O
15 32 64
direct
0.740824 0.489594 0.153839 Na
0.741145 0.078084 0.153098 Na
0.741740 0.807423 0.151583 Na
0.241762 0.062791 0.348657 Na
0.242081 0.312638 0.347897 Na
0.241897 0.562336 0.348461 Na
0.241658 0.812505 0.348449 Na
0.258527 0.187315 0.848555 Na
0.258668 0.437472 0.848311 Na
0.258367 0.687591 0.848870 Na
0.258290 0.937352 0.848949 Na
0.758300 0.187226 0.650923 Na
0.758346 0.437637 0.651038 Na
0.758323 0.687123 0.650926 Na
0.758371 0.937685 0.651023 Na
0.586341 0.062708 0.895567 V
0.589225 0.312617 0.898687 V
0.587142 0.562286 0.896314 V
0.586744 0.812432 0.896444 V
0.087552 0.062427 0.603826 V
0.086854 0.312479 0.603777 V
0.087813 0.562580 0.603813 V
0.086146 0.812503 0.603837 V
0.412720 0.188402 0.103753 V
0.412100 0.436974 0.103631 V
0.413831 0.686863 0.104044 V
0.414313 0.937793 0.104109 V
0.912647 0.187973 0.395882 V
0.912637 0.437326 0.396017 V
0.912671 0.687005 0.395712 V
0.912723 0.937774 0.395682 V
0.560243 0.062704 0.386165 V
0.563479 0.312568 0.381621 V
0.560914 0.562171 0.384960 V
0.561393 0.812411 0.385230 V
0.061349 0.062326 0.114671 V
0.055413 0.312369 0.115535 V
0.059560 0.562909 0.114926 V
0.060971 0.812562 0.114764 V
0.439792 0.189417 0.614488 V
0.440191 0.435699 0.614334 V
0.439060 0.688605 0.614707 V
0.438619 0.936128 0.614856 V
0.939370 0.187673 0.885142 V
0.939747 0.437430 0.885124 V
0.938902 0.687384 0.885403 V
0.938843 0.937544 0.885545 V
0.793072 0.062531 0.852965 O
0.794002 0.312499 0.852677 O
0.793383 0.562467 0.852724 O
0.793064 0.812461 0.853519 O
0.294183 0.062529 0.645974 O
0.293025 0.312473 0.647011 O
0.294482 0.562492 0.645908 O
0.292177 0.812457 0.647239 O
0.205827 0.187509 0.146142 O
0.205284 0.437492 0.145954 O
0.206820 0.687737 0.146583 O
0.207199 0.937404 0.146896 O
0.706626 0.186133 0.357630 O
0.706697 0.438492 0.358545 O
0.706472 0.687802 0.355917 O
0.706415 0.937600 0.355032 O
0.889602 0.062472 0.519841 O
0.889561 0.312488 0.520125 O
0.889743 0.562569 0.520069 O
0.889169 0.812513 0.519484 O
0.388293 0.062266 0.980318 O
0.387438 0.312408 0.979938 O
0.387802 0.562726 0.980067 O
0.389001 0.812584 0.980734 O
0.111574 0.187462 0.480156 O
0.111716 0.437538 0.480225 O
0.111378 0.687568 0.480016 O
0.111295 0.937484 0.479953 O
0.608715 0.187739 0.017698 O
0.607788 0.437499 0.017027 O
0.610511 0.686758 0.019175 O
0.611465 0.938018 0.019927 O
0.979093 0.062853 0.282528 O
0.980171 0.312575 0.284125 O
0.979502 0.562313 0.283021 O
0.979067 0.812406 0.282661 O
0.479353 0.063097 0.217434 O
0.476586 0.312655 0.217309 O
0.478135 0.561972 0.217448 O
0.480102 0.812313 0.217300 O
0.020911 0.187239 0.716833 O
0.021135 0.437698 0.716817 O
0.020555 0.687579 0.716945 O
0.020429 0.937499 0.717000 O
0.520841 0.187872 0.782584 O
0.521263 0.437021 0.782443 O
0.520102 0.688060 0.782819 O
0.519663 0.936948 0.782940 O
0.576875 0.062208 0.571855 O
0.580082 0.312383 0.569662 O
0.577078 0.562744 0.571438 O
0.579504 0.812559 0.570926 O
0.078677 0.062027 0.928714 O
0.078397 0.312304 0.928450 O
0.078719 0.563050 0.928478 O
0.078402 0.812642 0.929239 O
0.422383 0.187912 0.429368 O
0.422637 0.437033 0.429294 O
0.421806 0.687883 0.429477 O
0.421482 0.937043 0.429553 O
0.924208 0.187244 0.068918 O
0.925260 0.437820 0.068474 O
0.922475 0.687270 0.069971 O
0.921759 0.937796 0.070535 O
