Li7 Mn16 O32                            
   1.00000000000000     
     8.0354969999999994   -0.0000440000000000   -0.0000440000000000
    -0.0000380000000000    8.0354589999999995    0.0000480000000000
    -0.0000500000000000    0.0000380000000000    8.0324360000000006
   Li   Mn   O 
     7    16    32
Direct
  0.2193233118783406  0.5306870405236863  0.7193560577996591
  0.8765726101075154  0.8734464691689303  0.8739892109860998
  0.1266266880121099  0.1269687689640482  0.1230048079455551
  0.8765819071134328  0.3760239259029244  0.3765600129572611
  0.3739374570437506  0.8734009738970161  0.3765884229440938
  0.6229932914873831  0.1270352307018152  0.6266606638377097
  0.6230124174708392  0.6233338962084082  0.1229723527027198
  0.4999749440981364  0.2499962935115543  0.2478879927752764
  0.2499586432458336  0.4999856617089353  0.2484671222005986
  0.2502024021099374  0.2484389477565080  0.4992828626686301
  0.5015012029858137  0.4997319255806431  0.4992232430835118
  0.5015123733855051  0.7507767594601572  0.7502892175962818
  0.7484495084730357  0.4999859239277885  0.7499871782353013
  0.7519370089895769  0.7501004088214350  0.4999435547924759
  0.2499698710768679  0.0015345812170920  0.7500107205368935
  0.2502176387901180  0.7507416806523406  1.0015244781735106
  0.4999988315807875  0.0021116832766320  0.9999875625719068
  0.7497607236743294  0.9999374552333418  0.2501097912527444
  0.7478620030366971  0.2499434944464549  1.0000461162533321
 -0.0007797189969730  0.2484698808176713  0.7502845922812681
 -0.0008085745361660  0.4997334455896690  1.0014862798045561
  0.9998320477107794  0.7501336940157824  0.2519558309274610
  0.9998295798075689  0.9980309438969166  0.4998709165658799
  0.7378813383444948  0.0121274030693656  0.0123641307107405
  0.0122863519432520  0.7377592645215094  0.0136668959903219
  0.0124333466654710  0.0115861855955796  0.7374579881635827
  0.7384595732472676  0.7376005990987885  0.7374527472291574
  0.2628596631520580  0.9885535082129669  0.9876743086818581
  0.9864532568507002  0.2621776100194625  0.9878483083500230
  0.9876131210364713  0.9878901317520253  0.2620880935646354
  0.2628429738856302  0.2623517185425959  0.2614211446826017
  0.7384503350144930  0.5125894787599459  0.5123648914630247
  0.0123034653990503  0.2362800262570623  0.5122154102952194
  0.0124176539629097  0.5125980434913651  0.2384080929883332
  0.7378585529339374  0.2376393378815394  0.2378934003056814
  0.2648011273880360  0.4852305616437826  0.4875142984909085
  0.9861342811196225  0.7639175625763757  0.4861148675639674
  0.9875339253484261  0.4852255638319833  0.7647056410863265
  0.2648239364907089  0.7625151466441283  0.7647051620927157
  0.2374359135608163  0.0115929391491438  0.5123667161320072
  0.5137667358425790  0.7377317244113658  0.5122290147753541
  0.5122668208328709  0.0121548563765538  0.2378911805897364
  0.2374237491081476  0.7376039642946045  0.2384005507261832
  0.7620959590599949  0.9879024807977693  0.4877823171137083
  0.4878764689779254  0.2621696204267187  0.4863881758735361
  0.4876955109210111  0.9885388395174103  0.7627742593167433
  0.7615176538500418  0.2623499348611949  0.7627729533820570
  0.2347187335956786  0.5153422266901381  0.0108910181282943
  0.5142662181312536  0.2358123901463398  0.0141551546972710
  0.5110101235129637  0.5153080958743183  0.7347402212651217
  0.2347371569669898  0.2390376815623576  0.7347280230756513
  0.7615045241268168  0.4871648635691894  0.9876790090391787
  0.4878901529767925  0.7636301715572539  0.9878543891845387
  0.4876770997108607  0.4871952178064908  0.2614416805078540
  0.7621052530603915  0.7622945850850812  0.2620880389270046
 
             NaN             NaN             NaN
             NaN             NaN             NaN
             NaN             NaN             NaN
             NaN             NaN             NaN
             NaN             NaN             NaN
             NaN             NaN             NaN
             NaN             NaN             NaN
             NaN             NaN             NaN
             NaN             NaN             NaN
             NaN             NaN             NaN
             NaN             NaN             NaN
             NaN             NaN             NaN
             NaN             NaN             NaN
             NaN             NaN             NaN
             NaN             NaN             NaN
             NaN             NaN             NaN
             NaN             NaN             NaN
             NaN             NaN             NaN
             NaN             NaN             NaN
             NaN             NaN             NaN
             NaN             NaN             NaN
             NaN             NaN             NaN
             NaN             NaN             NaN
             NaN             NaN             NaN
             NaN             NaN             NaN
             NaN             NaN             NaN
             NaN             NaN             NaN
             NaN             NaN             NaN
             NaN             NaN             NaN
             NaN             NaN             NaN
             NaN             NaN             NaN
             NaN             NaN             NaN
             NaN             NaN             NaN
             NaN             NaN             NaN
             NaN             NaN             NaN
             NaN             NaN             NaN
             NaN             NaN             NaN
             NaN             NaN             NaN
             NaN             NaN             NaN
             NaN             NaN             NaN
             NaN             NaN             NaN
             NaN             NaN             NaN
             NaN             NaN             NaN
             NaN             NaN             NaN
             NaN             NaN             NaN
             NaN             NaN             NaN
             NaN             NaN             NaN
             NaN             NaN             NaN
             NaN             NaN             NaN
             NaN             NaN             NaN
             NaN             NaN             NaN
             NaN             NaN             NaN
             NaN             NaN             NaN
             NaN             NaN             NaN
             NaN             NaN             NaN
