Li7 Mn16 O32
1.0
8.035497 -0.000044 -0.000044
-0.000038 8.035459 0.000048
-0.000050 0.000038 8.032436
Li Mn O
7 16 32
direct
0.219309 0.530726 0.719270 Li
0.875868 0.874149 0.874151 Li
0.126389 0.126375 0.123597 Li
0.875869 0.375855 0.375848 Li
0.374113 0.874127 0.375863 Li
0.623603 0.126418 0.626416 Li
0.623619 0.623583 0.123579 Li
0.499810 0.250085 0.248833 Mn
0.250028 0.499957 0.249536 Mn
0.250024 0.250801 0.501239 Mn
0.499159 0.499941 0.501209 Mn
0.499161 0.748786 0.750080 Mn
0.749534 0.499953 0.750024 Mn
0.750618 0.750017 0.500063 Mn
0.250025 0.000458 0.750023 Mn
0.250023 0.748765 0.999185 Mn
0.499842 0.001185 0.999879 Mn
0.749816 0.999992 0.250052 Mn
0.748745 0.250088 0.999908 Mn
0.001204 0.250817 0.750079 Mn
0.001206 0.499950 0.999151 Mn
0.999919 0.749953 0.250746 Mn
0.999881 0.999282 0.500024 Mn
0.737792 0.012228 0.012412 O
0.012464 0.737589 0.012544 O
0.012467 0.012386 0.737434 O
0.737660 0.737579 0.737411 O
0.262702 0.987499 0.987460 O
0.987448 0.262574 0.987462 O
0.987619 0.987761 0.262214 O
0.262683 0.262563 0.262459 O
0.737649 0.512633 0.512391 O
0.012470 0.237421 0.512383 O
0.012466 0.512600 0.237630 O
0.737771 0.237576 0.237800 O
0.263408 0.486650 0.486751 O
0.986973 0.763035 0.487007 O
0.986794 0.486625 0.763312 O
0.263423 0.763263 0.763303 O
0.237392 0.012410 0.512387 O
0.512598 0.737578 0.512390 O
0.512370 0.012215 0.237816 O
0.237393 0.737572 0.237614 O
0.762191 0.987809 0.487751 O
0.487482 0.262567 0.487414 O
0.487490 0.987491 0.762634 O
0.762553 0.262565 0.762619 O
0.236336 0.513741 0.013682 O
0.513558 0.236489 0.013479 O
0.513781 0.513710 0.736321 O
0.236340 0.236264 0.736305 O
0.762560 0.487334 0.987461 O
0.487488 0.762612 0.987465 O
0.487481 0.487323 0.262476 O
0.762213 0.762323 0.262198 O
