Na47 P16 S64                            
   1.00000000000000     
    13.7438190000000002   -0.0064110000000000   -0.0000030000000000
    -0.0064750000000000   13.7550329999999992   -0.0005560000000000
    -0.0000980000000000   -0.0002480000000000   14.1866930000000000
   Na   P    S 
    47    16    64
Direct
  0.5872177873759087  0.7521416193122007  0.7393137466822591
  0.9998022921530122  0.2505921964224409  0.2048970188119671
  0.9993143950428933  0.2503605932577319  0.7043788384337565
  0.9990253415764342  0.7505827777282631  0.2097019061948563
  0.9826992358499378  0.7524891609550609  0.7150711799910632
  0.5001452545031779  0.2494525197269270  0.2057904142185613
  0.5007835521455279  0.2499940923667954  0.7052262268794756
  0.5006618533354057  0.7494177725268777  0.2092883121989461
  0.2491871142791753  0.9993860742049258  0.2935562936773104
  0.2486151162156607  0.9986808385410768  0.7929134478685733
  0.2511695425702453  0.5006373432555860  0.2958798808671324
  0.2507267424054551  0.5017421590349429  0.7948272255429074
  0.7488807671111185  0.9988538473856908  0.2928963229417903
  0.7480206666590030  0.9825413390712603  0.7869477561064291
  0.7506326992387286  0.5010693819455845  0.2904424777175954
  0.7546954253350910  0.5174446652599793  0.7849610395822963
  0.2524006506521508  0.9993907082035738  0.0428004263058160
  0.2444331328154385  0.9989178503164365  0.5436741414484243
  0.2472892748551678  0.4998387799838875  0.0458560751044262
  0.2551756860572764  0.5035455902011695  0.5470737867180090
  0.7522057097496859  0.0002443076907954  0.0412174396661327
  0.7458753298911360  0.9987943718377762  0.5410715002858864
  0.7470589118216125  0.5006300814665553  0.0382422063570604
  0.7567423863447622  0.4987691407113195  0.5382514278764577
  0.5001235906486164  0.2518798696380292  0.4558337859062801
  0.5014456058040272  0.2469425230014732  0.9541645379886080
  0.4999967396609481  0.7519480015270218  0.4674382670683732
  0.4984262195257935  0.7459442543061470  0.9595187415109784
  0.9998936987378593  0.2482455967259074  0.4545849991619303
  0.9983587135261373  0.2531542917397829  0.9535535342960816
  1.0002801303627857  0.7479952332747970  0.4619820642808539
  0.9997732631148504  0.7534731358918014  0.9596236888006882
  0.9935568702469745  0.9968898087813465  0.5015203713901339
  0.0033767041406016  0.0084928884634553  0.0005781007173070
  0.0097534349618258  0.4958695659943397  0.4992800802047552
  0.9965623801302693  0.5021287925113278  0.9983089761591425
  0.4905856472462541  0.0027409395594531  0.4985916480242977
  0.5054342977719211  0.9964776666186048  0.9988523738992032
  0.5051064236850314  0.5047394494348475  0.5018415574831748
  0.4929276496832998  0.4924085566143224  0.0024861526105220
  0.2495160277984829  0.2507766265053641  0.2500084793429486
  0.2493621391556882  0.2512934759424332  0.7500254403057623
  0.2507052533999886  0.7492649393534886  0.2506432642287406
  0.2740720640695192  0.7486408368722610  0.7484242845183353
  0.7505346208804426  0.2492054245776499  0.2493375604631497
  0.7506567561412995  0.2487273106617892  0.7506437309903127
  0.7490098795706179  0.7507362156127541  0.2493493043542096
  0.4997539045261803  0.4993913090200545  0.2501529768854711
  0.5002933822963778  0.4974125790955439  0.7526178481240978
  0.4994572468223751  0.0001833584451309  0.2500308808007837
  0.4970524449268425  1.0013797763184937  0.7478150274972405
  0.0008956318319565  0.4995951798613209  0.2500299288125786
  0.0029497784053788  0.4989213678466990  0.7478312918472300
  0.9997177383535991  0.0007954215907984  0.2497087477959298
  0.9995987057570067  0.0031140654807002  0.7520712670154058
  0.2498953450595517  0.2502786453167371  1.0000600772653110
  0.2497390316204320  0.2506393414203353  0.4998324884990474
  0.2503558844696377  0.7488598233016130  0.0010867749491066
  0.2497424334381644  0.7518222609282075  0.4995295943519996
  0.7500015931173668  0.2495015143689879  0.9996159126738704
  0.7501404338166687  0.2494239587290221  0.4990864888762313
  0.7493093761984309  0.7496175813373501  0.0010383472654670
  0.7514754009389796  0.7489481072174931  0.4962273064482891
  0.1538922571208662  0.1742282611318566  0.0824334712893030
  0.1531699413562802  0.1750020825489987  0.5814487257996775
  0.1528406297710111  0.6754046849429023  0.0838594155545141
  0.1555038965602441  0.6766570391272441  0.5838216207024686
  0.6541632537302158  0.1736850143584616  0.0828277661848008
  0.6533058903315863  0.1752679142072129  0.5812934106330609
  0.6534521839074354  0.6740037527953778  0.0841808680667268
  0.6558701430043475  0.6684335160798539  0.5742118565478161
  0.3463830559137395  0.3255243089448098  0.0826523656815715
  0.3462942330839669  0.3257483370761464  0.5819797283243000
  0.3469127923867992  0.8246516971048927  0.0831477948076444
  0.3458560426571585  0.8287723753935659  0.5793857830997794
  0.8454906601480413  0.3263373834002475  0.0823348585356149
  0.8471673353519350  0.3241877843578881  0.5809813235393773
  0.8443118694604436  0.8267250812363687  0.0838744938319658
  0.8458183849362244  0.8263235493979387  0.5777734517556874
  0.1743906283437056  0.3471806453855604  0.4176969420641626
  0.1744046589932828  0.3471136461240966  0.9187954171656736
  0.1718802233858271  0.8449421338311426  0.4154243835440716
  0.1770014735223772  0.8439503450417590  0.9166260884116038
  0.6757263996848003  0.3459165533433198  0.4160581507822412
  0.6751777411343867  0.3451504320758030  0.9171507810337424
  0.6733774183394907  0.8445368947521781  0.4147899493415240
  0.6706305412902678  0.8456239070144886  0.9206233706259906
  0.3251660957976923  0.1545158485018338  0.4171597059777349
  0.3250314049585298  0.1542859586653695  0.9176045108068234
  0.3264443010575709  0.6553974092204203  0.4174034880727922
  0.3257442004487934  0.6502587386665437  0.9214366979775167
  0.8249728926465150  0.1522228696989213  0.4170952722148504
  0.8252857590983195  0.1527816518521491  0.9182281805286701
  0.8286653462466351  0.6554336707412347  0.4117132675343050
  0.8271772235334356  0.6543490948754050  0.9213150227906040
  0.0970703877061844  0.4239758832947483  0.1676935883430263
  0.1024189254930091  0.4218641133492498  0.6701306979077343
  0.0955135130864862  0.9253377604512625  0.1667838814284230
  0.0924761137021519  0.9244123979457509  0.6693097936658433
  0.5952375786094912  0.4238322715869458  0.1669349316552957
  0.5975545115119265  0.4250298697026386  0.6686254146487800
  0.5958961707698991  0.9248312929310588  0.1681407952083093
  0.5896534839854310  0.9299209479050508  0.6589347246764725
  0.4038215204179383  0.0754928472591397  0.1668738226348225
  0.3979867177034194  0.0785072477068665  0.6699121840742381
  0.4027586479721161  0.5747432884527696  0.1684481149659471
  0.4096844525274640  0.5803400261658934  0.6719625030424299
  0.9036239792187449  0.0766581505569266  0.1675666299534137
  0.9010435124738452  0.0757014850262909  0.6696306857172850
  0.9054121167852213  0.5748538171579692  0.1671161236753913
  0.9113428135623877  0.5723752735792157  0.6600450925430170
  0.0756091378191310  0.0966707998097375  0.3322720408436970
  0.0776468899659348  0.1021291934014263  0.8295820118896552
  0.0765802800996148  0.5953693001392484  0.3326336608026258
  0.0747758548375642  0.5957062224160697  0.8322192298810697
  0.5746924403882494  0.0967001980574418  0.3325084939347746
  0.5769353939488099  0.0950130371283439  0.8293231422034792
  0.5752826532806444  0.5952608833467151  0.3320840643428701
  0.5753409795959027  0.5840238833270135  0.8448142713843366
  0.4246631297053794  0.4031378674826077  0.3329045542127133
  0.4213103002154516  0.3980416545354464  0.8289686074417790
  0.4238012865176574  0.9043395557282978  0.3323977467237422
  0.4255866523145542  0.9040323091441916  0.8317789409814577
  0.9249480552488045  0.4033794224941200  0.3321471434867485
  0.9228497726360215  0.4047232448129209  0.8287698332704287
  0.9244825070055788  0.9049123882474072  0.3320194283728354
  0.9274173950399215  0.9106911514582722  0.8401122564663127
 
             NaN             NaN             NaN
             NaN             NaN             NaN
             NaN             NaN             NaN
             NaN             NaN             NaN
             NaN             NaN             NaN
             NaN             NaN             NaN
             NaN             NaN             NaN
             NaN             NaN             NaN
             NaN             NaN             NaN
             NaN             NaN             NaN
             NaN             NaN             NaN
             NaN             NaN             NaN
             NaN             NaN             NaN
             NaN             NaN             NaN
             NaN             NaN             NaN
             NaN             NaN             NaN
             NaN             NaN             NaN
             NaN             NaN             NaN
             NaN             NaN             NaN
             NaN             NaN             NaN
             NaN             NaN             NaN
             NaN             NaN             NaN
             NaN             NaN             NaN
             NaN             NaN             NaN
             NaN             NaN             NaN
             NaN             NaN             NaN
             NaN             NaN             NaN
             NaN             NaN             NaN
             NaN             NaN             NaN
             NaN             NaN             NaN
             NaN             NaN             NaN
             NaN             NaN             NaN
             NaN             NaN             NaN
             NaN             NaN             NaN
             NaN             NaN             NaN
             NaN             NaN             NaN
             NaN             NaN             NaN
             NaN             NaN             NaN
             NaN             NaN             NaN
             NaN             NaN             NaN
             NaN             NaN             NaN
             NaN             NaN             NaN
             NaN             NaN             NaN
             NaN             NaN             NaN
             NaN             NaN             NaN
             NaN             NaN             NaN
             NaN             NaN             NaN
             NaN             NaN             NaN
             NaN             NaN             NaN
             NaN             NaN             NaN
             NaN             NaN             NaN
             NaN             NaN             NaN
             NaN             NaN             NaN
             NaN             NaN             NaN
             NaN             NaN             NaN
             NaN             NaN             NaN
             NaN             NaN             NaN
             NaN             NaN             NaN
             NaN             NaN             NaN
             NaN             NaN             NaN
             NaN             NaN             NaN
             NaN             NaN             NaN
             NaN             NaN             NaN
             NaN             NaN             NaN
             NaN             NaN             NaN
             NaN             NaN             NaN
             NaN             NaN             NaN
             NaN             NaN             NaN
             NaN             NaN             NaN
             NaN             NaN             NaN
             NaN             NaN             NaN
             NaN             NaN             NaN
             NaN             NaN             NaN
             NaN             NaN             NaN
             NaN             NaN             NaN
             NaN             NaN             NaN
             NaN             NaN             NaN
             NaN             NaN             NaN
             NaN             NaN             NaN
             NaN             NaN             NaN
             NaN             NaN             NaN
             NaN             NaN             NaN
             NaN             NaN             NaN
             NaN             NaN             NaN
             NaN             NaN             NaN
             NaN             NaN             NaN
             NaN             NaN             NaN
             NaN             NaN             NaN
             NaN             NaN             NaN
             NaN             NaN             NaN
             NaN             NaN             NaN
             NaN             NaN             NaN
             NaN             NaN             NaN
             NaN             NaN             NaN
             NaN             NaN             NaN
             NaN             NaN             NaN
             NaN             NaN             NaN
             NaN             NaN             NaN
             NaN             NaN             NaN
             NaN             NaN             NaN
             NaN             NaN             NaN
             NaN             NaN             NaN
             NaN             NaN             NaN
             NaN             NaN             NaN
             NaN             NaN             NaN
             NaN             NaN             NaN
             NaN             NaN             NaN
             NaN             NaN             NaN
             NaN             NaN             NaN
             NaN             NaN             NaN
             NaN             NaN             NaN
             NaN             NaN             NaN
             NaN             NaN             NaN
             NaN             NaN             NaN
             NaN             NaN             NaN
             NaN             NaN             NaN
             NaN             NaN             NaN
             NaN             NaN             NaN
             NaN             NaN             NaN
             NaN             NaN             NaN
             NaN             NaN             NaN
             NaN             NaN             NaN
             NaN             NaN             NaN
             NaN             NaN             NaN
             NaN             NaN             NaN
             NaN             NaN             NaN
             NaN             NaN             NaN
