Mg7 Mn16 O32                            
   1.00000000000000     
     8.1744719999999997    0.0000610000000000   -0.0003070000000000
     0.0000780000000000    9.3581339999999997    0.0000890000000000
    -0.0002960000000000    0.0000310000000000    8.1745859999999997
   Mg   Mn   O 
     7    16    32
Direct
  0.4110149596818367  0.8434915178943487  0.3389338517053057
  0.3784804078957170  0.3761290061878738  0.8795522349369495
  0.8704850287771539  0.3761008644525258  0.3715666428685345
  0.8718163841815147  0.8758299487028783  0.8781765634261426
  0.6239113923075429  0.1238299987474771  0.6212277322172371
  0.1244904786049564  0.6240770024031496  0.6254185325652241
  0.1288392552216533  0.1238037400031508  0.1260293734405483
  0.0032913353273113  0.2481680117206681  0.7467661494245256
  0.9951232204207768  0.7491188261459706  0.2485730637637532
  0.5004250402452924  0.2534234506455094  0.2495361715005847
  0.5013915928704860  0.7490091601173229  0.7548281705852451
  0.2510972164086811  0.9980844189106505  0.7441967240595910
  0.2506679174855736  0.4988728244116679  0.2510840875260020
  0.7552178848171768  1.0018448374077669  0.2514638820474451
  0.7490211601750544  0.4957593140173354  0.7525101407336170
  0.2508874615159583  0.2486126540800282  0.4990953084899322
  0.2480424032193237  0.7498467583625006 -0.0024725110478388
  0.7552433465327975  0.2456227882507648  0.9947913965520946
  0.7523718342564519  0.7498613078515817  0.5019097860695266
  0.0058139530050520  0.9981409958853605  0.4988977265550788
  0.9975799761392774  0.4957048931838685  0.0010369528727063
  0.4985863318902239  1.0016757430865957  0.9947941444478092
  0.4989381907385596  0.4987977973890382  0.4993507877704211
  0.2411018616336976 -0.0006648056695637  0.5088450511995498
  0.2358426850517728  0.5030203002927210  0.0117093684058061
  0.7414396540034591  0.0218052114345896  0.0086196228166759
  0.7383560971304753  0.5030410833329800  0.5141921605885009
  0.0132409852715186  0.2499426733308478  0.5107863826965182
  0.0080569782205315  0.7455275669728447  0.0121336643718261
  0.5146412219441141  0.2325276091278967  0.0092866851656893
  0.5171853270391945  0.7411863179395241  0.5154891581163185
  0.0141417524375416  0.9983026797906204  0.7358467135257375
  0.0093238840485812  0.5028232058836423  0.2364853821256200
  0.5188292535995752  0.0057466525454503  0.2311603692921727
  0.5135918053269157  0.5027668387054300  0.7406595502790271
  0.2392554803740387  0.2499644088873416  0.7367727801897656
  0.2344669510673478  0.7411580373040085  0.2327900407866713
  0.7408167917755110  0.2322227015527748  0.2355024798659451
  0.7379005151787069  0.7455184007008011  0.7418633461413724
  0.7667053109765083  0.0026496743601637  0.4874896701634163
  0.7647608970133905  0.4531623594658722  0.9853226876591623
  0.2623943905791039  0.0025282429807435  0.9832898794243465
  0.2608272617920961  0.4969990375054369  0.4891743139209506
  0.9875990943096641  0.7498873999229391  0.4858770143580839
  0.9895747757746944  0.2444104021471143  0.9845277200304013
  0.4818865180265158  0.7888748170267844  0.9874948995189643
  0.4885320316331537  0.2510767493097179  0.4863832924506846
  0.9885597440130761  0.0010363271982429  0.2613494922263584
  0.9857127970033842  0.4978437232762145  0.7643135367890679
  0.4886448432309767  0.0009875652686921  0.7614306477262310
  0.4820038327757227  0.4815110915179852  0.2680529515854517
  0.7624042657027160  0.7893064295401215  0.2680406744787469
  0.7654950122484195  0.2443982348835642  0.7604956442878257
  0.2640429064929523  0.7498911081399703  0.7622796733268659
  0.2635386828977360  0.2511271289429804  0.2614485469221773
 
             NaN             NaN             NaN
             NaN             NaN             NaN
             NaN             NaN             NaN
             NaN             NaN             NaN
             NaN             NaN             NaN
             NaN             NaN             NaN
             NaN             NaN             NaN
             NaN             NaN             NaN
             NaN             NaN             NaN
             NaN             NaN             NaN
             NaN             NaN             NaN
             NaN             NaN             NaN
             NaN             NaN             NaN
             NaN             NaN             NaN
             NaN             NaN             NaN
             NaN             NaN             NaN
             NaN             NaN             NaN
             NaN             NaN             NaN
             NaN             NaN             NaN
             NaN             NaN             NaN
             NaN             NaN             NaN
             NaN             NaN             NaN
             NaN             NaN             NaN
             NaN             NaN             NaN
             NaN             NaN             NaN
             NaN             NaN             NaN
             NaN             NaN             NaN
             NaN             NaN             NaN
             NaN             NaN             NaN
             NaN             NaN             NaN
             NaN             NaN             NaN
             NaN             NaN             NaN
             NaN             NaN             NaN
             NaN             NaN             NaN
             NaN             NaN             NaN
             NaN             NaN             NaN
             NaN             NaN             NaN
             NaN             NaN             NaN
             NaN             NaN             NaN
             NaN             NaN             NaN
             NaN             NaN             NaN
             NaN             NaN             NaN
             NaN             NaN             NaN
             NaN             NaN             NaN
             NaN             NaN             NaN
             NaN             NaN             NaN
             NaN             NaN             NaN
             NaN             NaN             NaN
             NaN             NaN             NaN
             NaN             NaN             NaN
             NaN             NaN             NaN
             NaN             NaN             NaN
             NaN             NaN             NaN
             NaN             NaN             NaN
             NaN             NaN             NaN
