Mg7 Mn16 O32
1.0
8.174472 0.000061 -0.000307
0.000078 9.358134 0.000089
-0.000296 0.000031 8.174586
Mg Mn O
7 16 32
direct
0.409610 0.842093 0.340389 Mg
0.379075 0.376819 0.879065 Mg
0.870936 0.376811 0.370924 Mg
0.871070 0.873047 0.878929 Mg
0.624418 0.124809 0.624423 Mg
0.125569 0.625268 0.624428 Mg
0.125577 0.124807 0.125575 Mg
0.000929 0.250736 0.749076 Mn
0.998469 0.750499 0.249635 Mn
0.498178 0.250190 0.251820 Mn
0.500355 0.750490 0.751529 Mn
0.249015 0.999330 0.748723 Mn
0.251476 0.499396 0.249352 Mn
0.751817 0.999760 0.252129 Mn
0.749807 0.499455 0.751898 Mn
0.248612 0.250817 0.501387 Mn
0.251839 0.750487 0.000667 Mn
0.752260 0.250119 0.997740 Mn
0.749327 0.750492 0.498161 Mn
0.001284 0.999333 0.500984 Mn
0.998097 0.499455 0.000194 Mn
0.497874 0.999739 0.998186 Mn
0.500650 0.499393 0.498523 Mn
0.237526 1.003554 0.512473 O
0.237793 0.503063 0.012676 O
0.737327 0.013507 0.012667 O
0.737314 0.503066 0.512194 O
0.011933 0.251236 0.512218 O
0.012257 0.746545 0.012835 O
0.512790 0.236339 0.012539 O
0.513171 0.742088 0.512601 O
0.012106 0.999107 0.737894 O
0.011977 0.503056 0.237073 O
0.513006 0.017985 0.237001 O
0.512938 0.503052 0.738016 O
0.237790 0.251237 0.738063 O
0.237393 0.742117 0.236825 O
0.737484 0.236311 0.237228 O
0.737167 0.746547 0.737734 O
0.763669 0.001756 0.487948 O
0.765407 0.468226 0.984590 O
0.262059 0.001752 0.986334 O
0.262971 0.496984 0.487027 O
0.986963 0.751493 0.486873 O
0.988148 0.247814 0.986211 O
0.484544 0.782870 0.984629 O
0.486122 0.249922 0.488064 O
0.988044 0.001759 0.263780 O
0.987120 0.499032 0.762875 O
0.486238 0.001773 0.761962 O
0.484532 0.466107 0.265467 O
0.765356 0.782914 0.265458 O
0.763785 0.247806 0.761849 O
0.263115 0.751489 0.763026 O
0.261940 0.249910 0.263884 O
