Na15 V32 O64
1.0
9.258168 0.014162 -0.001594
0.017950 11.841573 -0.003748
-0.002339 -0.002502 10.791333
Na V O
15 32 64
direct
0.748087 0.542051 0.152796 Na
0.745609 0.081794 0.152460 Na
0.742414 0.812997 0.153095 Na
0.243874 0.064937 0.352195 Na
0.243249 0.314440 0.343410 Na
0.244410 0.564205 0.351868 Na
0.243094 0.813665 0.344117 Na
0.255762 0.186249 0.845967 Na
0.256345 0.436108 0.851900 Na
0.256329 0.686622 0.848495 Na
0.254736 0.936424 0.851895 Na
0.756138 0.187178 0.650562 Na
0.756394 0.438134 0.652603 Na
0.759544 0.686349 0.650715 Na
0.757347 0.938946 0.652142 Na
0.580910 0.057706 0.898039 V
0.583653 0.310222 0.892180 V
0.582157 0.562993 0.900143 V
0.584248 0.809189 0.897897 V
0.082273 0.063652 0.604928 V
0.082122 0.314413 0.601000 V
0.081803 0.562308 0.605629 V
0.078567 0.816869 0.599707 V
0.415317 0.186880 0.101115 V
0.416669 0.436032 0.106766 V
0.418516 0.686163 0.103245 V
0.417954 0.937081 0.107620 V
0.915096 0.191133 0.395316 V
0.919590 0.437173 0.397530 V
0.919051 0.689627 0.393014 V
0.917920 0.941295 0.395175 V
0.565098 0.062875 0.388647 V
0.565495 0.314279 0.383858 V
0.566503 0.563694 0.387110 V
0.563715 0.810255 0.386870 V
0.066878 0.062184 0.111010 V
0.054407 0.313712 0.112168 V
0.068041 0.562736 0.112922 V
0.061855 0.813288 0.112952 V
0.434392 0.187376 0.614236 V
0.438989 0.440670 0.612671 V
0.436582 0.686744 0.614133 V
0.437476 0.932636 0.611339 V
0.937544 0.189322 0.886539 V
0.933293 0.435908 0.886115 V
0.938985 0.688442 0.887476 V
0.932069 0.936011 0.887436 V
0.790019 0.064134 0.846005 O
0.794418 0.303188 0.845193 O
0.792736 0.564602 0.846143 O
0.794088 0.803849 0.847828 O
0.296833 0.061429 0.645843 O
0.296943 0.312341 0.648966 O
0.295353 0.554152 0.650089 O
0.295992 0.820511 0.652148 O
0.205592 0.194455 0.150776 O
0.206072 0.432828 0.148671 O
0.208441 0.694846 0.152826 O
0.206604 0.932458 0.150257 O
0.703563 0.193161 0.357693 O
0.707509 0.434759 0.353648 O
0.707219 0.695151 0.352220 O
0.707429 0.934450 0.351195 O
0.886067 0.060192 0.519760 O
0.885765 0.318339 0.522546 O
0.888174 0.558427 0.518360 O
0.886574 0.819672 0.518900 O
0.382271 0.063511 0.979953 O
0.388393 0.304847 0.981673 O
0.382866 0.565978 0.980674 O
0.388707 0.805503 0.983528 O
0.112277 0.195880 0.481816 O
0.114870 0.435734 0.478442 O
0.114654 0.696441 0.483930 O
0.113259 0.936878 0.476811 O
0.608794 0.177652 0.011510 O
0.610148 0.443963 0.012348 O
0.615284 0.681955 0.023684 O
0.614229 0.940260 0.020371 O
0.975380 0.059243 0.282952 O
0.980468 0.321204 0.284530 O
0.977035 0.560199 0.282553 O
0.976896 0.819767 0.279848 O
0.474177 0.071836 0.217500 O
0.473078 0.309079 0.221694 O
0.475465 0.569981 0.216927 O
0.480485 0.809455 0.220812 O
0.025111 0.189211 0.718184 O
0.026410 0.426934 0.716033 O
0.024227 0.689673 0.717508 O
0.024706 0.928195 0.715735 O
0.516195 0.183210 0.774336 O
0.522784 0.437885 0.780515 O
0.520933 0.679187 0.786012 O
0.519759 0.941596 0.784895 O
0.571308 0.056986 0.574382 O
0.574243 0.315986 0.572182 O
0.577932 0.559104 0.572065 O
0.580075 0.815569 0.573763 O
0.072823 0.066117 0.924719 O
0.078230 0.307817 0.928837 O
0.073993 0.567263 0.925281 O
0.078714 0.808105 0.929318 O
0.422151 0.191668 0.436255 O
0.424153 0.434757 0.428136 O
0.424146 0.692198 0.430259 O
0.423626 0.932017 0.428565 O
0.924540 0.190741 0.069750 O
0.926836 0.433253 0.069314 O
0.923835 0.691613 0.071451 O
0.924483 0.933136 0.070624 O
