Li16 Co18 O36                           
   1.00000000000000     
     8.0668249999999997    0.0352650000000000    2.3555790000000001
     3.6577730000000002    7.1878880000000001    2.3579360000000000
     0.0436640000000000    0.0108580000000000    9.8881390000000007
   Li   Co   O 
    16    18    36
Direct
  0.7613930044643311  0.4949159186958596  0.4775802160410123
  0.3333768502317156  0.3328205128289241  0.9997091199970924
  0.3331940420818782  0.3344544433462531  0.4989200554807383
  0.3329400008398906  0.6678232136872495  0.0005504694511700
  0.3484344227033134  0.6584855463464763  0.5004906363252886
  0.3334639452296955  0.0005031607221468  0.9991573342654902
  0.3320960176749495  0.0013882418743094  0.4984908949232363
  0.6666607171262271  0.3337524992083871  0.0000250822271042
  0.6645534634306216  0.6689141756452202  0.9990499734306368
  0.6661556552480761  0.0001139934798857  0.9989676718982423
  0.6673733439445826  0.0015434195760022  0.4980098206532304
  0.0014830146681746  0.3315440217440511  0.9992386978127143
  0.0000845150236799  0.6682662229149585  0.9993364032828822
  0.9931245948016070  0.6580710926030235  0.5001203903840050
  0.0005301456189386  0.9999428381692042  0.0003735791148571
  0.9840661683408172  0.0319659292584191  0.4993260386752354
  0.1664448788987940  0.1702380639690659  0.2490204876184663
  0.1654708586418678  0.1652332731443167  0.7486727778210351
  0.1675077384705617  0.5008800326875829  0.2471893398647396
  0.1656242495292730  0.4980885659416714  0.7550289556481076
  0.1659561690934410  0.8350475989016601  0.2496976500095087
  0.1655130587932945  0.8303320061163362  0.7532189230963695
  0.5012330387629049  0.1699738158121775  0.2444588757242911
  0.5004115349622538  0.1650679620582025  0.7489964618043317
  0.5009152378176225  0.5011901929643514  0.2484969552922109
  0.4974832243705265  0.4974652894484493  0.7539077846762865
  0.5006244168740750  0.8367697982289570  0.2484896037482613
  0.5007230391200181  0.8300754082840740  0.7482437938421853
  0.8325887983820550  0.1698475860070801  0.2482325633270221
  0.8330275087600967  0.1621862937463874  0.7535726388505353
  0.8353205784119169  0.5037516096702177  0.2408357647724984
  0.8333556333929479  0.4973243248253993  0.7539148738819677
  0.8322173477021479  0.8366621888009149  0.2467395532091743
  0.8326325365961438  0.8296911926424926  0.7521977751776205
  0.2595164298098993  0.2550190120673719  0.3519685941981834
  0.2539147523962555  0.2493783174985680  0.8596174224411044
  0.2536171959879141  0.5876821656843916  0.3574241938510667
  0.2521819880345504  0.5847877097168421  0.8643241737826486
  0.2533529873410458  0.9231749777958953  0.3578380845264846
  0.2540319729577760  0.9189300864635328  0.8591236206912640
  0.5859596948429910  0.2545897596615632  0.3520144656138555
  0.5848707286114561  0.2495042768396942  0.8620678474423045
  0.5891832807536233  0.5911725278482649  0.3507669742715862
  0.5848863875749046  0.5864390656665535  0.8617277352063795
  0.5861679097486530  0.9283767552063651  0.3519822432851640
  0.5850919116216531  0.9184822547933038  0.8584757871953173
  0.9199026615625883  0.2607796452585376  0.3506212100981827
  0.9215726734490985  0.2493774430120013  0.8620492735345522
  0.9210745735432369  0.5913669532375181  0.3496761235526620
  0.9182872396940169  0.5844905420621913  0.8639882410470463
  0.9186515447139811  0.9230263459815831  0.3570043659622613
  0.9188714603179022  0.9168548365820541  0.8626507344785850
  0.0804216705540597  0.0813219785455530  0.1400150908843969
  0.0786156822512467  0.0732173451014546  0.6463512326721244
  0.0830297182613151  0.4144320601399727  0.1358143516880901
  0.0790018334195750  0.4133309637619149  0.6471840505675814
  0.0804649170886265  0.7488534851176496  0.1388586142359429
  0.0792726419480942  0.7425071818236404  0.6458070024935907
  0.4126894464340012  0.0820476830963628  0.1371811161694083
  0.4132379818185754  0.0781114372060188  0.6394941627435387
  0.4136194132775373  0.4173247206740882  0.1369006152004459
  0.4082164597844127  0.4129716595564830  0.6470872090452886
  0.4125837425281205  0.7491127226937166  0.1399975992458096
  0.4092871791778165  0.7426835216097913  0.6456379300187081
  0.7487803048318469  0.0822731671750034  0.1363072738719282
  0.7479961885354456  0.0732361462126079  0.6462741430335797
  0.7462781684401563  0.4149849741978713  0.1361904347985927
  0.7427825103877908  0.4054238836527304  0.6598715110008868
  0.7456960570299813  0.7519357118562766  0.1354715940140423
  0.7484517987891621  0.7421741825345762  0.6449852175093866
 
  0.00000000E+00  0.00000000E+00  0.00000000E+00
  0.00000000E+00  0.00000000E+00  0.00000000E+00
  0.00000000E+00  0.00000000E+00  0.00000000E+00
  0.00000000E+00  0.00000000E+00  0.00000000E+00
  0.00000000E+00  0.00000000E+00  0.00000000E+00
  0.00000000E+00  0.00000000E+00  0.00000000E+00
  0.00000000E+00  0.00000000E+00  0.00000000E+00
  0.00000000E+00  0.00000000E+00  0.00000000E+00
  0.00000000E+00  0.00000000E+00  0.00000000E+00
  0.00000000E+00  0.00000000E+00  0.00000000E+00
  0.00000000E+00  0.00000000E+00  0.00000000E+00
  0.00000000E+00  0.00000000E+00  0.00000000E+00
  0.00000000E+00  0.00000000E+00  0.00000000E+00
  0.00000000E+00  0.00000000E+00  0.00000000E+00
  0.00000000E+00  0.00000000E+00  0.00000000E+00
  0.00000000E+00  0.00000000E+00  0.00000000E+00
  0.00000000E+00  0.00000000E+00  0.00000000E+00
  0.00000000E+00  0.00000000E+00  0.00000000E+00
  0.00000000E+00  0.00000000E+00  0.00000000E+00
  0.00000000E+00  0.00000000E+00  0.00000000E+00
  0.00000000E+00  0.00000000E+00  0.00000000E+00
  0.00000000E+00  0.00000000E+00  0.00000000E+00
  0.00000000E+00  0.00000000E+00  0.00000000E+00
  0.00000000E+00  0.00000000E+00  0.00000000E+00
  0.00000000E+00  0.00000000E+00  0.00000000E+00
  0.00000000E+00  0.00000000E+00  0.00000000E+00
  0.00000000E+00  0.00000000E+00  0.00000000E+00
  0.00000000E+00  0.00000000E+00  0.00000000E+00
  0.00000000E+00  0.00000000E+00  0.00000000E+00
  0.00000000E+00  0.00000000E+00  0.00000000E+00
  0.00000000E+00  0.00000000E+00  0.00000000E+00
  0.00000000E+00  0.00000000E+00  0.00000000E+00
  0.00000000E+00  0.00000000E+00  0.00000000E+00
  0.00000000E+00  0.00000000E+00  0.00000000E+00
  0.00000000E+00  0.00000000E+00  0.00000000E+00
  0.00000000E+00  0.00000000E+00  0.00000000E+00
  0.00000000E+00  0.00000000E+00  0.00000000E+00
  0.00000000E+00  0.00000000E+00  0.00000000E+00
  0.00000000E+00  0.00000000E+00  0.00000000E+00
  0.00000000E+00  0.00000000E+00  0.00000000E+00
  0.00000000E+00  0.00000000E+00  0.00000000E+00
  0.00000000E+00  0.00000000E+00  0.00000000E+00
  0.00000000E+00  0.00000000E+00  0.00000000E+00
  0.00000000E+00  0.00000000E+00  0.00000000E+00
  0.00000000E+00  0.00000000E+00  0.00000000E+00
  0.00000000E+00  0.00000000E+00  0.00000000E+00
  0.00000000E+00  0.00000000E+00  0.00000000E+00
  0.00000000E+00  0.00000000E+00  0.00000000E+00
  0.00000000E+00  0.00000000E+00  0.00000000E+00
  0.00000000E+00  0.00000000E+00  0.00000000E+00
  0.00000000E+00  0.00000000E+00  0.00000000E+00
  0.00000000E+00  0.00000000E+00  0.00000000E+00
  0.00000000E+00  0.00000000E+00  0.00000000E+00
  0.00000000E+00  0.00000000E+00  0.00000000E+00
  0.00000000E+00  0.00000000E+00  0.00000000E+00
  0.00000000E+00  0.00000000E+00  0.00000000E+00
  0.00000000E+00  0.00000000E+00  0.00000000E+00
  0.00000000E+00  0.00000000E+00  0.00000000E+00
  0.00000000E+00  0.00000000E+00  0.00000000E+00
  0.00000000E+00  0.00000000E+00  0.00000000E+00
  0.00000000E+00  0.00000000E+00  0.00000000E+00
  0.00000000E+00  0.00000000E+00  0.00000000E+00
  0.00000000E+00  0.00000000E+00  0.00000000E+00
  0.00000000E+00  0.00000000E+00  0.00000000E+00
  0.00000000E+00  0.00000000E+00  0.00000000E+00
  0.00000000E+00  0.00000000E+00  0.00000000E+00
  0.00000000E+00  0.00000000E+00  0.00000000E+00
  0.00000000E+00  0.00000000E+00  0.00000000E+00
  0.00000000E+00  0.00000000E+00  0.00000000E+00
  0.00000000E+00  0.00000000E+00  0.00000000E+00
