Mg1 Ti16 S32                            
   1.00000000000000     
     9.8638340000000007   -0.0020010000000000    0.0023220000000000
    -0.0020010000000000    9.8638119999999994   -0.0023220000000000
     0.0023080000000000   -0.0023090000000000    9.8660399999999999
   Mg   Ti   S 
     1    16    32
Direct
  0.2760198824852173  0.4739801188512104  0.7740380928899326
  0.2522093017834237  0.7568173748515218  0.0121940410284634
  0.5025274271968613  1.0004768784608518  0.0005517688140835
  0.7495227887779872  0.2474721829882828  0.0005517187945203
  0.9931822748624728  0.4977901941440137  0.0121937293083181
  0.5026272180898124  0.2473723182323961  0.2491888719618263
  0.2498722100209693  0.5001272740891110  0.2644417179322584
  0.2510905202699185  0.2350288928328798  0.4911148684121470
  0.5149707056459788  0.4989087527110495  0.4911148907162262
  0.5148461649497277  0.7575115648453160  0.7494406352477535
  0.7661089273385986  0.5004402782795055  0.7474508381913654
  0.7523902535896474  0.7527491663721910  0.4943600668253852
  0.2495595263827881  0.9838907059521653  0.7474508202519914
  0.7504561561349210  0.9995434064865129  0.2473706909094328
  0.9924880569781284  0.2351536749791412  0.7494406025463795
  0.9974548872933753  0.7525445103445786  0.2489047881604672
  0.9972502113369089  0.9976093753991743  0.4943600715713173
  0.7473511419344554  0.0026480861381166 -0.0005457121634988
  0.0052533606400003  0.7447467811713842  0.0036570294538336
  0.0015120115751466  0.9942904346327793  0.7446450543823732
  0.7557088968956683  0.7484881484634396  0.7446451301026370
  0.2519605080719525 -0.0029894617553231  0.9937064212670640
  0.9961935072417467  0.2503118005145534  0.9968545452688923
  0.9967934678663907  0.9980030283301907  0.2490538612311895
  0.2522263285426502  0.2538831009297673  0.2509154238343174
  0.7555811120148708  0.5026004555803588  0.4992605932877427
  0.0047712842070551  0.2434446075517218  0.5024007457529674
  0.0016799306998132  0.5025176439534647  0.2529446378322798
  0.7477009881984906  0.2477762507949804  0.2451589865787205
  0.2588804771746455  0.4911197346097730  0.5058211360115178
  0.9979821592504485  0.7520171872888631  0.4949294647304247
  1.0077852545193831  0.4909045101973490  0.7564373440775205
  0.2590956608553426  0.7422143917059815  0.7564374165086939
  0.2473986216145400  0.9944181098346710  0.4992605699700543
  0.5065555661256191  0.7452286292990146  0.5024008248623011
  0.5022236579460847  0.0022981424785899  0.2451590838303071
  0.2474814704943189  0.7483200509821889  0.2529446876884016
  0.7519705272672434  0.9980294620712139  0.4937483075444062
  0.4993548892571907  0.2506444146320614  0.4944240814665859
  0.4960166113133753  0.9973287803446930  0.7496494948253245
  0.7526712733069619  0.2539827563557239  0.7496494955387936
  0.2462111272253871  0.5037881729610353  0.0161235717593686
  0.5027600682147670  0.2472399817811771  0.0010145065024996
  0.5182109524400978  0.5042284718563239  0.7437643400301737
  0.2457707419585085  0.2317888745919270  0.7437642757353208
  0.7529894518733224  0.4980393918040950  0.9937062693836254
  0.4996872013759335  0.7538056400068499  0.9968544120450232
  0.4961159817950636  0.4977735756582506  0.2509154655197232
  0.7519968698661595  0.7532055436848943  0.2490538526294144
 
             NaN             NaN             NaN
             NaN             NaN             NaN
             NaN             NaN             NaN
             NaN             NaN             NaN
             NaN             NaN             NaN
             NaN             NaN             NaN
             NaN             NaN             NaN
             NaN             NaN             NaN
             NaN             NaN             NaN
             NaN             NaN             NaN
             NaN             NaN             NaN
             NaN             NaN             NaN
             NaN             NaN             NaN
             NaN             NaN             NaN
             NaN             NaN             NaN
             NaN             NaN             NaN
             NaN             NaN             NaN
             NaN             NaN             NaN
             NaN             NaN             NaN
             NaN             NaN             NaN
             NaN             NaN             NaN
             NaN             NaN             NaN
             NaN             NaN             NaN
             NaN             NaN             NaN
             NaN             NaN             NaN
             NaN             NaN             NaN
             NaN             NaN             NaN
             NaN             NaN             NaN
             NaN             NaN             NaN
             NaN             NaN             NaN
             NaN             NaN             NaN
             NaN             NaN             NaN
             NaN             NaN             NaN
             NaN             NaN             NaN
             NaN             NaN             NaN
             NaN             NaN             NaN
             NaN             NaN             NaN
             NaN             NaN             NaN
             NaN             NaN             NaN
             NaN             NaN             NaN
             NaN             NaN             NaN
             NaN             NaN             NaN
             NaN             NaN             NaN
             NaN             NaN             NaN
             NaN             NaN             NaN
             NaN             NaN             NaN
             NaN             NaN             NaN
             NaN             NaN             NaN
             NaN             NaN             NaN
