Mg1 Ti16 S32
1.0
9.863834 -0.002001 0.002322
-0.002001 9.863812 -0.002322
0.002308 -0.002309 9.866040
Mg Ti S
1 16 32
direct
0.281026 0.468974 0.749722 Mg
0.249298 0.758465 0.009009 Ti
0.502519 -0.000466 0.003844 Ti
0.750464 0.247480 0.003846 Ti
0.991535 0.500700 0.009008 Ti
0.502266 0.247734 0.249596 Ti
0.249645 0.500355 0.249959 Ti
0.248622 0.241335 0.490200 Ti
0.508664 0.501376 0.490200 Ti
0.508326 0.758626 0.750424 Ti
0.751066 0.501005 0.750211 Ti
0.750701 0.752383 0.497819 Ti
0.248995 -0.001067 0.750211 Ti
0.750408 0.999591 0.250516 Ti
0.991373 0.241674 0.750424 Ti
0.997404 0.752595 0.251129 Ti
0.997616 0.999297 0.497818 Ti
0.747786 0.002215 0.003079 S
0.002709 0.747291 0.004317 S
0.002307 0.999936 0.747674 S
0.750064 0.747693 0.747674 S
0.252414 0.000030 0.997233 S
0.996123 0.252891 0.997079 S
0.997199 0.997830 0.252231 S
0.252508 0.252711 0.249304 S
0.750081 0.502752 0.502680 S
0.002503 0.245745 0.502914 S
0.002511 0.502465 0.250107 S
0.747869 0.247396 0.248230 S
0.254581 0.495419 0.495117 S
0.997221 0.752778 0.497194 S
0.995727 0.495392 0.754490 S
0.254608 0.754273 0.754490 S
0.247248 0.999919 0.502679 S
0.504255 0.747496 0.502914 S
0.502603 0.002131 0.248230 S
0.247531 0.747492 0.250108 S
0.752051 0.997949 0.497409 S
0.496858 0.253142 0.495340 S
0.497091 -0.000129 0.752673 S
0.750128 0.252908 0.752673 S
0.245221 0.504780 0.004369 S
0.503168 0.246833 0.003082 S
0.504589 0.504813 0.744924 S
0.245187 0.245410 0.744923 S
0.749971 0.497586 0.997234 S
0.497108 0.753879 0.997080 S
0.497289 0.497493 0.249305 S
0.752170 0.752800 0.252231 S
