Mg1 Ti16 S32
1.0
9.911732 0.006679 0.002617
-0.001897 9.911522 0.001526
-0.005222 0.000385 9.913716
Mg Ti S
1 16 32
direct
0.249889 0.500154 0.749979 Mg
0.249452 0.757495 0.007786 Ti
0.501203 0.000893 0.001399 Ti
0.749056 0.248732 0.001388 Ti
0.992188 0.500079 0.007385 Ti
0.501318 0.248815 0.249081 Ti
0.249925 0.500020 0.249948 Ti
0.250112 0.242662 0.492428 Ti
0.507435 0.500131 0.492536 Ti
0.507042 0.757798 0.750266 Ti
0.749783 0.500224 0.749890 Ti
0.750748 0.751334 0.498837 Ti
0.249819 0.000173 0.749957 Ti
0.750152 -0.000128 0.250156 Ti
0.992241 0.242936 0.750135 Ti
0.998637 0.751284 0.251210 Ti
0.998719 0.999265 0.498809 Ti
0.746714 0.003306 0.003195 S
0.003038 0.746861 0.005067 S
0.003515 0.000956 0.747530 S
0.749075 0.746526 0.747545 S
0.252405 0.999500 0.996404 S
0.995097 0.253423 0.996660 S
0.996986 0.996783 0.253407 S
0.252526 0.253657 0.250688 S
0.749327 0.502534 0.503628 S
0.003294 0.245232 0.503372 S
0.003589 0.502511 0.249237 S
0.746847 0.246892 0.246726 S
0.255018 0.495021 0.496359 S
0.997154 0.752862 0.497325 S
0.996239 0.495241 0.755046 S
0.254779 0.753765 0.755134 S
0.247511 0.000704 0.503637 S
0.504799 0.746844 0.503411 S
0.503177 0.003290 0.246758 S
0.247435 0.746423 0.249403 S
0.753295 0.996794 0.497019 S
0.496736 0.253390 0.495072 S
0.496281 0.999496 0.752561 S
0.750552 0.253731 0.752526 S
0.244780 0.505168 0.003604 S
0.502807 0.247290 0.002839 S
0.503457 0.505193 0.744970 S
0.244845 0.246569 0.744922 S
0.750435 0.497621 0.996379 S
0.496475 0.754958 0.996721 S
0.496347 0.497596 0.250742 S
0.753180 0.753040 0.253411 S
