Mg7 Sc16 Se32
1.0
11.246721 0.000010 -0.000034
0.000010 11.246761 0.000100
-0.000034 0.000166 11.246338
Mg Sc Se
7 16 32
direct
0.438444 0.438477 0.438494 Mg
0.624435 0.125574 0.125576 Mg
0.125560 0.624425 0.125575 Mg
0.125559 0.125572 0.624425 Mg
0.376524 0.873452 0.873434 Mg
0.873443 0.376537 0.873421 Mg
0.873444 0.873470 0.376573 Mg
-0.004623 0.749334 0.749359 Sc
0.749342 -0.004759 0.749361 Sc
0.749369 0.749359 -0.004579 Sc
-0.000350 -0.000349 -0.000347 Sc
0.001203 0.250689 0.250682 Sc
0.250680 0.001206 0.250678 Sc
0.250681 0.250680 0.001197 Sc
0.747817 0.500317 0.254914 Sc
0.747782 0.255099 0.500297 Sc
-0.003101 0.500336 0.500315 Sc
0.255091 0.500296 0.747865 Sc
0.255072 0.747804 0.500257 Sc
0.500282 0.747834 0.254877 Sc
0.500312 -0.003073 0.500261 Sc
0.500320 0.254948 0.747850 Sc
0.500287 0.500268 -0.002995 Sc
0.757700 0.992983 0.993007 Se
0.992994 0.757708 0.993009 Se
0.992984 0.992978 0.757699 Se
0.758163 0.758109 0.758198 Se
0.242479 0.007299 0.007287 Se
0.007293 0.242481 0.007282 Se
0.007292 0.007301 0.242497 Se
0.242411 0.242410 0.242413 Se
0.758662 0.491939 0.491839 Se
0.992456 0.256991 0.492345 Se
0.992476 0.492330 0.256955 Se
0.758218 0.256982 0.256954 Se
0.241023 0.507400 0.507418 Se
0.008713 0.742931 0.507318 Se
0.008717 0.507290 0.742902 Se
0.241107 0.742883 0.742888 Se
0.256971 0.992478 0.492331 Se
0.491909 0.758682 0.491820 Se
0.492314 0.992494 0.256931 Se
0.256957 0.758232 0.256935 Se
0.742891 0.008714 0.507315 Se
0.507368 0.241034 0.507410 Se
0.507313 0.008674 0.742897 Se
0.742909 0.241063 0.742894 Se
0.256959 0.492323 0.992507 Se
0.492318 0.256948 0.992509 Se
0.491925 0.491863 0.758737 Se
0.256975 0.256960 0.758221 Se
0.742888 0.507305 0.008685 Se
0.507297 0.742885 0.008673 Se
0.507366 0.507409 0.241035 Se
0.742881 0.742926 0.241099 Se
