Li47 P16 O64                            
   1.00000000000000     
    10.4642320000000009   -0.0027550000000000    0.0041820000000000
    -0.0031760000000000   12.2002760000000006    0.0042770000000000
     0.0039200000000000    0.0034420000000000    9.8383450000000003
   Li   P    O 
    47    16    64
Direct
  0.3534938052010255  0.3679998427549842  0.1353559915308017
  0.6587686039821237  0.2502297538262005  0.0986511047898382
  0.6646306656673284  0.2500448356382963  0.5978814492437003
  0.6620116865382339  0.7478316302298685  0.0975061155869573
  0.6643333395092142  0.7505234591613528  0.5976991201886546
  0.1549842303941883  0.5040603848104288  0.1531959795735021
  0.1637623796214639  0.5010135921557072  0.6519024550879612
  0.1652066935128381  0.0021371724793008  0.1501030748777719
  0.1639860850267059  0.0009798044978724  0.6522888858281461
  0.3365617454404957  0.0008121652892229  0.3992901234776365
  0.3366457852128054 -0.0000676043882098  0.9056938895749642
  0.3353813988631912  0.5005271766996268  0.4043367333557401
  0.3352383313803536  0.4993874814243963  0.9017489281665171
  0.8361222205099825  0.2487547157929234  0.3471184508715652
  0.8346114675025382  0.2500534387927791  0.8505593287649121
  0.8365293589151535  0.7491853084366006  0.3476833520459923
  0.8363118776056424  0.7493731983901089  0.8475982056682694
  0.3360475772406173  0.2455130310033924  0.4047250641120978
  0.3349668717945614  0.2478834806536421  0.9021490408650974
  0.3361247769835953  0.7490605364545502  0.4016243013408897
  0.3349691467309948  0.7485462495611286  0.9024441828404213
  0.8375725809009632  0.0021359821033251  0.3461329137430909
  0.8362428279494871  0.0011747584794317  0.8472475149708752
  0.8359347972023345  0.4982554660779647  0.3466123805895289
  0.8343118969378714  0.4997768091985557  0.8509529582717881
  0.6593308320624074  0.4946378572389725  0.0966911291199114
  0.6643481133847798  0.4988962434823410  0.5979614473169583
  0.6628626019042601  0.9953594810614356  0.0962362211306506
  0.6650193347848954  0.9987890810833416  0.5978401647585773
  0.1629677517698055  0.2530661601099980  0.6481414125841115
  0.1630847381334273  0.7526276703402082  0.1534812695564362
  0.1642178719144697  0.7521792293854438  0.6518629997051566
  0.9348499472464549  0.3672392671244561  0.1482079920904384
  0.9235362636706124  0.3756207416412617  0.6522791608349973
  0.9236852538145832  0.8762365450983000  0.1489734191673699
  0.9247391369465850  0.8760316754736791  0.6487192123686890
  0.4246088043884202  0.3739671637832245  0.6040754760929186
  0.4254017595889971  0.8724116989653008  0.1014220226833125
  0.4240739297572735  0.8753285302518486  0.6001848856799848
  0.0802208260088713  0.1332642993759003  0.3369857043368355
  0.0769549392814915  0.1290578488838413  0.8581374502614937
  0.0758529065194865  0.6253488017898893  0.3535308716633901
  0.0755996220805050  0.6249333367376496  0.8499136352512983
  0.5766838731400208  0.1247299433872788  0.3968080015631309
  0.5753544640718635  0.1244606606504964  0.9022160292403222
  0.5756649236956477  0.6236551457993381  0.3992031493879938
  0.5742345748219945  0.6233651995738675  0.8991096841290943
  0.9093408807095268  0.1216618861449543  0.0953627955521651
  0.9133743997723011  0.1250955613540770  0.5951800731948739
  0.9095614283946738  0.6258983826664275  0.0956710144065340
  0.9117703105891817  0.6260043914275870  0.5953078778278542
  0.4127152473464650  0.1225725331015794  0.1525594781826387
  0.4125951558701968  0.1231832286003249  0.6548648931129953
  0.4079003397992388  0.6236301916686724  0.1548335864100203
  0.4113652321389313  0.6256312684790368  0.6548923152756019
  0.0898617820003574  0.3748967956955410  0.4069487954811370
  0.0903597429750477  0.3775644509317251  0.9043862812161964
  0.0891799241765174  0.8760636849603507  0.4045608431535211
  0.0887376518243922  0.8752782288733770  0.9050141147957506
  0.5867650981299884  0.3740739835757971  0.3448493820948228
  0.5839469918814112  0.3745664295946527  0.8434941460575631
  0.5889905445924888  0.8735628797458294  0.3454332229786888
  0.5878997488084486  0.8735624272240295  0.8448258086876117
  0.8353264253313391  0.0186660977849145  0.1445139358023375
  0.8422583830951893  0.0214880393536876  0.6458842739325409
  0.8406755812122051  0.5216091992688578  0.1462981135134152
  0.8412275335107677  0.5233856684570527  0.6489950444306636
  0.3470244560398913  0.2204546246596647  0.0950613811680694
  0.3436471823480834  0.2270778978623943  0.6053166894505269
  0.3399559445485266  0.7275318639735662  0.1038069545225973
  0.3420275689298670  0.7286006849365007  0.6026675858213636
  0.1625290911955113  0.2721017913961974  0.3685433833191210
  0.1583651911611932  0.2750956148321292  0.8490675874693427
  0.1586033931480590  0.7719124737399762  0.3544617217142116
  0.1584150935169832  0.7721621567925850  0.8525670036624293
  0.6565421704658222  0.4778135616178972  0.3984099570925019
  0.6545402571040542  0.4778131228809652  0.8966127729484680
  0.6595561886509475  0.9765917198985568  0.3966635050428655
  0.6583324746113582  0.9766035314705058  0.8954358890531687
  0.1585886993301012  0.4787186898044954  0.3526360082481111
  0.1579722411564364  0.4810255101745869  0.8471380872423611
  0.1594138097685439  0.9781151725545199  0.3524193582033917
  0.1588852218944704  0.9784838761729463  0.8538055458502326
  0.6573819229949397  0.2716440299278223  0.3993157873121364
  0.6537460036385810  0.2716616018536737  0.8976147523499567
  0.6589927343570819  0.7702605745253641  0.3982532911820730
  0.6582017367472921  0.7700928592213184  0.8963242344271244
  0.8390758134636325  0.2255110719485129  0.1475149959773143
  0.8419038880613385  0.2279767004153250  0.6472699705433428
  0.8374084993212397  0.7286960453919757  0.1462016635104197
  0.8415130210082378  0.7296802742540800  0.6460488348351907
  0.3451352292001503  0.0149795018380791  0.1054138330852508
  0.3423028827947028  0.0208593678958437  0.6014227945600241
  0.3338965868491703  0.5224265777584668  0.1054757797276699
  0.3423814102979879  0.5225483617643613  0.6026703327605361
  0.5548840758200653  0.1183992319413681  0.1049087758121584
  0.5514489411641093  0.1231494223377444  0.6018664692804058
  0.5461807108430997  0.6221506749503800  0.1004881412438729
  0.5508894264392452  0.6255976012599002  0.6032725327592604
  0.0447216006859214  0.1169939861490748  0.1461375909158537
  0.0503277430696763  0.1252938141630364  0.6499135788446683
  0.0467115377342925  0.6294010515853551  0.1496980201285747
  0.0499240084934436  0.6274579189355715  0.6461013398582469
  0.4476369621971266  0.3741509610279983  0.3959436794244369
  0.4439429183054240  0.3753557755232954  0.8838410417271856
  0.4507863521897428  0.8738680349267576  0.3973398991041402
  0.4500082067809101  0.8730255209072127  0.8971550727208849
  0.9516145122762126  0.3734651398264912  0.3507393001123115
  0.9492870250047646  0.3761232226448585  0.8550168094220946
  0.9501089219808363  0.8749427728083269  0.3523419416435313
  0.9499048438649237  0.8750414423572814  0.8519545490604634
  0.5885712367261025  0.3736854921389713  0.1896654367215565
  0.5934015520955767  0.3746316513750851  0.6860792385400258
  0.5899618990945800  0.8715177885907548  0.1888489950324345
  0.5889964470314910  0.8736416997261451  0.6877811414057129
  0.0950927934902999  0.3825587567445852  0.0590727051524763
  0.0846289832361597  0.3814801246881127  0.5639814893897275
  0.0888257920380891  0.8745425230170412  0.0612506384428776
  0.0892011288754801  0.8760615919147384  0.5616332215039515
  0.4126916733965538  0.1238053529088376  0.3113046122951931
  0.4123283821380891  0.1211953994111756  0.8115358377960789
  0.4098860759876292  0.6240998152611362  0.3118418774840471
  0.4101215058187858  0.6258600320751448  0.8115056386303161
  0.9133068346067919  0.1253350284298415  0.4385105466948271
  0.9068168350979747  0.1241519954094973  0.9376069834603109
  0.9096254795792691  0.6244847501303570  0.4384543508122958
  0.9101302526608683  0.6259584651413452  0.9385649615856920
 
             NaN             NaN             NaN
             NaN             NaN             NaN
             NaN             NaN             NaN
             NaN             NaN             NaN
             NaN             NaN             NaN
             NaN             NaN             NaN
             NaN             NaN             NaN
             NaN             NaN             NaN
             NaN             NaN             NaN
             NaN             NaN             NaN
             NaN             NaN             NaN
             NaN             NaN             NaN
             NaN             NaN             NaN
             NaN             NaN             NaN
             NaN             NaN             NaN
             NaN             NaN             NaN
             NaN             NaN             NaN
             NaN             NaN             NaN
             NaN             NaN             NaN
             NaN             NaN             NaN
             NaN             NaN             NaN
             NaN             NaN             NaN
             NaN             NaN             NaN
             NaN             NaN             NaN
             NaN             NaN             NaN
             NaN             NaN             NaN
             NaN             NaN             NaN
             NaN             NaN             NaN
             NaN             NaN             NaN
             NaN             NaN             NaN
             NaN             NaN             NaN
             NaN             NaN             NaN
             NaN             NaN             NaN
             NaN             NaN             NaN
             NaN             NaN             NaN
             NaN             NaN             NaN
             NaN             NaN             NaN
             NaN             NaN             NaN
             NaN             NaN             NaN
             NaN             NaN             NaN
             NaN             NaN             NaN
             NaN             NaN             NaN
             NaN             NaN             NaN
             NaN             NaN             NaN
             NaN             NaN             NaN
             NaN             NaN             NaN
             NaN             NaN             NaN
             NaN             NaN             NaN
             NaN             NaN             NaN
             NaN             NaN             NaN
             NaN             NaN             NaN
             NaN             NaN             NaN
             NaN             NaN             NaN
             NaN             NaN             NaN
             NaN             NaN             NaN
             NaN             NaN             NaN
             NaN             NaN             NaN
             NaN             NaN             NaN
             NaN             NaN             NaN
             NaN             NaN             NaN
             NaN             NaN             NaN
             NaN             NaN             NaN
             NaN             NaN             NaN
             NaN             NaN             NaN
             NaN             NaN             NaN
             NaN             NaN             NaN
             NaN             NaN             NaN
             NaN             NaN             NaN
             NaN             NaN             NaN
             NaN             NaN             NaN
             NaN             NaN             NaN
             NaN             NaN             NaN
             NaN             NaN             NaN
             NaN             NaN             NaN
             NaN             NaN             NaN
             NaN             NaN             NaN
             NaN             NaN             NaN
             NaN             NaN             NaN
             NaN             NaN             NaN
             NaN             NaN             NaN
             NaN             NaN             NaN
             NaN             NaN             NaN
             NaN             NaN             NaN
             NaN             NaN             NaN
             NaN             NaN             NaN
             NaN             NaN             NaN
             NaN             NaN             NaN
             NaN             NaN             NaN
             NaN             NaN             NaN
             NaN             NaN             NaN
             NaN             NaN             NaN
             NaN             NaN             NaN
             NaN             NaN             NaN
             NaN             NaN             NaN
             NaN             NaN             NaN
             NaN             NaN             NaN
             NaN             NaN             NaN
             NaN             NaN             NaN
             NaN             NaN             NaN
             NaN             NaN             NaN
             NaN             NaN             NaN
             NaN             NaN             NaN
             NaN             NaN             NaN
             NaN             NaN             NaN
             NaN             NaN             NaN
             NaN             NaN             NaN
             NaN             NaN             NaN
             NaN             NaN             NaN
             NaN             NaN             NaN
             NaN             NaN             NaN
             NaN             NaN             NaN
             NaN             NaN             NaN
             NaN             NaN             NaN
             NaN             NaN             NaN
             NaN             NaN             NaN
             NaN             NaN             NaN
             NaN             NaN             NaN
             NaN             NaN             NaN
             NaN             NaN             NaN
             NaN             NaN             NaN
             NaN             NaN             NaN
             NaN             NaN             NaN
             NaN             NaN             NaN
             NaN             NaN             NaN
             NaN             NaN             NaN
             NaN             NaN             NaN
             NaN             NaN             NaN
