Li7 Mn16 O32                            
   1.00000000000000     
     8.3895330000000001    0.0670170000000000   -0.0047090000000000
     0.0383760000000000    8.1816490000000002    0.0131300000000000
    -0.0176490000000000   -0.0220950000000000    8.2504709999999992
   Li   Mn   O 
     7    16    32
Direct
  0.1520686761139569  0.5957089665877389  0.6474815639141932
  0.8806129808566012  0.8720347640605642  0.8811102121159979
  0.1208488794145057  0.1263750282348011  0.1249928250087449
  0.8844485055596509  0.3675919962858332  0.3816749148791577
  0.3822422280206975  0.8730687959614021  0.3820623777154361
  0.6174043451881897  0.1277884457361088  0.6278770951626831
  0.6208685084214762  0.6224614438868767  0.1188506230680276
  0.5030082607370626  0.2531289056597625  0.2471434724603014
  0.2529843447780960  0.4931593473991476  0.2463345367348412
  0.2562586724254240  0.2450849537360527  0.5052504554505410
  0.5073409797038725  0.4965086523587999  0.4997884965872422
  0.5031334431592362  0.7457793012333847  0.7542804682517508
  0.7635128070460362  0.5033234645450581  0.7396188037885713
  0.7508129537468466  0.7523270297922541  0.4976581347282536
  0.2439134084257556  0.9968882063533113  0.7604636051763128
  0.2478962975452282  0.7464694920588686  0.0031350326855071
  0.4960018577649657  0.0028085904335174  0.0040382945539314
  0.7455030571456918  0.0033247459206346  0.2548672039984207
  0.7523901720440141  0.2499755088399987  0.0002365672814775
  0.0030492880454117  0.2457073506381036  0.7527265827033660
  0.0046414993474279  0.4955990968494741  0.0011029750635168
 -0.0016431025207750  0.7479355863195377  0.2532243071517991
  0.9979379915381906  0.0005223639910745  0.5022787025295178
  0.7518562300423732  0.0110959853079599  0.0259066732583891
  0.0164755079715595  0.7297681219480269  0.0191445076539985
  0.0138187081486560  0.0119739448377894  0.7426963058684949
  0.7593432766725213  0.7358981095117955  0.7294108050348981
  0.2417845257828188  0.9757232753998804  0.9923215074802781
  0.9851990389847011  0.2630263285914579  0.9853153753229319
  0.9728561017020453  0.9992915558799935  0.2680428468003935
  0.2757058878796185  0.2625635188460962  0.2420587632510109
  0.7626282051678022  0.5195321328702962  0.5114155924768359
  0.0192894122419365  0.2348932471863870  0.5223266627323269
  0.0231513769592482  0.4946585416840580  0.2313520577324115
  0.7301771939437004  0.2350937300692214  0.2601484645191880
  0.2530805300527031  0.4797195520005355  0.4756244817901105
  0.9797091677310388  0.7636215461205436  0.4827395844084348
  0.9954096244738311  0.4817349308147871  0.7669303198900085
  0.2475085106407903  0.7617523332278537  0.7734048700650440
  0.2543749618331105  0.0101062661444326  0.5302959159348861
  0.5223236836532238  0.7332650803884386  0.5161647982354554
  0.5144421683006785  0.0169799832113974  0.2382546078381545
  0.2468369400024967  0.7285498547029295  0.2365333094208922
  0.7407899513728983  0.9816887881184370  0.4864420642738535
  0.4895395245344438  0.2626650199213634  0.4812009410924831
  0.4741222227853206  0.9890156544392239  0.7723192717674118
  0.7756036754411942  0.2694492726698589  0.7419430455516960
  0.2331386243960304  0.5122147726577144  0.0137457099824866
  0.5264872193708662  0.2416143600043764  0.0203935422347323
  0.5402363596085553  0.5094226532778209  0.7352011490698794
  0.2249245401047013  0.2257458800046578  0.7622908123670306
  0.7750052569132975  0.4953512581097631  0.9782476813560722
  0.4752424021337266  0.7567042348953394  0.9893891819803353
  0.4838865844527332  0.4856043015893490  0.2576702790890107
  0.7499812602187000  0.7670076059147531  0.2654126986423646
 
             NaN             NaN             NaN
             NaN             NaN             NaN
             NaN             NaN             NaN
             NaN             NaN             NaN
             NaN             NaN             NaN
             NaN             NaN             NaN
             NaN             NaN             NaN
             NaN             NaN             NaN
             NaN             NaN             NaN
             NaN             NaN             NaN
             NaN             NaN             NaN
             NaN             NaN             NaN
             NaN             NaN             NaN
             NaN             NaN             NaN
             NaN             NaN             NaN
             NaN             NaN             NaN
             NaN             NaN             NaN
             NaN             NaN             NaN
             NaN             NaN             NaN
             NaN             NaN             NaN
             NaN             NaN             NaN
             NaN             NaN             NaN
             NaN             NaN             NaN
             NaN             NaN             NaN
             NaN             NaN             NaN
             NaN             NaN             NaN
             NaN             NaN             NaN
             NaN             NaN             NaN
             NaN             NaN             NaN
             NaN             NaN             NaN
             NaN             NaN             NaN
             NaN             NaN             NaN
             NaN             NaN             NaN
             NaN             NaN             NaN
             NaN             NaN             NaN
             NaN             NaN             NaN
             NaN             NaN             NaN
             NaN             NaN             NaN
             NaN             NaN             NaN
             NaN             NaN             NaN
             NaN             NaN             NaN
             NaN             NaN             NaN
             NaN             NaN             NaN
             NaN             NaN             NaN
             NaN             NaN             NaN
             NaN             NaN             NaN
             NaN             NaN             NaN
             NaN             NaN             NaN
             NaN             NaN             NaN
             NaN             NaN             NaN
             NaN             NaN             NaN
             NaN             NaN             NaN
             NaN             NaN             NaN
             NaN             NaN             NaN
             NaN             NaN             NaN
