Li7 Mn16 O32                            
   1.00000000000000     
     8.3895330000000001    0.0670170000000000   -0.0047090000000000
     0.0383760000000000    8.1816490000000002    0.0131300000000000
    -0.0176490000000000   -0.0220950000000000    8.2504709999999992
   Li   Mn   O 
     7    16    32
Direct
  0.1285698790010618  0.6176036115752936  0.6265540245109316
  0.8813103324294794  0.8722337294629737  0.8810903240490312
  0.1232737779109494  0.1277065176198169  0.1257422939540281
  0.8843137870254392  0.3684499789847596  0.3812540590400250
  0.3839916462782260  0.8744120526740977  0.3815436243193846
  0.6191371655856912  0.1266792869174141  0.6279739712634214
  0.6208466483104382  0.6223357463525051  0.1182589627532214
  0.5062560258989555  0.2507231037062028  0.2497218041855487
  0.2502367806272118  0.4908243644406787  0.2430037290336807
  0.2547499152158100  0.2457873379434387  0.5063081141276971
  0.5063558986059251  0.4918479246803861  0.5040519498184636
  0.5007407816963130  0.7451401436241789  0.7526622309522091
  0.7659022420064021  0.5025336140413804  0.7474718352913684
  0.7499006151496573  0.7444692925641966  0.4994596569872305
  0.2465719540855481  0.9964993911697426  0.7605287976434476
  0.2465843027726487  0.7451314968600602  1.0018492025298704
  0.4958540806189783  0.0022707066444952  0.0044385394326332
  0.7439640961544769  0.0021887492921120  0.2564889998537298
  0.7551257602257243  0.2478795066142614  0.0017976360494351
  0.0015512947949592  0.2560721364269256  0.7522216716969350
  0.0086773150151780  0.4985340968884594  1.0012231839163503
  1.0009182156942591  0.7438783735943364  0.2504689210202767
  0.9981162180092015  0.0012886802406117  0.5030892511811208
  0.7543317621885816  0.0071433006704973  0.0273431594209908
  0.0171895733275703  0.7298680351299676  0.0196410674035401
  0.0127747322731855  0.0107200485810989  0.7416175880492287
  0.7585704749759326  0.7359707940880356  0.7307719686493727
  0.2414211544008330  0.9756457784716468  0.9914174107091457
  0.9874931243355095  0.2614326454687781  0.9847768962888387
  0.9751742745468620 -0.0052007939621147  0.2712876062504956
  0.2780950936866832  0.2636269190055769  0.2433502473740455
  0.7609875696383638  0.5171709413636253  0.5138167015825792
  0.0185333882727586  0.2341375787660302  0.5216091517643283
  0.0251855807721108  0.4980691069781174  0.2323774820767895
  0.7327861832800666  0.2307059487691052  0.2615776768496852
  0.2539380335195152  0.4826463838821132  0.4756940588865922
  0.9814367869521733  0.7593188811608046  0.4860290690108089
  0.9941421718983530  0.4807715248036388  0.7655220213650394
  0.2457322909406940  0.7622906072917018  0.7717027278211844
  0.2536450489997445  0.0110921098633536  0.5290460551693017
  0.5235052771694501  0.7328915359551779  0.5164936823236436
  0.5166779285754496  0.0159831674439796  0.2392314541542370
  0.2502184218655156  0.7296717236338887  0.2360437143360376
  0.7420902773636442  0.9772245496778599  0.4878334280952056
  0.4907765095106664  0.2641727621121466  0.4824919855767834
  0.4737480757448566  0.9893132623064533  0.7716001774531295
  0.7757419850775160  0.2687098569935268  0.7446618269931824
  0.2344098911045770  0.5122673494700613  0.0143171204960819
  0.5299145123232898  0.2398368643594210  0.0220244981544431
  0.5398775559433739  0.5110408670686635  0.7378413839476506
  0.2246681555921453  0.2247062094398933  0.7610361977354704
  0.7744987166525685  0.4944003672564773  0.9804821742339946
  0.4758205487763142  0.7584587283520764  0.9900475937336425
  0.4870663916819513  0.4855502794654787  0.2573765572044766
  0.7497328852480767  0.7627219726753161  0.2672217226373233
 
             NaN             NaN             NaN
             NaN             NaN             NaN
             NaN             NaN             NaN
             NaN             NaN             NaN
             NaN             NaN             NaN
             NaN             NaN             NaN
             NaN             NaN             NaN
             NaN             NaN             NaN
             NaN             NaN             NaN
             NaN             NaN             NaN
             NaN             NaN             NaN
             NaN             NaN             NaN
             NaN             NaN             NaN
             NaN             NaN             NaN
             NaN             NaN             NaN
             NaN             NaN             NaN
             NaN             NaN             NaN
             NaN             NaN             NaN
             NaN             NaN             NaN
             NaN             NaN             NaN
             NaN             NaN             NaN
             NaN             NaN             NaN
             NaN             NaN             NaN
             NaN             NaN             NaN
             NaN             NaN             NaN
             NaN             NaN             NaN
             NaN             NaN             NaN
             NaN             NaN             NaN
             NaN             NaN             NaN
             NaN             NaN             NaN
             NaN             NaN             NaN
             NaN             NaN             NaN
             NaN             NaN             NaN
             NaN             NaN             NaN
             NaN             NaN             NaN
             NaN             NaN             NaN
             NaN             NaN             NaN
             NaN             NaN             NaN
             NaN             NaN             NaN
             NaN             NaN             NaN
             NaN             NaN             NaN
             NaN             NaN             NaN
             NaN             NaN             NaN
             NaN             NaN             NaN
             NaN             NaN             NaN
             NaN             NaN             NaN
             NaN             NaN             NaN
             NaN             NaN             NaN
             NaN             NaN             NaN
             NaN             NaN             NaN
             NaN             NaN             NaN
             NaN             NaN             NaN
             NaN             NaN             NaN
             NaN             NaN             NaN
             NaN             NaN             NaN
