Mg7 Sc16 Se32
1.0
11.207339 0.000001 0.000002
0.000001 11.207338 0.000000
0.000002 0.000000 11.207340
Mg Sc Se
7 16 32
direct
0.591920 0.591920 0.591920 Mg
0.622881 0.127119 0.127119 Mg
0.127119 0.622881 0.127119 Mg
0.127119 0.127119 0.622881 Mg
0.375288 0.874712 0.874712 Mg
0.874712 0.375288 0.874712 Mg
0.874712 0.874712 0.375288 Mg
0.999126 0.750079 0.750079 Sc
0.750079 0.999126 0.750079 Sc
0.750079 0.750079 0.999126 Sc
0.999913 0.999913 0.999913 Sc
0.005603 0.250285 0.250285 Sc
0.250285 0.005603 0.250285 Sc
0.250285 0.250285 0.005603 Sc
0.744389 0.499724 0.251071 Sc
0.744389 0.251071 0.499724 Sc
0.004817 0.499724 0.499724 Sc
0.251071 0.499724 0.744389 Sc
0.251071 0.744389 0.499724 Sc
0.499724 0.744389 0.251071 Sc
0.499724 0.004816 0.499724 Sc
0.499724 0.251071 0.744389 Sc
0.499724 0.499724 0.004816 Sc
0.757115 0.993021 0.993021 Se
0.993021 0.757115 0.993021 Se
0.993021 0.993021 0.757115 Se
0.756915 0.756915 0.756915 Se
0.242049 0.007153 0.007153 Se
0.007153 0.242049 0.007153 Se
0.007153 0.007153 0.242049 Se
0.243793 0.243793 0.243793 Se
0.759575 0.492934 0.492934 Se
0.990362 0.257130 0.492735 Se
0.990362 0.492735 0.257130 Se
0.759774 0.257130 0.257130 Se
0.243429 0.506225 0.506225 Se
0.007516 0.742830 0.507969 Se
0.007516 0.507969 0.742830 Se
0.241685 0.742830 0.742830 Se
0.257130 0.990362 0.492735 Se
0.492934 0.759575 0.492934 Se
0.492735 0.990362 0.257130 Se
0.257130 0.759774 0.257130 Se
0.742830 0.007516 0.507969 Se
0.506225 0.243429 0.506225 Se
0.507969 0.007516 0.742830 Se
0.742830 0.241685 0.742830 Se
0.257130 0.492735 0.990362 Se
0.492735 0.257130 0.990362 Se
0.492934 0.492934 0.759575 Se
0.257130 0.257130 0.759774 Se
0.742830 0.507969 0.007516 Se
0.507969 0.742830 0.007516 Se
0.506225 0.506225 0.243429 Se
0.742830 0.742830 0.241685 Se
