Li47 P16 O64                            
   1.00000000000000     
    10.4264530000000004    0.0005970000000000   -0.0066270000000000
     0.0006870000000000   12.1681120000000007   -0.0029920000000000
    -0.0062550000000000   -0.0024020000000000    9.7956640000000004
   Li   P    O 
    47    16    64
Direct
  0.4822368288683583  0.3138351568245123  0.0777986154070708
  0.6645054005971973  0.2505434819814497  0.6038017405874629
  0.6648803655594224  0.7517676305580047  0.0974055938014509
  0.6647065713948885  0.7525632650240196  0.5988347118787469
  0.1657379490504672  0.4979002594952348  0.1514302650444411
  0.1647042070957204  0.4994925333496427  0.6525447700753811
  0.1647280387589856  0.9941074046120841  0.1552107226253968
  0.1643795320808122  0.9980697914301924  0.6520714465898192
  0.3356227484262641  0.9993758109902381  0.4035438820338029
  0.3366044412560393  0.9999802172363640  0.9021992205536333
  0.3363536067525871  0.5013461730009011  0.3993174629099788
  0.3388414306097046  0.4966924794403819  0.9088871363892878
  0.8339739999907442  0.2495332480606445  0.3467999718966870
  0.8368672177199568  0.2497311561036959  0.8514690368445939
  0.8361894954760506  0.7490394771668196  0.3480371547592814
  0.8363688492627510  0.7492308430032980  0.8477889542375583
  0.3355774532189909  0.2491425819903871  0.4008859835339518
  0.3311284591947847  0.2477563083313638  0.8986112824816193
  0.3363383030296568  0.7496444891417651  0.4023441493041496
  0.3363885720888556  0.7489168433210667  0.9024876168809091
  0.8360977872646044  0.0012614191864625  0.3491418284802502
  0.8354773649134357  0.0011831851177882  0.8475441292756287
  0.8347349294053533  0.5021001342837321  0.3478721160227856
  0.8358412704572228  0.5015612503366037  0.8481242612779082
  0.6632819364550688  0.4979188437252988  0.0951797844988020
  0.6646482639436793  0.5034346561185794  0.6002848176210965
  0.6638484703980064  0.0040363311093375  0.1004320035611084
  0.6639957433888659  0.0007276661724364  0.5971870244294158
  0.1648546466703261  0.2525017829022561  0.1512853400961163
  0.1627839698109226  0.2506437593880932  0.6515302847234291
  0.1645630766063529  0.7504489446757955  0.1518032014756617
  0.1640057364198734  0.7508858911284171  0.6531310494399876
  0.9206489796145741  0.3772991199071650  0.1462700481942986
  0.9230936622639405  0.3754981373179695  0.6494250064818766
  0.9227106802579983  0.8747055810318229  0.1492668092168147
  0.9231203277415234  0.8753898570750278  0.6487304891563512
  0.4197973246206905  0.3761921837599295  0.6017443437113376
  0.4270536888426164  0.8743804405703770  0.0999349702042433
  0.4247637352488819  0.8752591434238955  0.6021726578990064
  0.0774963672548794  0.1242024291693043  0.3527882121088410
  0.0772568615561278  0.1243028114905639  0.8501307841466267
  0.0765481474557868  0.6246338309488811  0.3504494936408686
  0.0775795154803761  0.6242360422250062  0.8524064313015596
  0.5756638714341690  0.1267783208818752  0.3949692729795685
  0.5798852464643510  0.1281702270578559  0.9054771514721842
  0.5768917705699947  0.6270023457385842  0.4011702810977215
  0.5757866961862421  0.6254469021120843  0.8981909165579899
  0.9149820131747867  0.1239651997617579  0.0955638720247082
  0.9124738772580401  0.1252193711659378  0.5951451313238327
  0.9117817655624290  0.6256223851892423  0.0953102212228489
  0.9125799462455406  0.6254237507428981  0.5955148424540557
  0.4072672645732697  0.1187430436726428  0.1544607323534192
  0.4119017555724675  0.1248101870255235  0.6548379430434693
  0.4127235642376937  0.6269718481809391  0.1545306889809093
  0.4111027906200218  0.6259067648077432  0.6552614897939695
  0.0874217095866559  0.3754155618070086  0.4046226490094207
  0.0874266829526373  0.3752970499891696  0.9046480680025031
  0.0877241192505768  0.8742081310535115  0.4053456654110434
  0.0878926700582643  0.8747807179369473  0.9048726343502542
  0.5889818788765190  0.3778879890102565  0.3509730773481783
  0.5890389100809293  0.3747975968919434  0.8385069295015195
  0.5890465614403061  0.8758361850830608  0.3454800696964460
  0.5893220135567822  0.8759669492164801  0.8454327621197217
  0.8429077505388493  0.0223303831962873  0.1483321732290589
  0.8416211362848937  0.0220694139167514  0.6467372116458207
  0.8403458001953223  0.5229313134771869  0.1469529504561573
  0.8422568563768632  0.5223627656216386  0.6476843061072205
  0.3356937726774641  0.2202895881589904  0.0987137187970535
  0.3404626002707947  0.2281201764700663  0.6036376362598525
  0.3439040458777099  0.7325506993554260  0.1057431441747187
  0.3411293730835933  0.7298952539164815  0.6045817890580381
  0.1566287732271901  0.2714522279169365  0.3527055980456371
  0.1558283444147938  0.2711952301369596  0.8519595797995969
  0.1581413006057362  0.7710898803249747  0.3531247082253786
  0.1582970975505918  0.7711690532745566  0.8540561361565355
  0.6588390953948802  0.4808044166364288  0.4044468573930347
  0.6576833636658643  0.4778762720111213  0.8937386165639549
  0.6585868437149713  0.9797986970497059  0.3968622339904903
  0.6592051213361135  0.9789229983925706  0.8988055102428851
  0.1582158996285385  0.4782485172643208  0.3527937710713752
  0.1594655108374860  0.4777548437758392  0.8530815871894812
  0.1581398963520364  0.9777025247544667  0.3546545539319534
  0.1586884596408102  0.9778688187128113  0.8533082989690225
  0.6585733837924335  0.2737775194345021  0.4012380291649726
  0.6599010660160807  0.2702676118458575  0.8807975514089667
  0.6598180328488046  0.7727991907259251  0.3978186641613375
  0.6591860804935133  0.7719474902397772  0.8961984371883713
  0.8546715528423618  0.2297121967214070  0.1508090289481540
  0.8435872077393713  0.2288037033592143  0.6476941752413264
  0.8420651302977461  0.7293292050783180  0.1469207910846376
  0.8422487134488198  0.7289237036188601  0.6468295621461932
  0.3388817366496197  0.0137684255970639  0.1056618845768055
  0.3416015254227442  0.0212257178401906  0.6034555072008037
  0.3379094685741669  0.5279786320905991  0.1012069311331566
  0.3411192037977970  0.5232838958448368  0.6008076418219851
  0.5446202324704849  0.1237095544941856  0.1016696037377528
  0.5500531986277623  0.1258173983782441  0.6006686416367112
  0.5513593444695328  0.6262404709557754  0.1013403961202404
  0.5504655512163936  0.6276486111616149  0.6044280403989410
  0.0549920869505078  0.1216605658194209  0.1464109459115859
  0.0518338188751338  0.1239810821466229  0.6465586985121359
  0.0508069185751094  0.6247433254628969  0.1474696739649347
  0.0515297182495365  0.6252049829323229  0.6479048830894908
  0.4496197984325894  0.3753772415116526  0.4016616980468506
  0.4511818322077794  0.3702132062218303  0.8941950917516388
  0.4502142367540611  0.8750192129445395  0.3978521533813409
  0.4500121944828247  0.8749155824299519  0.8963324138907125
  0.9481195068267174  0.3759588003003153  0.3530705369946059
  0.9484106853238795  0.3764514095279108  0.8525404965493756
  0.9487768107495341  0.8748815861433504  0.3529192332536824
  0.9490860527752688  0.8752746021463642  0.8519179048526776
  0.5917918041536151  0.3809427348317470  0.1952275434408674
  0.5863054199359889  0.3797616020968744  0.6814248967499197
  0.5907915293529341  0.8759046639312231  0.1881549473272975
  0.5906929429071044  0.8769481946411273  0.6880003701975578
  0.0877670897943784  0.3750895746457413  0.0617914523952968
  0.0888147526111740  0.3752585039051277  0.5619920455395783
  0.0874684375797486  0.8743167672774292  0.0622196099854082
  0.0884236567292879  0.8740390384707246  0.5626535249531852
  0.4065195059073239  0.1228496263918988  0.3120052044189780
  0.4122044153670758  0.1245064073421381  0.8121124343674900
  0.4132730592192019  0.6259978064179565  0.3122047186753101
  0.4095339861590573  0.6236394450047753  0.8126088089290979
  0.9111504268541369  0.1255262647609187  0.4377558474964686
  0.9124954776097756  0.1241902672689165  0.9385766105547879
  0.9117010470776890  0.6251750482537702  0.4381008849798846
  0.9111053335882965  0.6254499333505659  0.9378885639338002
 
             NaN             NaN             NaN
             NaN             NaN             NaN
             NaN             NaN             NaN
             NaN             NaN             NaN
             NaN             NaN             NaN
             NaN             NaN             NaN
             NaN             NaN             NaN
             NaN             NaN             NaN
             NaN             NaN             NaN
             NaN             NaN             NaN
             NaN             NaN             NaN
             NaN             NaN             NaN
             NaN             NaN             NaN
             NaN             NaN             NaN
             NaN             NaN             NaN
             NaN             NaN             NaN
             NaN             NaN             NaN
             NaN             NaN             NaN
             NaN             NaN             NaN
             NaN             NaN             NaN
             NaN             NaN             NaN
             NaN             NaN             NaN
             NaN             NaN             NaN
             NaN             NaN             NaN
             NaN             NaN             NaN
             NaN             NaN             NaN
             NaN             NaN             NaN
             NaN             NaN             NaN
             NaN             NaN             NaN
             NaN             NaN             NaN
             NaN             NaN             NaN
             NaN             NaN             NaN
             NaN             NaN             NaN
             NaN             NaN             NaN
             NaN             NaN             NaN
             NaN             NaN             NaN
             NaN             NaN             NaN
             NaN             NaN             NaN
             NaN             NaN             NaN
             NaN             NaN             NaN
             NaN             NaN             NaN
             NaN             NaN             NaN
             NaN             NaN             NaN
             NaN             NaN             NaN
             NaN             NaN             NaN
             NaN             NaN             NaN
             NaN             NaN             NaN
             NaN             NaN             NaN
             NaN             NaN             NaN
             NaN             NaN             NaN
             NaN             NaN             NaN
             NaN             NaN             NaN
             NaN             NaN             NaN
             NaN             NaN             NaN
             NaN             NaN             NaN
             NaN             NaN             NaN
             NaN             NaN             NaN
             NaN             NaN             NaN
             NaN             NaN             NaN
             NaN             NaN             NaN
             NaN             NaN             NaN
             NaN             NaN             NaN
             NaN             NaN             NaN
             NaN             NaN             NaN
             NaN             NaN             NaN
             NaN             NaN             NaN
             NaN             NaN             NaN
             NaN             NaN             NaN
             NaN             NaN             NaN
             NaN             NaN             NaN
             NaN             NaN             NaN
             NaN             NaN             NaN
             NaN             NaN             NaN
             NaN             NaN             NaN
             NaN             NaN             NaN
             NaN             NaN             NaN
             NaN             NaN             NaN
             NaN             NaN             NaN
             NaN             NaN             NaN
             NaN             NaN             NaN
             NaN             NaN             NaN
             NaN             NaN             NaN
             NaN             NaN             NaN
             NaN             NaN             NaN
             NaN             NaN             NaN
             NaN             NaN             NaN
             NaN             NaN             NaN
             NaN             NaN             NaN
             NaN             NaN             NaN
             NaN             NaN             NaN
             NaN             NaN             NaN
             NaN             NaN             NaN
             NaN             NaN             NaN
             NaN             NaN             NaN
             NaN             NaN             NaN
             NaN             NaN             NaN
             NaN             NaN             NaN
             NaN             NaN             NaN
             NaN             NaN             NaN
             NaN             NaN             NaN
             NaN             NaN             NaN
             NaN             NaN             NaN
             NaN             NaN             NaN
             NaN             NaN             NaN
             NaN             NaN             NaN
             NaN             NaN             NaN
             NaN             NaN             NaN
             NaN             NaN             NaN
             NaN             NaN             NaN
             NaN             NaN             NaN
             NaN             NaN             NaN
             NaN             NaN             NaN
             NaN             NaN             NaN
             NaN             NaN             NaN
             NaN             NaN             NaN
             NaN             NaN             NaN
             NaN             NaN             NaN
             NaN             NaN             NaN
             NaN             NaN             NaN
             NaN             NaN             NaN
             NaN             NaN             NaN
             NaN             NaN             NaN
             NaN             NaN             NaN
             NaN             NaN             NaN
             NaN             NaN             NaN
             NaN             NaN             NaN
             NaN             NaN             NaN
