Li46 P16 O64
1.0
10.650684 -0.005906 -0.015149
-0.006900 12.448842 -0.007945
-0.014279 -0.006432 10.080956
Li P O
46 16 64
direct
0.348242 0.250159 0.129647 Li
0.664758 0.251417 0.600092 Li
0.662396 0.749040 0.098447 Li
0.663524 0.751311 0.599694 Li
0.164976 0.494152 0.150443 Li
0.164358 0.499668 0.651433 Li
0.164528 -0.003002 0.151354 Li
0.164842 -0.000275 0.651464 Li
0.338163 0.001517 0.399284 Li
0.338652 0.002036 0.905908 Li
0.340402 0.497957 0.394839 Li
0.338239 0.495616 0.907963 Li
0.833217 0.248926 0.346253 Li
0.832807 0.249092 0.854345 Li
0.837264 0.748391 0.349308 Li
0.837083 0.748771 0.849487 Li
0.339505 0.252555 0.388832 Li
0.338470 0.254836 0.912118 Li
0.338031 0.749475 0.399050 Li
0.337799 0.750160 0.903799 Li
0.837980 0.002156 0.348303 Li
0.837728 0.002030 0.849904 Li
0.833847 0.499892 0.348470 Li
0.833326 0.499958 0.851389 Li
0.652099 0.490622 0.094759 Li
0.665074 0.502078 0.597941 Li
0.663636 1.000657 0.099584 Li
0.663526 1.001123 0.599863 Li
0.164751 0.252131 0.649900 Li
0.164157 0.750857 0.151130 Li
0.164371 0.751628 0.651640 Li
0.924362 0.370513 0.149395 Li
0.923972 0.374865 0.649993 Li
0.925008 0.875583 0.149445 Li
0.926469 0.875877 0.649354 Li
0.428920 0.374938 0.603841 Li
0.430717 0.876016 0.103095 Li
0.427468 0.876364 0.600888 Li
0.076309 0.128791 0.344460 Li
0.075722 0.127894 0.856046 Li
0.074415 0.622692 0.350182 Li
0.074664 0.623401 0.852650 Li
0.573038 0.130102 0.395284 Li
0.571894 0.133975 0.909790 Li
0.573272 0.622385 0.399141 Li
0.570718 0.622325 0.898606 Li
0.912974 0.122634 0.098890 P
0.913342 0.124451 0.597476 P
0.909741 0.624871 0.098010 P
0.912388 0.626395 0.597687 P
0.407727 0.117244 0.151223 P
0.411068 0.124536 0.653348 P
0.407623 0.630236 0.150793 P
0.409889 0.627098 0.652724 P
0.088141 0.375186 0.405111 P
0.085593 0.376332 0.901516 P
0.089034 0.874487 0.404211 P
0.089013 0.874374 0.903440 P
0.592272 0.376654 0.350336 P
0.586699 0.375174 0.836030 P
0.591699 0.874545 0.348417 P
0.590907 0.874915 0.846221 P
0.840587 0.019993 0.147805 O
0.843235 0.021586 0.647855 O
0.838851 0.523365 0.147772 O
0.842894 0.525030 0.650381 O
0.333774 0.211644 0.093793 O
0.341470 0.226128 0.600872 O
0.344248 0.738622 0.107295 O
0.341186 0.730422 0.601510 O
0.157329 0.272092 0.359427 O
0.155496 0.274201 0.850439 O
0.157951 0.771525 0.353594 O
0.159010 0.771967 0.852606 O
0.660682 0.480018 0.407066 O
0.654285 0.477434 0.894391 O
0.661009 0.977199 0.399683 O
0.662001 0.976096 0.897700 O
0.158668 0.477121 0.352962 O
0.155595 0.478509 0.849079 O
0.158962 0.976408 0.354048 O
0.159251 0.976749 0.853711 O
0.660748 0.273805 0.405885 O
0.654842 0.272225 0.884248 O
0.660642 0.771885 0.400512 O
0.659236 0.771157 0.896129 O
0.849786 0.225332 0.152728 O
0.843925 0.226220 0.649076 O
0.840597 0.728285 0.148166 O
0.842615 0.729347 0.647566 O
0.340498 0.009162 0.109584 O
0.341842 0.021035 0.601681 O
0.328620 0.537193 0.095071 O
0.340519 0.525647 0.598967 O
0.544600 0.113504 0.099592 O
0.548638 0.124039 0.600604 O
0.545005 0.627063 0.097058 O
0.548106 0.628149 0.602215 O
0.050791 0.116232 0.148654 O
0.050875 0.123806 0.650680 O
0.047256 0.625484 0.151174 O
0.050248 0.627394 0.649642 O
0.454452 0.375890 0.404784 O
0.445768 0.375582 0.870126 O
0.453854 0.874623 0.399917 O
0.453225 0.875104 0.897480 O
0.950423 0.375973 0.352512 O
0.947574 0.375624 0.848022 O
0.951098 0.874369 0.351853 O
0.951674 0.874474 0.849366 O
0.598599 0.378747 0.199830 O
0.598317 0.379283 0.680954 O
0.593910 0.873214 0.193590 O
0.591345 0.875316 0.690787 O
0.083565 0.378705 0.055328 O
0.087209 0.378026 0.560515 O
0.087073 0.872898 0.058272 O
0.089186 0.874526 0.559543 O
0.409514 0.122963 0.307512 O
0.410001 0.123826 0.808158 O
0.410844 0.626384 0.306584 O
0.407890 0.626841 0.807673 O
0.912960 0.124371 0.442375 O
0.910752 0.123860 0.942983 O
0.911637 0.625342 0.442510 O
0.910347 0.625551 0.942472 O
