Li16 Co18 O36
1.0
8.119601 -0.005460 2.412695
3.699038 7.228271 2.412700
-0.026720 -0.016277 10.061426
Li Co O
16 18 36
direct
0.316993 0.650305 0.499064 Li
0.337572 0.329041 0.999971 Li
0.336538 0.670004 0.999071 Li
0.334078 0.996369 0.002553 Li
0.334729 0.006758 0.504296 Li
0.670366 0.332528 0.997401 Li
0.659995 0.331906 0.495678 Li
0.663018 0.667450 0.002556 Li
0.673316 0.668118 0.504348 Li
0.666693 0.999976 0.999988 Li
0.666670 0.000010 0.499985 Li
0.996741 0.330044 0.000941 Li
0.016411 0.349610 0.500963 Li
0.995795 0.670914 0.000016 Li
0.999257 0.003619 0.997460 Li
0.998642 0.993302 0.495665 Li
0.166312 0.166753 0.248421 Co
0.166969 0.166148 0.752419 Co
0.167135 0.500472 0.251477 Co
0.166176 0.499533 0.748544 Co
0.166375 0.833899 0.247540 Co
0.167030 0.833223 0.751618 Co
0.499918 0.166845 0.250315 Co
0.499776 0.166738 0.749716 Co
0.500508 0.499694 0.247586 Co
0.499861 0.500380 0.751609 Co
0.499776 0.832995 0.250051 Co
0.499019 0.832368 0.754525 Co
0.834273 0.167679 0.245465 Co
0.833608 0.166968 0.749943 Co
0.833479 0.499604 0.248364 Co
0.832771 0.500327 0.752440 Co
0.833590 0.833283 0.250244 Co
0.833384 0.833118 0.749747 Co
0.250922 0.255944 0.354605 O
0.252635 0.257387 0.859995 O
0.254392 0.587974 0.350843 O
0.250710 0.584079 0.859497 O
0.252116 0.920542 0.356568 O
0.250604 0.919853 0.863087 O
0.592583 0.252938 0.352573 O
0.587029 0.253271 0.859277 O
0.587312 0.585345 0.356533 O
0.586438 0.583955 0.863140 O
0.587198 0.920415 0.358663 O
0.587816 0.921188 0.860725 O
0.920278 0.253654 0.355243 O
0.919441 0.252773 0.860783 O
0.922735 0.584277 0.354515 O
0.924011 0.585978 0.860024 O
0.919598 0.926004 0.352525 O
0.919921 0.920417 0.859300 O
0.082727 0.080220 0.136864 O
0.081286 0.079411 0.643444 O
0.082649 0.415842 0.140525 O
0.078795 0.412194 0.649156 O
0.080737 0.742633 0.139960 O
0.082390 0.743985 0.645467 O
0.413407 0.079567 0.140744 O
0.413731 0.074048 0.647414 O
0.409232 0.413955 0.140042 O
0.410657 0.415739 0.645435 O
0.413945 0.747216 0.139190 O
0.413018 0.746354 0.644788 O
0.745454 0.078849 0.139264 O
0.746196 0.079519 0.641360 O
0.746809 0.416084 0.136881 O
0.746069 0.414632 0.643448 O
0.746350 0.746699 0.140692 O
0.740704 0.747078 0.647443 O
