Na15 V32 O64
1.0
9.215091 0.000123 -0.002187
0.000154 11.523712 0.000081
-0.002536 0.000076 10.709306
Na V O
15 32 64
direct
0.740831 0.333133 0.153821 Na
0.742014 0.062533 0.150976 Na
0.740794 0.791899 0.153754 Na
0.241555 0.062581 0.348183 Na
0.241829 0.312914 0.348871 Na
0.242182 0.562546 0.347574 Na
0.241866 0.812321 0.348917 Na
0.258204 0.187239 0.849054 Na
0.258661 0.437346 0.848218 Na
0.258600 0.687505 0.848338 Na
0.258275 0.937628 0.848904 Na
0.758337 0.187914 0.650971 Na
0.758367 0.437037 0.651056 Na
0.758325 0.687813 0.650962 Na
0.758388 0.936947 0.651015 Na
0.586989 0.062513 0.896921 V
0.586087 0.312759 0.895130 V
0.590226 0.562468 0.899849 V
0.586024 0.812259 0.895132 V
0.085429 0.062532 0.603793 V
0.088277 0.312419 0.603912 V
0.086400 0.562508 0.603703 V
0.088351 0.812614 0.603868 V
0.414246 0.187961 0.104154 V
0.412121 0.438558 0.103588 V
0.412126 0.686452 0.103671 V
0.414269 0.936987 0.104153 V
0.912810 0.188033 0.395630 V
0.912593 0.437953 0.396050 V
0.912657 0.687063 0.395978 V
0.912669 0.936988 0.395678 V
0.561942 0.062692 0.384774 V
0.559786 0.312769 0.386530 V
0.564721 0.562626 0.379866 V
0.559788 0.812113 0.386588 V
0.060594 0.062413 0.114721 V
0.061655 0.312157 0.114688 V
0.053298 0.562470 0.115861 V
0.061656 0.812802 0.114689 V
0.438593 0.184909 0.614913 V
0.440345 0.440931 0.614277 V
0.440318 0.683978 0.614325 V
0.438664 0.940223 0.614861 V
0.938704 0.187765 0.885559 V
0.939705 0.437584 0.885130 V
0.939596 0.687426 0.885059 V
0.938747 0.937159 0.885508 V
0.793158 0.062515 0.853719 O
0.793030 0.312511 0.852881 O
0.794348 0.562498 0.852591 O
0.792967 0.812437 0.852847 O
0.291246 0.062524 0.647911 O
0.295154 0.312538 0.645340 O
0.292407 0.562504 0.647568 O
0.295189 0.812488 0.645273 O
0.207156 0.187247 0.146749 O
0.205306 0.437479 0.145980 O
0.205320 0.687490 0.145933 O
0.207195 0.937729 0.146937 O
0.706509 0.187789 0.354944 O
0.706657 0.435462 0.358517 O
0.706783 0.689496 0.358436 O
0.706329 0.937207 0.355081 O
0.888913 0.062538 0.519326 O
0.889892 0.312426 0.520010 O
0.889417 0.562505 0.520190 O
0.889881 0.812557 0.519987 O
0.389252 0.062510 0.980905 O
0.388021 0.312160 0.980156 O
0.387169 0.562494 0.979775 O
0.387953 0.812800 0.980186 O
0.111304 0.187480 0.479967 O
0.111716 0.437436 0.480244 O
0.111686 0.687581 0.480227 O
0.111282 0.937583 0.479967 O
0.611416 0.188478 0.019933 O
0.607766 0.437466 0.017016 O
0.607728 0.687525 0.016967 O
0.611379 0.936483 0.019933 O
0.978959 0.062515 0.282689 O
0.979199 0.312843 0.282519 O
0.980529 0.562520 0.284693 O
0.979190 0.812144 0.282524 O
0.480412 0.062576 0.217259 O
0.478965 0.313125 0.217442 O
0.475707 0.562549 0.217242 O
0.479031 0.811753 0.217458 O
0.020432 0.187630 0.717032 O
0.021137 0.437002 0.716838 O
0.021082 0.687968 0.716778 O
0.020420 0.937359 0.716992 O
0.519717 0.186580 0.782957 O
0.521306 0.438288 0.782427 O
0.521246 0.686759 0.782435 O
0.519697 0.938529 0.782963 O
0.580768 0.062594 0.570472 O
0.575678 0.312122 0.572223 O
0.581638 0.562539 0.568758 O
0.575632 0.812833 0.572253 O
0.078013 0.062459 0.929441 O
0.078993 0.311850 0.928616 O
0.078102 0.562488 0.928339 O
0.078993 0.813084 0.928593 O
0.421394 0.186827 0.429581 O
0.422835 0.438300 0.429219 O
0.422620 0.686759 0.429302 O
0.421642 0.938316 0.429510 O
0.921684 0.188106 0.070538 O
0.925125 0.436852 0.068478 O
0.925124 0.688075 0.068450 O
0.921621 0.936780 0.070485 O
