Li47 P16 O64                            
   1.00000000000000     
    10.5755540000000003    0.0009290000000000   -0.0008060000000000
     0.0010840000000000   12.3261950000000002    0.0013900000000000
    -0.0007830000000000    0.0011050000000000    9.9835609999999999
   Li   P    O 
    47    16    64
Direct
  0.2741726362499781  0.3510598659878242  0.1546817430212468
  0.6598636845580308  0.2519519033934350  0.0974274651958822
  0.6673211298854497  0.2478078989397569  0.5990974704155293
  0.6571651891177476  0.7471082518490880  0.0980131583708018
  0.6638266412567291  0.7503376618293536  0.5994081229954769
  0.1522221088054072  0.5146170828985532  0.1492418747765820
  0.1650419863394418  0.5014084991407339  0.6504503118362419
  0.1643716243206680  0.0009714897625314  0.1492686227538678
  0.1639383032117815  1.0006331756788465  0.6512492373500572
  0.3370047443044145  0.0002033989928067  0.3992525274759129
  0.3367431661959280 -0.0011062317096791  0.9009035614517857
  0.3375197058930300  0.5007874516656875  0.4017742155384571
  0.3380149385787704  0.4980069583946476  0.9056919422476584
  0.8376585934941490  0.2494148347825990  0.3483261882774797
  0.8370695299678695  0.2498904875209428  0.8521368770322268
  0.8350386063265560  0.7484497722370215  0.3489697061687821
  0.8356123492637909  0.7498201191259100  0.8487242442168985
  0.3403447585252171  0.2457613481278954  0.4059204062283752
  0.3382892899638593  0.2483140445537085  0.8997454521521256
  0.3369070966038197  0.7480642562626393  0.4008260129607400
  0.3350047603982253  0.7472908239911688  0.9014295529593873
  0.8381476158333161  0.0020201817171156  0.3501638138639881
  0.8361408326894288  0.0008371048962294  0.8468843732219106
  0.8371200336925029  0.4988199569754169  0.3459232391077532
  0.8361818080796629  0.5010197706224713  0.8542632163672150
  0.6583570944957573  0.4946974184412181  0.0971115912402698
  0.6673173153162223  0.5003102688856467  0.5993528788028548
  0.6622210712177090  0.9935691446721300  0.0971973208447234
  0.6648663140240095  0.9973237822014506  0.5982642461713094
  0.1646503152293629  0.2527599437660117  0.6500226936601536
  0.1625115999695360  0.7540223650820154  0.1527136721602394
  0.1640940145683924  0.7527744874549501  0.6503943631959076
  0.9371406316656723  0.3690183996485347  0.1464406434279471
  0.9271525964276616  0.3760220053156378  0.6537096591039476
  0.9230651831429899  0.8742314358414132  0.1477153232395581
  0.9259025146950984  0.8756648275679600  0.6485066467856875
  0.4258040060210520  0.3745086227494425  0.6084874975064868
  0.4239040214611617  0.8711906791973328  0.1017603216027150
  0.4256492154367746  0.8742973661961605  0.5999290580995101
  0.0798621853778711  0.1340183603351700  0.3411300511342740
  0.0767617942119564  0.1278838424513458  0.8555024109341125
  0.0732874766597955  0.6280374855580886  0.3546800414086638
  0.0734143353644448  0.6265915837354614  0.8494249245810284
  0.5763798758631851  0.1235301012783548  0.3980190286886640
  0.5752006407605071  0.1226762458315441  0.8977255493056771
  0.5739694252373726  0.6234798154911363  0.3993222194423186
  0.5722226566330179  0.6225757127159052  0.8975822335745673
  0.9082985097095890  0.1226170313191819  0.0961279747108856
  0.9141351641114263  0.1262440018396062  0.5970381589344095
  0.9069346100244168  0.6269703204519858  0.0971876141484567
  0.9116846705198947  0.6252689580601445  0.5972835100704242
  0.4136548113769549  0.1221390040599049  0.1515152568360998
  0.4124432072640012  0.1229039470284310  0.6534819386232982
  0.4063939765799234  0.6214591498658142  0.1536230475933054
  0.4112529045138318  0.6245831417374094  0.6533864310634055
  0.0916811499173367  0.3769814757544382  0.4028876400627364
  0.0932433727587948  0.3778139445975105  0.9050571473655645
  0.0893080279436568  0.8766030011748659  0.4029735772728562
  0.0885062890101431  0.8758037981357467  0.9029696280488212
  0.5915593213478545  0.3736533402458775  0.3493623583226888
  0.5877101983106791  0.3737809544224558  0.8405891881228681
  0.5884350830108399  0.8733665316584724  0.3463759365730629
  0.5879970324440484  0.8726800192278236  0.8459510067291757
  0.8355041717754459  0.0197749751801219  0.1467750595080144
  0.8425676965777472  0.0226362454473843  0.6464097376735369
  0.8404958614509714  0.5215527156646548  0.1462071756955218
  0.8437420800791733  0.5222790980450736  0.6524175315723494
  0.3477750003019156  0.2223436420053438  0.0935600933821792
  0.3434185339342909  0.2271963033761585  0.6034621246569088
  0.3384199030576484  0.7265888686476615  0.1027379556647574
  0.3415309663439851  0.7279677930915228  0.6018160932450141
  0.1682407172246073  0.2766112498854034  0.3560207243572207
  0.1604141362587359  0.2748397465722385  0.8498209623145969
  0.1598798628843985  0.7729941156942423  0.3533587355474708
  0.1584431722858663  0.7724381914647028  0.8515171212511181
  0.6595976566428723  0.4775360470086127  0.4023037111756427
  0.6558797716941851  0.4765743152990397  0.8962631562863995
  0.6593474752150900  0.9768175637408016  0.3965873103280237
  0.6590852571357523  0.9756011595740565  0.8972724147054294
  0.1590370665217772  0.4814295969146667  0.3496783677137796
  0.1590421590822374  0.4811313080920810  0.8477610511043383
  0.1592003597468428  0.9795812020060229  0.3509623010996795
  0.1592139292051789  0.9790442041063753  0.8523796252034463
  0.6598858588115488  0.2699740743933598  0.4027724725827752
  0.6548678661097428  0.2703911223970535  0.8963518443311147
  0.6581125635812956  0.7702002800486746  0.3984035589827386
  0.6574593219799094  0.7689014609513751  0.8967870381987311
  0.8402761075324369  0.2272121332547531  0.1472566268048859
  0.8441702610674666  0.2292001500756080  0.6503723473765511
  0.8341758254529180  0.7288807241157096  0.1478589911730706
  0.8413952928147668  0.7288125752606234  0.6478743099210350
  0.3447140154443646  0.0179176497769909  0.1030815541008380
  0.3415730001767796  0.0207186374169337  0.6003033297218574
  0.3306419868310042  0.5207199121456959  0.1056600808951021
  0.3425060858250029  0.5213952057457835  0.5997656748810556
  0.5524370244082369  0.1204850449825235  0.1013692461239830
  0.5510547215911503  0.1227829764915139  0.6011195988402110
  0.5439641243601164  0.6201459272710900  0.0981531541711616
  0.5504539761158292  0.6248755051770539  0.6027689886648088
  0.0444646145004857  0.1174413534245710  0.1503783443343477
  0.0519946825405648  0.1259828817424221  0.6507092995693434
  0.0439491933585433  0.6322504383884237  0.1525336824820346
  0.0511015840037590  0.6272625919128118  0.6465137530830645
  0.4511136386649481  0.3735873371429599  0.3974479648677333
  0.4457468969221920  0.3738633607554308  0.8741496514631161
  0.4500620024552441  0.8743317827253849  0.3988871286821743
  0.4497452960779871  0.8727039436099188  0.8988713474421146
  0.9539688905202065  0.3733882786265454  0.3480311240508101
  0.9515811807642929  0.3757534772861426  0.8611343740033565
  0.9508419827911612  0.8750853264085615  0.3499758290148374
  0.9500781107949658  0.8757631671543681  0.8501563928504802
  0.5985699034406076  0.3731157071921213  0.1938818678565475
  0.5984603139275819  0.3739706418538289  0.6843902992468432
  0.5876061220217503  0.8720187974326741  0.1899337671631598
  0.5885828620191742  0.8738211370811840  0.6897211115096469
  0.1026955438663538  0.3821631932837670  0.0604940726031710
  0.0886110452492982  0.3790834832337545  0.5593984747427980
  0.0881961602109608  0.8757308050409506  0.0593138043852850
  0.0891290506936600  0.8770909984957710  0.5592527065505536
  0.4118833353655303  0.1246377321285158  0.3071262793383689
  0.4117845637446674  0.1213966274224438  0.8094226610460731
  0.4104495339097672  0.6237050809169278  0.3099801671589937
  0.4089225279681921  0.6237328511102060  0.8095218943009195
  0.9143019452390115  0.1272101518867546  0.4406565295541713
  0.9085595385724224  0.1237136841127824  0.9395780725166695
  0.9086091227502007  0.6235001791236623  0.4409453802287281
  0.9099476849245764  0.6270281741506861  0.9410642876980930
 
             NaN             NaN             NaN
             NaN             NaN             NaN
             NaN             NaN             NaN
             NaN             NaN             NaN
             NaN             NaN             NaN
             NaN             NaN             NaN
             NaN             NaN             NaN
             NaN             NaN             NaN
             NaN             NaN             NaN
             NaN             NaN             NaN
             NaN             NaN             NaN
             NaN             NaN             NaN
             NaN             NaN             NaN
             NaN             NaN             NaN
             NaN             NaN             NaN
             NaN             NaN             NaN
             NaN             NaN             NaN
             NaN             NaN             NaN
             NaN             NaN             NaN
             NaN             NaN             NaN
             NaN             NaN             NaN
             NaN             NaN             NaN
             NaN             NaN             NaN
             NaN             NaN             NaN
             NaN             NaN             NaN
             NaN             NaN             NaN
             NaN             NaN             NaN
             NaN             NaN             NaN
             NaN             NaN             NaN
             NaN             NaN             NaN
             NaN             NaN             NaN
             NaN             NaN             NaN
             NaN             NaN             NaN
             NaN             NaN             NaN
             NaN             NaN             NaN
             NaN             NaN             NaN
             NaN             NaN             NaN
             NaN             NaN             NaN
             NaN             NaN             NaN
             NaN             NaN             NaN
             NaN             NaN             NaN
             NaN             NaN             NaN
             NaN             NaN             NaN
             NaN             NaN             NaN
             NaN             NaN             NaN
             NaN             NaN             NaN
             NaN             NaN             NaN
             NaN             NaN             NaN
             NaN             NaN             NaN
             NaN             NaN             NaN
             NaN             NaN             NaN
             NaN             NaN             NaN
             NaN             NaN             NaN
             NaN             NaN             NaN
             NaN             NaN             NaN
             NaN             NaN             NaN
             NaN             NaN             NaN
             NaN             NaN             NaN
             NaN             NaN             NaN
             NaN             NaN             NaN
             NaN             NaN             NaN
             NaN             NaN             NaN
             NaN             NaN             NaN
             NaN             NaN             NaN
             NaN             NaN             NaN
             NaN             NaN             NaN
             NaN             NaN             NaN
             NaN             NaN             NaN
             NaN             NaN             NaN
             NaN             NaN             NaN
             NaN             NaN             NaN
             NaN             NaN             NaN
             NaN             NaN             NaN
             NaN             NaN             NaN
             NaN             NaN             NaN
             NaN             NaN             NaN
             NaN             NaN             NaN
             NaN             NaN             NaN
             NaN             NaN             NaN
             NaN             NaN             NaN
             NaN             NaN             NaN
             NaN             NaN             NaN
             NaN             NaN             NaN
             NaN             NaN             NaN
             NaN             NaN             NaN
             NaN             NaN             NaN
             NaN             NaN             NaN
             NaN             NaN             NaN
             NaN             NaN             NaN
             NaN             NaN             NaN
             NaN             NaN             NaN
             NaN             NaN             NaN
             NaN             NaN             NaN
             NaN             NaN             NaN
             NaN             NaN             NaN
             NaN             NaN             NaN
             NaN             NaN             NaN
             NaN             NaN             NaN
             NaN             NaN             NaN
             NaN             NaN             NaN
             NaN             NaN             NaN
             NaN             NaN             NaN
             NaN             NaN             NaN
             NaN             NaN             NaN
             NaN             NaN             NaN
             NaN             NaN             NaN
             NaN             NaN             NaN
             NaN             NaN             NaN
             NaN             NaN             NaN
             NaN             NaN             NaN
             NaN             NaN             NaN
             NaN             NaN             NaN
             NaN             NaN             NaN
             NaN             NaN             NaN
             NaN             NaN             NaN
             NaN             NaN             NaN
             NaN             NaN             NaN
             NaN             NaN             NaN
             NaN             NaN             NaN
             NaN             NaN             NaN
             NaN             NaN             NaN
             NaN             NaN             NaN
             NaN             NaN             NaN
             NaN             NaN             NaN
             NaN             NaN             NaN
             NaN             NaN             NaN
             NaN             NaN             NaN
