Li47 P16 O64                            
   1.00000000000000     
    10.5593280000000007    0.0005610000000000   -0.0043110000000000
     0.0006550000000000   12.3534030000000001   -0.0002520000000000
    -0.0040820000000000   -0.0002090000000000    9.9779380000000000
   Li   P    O 
    47    16    64
Direct
  0.1868527534100537  0.2732975096442351  0.1570059210717977
  0.6588281497967242  0.2517677247954412  0.0978865089512864
  0.6677654972526299  0.2479383282496372  0.5988405719958169
  0.6621362622366961  0.7497894553842092  0.0976980399672440
  0.6644047673177790  0.7506532820929971  0.5991753536784168
  0.1608903277191027  0.5049860619159150  0.1503036426177005
  0.1649671978724712  0.5005622015995718  0.6505565463103474
  0.1636855345579533  0.0004229328892132  0.1499470482872208
  0.1644130246619051 -0.0000025253226359  0.6516261883959669
  0.3369225741059528  0.0005402594927842  0.3996513768724358
  0.3371498048056007  0.9997902989940287  0.9011140236580947
  0.3385046164127444  0.4996834559349579  0.3978619813996140
  0.3380682451535477  0.4972122082562823  0.9071021943519789
  0.8386500988240574  0.2490735374342858  0.3484032490222407
  0.8366832720359813  0.2491561108783844  0.8505364533574764
  0.8362744473353474  0.7490710088423080  0.3490869017835628
  0.8366931611036810  0.7495781838525890  0.8486152284355136
  0.3412603421194529  0.2490499839537770  0.4030500041548836
  0.3396613511083853  0.2513022197215060  0.9034509995645189
  0.3370360429710563  0.7492732038530497  0.4004834738843864
  0.3361956933118728  0.7488449583287687  0.9010709240419449
  0.8386610913852687  0.0021399384400979  0.3496645403549577
  0.8374993688996357  0.0015074716640067  0.8478377432387940
  0.8380877582197354  0.5007808535273646  0.3474533969159334
  0.8361104228744877  0.5014471435644325  0.8515476840342179
  0.6574925976057673  0.4967490474693680  0.0975748277704937
  0.6677976625715389  0.5010513168942323  0.5990945762700258
  0.6660110223328057  0.9966281555829068  0.0981853067097238
  0.6654744307732620  0.9982449044372614  0.5984304629459979
  0.1651706286288818  0.2522340167779812  0.6520174262005027
  0.1631666087997920  0.7537740430267981  0.1521868259258014
  0.1645095663860713  0.7524857227844667  0.6505898142531269
  0.9265573378220979  0.3737455342776765  0.1473043397418831
  0.9262393509467659  0.3756143570885027  0.6508317503265747
  0.9242334389060151  0.8752249258334017  0.1488053722973304
  0.9260711157816703  0.8756030731998995  0.6482562927119057
  0.4260578240344436  0.3752299567097417  0.6110141179197190
  0.4286055398796624  0.8743983701771546  0.1005589238559012
  0.4258722518911111  0.8748048720988799  0.6004049482228602
  0.0778703761503176  0.1295273243353035  0.3460148409437679
  0.0769611253241379  0.1269700787831431  0.8548355395289648
  0.0745882171100862  0.6274237376343879  0.3526445939968681
  0.0750437314532687  0.6260265566813942  0.8507962630734955
  0.5765274251484295  0.1239990743271921  0.3983858543594278
  0.5750690010406698  0.1234518984095332  0.8983617579667645
  0.5752165003960974  0.6244375874663973  0.3994257260916885
  0.5729802878052590  0.6239495429875430  0.8972840014307838
  0.9119050879746619  0.1254643813261668  0.0967444723212578
  0.9144631778620665  0.1256304741038784  0.5970300218144936
  0.9093476007222979  0.6263107433179770  0.0968806255948343
  0.9125727384757746  0.6259079035002623  0.5970106777292747
  0.4132473021994216  0.1207423906897242  0.1522338294995004
  0.4124502363543540  0.1238768820662957  0.6534698957011411
  0.4093907115917114  0.6282492714495563  0.1525603547615633
  0.4114650645818033  0.6249048046183413  0.6532188686691223
  0.0906751911812013  0.3774359599548923  0.4035748437124294
  0.0893947888501318  0.3769995794731008  0.9037196717423102
  0.0891665371296168  0.8764534797210577  0.4032855626790159
  0.0886432441883702  0.8757082751973932  0.9035827685651879
  0.5932234191042689  0.3743316848014310  0.3496953843471607
  0.5892092800064018  0.3744295602135491  0.8401900514498336
  0.5898343026747677  0.8744048075604592  0.3468145687937928
  0.5893062932260449  0.8740303382085969  0.8452347069331919
  0.8419918561754611  0.0218863482808378  0.1481947713594153
  0.8433214589375756  0.0223133692283156  0.6467439441504248
  0.8400602991987627  0.5224110534827898  0.1470421910652206
  0.8439193003542861  0.5228877220052474  0.6506034031605678
  0.3402147915952642  0.2178972243830346  0.0935179637328623
  0.3432868741899610  0.2276502447615900  0.6022195129529533
  0.3429513804740030  0.7349530076681126  0.1055144388208708
  0.3420017572784937  0.7282450382398319  0.6011326483847450
  0.1646019781787811  0.2760051649122449  0.3523077338336350
  0.1593703303835415  0.2739120491881542  0.8525584345667981
  0.1595782769076698  0.7731862781677999  0.3526318646710751
  0.1590420574434948  0.7725282468199107  0.8525215805322043
  0.6615658904437783  0.4781729213374530  0.4024745598130253
  0.6559179708058553  0.4773217033163880  0.8969384563444711
  0.6603831270894130  0.9775296297005206  0.3978958449550048
  0.6599026816237900  0.9767816743581168  0.8971921357407291
  0.1586374244243767  0.4816341049294789  0.3525342713978998
  0.1578298173088180  0.4800415539191064  0.8500002363045005
  0.1586935900603335  0.9795886730279683  0.3512825011810676
  0.1594160228008866  0.9787934425581274  0.8530432490650445
  0.6616349551591374  0.2705943257886890  0.4025966757596801
  0.6554470219887015  0.2712357356065034  0.8968493005957547
  0.6590635462474662  0.7710599302040330  0.3990243770494067
  0.6585454421544321  0.7704183335634163  0.8965079974299083
  0.8402901530429349  0.2281968085518955  0.1473527405290791
  0.8441939907192356  0.2283285765056413  0.6494784585671208
  0.8380194721640428  0.7290473330091412  0.1477230377470041
  0.8420982278836031  0.7290385961106362  0.6479270960492988
  0.3448531106527730  0.0151706566876034  0.1049655143272099
  0.3420312037663192  0.0213154260387729  0.6007316237904006
  0.3309868798721854  0.5328433565058168  0.0970411362575402
  0.3426251695647848  0.5218563947261393  0.5997290869561195
  0.5523128837063480  0.1212145859406945  0.1009861174075406
  0.5514573986417162  0.1236800558861027  0.6014952560404943
  0.5473965095542588  0.6251367128073487  0.0984608978657566
  0.5509877143369327  0.6250467328067369  0.6026032341987834
  0.0505638311153182  0.1263058144156888  0.1485300463304131
  0.0527549960097397  0.1255907249648822  0.6504699516903671
  0.0476021634861374  0.6285622974170526  0.1506576956511733
  0.0519063817465457  0.6270205661783937  0.6474736433596311
  0.4539976353935974  0.3745498978370402  0.4004209417837015
  0.4459055680495435  0.3748143765028553  0.8709343980248131
  0.4509156230585023  0.8750581436479719  0.3984415870555993
  0.4504332874553306  0.8742602778213365  0.8968301056392052
  0.9523124413121830  0.3748091219785373  0.3499890144683704
  0.9494500473726650  0.3755996997983082  0.8541610616516545
  0.9501808791872391  0.8752740606485443  0.3513043100303646
  0.9502038394288718  0.8755956095163140  0.8502301102316574
  0.5999042530111682  0.3742275322748087  0.1951846607683770
  0.6015040732627071  0.3744867179305906  0.6839638358097996
  0.5912168477229279  0.8738200480143704  0.1904045904758902
  0.5903487759486621  0.8746123470595452  0.6888058356006883
  0.0914658733241345  0.3793697339326501  0.0601160114241806
  0.0902148413147106  0.3764580274244609  0.5599767912721672
  0.0880241626878058  0.8758534172733643  0.0599579844896009
  0.0900562887451410  0.8766409499859280  0.5597866261398504
  0.4122931554654329  0.1247515218047939  0.3087137932443168
  0.4112975326606118  0.1231320851663656  0.8096722809012086
  0.4116717393573206  0.6252634012238030  0.3089917568973870
  0.4090724474725865  0.6246319965361041  0.8094382296052605
  0.9145850039117454  0.1264621436768002  0.4404903833888656
  0.9104891094573367  0.1249519213450068  0.9400569548442952
  0.9101880167454073  0.6248882553877678  0.4405315232059922
  0.9103447542801844  0.6262875569740786  0.9403358140795247
 
             NaN             NaN             NaN
             NaN             NaN             NaN
             NaN             NaN             NaN
             NaN             NaN             NaN
             NaN             NaN             NaN
             NaN             NaN             NaN
             NaN             NaN             NaN
             NaN             NaN             NaN
             NaN             NaN             NaN
             NaN             NaN             NaN
             NaN             NaN             NaN
             NaN             NaN             NaN
             NaN             NaN             NaN
             NaN             NaN             NaN
             NaN             NaN             NaN
             NaN             NaN             NaN
             NaN             NaN             NaN
             NaN             NaN             NaN
             NaN             NaN             NaN
             NaN             NaN             NaN
             NaN             NaN             NaN
             NaN             NaN             NaN
             NaN             NaN             NaN
             NaN             NaN             NaN
             NaN             NaN             NaN
             NaN             NaN             NaN
             NaN             NaN             NaN
             NaN             NaN             NaN
             NaN             NaN             NaN
             NaN             NaN             NaN
             NaN             NaN             NaN
             NaN             NaN             NaN
             NaN             NaN             NaN
             NaN             NaN             NaN
             NaN             NaN             NaN
             NaN             NaN             NaN
             NaN             NaN             NaN
             NaN             NaN             NaN
             NaN             NaN             NaN
             NaN             NaN             NaN
             NaN             NaN             NaN
             NaN             NaN             NaN
             NaN             NaN             NaN
             NaN             NaN             NaN
             NaN             NaN             NaN
             NaN             NaN             NaN
             NaN             NaN             NaN
             NaN             NaN             NaN
             NaN             NaN             NaN
             NaN             NaN             NaN
             NaN             NaN             NaN
             NaN             NaN             NaN
             NaN             NaN             NaN
             NaN             NaN             NaN
             NaN             NaN             NaN
             NaN             NaN             NaN
             NaN             NaN             NaN
             NaN             NaN             NaN
             NaN             NaN             NaN
             NaN             NaN             NaN
             NaN             NaN             NaN
             NaN             NaN             NaN
             NaN             NaN             NaN
             NaN             NaN             NaN
             NaN             NaN             NaN
             NaN             NaN             NaN
             NaN             NaN             NaN
             NaN             NaN             NaN
             NaN             NaN             NaN
             NaN             NaN             NaN
             NaN             NaN             NaN
             NaN             NaN             NaN
             NaN             NaN             NaN
             NaN             NaN             NaN
             NaN             NaN             NaN
             NaN             NaN             NaN
             NaN             NaN             NaN
             NaN             NaN             NaN
             NaN             NaN             NaN
             NaN             NaN             NaN
             NaN             NaN             NaN
             NaN             NaN             NaN
             NaN             NaN             NaN
             NaN             NaN             NaN
             NaN             NaN             NaN
             NaN             NaN             NaN
             NaN             NaN             NaN
             NaN             NaN             NaN
             NaN             NaN             NaN
             NaN             NaN             NaN
             NaN             NaN             NaN
             NaN             NaN             NaN
             NaN             NaN             NaN
             NaN             NaN             NaN
             NaN             NaN             NaN
             NaN             NaN             NaN
             NaN             NaN             NaN
             NaN             NaN             NaN
             NaN             NaN             NaN
             NaN             NaN             NaN
             NaN             NaN             NaN
             NaN             NaN             NaN
             NaN             NaN             NaN
             NaN             NaN             NaN
             NaN             NaN             NaN
             NaN             NaN             NaN
             NaN             NaN             NaN
             NaN             NaN             NaN
             NaN             NaN             NaN
             NaN             NaN             NaN
             NaN             NaN             NaN
             NaN             NaN             NaN
             NaN             NaN             NaN
             NaN             NaN             NaN
             NaN             NaN             NaN
             NaN             NaN             NaN
             NaN             NaN             NaN
             NaN             NaN             NaN
             NaN             NaN             NaN
             NaN             NaN             NaN
             NaN             NaN             NaN
             NaN             NaN             NaN
             NaN             NaN             NaN
             NaN             NaN             NaN
             NaN             NaN             NaN
             NaN             NaN             NaN
             NaN             NaN             NaN
