Li47 P16 O64                            
   1.00000000000000     
    10.5593280000000007    0.0005610000000000   -0.0043110000000000
     0.0006550000000000   12.3534030000000001   -0.0002520000000000
    -0.0040820000000000   -0.0002090000000000    9.9779380000000000
   Li   P    O 
    47    16    64
Direct
  0.1885711748649409  0.2743301116960282  0.1564101616637680
  0.6593532563554857  0.2517043802479902  0.0979104781040007
  0.6673967429306881  0.2480471500003315  0.5990642891461373
  0.6615752414867302  0.7496120585071415  0.0977799286014503
  0.6642719158249779  0.7507516399472236  0.5992808836518096
  0.1605305083336713  0.5053588081750895  0.1497544478093711
  0.1651043970271917  0.5005753834249264  0.6505289107274587
  0.1640247477579359  1.0003796002098384  0.1499154535702520
  0.1642446749897963  1.0000817743353014  0.6516812264781214
  0.3370730610158491  0.0003781535905590  0.3992972404790376
  0.3373062567409479 -0.0004152964924935  0.9012129198417957
  0.3380592540774887  0.4999309505972336  0.3973616358239106
  0.3382637503203815  0.4973221474219525  0.9070992928638243
  0.8386023325074077  0.2490503845082218  0.3485265843952046
  0.8366061191460737  0.2493426158917972  0.8507095761790140
  0.8359915456316234  0.7490688153749975  0.3490448486921182
  0.8365561869772624  0.7496265468091268  0.8487037211399386
  0.3411224256453541  0.2486565936627347  0.4036267366704710
  0.3396358414322167  0.2510709482902347  0.9038007366110830
  0.3369558476900484  0.7492436147445066  0.4005217029423178
  0.3361523231223050  0.7489377580328974  0.9009899153463179
  0.8386562982963371  0.0019083869619513  0.3496726177585798
  0.8375756120474857  0.0012892726508074  0.8477946252902391
  0.8380982080454312  0.5004802694893030  0.3473552743586776
  0.8360695760315938  0.5011872914874811  0.8515932272993194
  0.6577318647071426  0.4966860095030793  0.0975815319845716
  0.6674785039117928  0.5011568898812815  0.5992391425510263
  0.6653914614552475  0.9970290161699435  0.0980020509855292
  0.6652315119407756  0.9981040583445305  0.5983694787999746
  0.1651418969165066  0.2520032336505947  0.6520778143030636
  0.1634409712872648  0.7540924732098533  0.1523724191249123
  0.1642564804011309  0.7523544577824514  0.6506607630876055
  0.9274247958855584  0.3735150077472495  0.1471159004172607
  0.9264566267752704  0.3753829859371855  0.6506758297784841
  0.9244243281987907  0.8749331868628071  0.1489914034598202
  0.9259977812981642  0.8754383377675031  0.6483554671264290
  0.4260437426819914  0.3754133637518317  0.6108405806986661
  0.4288683310893013  0.8747457045230385  0.1004479923124538
  0.4258489587915290  0.8746952936793646  0.6003579621645047
  0.0778768352381164  0.1296172564241509  0.3457583590605051
  0.0770146881127289  0.1269013869683855  0.8551503555611840
  0.0743426037013338  0.6277881368831618  0.3525259314838965
  0.0746659031548683  0.6260103630389359  0.8507207578184613
  0.5764111044071791  0.1238174594050780  0.3979877198354607
  0.5748748029036234  0.1236408286222070  0.8985560749490579
  0.5750062690546150  0.6245737374345457  0.3993635715041151
  0.5728922110982038  0.6240639746841745  0.8974570864259048
  0.9121110576542268  0.1252603260352178  0.0967152818992030
  0.9143131112265195  0.1255672711011979  0.5972014398896627
  0.9090935006090669  0.6264506415496823  0.0968608669793661
  0.9126020204018214  0.6255754911078029  0.5970352757132171
  0.4132389998425879  0.1206056003343033  0.1520927741835039
  0.4122892259107608  0.1237404716485822  0.6536811911010989
  0.4094230065130586  0.6283034214481814  0.1528624327609198
  0.4111129837588727  0.6250405468546630  0.6531289048009509
  0.0905658700358315  0.3776686207044031  0.4036939402127052
  0.0896025218343415  0.3770558457924783  0.9036342284957904
  0.0890298037237344  0.8761621488476650  0.4035716902659141
  0.0887690695852489  0.8755994781633395  0.9033307679124194
  0.5930173715736031  0.3744239013314113  0.3501634568925974
  0.5886243687460997  0.3744370766804404  0.8401563077780246
  0.5900225417418079  0.8741421906133234  0.3466809847873786
  0.5894631610612595  0.8739673713321690  0.8452841958053257
  0.8419031023071927  0.0214601106772783  0.1479683903290215
  0.8432348132590642  0.0222783102986403  0.6466159359678096
  0.8403195242603103  0.5225136980023006  0.1471791895281352
  0.8439129965259147  0.5224971016852622  0.6506068862489816
  0.3396226726248204  0.2179297613139791  0.0934196514045783
  0.3431147879563914  0.2276218790310159  0.6027602130068803
  0.3429555067888510  0.7351154836050492  0.1054758804410901
  0.3417440627287670  0.7282384814819499  0.6013085127769201
  0.1649433624720981  0.2759105985491866  0.3527909301252652
  0.1594552151190307  0.2739404085069460  0.8522686428628458
  0.1596818872256378  0.7733159843249395  0.3528350906929006
  0.1590161206516516  0.7725812830068917  0.8525232442719337
  0.6612430293776006  0.4782336095165111  0.4025015537681516
  0.6554699799323891  0.4773547296039076  0.8969903189303655
  0.6604118023233162  0.9775538203277966  0.3978657435115673
  0.6600572995385192  0.9767251673402216  0.8970798025471001
  0.1582713984291204  0.4817844271077223  0.3523740003781629
  0.1580669659910653  0.4798314082788702  0.8502883784192746
  0.1586942717158988  0.9797980209817156  0.3512317177944377
  0.1595595821129681  0.9788080520091854  0.8528995009656806
  0.6614722771077656  0.2706755913560282  0.4026346586218493
  0.6555411536726210  0.2713008324580146  0.8966405966524189
  0.6591685700005915  0.7711127929825897  0.3989602914607290
  0.6584874378093256  0.7703849780504206  0.8964662830274304
  0.8405605561276405  0.2279518822553527  0.1475521707153780
  0.8441049553698189  0.2283348923959361  0.6495069476705084
  0.8376617636705326  0.7291081814705063  0.1476510385787378
  0.8420411240700232  0.7287133784551318  0.6481887502511934
  0.3450287196110641  0.0148991279775001  0.1046105011083942
  0.3417324812708362  0.0212874878602151  0.6007533764637718
  0.3307237350908974  0.5327050286102508  0.0971445669443105
  0.3424588074546595  0.5220139470953149  0.5995755981795970
  0.5524031188939199  0.1209237187926539  0.1008732523289523
  0.5511418831380624  0.1235860190876084  0.6011726066145278
  0.5472579027220938  0.6248684369188633  0.0986232453465839
  0.5507396062888803  0.6251650964645752  0.6025166699227440
  0.0505419677434339  0.1259383902274616  0.1483243366808372
  0.0525788118125297  0.1255678069505276  0.6507017845618190
  0.0475145090105121  0.6290934573694736  0.1505483631722504
  0.0517626925069631  0.6267212490245170  0.6473333539640556
  0.4537430150547906  0.3745820980361760  0.4004695972364494
  0.4459349124782361  0.3748081823393665  0.8710477120659478
  0.4509996174818830  0.8749900073955762  0.3983099843909862
  0.4505279384829028  0.8741282393666895  0.8970938667136908
  0.9525953874339353  0.3745578166008138  0.3496698585239114
  0.9496191262421761  0.3754261380788012  0.8548171802680038
  0.9502636496988879  0.8750382221723149  0.3512104270243941
  0.9503802255073091  0.8756040362330924  0.8502814470341801
  0.5996628456700854  0.3742240349026594  0.1950119987143576
  0.6011528113081204  0.3744567450005590  0.6840148358456509
  0.5913894078062344  0.8737137733201150  0.1903207906656181
  0.5901578954905645  0.8746657293720363  0.6888821361435806
  0.0918467048514812  0.3793599462555396  0.0600992323665222
  0.0901476658415720  0.3767880064852620  0.5599582112098883
  0.0883325438197496  0.8759411404910807  0.0600225722213582
  0.0899615097465461  0.8767047655033262  0.5597498540030778
  0.4122197341737773  0.1252322359658708  0.3089674299547995
  0.4114809349603380  0.1228124036636161  0.8096861571606715
  0.4114754445911885  0.6254518866200928  0.3090611577853229
  0.4090147364581085  0.6246563039587686  0.8094423407669289
  0.9146104396307999  0.1264688967626917  0.4405134541787711
  0.9102155213187684  0.1249222932664370  0.9400587269540632
  0.9098822523020608  0.6247355497045134  0.4405415287543084
  0.9100309617566547  0.6263222214545084  0.9404283025849155
 
             NaN             NaN             NaN
             NaN             NaN             NaN
             NaN             NaN             NaN
             NaN             NaN             NaN
             NaN             NaN             NaN
             NaN             NaN             NaN
             NaN             NaN             NaN
             NaN             NaN             NaN
             NaN             NaN             NaN
             NaN             NaN             NaN
             NaN             NaN             NaN
             NaN             NaN             NaN
             NaN             NaN             NaN
             NaN             NaN             NaN
             NaN             NaN             NaN
             NaN             NaN             NaN
             NaN             NaN             NaN
             NaN             NaN             NaN
             NaN             NaN             NaN
             NaN             NaN             NaN
             NaN             NaN             NaN
             NaN             NaN             NaN
             NaN             NaN             NaN
             NaN             NaN             NaN
             NaN             NaN             NaN
             NaN             NaN             NaN
             NaN             NaN             NaN
             NaN             NaN             NaN
             NaN             NaN             NaN
             NaN             NaN             NaN
             NaN             NaN             NaN
             NaN             NaN             NaN
             NaN             NaN             NaN
             NaN             NaN             NaN
             NaN             NaN             NaN
             NaN             NaN             NaN
             NaN             NaN             NaN
             NaN             NaN             NaN
             NaN             NaN             NaN
             NaN             NaN             NaN
             NaN             NaN             NaN
             NaN             NaN             NaN
             NaN             NaN             NaN
             NaN             NaN             NaN
             NaN             NaN             NaN
             NaN             NaN             NaN
             NaN             NaN             NaN
             NaN             NaN             NaN
             NaN             NaN             NaN
             NaN             NaN             NaN
             NaN             NaN             NaN
             NaN             NaN             NaN
             NaN             NaN             NaN
             NaN             NaN             NaN
             NaN             NaN             NaN
             NaN             NaN             NaN
             NaN             NaN             NaN
             NaN             NaN             NaN
             NaN             NaN             NaN
             NaN             NaN             NaN
             NaN             NaN             NaN
             NaN             NaN             NaN
             NaN             NaN             NaN
             NaN             NaN             NaN
             NaN             NaN             NaN
             NaN             NaN             NaN
             NaN             NaN             NaN
             NaN             NaN             NaN
             NaN             NaN             NaN
             NaN             NaN             NaN
             NaN             NaN             NaN
             NaN             NaN             NaN
             NaN             NaN             NaN
             NaN             NaN             NaN
             NaN             NaN             NaN
             NaN             NaN             NaN
             NaN             NaN             NaN
             NaN             NaN             NaN
             NaN             NaN             NaN
             NaN             NaN             NaN
             NaN             NaN             NaN
             NaN             NaN             NaN
             NaN             NaN             NaN
             NaN             NaN             NaN
             NaN             NaN             NaN
             NaN             NaN             NaN
             NaN             NaN             NaN
             NaN             NaN             NaN
             NaN             NaN             NaN
             NaN             NaN             NaN
             NaN             NaN             NaN
             NaN             NaN             NaN
             NaN             NaN             NaN
             NaN             NaN             NaN
             NaN             NaN             NaN
             NaN             NaN             NaN
             NaN             NaN             NaN
             NaN             NaN             NaN
             NaN             NaN             NaN
             NaN             NaN             NaN
             NaN             NaN             NaN
             NaN             NaN             NaN
             NaN             NaN             NaN
             NaN             NaN             NaN
             NaN             NaN             NaN
             NaN             NaN             NaN
             NaN             NaN             NaN
             NaN             NaN             NaN
             NaN             NaN             NaN
             NaN             NaN             NaN
             NaN             NaN             NaN
             NaN             NaN             NaN
             NaN             NaN             NaN
             NaN             NaN             NaN
             NaN             NaN             NaN
             NaN             NaN             NaN
             NaN             NaN             NaN
             NaN             NaN             NaN
             NaN             NaN             NaN
             NaN             NaN             NaN
             NaN             NaN             NaN
             NaN             NaN             NaN
             NaN             NaN             NaN
             NaN             NaN             NaN
             NaN             NaN             NaN
             NaN             NaN             NaN
             NaN             NaN             NaN
