Na15 V32 O64                            
   1.00000000000000     
     9.2154419999999995    0.0000740000000000   -0.0023930000000000
     0.0000930000000000   11.5241520000000008   -0.0000440000000000
    -0.0027750000000000   -0.0000410000000000   10.7090739999999993
   Na   V    O 
    15    32    64
Direct
  0.7393695181765694  0.5169191368572139  0.1609535932782132
  0.7410629513223937  0.0794955160587951  0.1530855513525965
  0.7419463952174957  0.8066047522505438  0.1513268887501853
  0.2417957515377888  0.0626650634335175  0.3486399869671079
  0.2422368846141429  0.3127058512794106  0.3477063141258600
  0.2417288187117620  0.5620392142933447  0.3483584751249302
  0.2415399741397471  0.8125752395567688  0.3481630028018242
  0.2585286529494835  0.1870103586823797  0.8481903872672343
  0.2589033165220383  0.4374691838065745  0.8479789678197717
  0.2582500119440393  0.6877287077583291  0.8487756889497906
  0.2582424265990621  0.9373313132178631  0.8489586867877609
  0.7583237877485784  0.1870566879053350  0.6508740720518107
  0.7580591746472272  0.4377676270373324  0.6510236115104241
  0.7584370138796953  0.6871207744223978  0.6509415525151278
  0.7584171531490259  0.9378533352456383  0.6510429894829316
  0.5863257784984583  0.0622508111221593  0.8954113357395174
  0.5897453459430380  0.3113212936070398  0.8985128863517252
  0.5867026515610351  0.5625371497047628  0.8952595502234190
  0.5869642524903852  0.8124108428285844  0.8968460987591815
  0.0879546983373785  0.0621565340824905  0.6037368005434066
  0.0869762336154011  0.3121071110977029  0.6038472270050943
  0.0884706931096200  0.5628851159506931  0.6039741947943466
  0.0856249391932878  0.8127265388546104  0.6036011957650159
  0.4129604504394576  0.1882529150843400  0.1036650315754531
  0.4106773998712670  0.4361777603089556  0.1030177954234627
  0.4147365755334439  0.6865704298857068  0.1040873867031331
  0.4142361697313670  0.9376594668330146  0.1042392018358507
  0.9125597647258085  0.1877981127839356  0.3958340358484891
  0.9137138050374931  0.4365758099248037  0.3972709147978445
  0.9125152427459156  0.6868266732414164  0.3956602745967171
  0.9124677052548964  0.9377751842525608  0.3953881929959965
  0.5599812361901608  0.0630218627880438  0.3863244999106223
  0.5641923347141526  0.3118248535995325  0.3805553472405166
  0.5596501288924014  0.5628932019956402  0.3867402745277236
  0.5616898463746614  0.8121887009580414  0.3848916627739062
  0.0615984987797364  0.0625181944111450  0.1146774766749539
  0.0546794494674881  0.3105785215464693  0.1156478643802334
  0.0607388667651049  0.5639468534903733  0.1143808815884760
  0.0609576232594623  0.8116837687916196  0.1147671268016823
  0.4397356846965810  0.1902726862816835  0.6143009936448957
  0.4402517919268906  0.4344747032301253  0.6144306550996489
  0.4384797090476961  0.6899258184338229  0.6150689280801646
  0.4385813163319437  0.9352050585323044  0.6148842887670101
  0.9392818510397806  0.1873228394926729  0.8847825296283667
  0.9403023576037928  0.4369610007370343  0.8844431537564187
  0.9385588903841718  0.6873095979190897  0.8851449700997287
  0.9388672883387846  0.9373674675851998  0.8857945692511748
  0.7930138778442833  0.0622643354213233  0.8526439675913353
  0.7942024540540109  0.3123706574866535  0.8517270965487711
  0.7933592821186648  0.5620398495352310  0.8523148527956595
  0.7929969901567873  0.8123788511380234  0.8532128619058511
  0.2946762811284078  0.0623518466890116  0.6457965976966676
  0.2925898312917584  0.3124504647259145  0.6476481810586074
  0.2949871049774822  0.5624351768222484  0.6457925910402283
  0.2913476698934482  0.8125942099561403  0.6479077010574715
  0.2062305402335088  0.1873217177244588  0.1468846331783332
  0.2048744780140293  0.4373512823770643  0.1459709872272987
  0.2077464011129776  0.6873523858780706  0.1476130916572695
  0.2069432184315959  0.9371314230438558  0.1468242687450687
  0.7068239459830071  0.1854856550346033  0.3582030749358011
  0.7066749693029702  0.4384655942238570  0.3610552193928980
  0.7064340924636053  0.6872525822170141  0.3559312352591471
  0.7061671400833576  0.9376483829137765  0.3549995844540975
  0.8896060828303717  0.0622821332523871  0.5200413912318502
  0.8896425365763415  0.3120895681759883  0.5210064365081963
  0.8901293717597252  0.5625080640925354  0.5206607768148066
  0.8887743563750630  0.8124853167373909  0.5195378340844731
  0.3880528848701523  0.0618658683355735  0.9800702029998245
  0.3864815704554001  0.3117518011062049  0.9792952812431694
  0.3872613157148328  0.5627103045333541  0.9797827009109296
  0.3890305216907642  0.8123695828946004  0.9807154905693097
  0.1119716677435284  0.1872299476333368  0.4799234462953454
  0.1123538987485806  0.4374582966172966  0.4801553076891779
  0.1115434701726794  0.6876039485830451  0.4795763248727681
  0.1113834263013855  0.9374261919616483  0.4794199224738179
  0.6083923996555741  0.1871233777235601  0.0172424728310074
  0.6062257099191204  0.4366177978386190  0.0152746045352960
  0.6110932921330117  0.6860567675433557  0.0193834375423279
  0.6118351839388455  0.9378679755026658  0.0204092842160309
  0.9791230228913311  0.0628126076864045  0.2823647318438693
  0.9804876996544586  0.3124318284852974  0.2845110813889191
  0.9780672836572988  0.5615804823894616  0.2824602984527089
  0.9788495833479014  0.8119901981431394  0.2825337088685023
  0.4793412291534677  0.0629658622491535  0.2174994587354799
  0.4764168153705771  0.3129068839912144  0.2169500452064628
  0.4799144297537054  0.5608335503265136  0.2169855704346657
  0.4804991119399422  0.8120856239766467  0.2173060290838130
  0.0210003305306642  0.1868742140122967  0.7166422554089128
  0.0214480825747337  0.4377819251282048  0.7165662630026620
  0.0204645217433315  0.6875503132436820  0.7168151859855884
  0.0204016025567596  0.9375296284177616  0.7170955776601402
  0.5209160163716535  0.1878076091409307  0.7821815156226886
  0.5210251755652600  0.4366840227558755  0.7821143636387474
  0.5198293521255082  0.6882348204162195  0.7827409759605268
  0.5195909502847991  0.9365205911207684  0.7830032239904957
  0.5761418960084260  0.0621281234431405  0.5721308501061187
  0.5810538415208761  0.3120875539340586  0.5690410306099982
  0.5761038089879256  0.5631129414215017  0.5722531154970264
  0.5804726746204097  0.8125133375262347  0.5706889340668024
  0.0791687305404682  0.0617801131921536  0.9285664221823940
  0.0789023028657015  0.3116273322559158  0.9278540655194211
  0.0792691578440725  0.5632222630489694  0.9278917229259855
  0.0786570686124630  0.8122930531091456  0.9292926068246157
  0.4217341931085180  0.1881269623949474  0.4290602573724930
  0.4226308759012555  0.4368454392979330  0.4292025267564676
  0.4205662494490485  0.6881636343930333  0.4294386166967157
  0.4213642079608690  0.9368318355750893  0.4294158153231977
  0.9238230699812063  0.1866234113469754  0.0681415833203483
  0.9276376608065025  0.4372159443494278  0.0677073259696350
  0.9213941343951070  0.6865444654675811  0.0696585135770208
  0.9218754986226485  0.9375443510181669  0.0708300549218384
 
             NaN             NaN             NaN
             NaN             NaN             NaN
             NaN             NaN             NaN
             NaN             NaN             NaN
             NaN             NaN             NaN
             NaN             NaN             NaN
             NaN             NaN             NaN
             NaN             NaN             NaN
             NaN             NaN             NaN
             NaN             NaN             NaN
             NaN             NaN             NaN
             NaN             NaN             NaN
             NaN             NaN             NaN
             NaN             NaN             NaN
             NaN             NaN             NaN
             NaN             NaN             NaN
             NaN             NaN             NaN
             NaN             NaN             NaN
             NaN             NaN             NaN
             NaN             NaN             NaN
             NaN             NaN             NaN
             NaN             NaN             NaN
             NaN             NaN             NaN
             NaN             NaN             NaN
             NaN             NaN             NaN
             NaN             NaN             NaN
             NaN             NaN             NaN
             NaN             NaN             NaN
             NaN             NaN             NaN
             NaN             NaN             NaN
             NaN             NaN             NaN
             NaN             NaN             NaN
             NaN             NaN             NaN
             NaN             NaN             NaN
             NaN             NaN             NaN
             NaN             NaN             NaN
             NaN             NaN             NaN
             NaN             NaN             NaN
             NaN             NaN             NaN
             NaN             NaN             NaN
             NaN             NaN             NaN
             NaN             NaN             NaN
             NaN             NaN             NaN
             NaN             NaN             NaN
             NaN             NaN             NaN
             NaN             NaN             NaN
             NaN             NaN             NaN
             NaN             NaN             NaN
             NaN             NaN             NaN
             NaN             NaN             NaN
             NaN             NaN             NaN
             NaN             NaN             NaN
             NaN             NaN             NaN
             NaN             NaN             NaN
             NaN             NaN             NaN
             NaN             NaN             NaN
             NaN             NaN             NaN
             NaN             NaN             NaN
             NaN             NaN             NaN
             NaN             NaN             NaN
             NaN             NaN             NaN
             NaN             NaN             NaN
             NaN             NaN             NaN
             NaN             NaN             NaN
             NaN             NaN             NaN
             NaN             NaN             NaN
             NaN             NaN             NaN
             NaN             NaN             NaN
             NaN             NaN             NaN
             NaN             NaN             NaN
             NaN             NaN             NaN
             NaN             NaN             NaN
             NaN             NaN             NaN
             NaN             NaN             NaN
             NaN             NaN             NaN
             NaN             NaN             NaN
             NaN             NaN             NaN
             NaN             NaN             NaN
             NaN             NaN             NaN
             NaN             NaN             NaN
             NaN             NaN             NaN
             NaN             NaN             NaN
             NaN             NaN             NaN
             NaN             NaN             NaN
             NaN             NaN             NaN
             NaN             NaN             NaN
             NaN             NaN             NaN
             NaN             NaN             NaN
             NaN             NaN             NaN
             NaN             NaN             NaN
             NaN             NaN             NaN
             NaN             NaN             NaN
             NaN             NaN             NaN
             NaN             NaN             NaN
             NaN             NaN             NaN
             NaN             NaN             NaN
             NaN             NaN             NaN
             NaN             NaN             NaN
             NaN             NaN             NaN
             NaN             NaN             NaN
             NaN             NaN             NaN
             NaN             NaN             NaN
             NaN             NaN             NaN
             NaN             NaN             NaN
             NaN             NaN             NaN
             NaN             NaN             NaN
             NaN             NaN             NaN
             NaN             NaN             NaN
             NaN             NaN             NaN
             NaN             NaN             NaN
             NaN             NaN             NaN
