Na15 V32 O64
1.0
9.215442 0.000074 -0.002393
0.000093 11.524152 -0.000044
-0.002775 -0.000041 10.709074
Na V O
15 32 64
direct
0.740823 0.515671 0.153842 Na
0.741001 0.080676 0.153452 Na
0.741897 0.810010 0.151221 Na
0.241796 0.062826 0.348735 Na
0.242123 0.312592 0.347735 Na
0.241849 0.562301 0.348608 Na
0.241624 0.812535 0.348371 Na
0.258581 0.187328 0.848471 Na
0.258669 0.437494 0.848327 Na
0.258328 0.687606 0.848959 Na
0.258293 0.937306 0.848956 Na
0.758294 0.187112 0.650915 Na
0.758342 0.437738 0.651036 Na
0.758323 0.687008 0.650920 Na
0.758368 0.937808 0.651025 Na
0.586233 0.062741 0.895342 V
0.589749 0.312594 0.899280 V
0.586628 0.562256 0.895725 V
0.586864 0.812461 0.896663 V
0.087906 0.062410 0.603831 V
0.086617 0.312489 0.603755 V
0.088048 0.562592 0.603831 V
0.085779 0.812484 0.603832 V
0.412466 0.188476 0.103686 V
0.412096 0.436711 0.103638 V
0.414116 0.686931 0.104106 V
0.414320 0.937927 0.104102 V
0.912620 0.187963 0.395924 V
0.912645 0.437221 0.396012 V
0.912673 0.686995 0.395667 V
0.912732 0.937905 0.395683 V
0.559959 0.062706 0.386396 V
0.564094 0.312535 0.380803 V
0.560280 0.562095 0.385809 V
0.561660 0.812461 0.385004 V
0.061475 0.062312 0.114663 V
0.054373 0.312405 0.115676 V
0.060603 0.562982 0.114770 V
0.060857 0.812522 0.114776 V
0.439992 0.190168 0.614417 V
0.440165 0.434827 0.614343 V
0.438850 0.689376 0.614771 V
0.438612 0.935445 0.614856 V
0.939481 0.187658 0.885072 V
0.939754 0.437404 0.885123 V
0.938787 0.687377 0.885461 V
0.938859 0.937609 0.885551 V
0.793057 0.062534 0.852839 O
0.794164 0.312497 0.852643 O
0.793222 0.562461 0.852746 O
0.793081 0.812465 0.853631 O
0.294673 0.062530 0.645651 O
0.292671 0.312462 0.647290 O
0.294828 0.562489 0.645631 O
0.291675 0.812451 0.647567 O
0.205606 0.187553 0.146040 O
0.205281 0.437494 0.145950 O
0.207070 0.687778 0.146691 O
0.207200 0.937350 0.146889 O
0.706646 0.185856 0.358077 O
0.706704 0.438997 0.358550 O
0.706420 0.687519 0.355497 O
0.706429 0.937665 0.355024 O
0.889717 0.062461 0.519927 O
0.889505 0.312498 0.520144 O
0.889798 0.562579 0.520049 O
0.889050 0.812505 0.519400 O
0.388134 0.062226 0.980221 O
0.387341 0.312449 0.979901 O
0.387908 0.562764 0.980116 O
0.389175 0.812548 0.980825 O
0.111619 0.187459 0.480188 O
0.111716 0.437554 0.480222 O
0.111326 0.687566 0.479981 O
0.111297 0.937467 0.479951 O
0.608265 0.187616 0.017325 O
0.607791 0.437504 0.017029 O
0.610974 0.686630 0.019543 O
0.611479 0.938274 0.019926 O
0.979116 0.062910 0.282501 O
0.980333 0.312531 0.284393 O
0.979331 0.562279 0.282742 O
0.979046 0.812449 0.282684 O
0.479177 0.063184 0.217463 O
0.476190 0.312577 0.217286 O
0.478540 0.561876 0.217482 O
0.480280 0.812407 0.217274 O
0.020991 0.187174 0.716799 O
0.021134 0.437814 0.716813 O
0.020467 0.687514 0.716973 O
0.020430 0.937522 0.717001 O
0.521029 0.188088 0.782522 O
0.521255 0.436809 0.782445 O
0.519912 0.688277 0.782883 O
0.519658 0.936685 0.782936 O
0.576226 0.062144 0.572086 O
0.580815 0.312427 0.569235 O
0.576318 0.562778 0.571884 O
0.580150 0.812513 0.570705 O
0.078787 0.061955 0.928593 O
0.078298 0.312380 0.928422 O
0.078822 0.563144 0.928501 O
0.078304 0.812568 0.929347 O
0.422548 0.188093 0.429332 O
0.422604 0.436821 0.429306 O
0.421671 0.688071 0.429506 O
0.421455 0.936831 0.429560 O
0.924629 0.187101 0.068648 O
0.925282 0.437981 0.068474 O
0.922034 0.687136 0.070225 O
0.921782 0.937965 0.070543 O
