Li17 Co18 O36                           
   1.00000000000000     
     8.0557280000000002   -0.0035030000000000    2.3736009999999998
     3.6800970000000000    7.1672200000000004    2.3705020000000001
    -0.0129210000000000   -0.0041040000000000    9.8886179999999992
   Li   Co   O 
    17    18    36
Direct
  0.2958581508558630  0.5575307090705948  0.5156796388352128
  0.3369904434464138  0.3308270354463975  0.9981999960170936
  0.3349081997762052  0.6678438665550837  0.9975643597188488
  0.3338300127963260  0.9958408170807591  0.5051748485156127
  0.3356098231588900  0.9987587765920936  0.9985406844921725
  0.6629792242439887  0.3329936765662676  0.5042565201592232
  0.6684345528313131  0.3333711268913087  0.9974792759785261
  0.6472420468030317  0.6655092682338581  0.5048621765977903
  0.6655289852205011  0.6682143627994428  0.9989905728049830
  0.6478483769007667  0.0171244015546671  0.5039944798887710
  0.6661292647301112  0.9991704613233988  0.9986461441881810
  0.0109490475687218  0.3320416457020481  0.5049965816281988
  0.9986167307200771  0.3320474181282739  0.9973657990340080
  0.9740585319624798  0.6758212216012889  0.5031346320337080
  0.9973926336419970  0.6688932221151986  0.9966914954182572
  0.0099477580440153  0.9886668760785100  0.5025886333889321
 -0.0007485408692489  0.0032156259594632  0.9952622418289855
  0.1630266786543842  0.1692048409957931  0.2469203848593154
  0.1692407448382753  0.1649042577785577  0.7510995511607487
  0.1632200210547873  0.5005176211371103  0.2476524513253717
  0.1682919762660589  0.4942130254154478  0.7573416273451665
  0.1627165174972582  0.8386736796290062  0.2470894323625355
  0.1691627576777331  0.8293528165734804  0.7509637309109763
  0.4967892115988043  0.1688188875849884  0.2501323935018605
  0.5023053509419780  0.1625201292727900  0.7547205865374877
  0.4981350926787434  0.5017602473049675  0.2484653476358341
  0.5017727800637093  0.4983738308118912  0.7552495359669305
  0.4953714695555893  0.8354110029407824  0.2497801045834694
  0.4998132041794865  0.8309081207506975  0.7545281013082218
  0.8305639575584828  0.1689791127161035  0.2496803248899438
  0.8354287366444392  0.1641162698524535  0.7504886426811762
  0.8288345735267162  0.5014568995571822  0.2495570926685655
  0.8342078156155184  0.4980204302552387  0.7528809178936346
  0.8283020702632731  0.8355069472760501  0.2504216775250465
  0.8343850117923464  0.8293842170528476  0.7510970911747906
  0.2473344281230882  0.2612824059155889  0.3530525760829819
  0.2545017739129235  0.2486548072294714  0.8655544746510027
  0.2453775241907303  0.5908203735386583  0.3469231833790125
  0.2539834949877001  0.5848553435178108  0.8652039329011553
  0.2480982043722959  0.9270961633921057  0.3554080892639027
  0.2519207560277277  0.9184032859387342  0.8628499172035645
  0.5873527968304346  0.2561300882533464  0.3564613252799884
  0.5908444567119453  0.2496502968634448  0.8641703629570140
  0.5847129719543031  0.5869745774169579  0.3580575302301534
  0.5884736509554211  0.5838239194540833  0.8654002764324873
  0.5822250621135200  0.9227141892633659  0.3605042788559012
  0.5897886618011198  0.9162097193919717  0.8638862964810348
  0.9177999157278738  0.2555587553123291  0.3581476520645402
  0.9216672384506259  0.2509333839367147  0.8611340589332870
  0.9197739893938875  0.5858723709337288  0.3587833680764709
  0.9204061136202211  0.5841841156256709  0.8637635623853296
  0.9174800301906110  0.9219823968800769  0.3593860840170828
  0.9217571810363573  0.9171623834201020  0.8603469577493751
  0.0763240101696254  0.0828207303779231  0.1375744926371668
  0.0827061937902202  0.0772791842407126  0.6402110242848378
  0.0770606632407379  0.4195970303591325  0.1387745906726349
  0.0794209899858580  0.4140960224457048  0.6445365550093428
  0.0761912117925056  0.7441441765336200  0.1394426218407883
  0.0826453407255081  0.7381750495163100  0.6419568339240845
  0.4109434613606158  0.0818965345638928  0.1392384061181853
  0.4155241462433160  0.0733461466172089  0.6467846712901679
  0.4086794219064324  0.4152058382713897  0.1393041449582236
  0.4187386857270632  0.4049883891808018  0.6530291049738806
  0.4100767393612006  0.7494285918294737  0.1384376516788432
  0.4149869533820555  0.7444123694330078  0.6461175318920689
  0.7434865868237731  0.0816670097735030  0.1404679287922674
  0.7477494679029686  0.0766699803540212  0.6419210998368382
  0.7441208116004436  0.4150427448446355  0.1392034061706711
  0.7475153944368940  0.4117269400772489  0.6423171394561051
  0.7427986384721810  0.7480593626685703  0.1402833968787809
  0.7450241537316219  0.7442336701172846  0.6427337226142207
 
             NaN             NaN             NaN
             NaN             NaN             NaN
             NaN             NaN             NaN
             NaN             NaN             NaN
             NaN             NaN             NaN
             NaN             NaN             NaN
             NaN             NaN             NaN
             NaN             NaN             NaN
             NaN             NaN             NaN
             NaN             NaN             NaN
             NaN             NaN             NaN
             NaN             NaN             NaN
             NaN             NaN             NaN
             NaN             NaN             NaN
             NaN             NaN             NaN
             NaN             NaN             NaN
             NaN             NaN             NaN
             NaN             NaN             NaN
             NaN             NaN             NaN
             NaN             NaN             NaN
             NaN             NaN             NaN
             NaN             NaN             NaN
             NaN             NaN             NaN
             NaN             NaN             NaN
             NaN             NaN             NaN
             NaN             NaN             NaN
             NaN             NaN             NaN
             NaN             NaN             NaN
             NaN             NaN             NaN
             NaN             NaN             NaN
             NaN             NaN             NaN
             NaN             NaN             NaN
             NaN             NaN             NaN
             NaN             NaN             NaN
             NaN             NaN             NaN
             NaN             NaN             NaN
             NaN             NaN             NaN
             NaN             NaN             NaN
             NaN             NaN             NaN
             NaN             NaN             NaN
             NaN             NaN             NaN
             NaN             NaN             NaN
             NaN             NaN             NaN
             NaN             NaN             NaN
             NaN             NaN             NaN
             NaN             NaN             NaN
             NaN             NaN             NaN
             NaN             NaN             NaN
             NaN             NaN             NaN
             NaN             NaN             NaN
             NaN             NaN             NaN
             NaN             NaN             NaN
             NaN             NaN             NaN
             NaN             NaN             NaN
             NaN             NaN             NaN
             NaN             NaN             NaN
             NaN             NaN             NaN
             NaN             NaN             NaN
             NaN             NaN             NaN
             NaN             NaN             NaN
             NaN             NaN             NaN
             NaN             NaN             NaN
             NaN             NaN             NaN
             NaN             NaN             NaN
             NaN             NaN             NaN
             NaN             NaN             NaN
             NaN             NaN             NaN
             NaN             NaN             NaN
             NaN             NaN             NaN
             NaN             NaN             NaN
             NaN             NaN             NaN
