Mg1 Ti16 S32                            
   1.00000000000000     
    10.0342190000000002   -0.0221930000000000   -0.0053000000000000
    -0.0221960000000000   10.0347869999999997    0.0053110000000000
    -0.0050290000000000    0.0052040000000000   10.0571769999999994
   Mg   Ti   S 
     1    16    32
Direct
  0.4028753426938200  0.3471554471810705  0.8459864140649928
  0.2500303361964614  0.7511685426572320 -0.0023445791473194
  0.4998628027431513  0.9910448563483946  0.0055461713964434
  0.7589511591221836  0.2501496111369883  0.0055285324652745
  0.9988281173572459  0.4999688123138104 -0.0023784853625217
  0.5026692561217282  0.2473513994551598  0.2656602608904761
  0.2497850535658191  0.5002328445886530  0.2489583818876641
  0.2421788168424606  0.2501277796030072  0.4888489946611560
  0.4998806857402123  0.5078373672318982  0.4888493206458960
  0.5027804894246564  0.7679534762148027  0.7448881361576378
  0.7591227535664850  0.5081866938744553  0.7475331781197134
  0.7519743395748327  0.7517741192857489  0.4953383581220444
  0.2417960254021760  0.9908897219089718  0.7475219804937402
  0.7519688697153808  0.9980438204502100  0.2491944547990287
  0.9820711633428225  0.2472481186620550  0.7448834471399559
  1.0003086469470657  0.7496877925109743  0.2470810396210579
  0.9982287491856648  0.9980106579313665  0.4952988726932153
  0.7455575118450837  0.0044425752120351  0.0037848513737476
  0.0056902458725340  0.7443033572066136  0.0000274721643663
 -0.0025966655453326  0.0015991233025900  0.7425548521242689
  0.7483635515371044  0.7525829598116636  0.7425475077980866
  0.2525821383241570  0.9940209439298420  0.9944945883180096
  0.9978354800032031  0.2521073300337558  0.9913277130463052
  0.9973284004203172  0.9951935603014227  0.2504300149614800
  0.2556299081649216  0.2521182677522086  0.2502042128133445
  0.7456012351528337  0.5061444016228942  0.5022465392733070
 -0.0022302426411516  0.2455889114512160  0.4997847406197100
  0.0054483106100798  0.5021222438967913  0.2416539415882976
  0.7482311285712030  0.2457292387823801  0.2495501005431543
  0.2526515975902371  0.4973365129261275  0.4915589655175537
  0.9972139849000530  0.7527995755277928  0.4920483687791518
  0.9981100056263100  0.4942156460930603  0.7500995574137161
  0.2557780509085271  0.7518742062268370  0.7500830575587621
  0.2438592248764301  0.0044076042311320  0.5022623508680446
  0.5044162328054966  0.7522234675389694  0.4997712128670813
  0.5042456165892639  0.0017555073750284  0.2495541347842477
  0.2478838039181416  0.7445388569107396  0.2416455477479303
  0.7534382813810550  0.9965508771239469  0.4935009167087531
  0.4910494135277266  0.2589526945426839  0.5042119082710325
  0.4909786422250135  1.0069703829728098  0.7568596081828826
  0.7430932640986568  0.2590273687985990  0.7568727483652052
  0.2494325059676374  0.5005714352729123 -0.0011687573464001
  0.5108044277759946  0.2391647146120989  0.0195012989417179
  0.5107374754286297  0.5210714739547188  0.7366614156444623
  0.2289530259087642  0.2392021125825368  0.7366300567347778
  0.7559634451284138  0.4973928689277571  0.9944997669042948
  0.4978946890812835  0.7521709503963825  0.9913303507244680
  0.4978780653576810  0.4943353928967254  0.2502175840983862
  0.7547948860247471  0.7526768402579639  0.2504237645904134
 
             NaN             NaN             NaN
             NaN             NaN             NaN
             NaN             NaN             NaN
             NaN             NaN             NaN
             NaN             NaN             NaN
             NaN             NaN             NaN
             NaN             NaN             NaN
             NaN             NaN             NaN
             NaN             NaN             NaN
             NaN             NaN             NaN
             NaN             NaN             NaN
             NaN             NaN             NaN
             NaN             NaN             NaN
             NaN             NaN             NaN
             NaN             NaN             NaN
             NaN             NaN             NaN
             NaN             NaN             NaN
             NaN             NaN             NaN
             NaN             NaN             NaN
             NaN             NaN             NaN
             NaN             NaN             NaN
             NaN             NaN             NaN
             NaN             NaN             NaN
             NaN             NaN             NaN
             NaN             NaN             NaN
             NaN             NaN             NaN
             NaN             NaN             NaN
             NaN             NaN             NaN
             NaN             NaN             NaN
             NaN             NaN             NaN
             NaN             NaN             NaN
             NaN             NaN             NaN
             NaN             NaN             NaN
             NaN             NaN             NaN
             NaN             NaN             NaN
             NaN             NaN             NaN
             NaN             NaN             NaN
             NaN             NaN             NaN
             NaN             NaN             NaN
             NaN             NaN             NaN
             NaN             NaN             NaN
             NaN             NaN             NaN
             NaN             NaN             NaN
             NaN             NaN             NaN
             NaN             NaN             NaN
             NaN             NaN             NaN
             NaN             NaN             NaN
             NaN             NaN             NaN
             NaN             NaN             NaN
