Mg1 Ti16 S32
1.0
10.034219 -0.022193 -0.005300
-0.022196 10.034787 0.005311
-0.005029 0.005204 10.057177
Mg Ti S
1 16 32
direct
0.406278 0.343727 0.749759 Mg
0.248548 0.751884 0.003860 Ti
0.501447 -0.003682 0.005188 Ti
0.753697 0.248536 0.005169 Ti
0.998109 0.501429 0.003843 Ti
0.500728 0.249304 0.250165 Ti
0.248866 0.501124 0.250435 Ti
0.246629 0.248398 0.492429 Ti
0.501601 0.503390 0.492455 Ti
0.502366 0.752336 0.750044 Ti
0.754078 0.503998 0.750017 Ti
0.751200 0.751047 0.498697 Ti
0.246000 -0.004077 0.750018 Ti
0.751162 -0.001156 0.249682 Ti
0.997667 0.247630 0.750028 Ti
0.999281 0.750701 0.249935 Ti
0.998961 0.998784 0.498681 Ti
0.747137 0.002850 0.004113 S
0.003137 0.746833 0.004054 S
0.002484 0.003017 0.746440 S
0.746980 0.747522 0.746456 S
0.254325 0.996304 0.995143 S
0.997453 0.253926 0.994904 S
0.996807 0.996365 0.254149 S
0.251468 0.253238 0.253656 S
0.746702 0.504631 0.504884 S
0.002458 0.245854 0.505144 S
1.001103 0.504881 0.246225 S
0.749905 0.244649 0.246127 S
0.254497 0.495500 0.497994 S
0.996304 0.753683 0.496143 S
0.997387 0.495755 0.754164 S
0.254234 0.752615 0.754155 S
0.245386 0.003288 0.504877 S
0.504133 0.747561 0.505157 S
0.505346 0.000163 0.246146 S
0.245076 0.748862 0.246211 S
0.753772 0.996236 0.495770 S
0.494383 0.255642 0.499464 S
0.495400 0.996571 0.754288 S
0.753430 0.254591 0.754269 S
0.244681 0.505315 1.002294 S
0.506294 0.243720 0.000513 S
0.504893 0.504607 0.745231 S
0.245402 0.245100 0.745234 S
0.753701 0.495653 0.995135 S
0.496050 0.752561 0.994919 S
0.496789 0.498574 0.253647 S
0.753588 0.753200 0.254160 S
