Na15 V32 O64                            
   1.00000000000000     
     9.1051620000000000    0.0004200000000000   -0.0035410000000000
     0.0012660000000000   11.4424689999999991    0.0001420000000000
    -0.0000990000000000    0.0013550000000000   10.6040700000000001
   Na   V    O 
    15    32    64
Direct
  0.7401753389750354  0.4939257119190046  0.1665406440241100
  0.7423683707155746  0.0773265182204028  0.1527459946587015
  0.7425302828220239  0.8030352120627740  0.1525636185386290
  0.2429940255461105  0.0620415249214972  0.3474851176453342
  0.2427083611762626  0.3126994684960920  0.3462479637287643
  0.2427529325979307  0.5612376069689731  0.3474201373147920
  0.2420336951847375  0.8123646348621207  0.3471734026973294
  0.2581041410451022  0.1872853424300089  0.8491119980154451
  0.2594138942682065  0.4374200089481448  0.8485061780825660
  0.2577437423498878  0.6879485296446788  0.8503516578696306
  0.2576889038485604  0.9372143195592955  0.8491922687586140
  0.7578528278284224  0.1863553772208419  0.6498272274898440
  0.7567105612732945  0.4372591774463075  0.6505905139615322
  0.7582544663403255  0.6864831541012251  0.6499899886616660
  0.7568884687464319  0.9374276839592426  0.6492507353885841
  0.5843065367186284  0.0613460160141628  0.8959131945179308
  0.5899306979490575  0.3110310410173867  0.8982079620187733
  0.5875394028130501  0.5630530057871042  0.8964092566957831
  0.5850273847482796  0.8118585024670395  0.8973048701828787
  0.0869955320756119  0.0613522025233593  0.6019901382108870
  0.0865162935693462  0.3106716506272988  0.6030611220798363
  0.0885438538638610  0.5628958092248837  0.6036552985028862
  0.0839944126907639  0.8118938605065296  0.6020993122143210
  0.4154225545786687  0.1888456497688935  0.1040054683445248
  0.4101515670943527  0.4373454100012850  0.1038307205236961
  0.4155808745603267  0.6857683852193119  0.1053780966725029
  0.4178962273388649  0.9381714867845119  0.1047304873428985
  0.9144662372578480  0.1864052908768699  0.3945930146396179
  0.9162864991221369  0.4347454020152881  0.3991052574995706
  0.9149456466523844  0.6862468641795161  0.3945167384095072
  0.9114085499836051  0.9375208182467105  0.3942889104136711
  0.5606241758394290  0.0637934334942116  0.3881429512306624
  0.5641802315101998  0.3105671036550746  0.3828676029571696
  0.5615546588472782  0.5633671580763533  0.3885073191400537
  0.5609625015925062  0.8102994404159460  0.3871738565201568
  0.0628312165148017  0.0583594146688213  0.1123084096798550
  0.0562157908767560  0.3082432515032352  0.1127235255526458
  0.0597918765337653  0.5649054218413525  0.1127772338839321
  0.0614869839910170  0.8160185555362958  0.1131302919480959
  0.4385797717021021  0.1894364301537550  0.6160215864425709
  0.4389094602496044  0.4340955616760240  0.6157173682231161
  0.4372447220169846  0.6890468528115719  0.6168068872689076
  0.4366882005130748  0.9342679987299363  0.6160458335165302
  0.9385555653928108  0.1852452526213924  0.8825425039684092
  0.9410995672247893  0.4373334241738718  0.8820520134556205
  0.9381462164405505  0.6885395405181214  0.8834466788910120
  0.9363195314435799  0.9376064157355728  0.8828102300545595
  0.7906968425148904  0.0626346103904964  0.8484146806635025
  0.7948206823566011  0.3130035627391692  0.8488299107550645
  0.7935461145529246  0.5614074801875546  0.8494922193566694
  0.7910545589677653  0.8114164637922272  0.8495356351984356
  0.2934065168390987  0.0617716963234400  0.6485073584799892
  0.2922969284944301  0.3110718843687081  0.6511838614600265
  0.2944222295355985  0.5624014204526731  0.6489977113849292
  0.2896287856706650  0.8117591053041338  0.6508335231065914
  0.2062075509866830  0.1898890430076108  0.1475022931838481
  0.2050662063889277  0.4376319952021532  0.1475456825645836
  0.2068946165962089  0.6845153042026695  0.1492316773901692
  0.2089075240724725  0.9371852319130909  0.1504646505977973
  0.7081673216121871  0.1845512203473803  0.3569420346435734
  0.7064697859461759  0.4367047671404407  0.3640167957428417
  0.7073083666914428  0.6877511157209071  0.3556170006735542
  0.7055627259662103  0.9372306875197225  0.3542243716935758
  0.8875618832032046  0.0619497138361425  0.5196603779346489
  0.8885735018076772  0.3112818177568784  0.5216355282390808
  0.8896282233675237  0.5610123976809618  0.5204179949840366
  0.8866901737952730  0.8114491019137873  0.5188395400911858
  0.3862317610734536  0.0620979642831685  0.9807939713964160
  0.3857245460967391  0.3119978695469143  0.9799225104656344
  0.3857849135511273  0.5626472803167815  0.9800421989342780
  0.3870783586917454  0.8125528167535876  0.9820357532174455
  0.1142161211815989  0.1864496156507727  0.4781817019845178
  0.1156231288788305  0.4364569991068521  0.4802196001442169
  0.1140174392184647  0.6868788118464195  0.4780203334473043
  0.1126057124735880  0.9368785639295183  0.4776774316515215
  0.6108258301866982  0.1869035741949290  0.0173862403488130
  0.6072731826325679  0.4364218546115310  0.0147817914511634
  0.6124785029147048  0.6859937107594476  0.0198037238634043
  0.6144581754749794  0.9375506408496435  0.0208883903360544
  0.9790206393513685  0.0618523142392746  0.2805184756958212
  0.9791325439647167  0.3132076073719503  0.2846004665286799
  0.9748921116559330  0.5600810010369983  0.2828616456005548
  0.9781874847076466  0.8117413237075510  0.2809456745230250
  0.4792332703623714  0.0634808596803325  0.2185418615769308
  0.4765985527095751  0.3130477113272505  0.2179471359370311
  0.4804151262733569  0.5601344441233138  0.2191133854600409
  0.4802560991215259  0.8115180744864645  0.2180109987564904
  0.0216862922566818  0.1860576971906553  0.7155861872230531
  0.0232950450948550  0.4375933853109970  0.7150244321410355
  0.0207362108400915  0.6871174557847155  0.7161342233353949
  0.0192084943623883  0.9371969201644035  0.7152271929138010
  0.5202290717626923  0.1879305630913635  0.7836553339085910
  0.5218740281296803  0.4363266323887132  0.7823084203294428
  0.5189995285178099  0.6875694446531426  0.7840984932048514
  0.5176342681086297  0.9361090505421288  0.7838298497518252
  0.5758877045031667  0.0619978960831560  0.5740184579721799
  0.5808929818332302  0.3102502917748993  0.5707735007807102
  0.5767980067938510  0.5634463359261517  0.5736098862701269
  0.5800235223515102  0.8115437758784054  0.5730345232312501
  0.0797947791649491  0.0608339408040663  0.9266642109389664
  0.0783967477751801  0.3111789468035653  0.9248277764670760
  0.0791785976508379  0.5631617136181291  0.9254086215648343
  0.0787101223944617  0.8131942240993624  0.9273178100386446
  0.4201072470015390  0.1876334467165321  0.4298563523615186
  0.4228289905161446  0.4362904587568792  0.4304246398153850
  0.4189713599977054  0.6880360084158497  0.4305355107040683
  0.4218791005531770  0.9362650018965510  0.4298160827851802
  0.9252683732077145  0.1862840476923964  0.0679787387569135
  0.9314770337830609  0.4369379087714123  0.0673269102557796
  0.9240008028177371  0.6865099075076486  0.0690626712397062
  0.9179873169903843  0.9374829827212281  0.0688487199717329
 
  0.00000000E+00  0.00000000E+00  0.00000000E+00
  0.00000000E+00  0.00000000E+00  0.00000000E+00
  0.00000000E+00  0.00000000E+00  0.00000000E+00
  0.00000000E+00  0.00000000E+00  0.00000000E+00
  0.00000000E+00  0.00000000E+00  0.00000000E+00
  0.00000000E+00  0.00000000E+00  0.00000000E+00
  0.00000000E+00  0.00000000E+00  0.00000000E+00
  0.00000000E+00  0.00000000E+00  0.00000000E+00
  0.00000000E+00  0.00000000E+00  0.00000000E+00
  0.00000000E+00  0.00000000E+00  0.00000000E+00
  0.00000000E+00  0.00000000E+00  0.00000000E+00
  0.00000000E+00  0.00000000E+00  0.00000000E+00
  0.00000000E+00  0.00000000E+00  0.00000000E+00
  0.00000000E+00  0.00000000E+00  0.00000000E+00
  0.00000000E+00  0.00000000E+00  0.00000000E+00
  0.00000000E+00  0.00000000E+00  0.00000000E+00
  0.00000000E+00  0.00000000E+00  0.00000000E+00
  0.00000000E+00  0.00000000E+00  0.00000000E+00
  0.00000000E+00  0.00000000E+00  0.00000000E+00
  0.00000000E+00  0.00000000E+00  0.00000000E+00
  0.00000000E+00  0.00000000E+00  0.00000000E+00
  0.00000000E+00  0.00000000E+00  0.00000000E+00
  0.00000000E+00  0.00000000E+00  0.00000000E+00
  0.00000000E+00  0.00000000E+00  0.00000000E+00
  0.00000000E+00  0.00000000E+00  0.00000000E+00
  0.00000000E+00  0.00000000E+00  0.00000000E+00
  0.00000000E+00  0.00000000E+00  0.00000000E+00
  0.00000000E+00  0.00000000E+00  0.00000000E+00
  0.00000000E+00  0.00000000E+00  0.00000000E+00
  0.00000000E+00  0.00000000E+00  0.00000000E+00
  0.00000000E+00  0.00000000E+00  0.00000000E+00
  0.00000000E+00  0.00000000E+00  0.00000000E+00
  0.00000000E+00  0.00000000E+00  0.00000000E+00
  0.00000000E+00  0.00000000E+00  0.00000000E+00
  0.00000000E+00  0.00000000E+00  0.00000000E+00
  0.00000000E+00  0.00000000E+00  0.00000000E+00
  0.00000000E+00  0.00000000E+00  0.00000000E+00
  0.00000000E+00  0.00000000E+00  0.00000000E+00
  0.00000000E+00  0.00000000E+00  0.00000000E+00
  0.00000000E+00  0.00000000E+00  0.00000000E+00
  0.00000000E+00  0.00000000E+00  0.00000000E+00
  0.00000000E+00  0.00000000E+00  0.00000000E+00
  0.00000000E+00  0.00000000E+00  0.00000000E+00
  0.00000000E+00  0.00000000E+00  0.00000000E+00
  0.00000000E+00  0.00000000E+00  0.00000000E+00
  0.00000000E+00  0.00000000E+00  0.00000000E+00
  0.00000000E+00  0.00000000E+00  0.00000000E+00
  0.00000000E+00  0.00000000E+00  0.00000000E+00
  0.00000000E+00  0.00000000E+00  0.00000000E+00
  0.00000000E+00  0.00000000E+00  0.00000000E+00
  0.00000000E+00  0.00000000E+00  0.00000000E+00
  0.00000000E+00  0.00000000E+00  0.00000000E+00
  0.00000000E+00  0.00000000E+00  0.00000000E+00
  0.00000000E+00  0.00000000E+00  0.00000000E+00
  0.00000000E+00  0.00000000E+00  0.00000000E+00
  0.00000000E+00  0.00000000E+00  0.00000000E+00
  0.00000000E+00  0.00000000E+00  0.00000000E+00
  0.00000000E+00  0.00000000E+00  0.00000000E+00
  0.00000000E+00  0.00000000E+00  0.00000000E+00
  0.00000000E+00  0.00000000E+00  0.00000000E+00
  0.00000000E+00  0.00000000E+00  0.00000000E+00
  0.00000000E+00  0.00000000E+00  0.00000000E+00
  0.00000000E+00  0.00000000E+00  0.00000000E+00
  0.00000000E+00  0.00000000E+00  0.00000000E+00
  0.00000000E+00  0.00000000E+00  0.00000000E+00
  0.00000000E+00  0.00000000E+00  0.00000000E+00
  0.00000000E+00  0.00000000E+00  0.00000000E+00
  0.00000000E+00  0.00000000E+00  0.00000000E+00
  0.00000000E+00  0.00000000E+00  0.00000000E+00
  0.00000000E+00  0.00000000E+00  0.00000000E+00
  0.00000000E+00  0.00000000E+00  0.00000000E+00
  0.00000000E+00  0.00000000E+00  0.00000000E+00
  0.00000000E+00  0.00000000E+00  0.00000000E+00
  0.00000000E+00  0.00000000E+00  0.00000000E+00
  0.00000000E+00  0.00000000E+00  0.00000000E+00
  0.00000000E+00  0.00000000E+00  0.00000000E+00
  0.00000000E+00  0.00000000E+00  0.00000000E+00
  0.00000000E+00  0.00000000E+00  0.00000000E+00
  0.00000000E+00  0.00000000E+00  0.00000000E+00
  0.00000000E+00  0.00000000E+00  0.00000000E+00
  0.00000000E+00  0.00000000E+00  0.00000000E+00
  0.00000000E+00  0.00000000E+00  0.00000000E+00
  0.00000000E+00  0.00000000E+00  0.00000000E+00
  0.00000000E+00  0.00000000E+00  0.00000000E+00
  0.00000000E+00  0.00000000E+00  0.00000000E+00
  0.00000000E+00  0.00000000E+00  0.00000000E+00
  0.00000000E+00  0.00000000E+00  0.00000000E+00
  0.00000000E+00  0.00000000E+00  0.00000000E+00
  0.00000000E+00  0.00000000E+00  0.00000000E+00
  0.00000000E+00  0.00000000E+00  0.00000000E+00
  0.00000000E+00  0.00000000E+00  0.00000000E+00
  0.00000000E+00  0.00000000E+00  0.00000000E+00
  0.00000000E+00  0.00000000E+00  0.00000000E+00
  0.00000000E+00  0.00000000E+00  0.00000000E+00
  0.00000000E+00  0.00000000E+00  0.00000000E+00
  0.00000000E+00  0.00000000E+00  0.00000000E+00
  0.00000000E+00  0.00000000E+00  0.00000000E+00
  0.00000000E+00  0.00000000E+00  0.00000000E+00
  0.00000000E+00  0.00000000E+00  0.00000000E+00
  0.00000000E+00  0.00000000E+00  0.00000000E+00
  0.00000000E+00  0.00000000E+00  0.00000000E+00
  0.00000000E+00  0.00000000E+00  0.00000000E+00
  0.00000000E+00  0.00000000E+00  0.00000000E+00
  0.00000000E+00  0.00000000E+00  0.00000000E+00
  0.00000000E+00  0.00000000E+00  0.00000000E+00
  0.00000000E+00  0.00000000E+00  0.00000000E+00
  0.00000000E+00  0.00000000E+00  0.00000000E+00
  0.00000000E+00  0.00000000E+00  0.00000000E+00
  0.00000000E+00  0.00000000E+00  0.00000000E+00
  0.00000000E+00  0.00000000E+00  0.00000000E+00
  0.00000000E+00  0.00000000E+00  0.00000000E+00
