Na15 V32 O64                            
   1.00000000000000     
     9.1051620000000000    0.0004200000000000   -0.0035410000000000
     0.0012660000000000   11.4424689999999991    0.0001420000000000
    -0.0000990000000000    0.0013550000000000   10.6040700000000001
   Na   V    O 
    15    32    64
Direct
  0.7401753389750386  0.4939257119190050  0.1665406440241116
  0.7423683707155779  0.0773265182204031  0.1527459946586998
  0.7425302828220253  0.8030352120627717  0.1525636185386257
  0.2429940255461080  0.0620415249214976  0.3474851176453349
  0.2427083611762657  0.3126994684960954  0.3462479637287613
  0.2427529325979311  0.5612376069689750  0.3474201373147929
  0.2420336951847342  0.8123646348621196  0.3471734026973308
  0.2581041410451043  0.1872853424300076  0.8491119980154460
  0.2594138942682065  0.4374200089481464  0.8485061780825630
  0.2577437423498861  0.6879485296446778  0.8503516578696326
  0.2576889038485589  0.9372143195592980  0.8491922687586159
  0.7578528278284214  0.1863553772208438  0.6498272274898447
  0.7567105612732964  0.4372591774463047  0.6505905139615352
  0.7582544663403278  0.6864831541012241  0.6499899886616683
  0.7568884687464327  0.9374276839592401  0.6492507353885835
  0.5843065367186308  0.0613460160141632  0.8959131945179324
  0.5899306979490540  0.3110310410173841  0.8982079620187698
  0.5875394028130497  0.5630530057871075  0.8964092566957834
  0.5850273847482824  0.8118585024670405  0.8973048701828803
  0.0869955320756135  0.0613522025233568  0.6019901382108851
  0.0865162935693492  0.3106716506272968  0.6030611220798351
  0.0885438538638597  0.5628958092248849  0.6036552985028834
  0.0839944126907674  0.8118938605065300  0.6020993122143199
  0.4154225545786694  0.1888456497688911  0.1040054683445237
  0.4101515670943528  0.4373454100012850  0.1038307205236957
  0.4155808745603256  0.6857683852193099  0.1053780966725060
  0.4178962273388667  0.9381714867845096  0.1047304873428960
  0.9144662372578483  0.1864052908768703  0.3945930146396152
  0.9162864991221371  0.4347454020152914  0.3991052574995710
  0.9149456466523834  0.6862468641795187  0.3945167384095054
  0.9114085499836080  0.9375208182467106  0.3942889104136690
  0.5606241758394324  0.0637934334942104  0.3881429512306612
  0.5641802315101991  0.3105671036550766  0.3828676029571701
  0.5615546588472784  0.5633671580763553  0.3885073191400510
  0.5609625015925087  0.8102994404159468  0.3871738565201542
  0.0628312165148007  0.0583594146688247  0.1123084096798578
  0.0562157908767589  0.3082432515032317  0.1127235255526480
  0.0597918765337621  0.5649054218413547  0.1127772338839343
  0.0614869839910189  0.8160185555362945  0.1131302919480937
  0.4385797717020998  0.1894364301537515  0.6160215864425700
  0.4389094602496078  0.4340955616760218  0.6157173682231191
  0.4372447220169854  0.6890468528115726  0.6168068872689063
  0.4366882005130777  0.9342679987299367  0.6160458335165307
  0.9385555653928090  0.1852452526213897  0.8825425039684123
  0.9410995672247862  0.4373334241738703  0.8820520134556240
  0.9381462164405507  0.6885395405181203  0.8834466788910155
  0.9363195314435785  0.9376064157355753  0.8828102300545605
  0.7906968425148913  0.0626346103904987  0.8484146806635012
  0.7948206823565981  0.3130035627391701  0.8488299107550634
  0.7935461145529275  0.5614074801875556  0.8494922193566682
  0.7910545589677662  0.8114164637922242  0.8495356351984342
  0.2934065168391003  0.0617716963234412  0.6485073584799874
  0.2922969284944269  0.3110718843687101  0.6511838614600258
  0.2944222295356014  0.5624014204526762  0.6489977113849281
  0.2896287856706636  0.8117591053041312  0.6508335231065936
  0.2062075509866834  0.1898890430076080  0.1475022931838476
  0.2050662063889295  0.4376319952021546  0.1475456825645843
  0.2068946165962115  0.6845153042026694  0.1492316773901675
  0.2089075240724699  0.9371852319130889  0.1504646505977981
  0.7081673216121895  0.1845512203473814  0.3569420346435729
  0.7064697859461748  0.4367047671404411  0.3640167957428382
  0.7073083666914399  0.6877511157209089  0.3556170006735550
  0.7055627259662134  0.9372306875197213  0.3542243716935731
  0.8875618832032074  0.0619497138361439  0.5196603779346465
  0.8885735018076792  0.3112818177568789  0.5216355282390818
  0.8896282233675252  0.5610123976809601  0.5204179949840374
  0.8866901737952699  0.8114491019137854  0.5188395400911824
  0.3862317610734518  0.0620979642831668  0.9807939713964154
  0.3857245460967413  0.3119978695469145  0.9799225104656357
  0.3857849135511305  0.5626472803167836  0.9800421989342794
  0.3870783586917432  0.8125528167535860  0.9820357532174485
  0.1142161211815994  0.1864496156507758  0.4781817019845170
  0.1156231288788311  0.4364569991068531  0.4802196001442184
  0.1140174392184618  0.6868788118464165  0.4780203334473034
  0.1126057124735894  0.9368785639295212  0.4776774316515221
  0.6108258301867010  0.1869035741949259  0.0173862403488111
  0.6072731826325694  0.4364218546115314  0.0147817914511650
  0.6124785029147032  0.6859937107594477  0.0198037238634012
  0.6144581754749799  0.9375506408496430  0.0208883903360549
  0.9790206393513718  0.0618523142392722  0.2805184756958213
  0.9791325439647195  0.3132076073719484  0.2846004665286801
  0.9748921116559336  0.5600810010369957  0.2828616456005520
  0.9781874847076436  0.8117413237075498  0.2809456745230237
  0.4792332703623687  0.0634808596803317  0.2185418615769284
  0.4765985527095736  0.3130477113272533  0.2179471359370310
  0.4804151262733554  0.5601344441233144  0.2191133854600388
  0.4802560991215227  0.8115180744864676  0.2180109987564875
  0.0216862922566789  0.1860576971906584  0.7155861872230546
  0.0232950450948577  0.4375933853109988  0.7150244321410358
  0.0207362108400896  0.6871174557847158  0.7161342233353978
  0.0192084943623899  0.9371969201644019  0.7152271929137991
  0.5202290717626890  0.1879305630913657  0.7836553339085875
  0.5218740281296771  0.4363266323887154  0.7823084203294435
  0.5189995285178081  0.6875694446531401  0.7840984932048543
  0.5176342681086326  0.9361090505421320  0.7838298497518240
  0.5758877045031684  0.0619978960831594  0.5740184579721813
  0.5808929818332299  0.3102502917748978  0.5707735007807124
  0.5767980067938538  0.5634463359261490  0.5736098862701271
  0.5800235223515084  0.8115437758784066  0.5730345232312476
  0.0797947791649524  0.0608339408040638  0.9266642109389637
  0.0783967477751820  0.3111789468035637  0.9248277764670764
  0.0791785976508384  0.5631617136181297  0.9254086215648315
  0.0787101223944588  0.8131942240993603  0.9273178100386443
  0.4201072470015375  0.1876334467165354  0.4298563523615170
  0.4228289905161421  0.4362904587568782  0.4304246398153821
  0.4189713599977042  0.6880360084158473  0.4305355107040676
  0.4218791005531766  0.9362650018965545  0.4298160827851779
  0.9252683732077180  0.1862840476923945  0.0679787387569109
  0.9314770337830605  0.4369379087714129  0.0673269102557789
  0.9240008028177362  0.6865099075076514  0.0690626712397061
  0.9179873169903834  0.9374829827212253  0.0688487199717334
 
             NaN             NaN             NaN
             NaN             NaN             NaN
             NaN             NaN             NaN
             NaN             NaN             NaN
             NaN             NaN             NaN
             NaN             NaN             NaN
             NaN             NaN             NaN
             NaN             NaN             NaN
             NaN             NaN             NaN
             NaN             NaN             NaN
             NaN             NaN             NaN
             NaN             NaN             NaN
             NaN             NaN             NaN
             NaN             NaN             NaN
             NaN             NaN             NaN
             NaN             NaN             NaN
             NaN             NaN             NaN
             NaN             NaN             NaN
             NaN             NaN             NaN
             NaN             NaN             NaN
             NaN             NaN             NaN
             NaN             NaN             NaN
             NaN             NaN             NaN
             NaN             NaN             NaN
             NaN             NaN             NaN
             NaN             NaN             NaN
             NaN             NaN             NaN
             NaN             NaN             NaN
             NaN             NaN             NaN
             NaN             NaN             NaN
             NaN             NaN             NaN
             NaN             NaN             NaN
             NaN             NaN             NaN
             NaN             NaN             NaN
             NaN             NaN             NaN
             NaN             NaN             NaN
             NaN             NaN             NaN
             NaN             NaN             NaN
             NaN             NaN             NaN
             NaN             NaN             NaN
             NaN             NaN             NaN
             NaN             NaN             NaN
             NaN             NaN             NaN
             NaN             NaN             NaN
             NaN             NaN             NaN
             NaN             NaN             NaN
             NaN             NaN             NaN
             NaN             NaN             NaN
             NaN             NaN             NaN
             NaN             NaN             NaN
             NaN             NaN             NaN
             NaN             NaN             NaN
             NaN             NaN             NaN
             NaN             NaN             NaN
             NaN             NaN             NaN
             NaN             NaN             NaN
             NaN             NaN             NaN
             NaN             NaN             NaN
             NaN             NaN             NaN
             NaN             NaN             NaN
             NaN             NaN             NaN
             NaN             NaN             NaN
             NaN             NaN             NaN
             NaN             NaN             NaN
             NaN             NaN             NaN
             NaN             NaN             NaN
             NaN             NaN             NaN
             NaN             NaN             NaN
             NaN             NaN             NaN
             NaN             NaN             NaN
             NaN             NaN             NaN
             NaN             NaN             NaN
             NaN             NaN             NaN
             NaN             NaN             NaN
             NaN             NaN             NaN
             NaN             NaN             NaN
             NaN             NaN             NaN
             NaN             NaN             NaN
             NaN             NaN             NaN
             NaN             NaN             NaN
             NaN             NaN             NaN
             NaN             NaN             NaN
             NaN             NaN             NaN
             NaN             NaN             NaN
             NaN             NaN             NaN
             NaN             NaN             NaN
             NaN             NaN             NaN
             NaN             NaN             NaN
             NaN             NaN             NaN
             NaN             NaN             NaN
             NaN             NaN             NaN
             NaN             NaN             NaN
             NaN             NaN             NaN
             NaN             NaN             NaN
             NaN             NaN             NaN
             NaN             NaN             NaN
             NaN             NaN             NaN
             NaN             NaN             NaN
             NaN             NaN             NaN
             NaN             NaN             NaN
             NaN             NaN             NaN
             NaN             NaN             NaN
             NaN             NaN             NaN
             NaN             NaN             NaN
             NaN             NaN             NaN
             NaN             NaN             NaN
             NaN             NaN             NaN
             NaN             NaN             NaN
             NaN             NaN             NaN
             NaN             NaN             NaN
             NaN             NaN             NaN
