Na15 V32 O64
1.0
9.106118 -0.000263 -0.004594
0.000274 11.443535 0.000301
-0.000258 0.001875 10.601886
Na V O
15 32 64
direct
0.742421 0.544239 0.153983 Na
0.742372 0.082637 0.154301 Na
0.742232 0.813399 0.152232 Na
0.242901 0.062934 0.347673 Na
0.243416 0.312626 0.346687 Na
0.242864 0.562106 0.347974 Na
0.242677 0.812672 0.347536 Na
0.258078 0.188102 0.849056 Na
0.258231 0.437790 0.849157 Na
0.257428 0.688314 0.849554 Na
0.257259 0.937391 0.849564 Na
0.757678 0.186936 0.650428 Na
0.757667 0.437713 0.650043 Na
0.757674 0.686732 0.649473 Na
0.757687 0.937909 0.649755 Na
0.584545 0.062332 0.896191 V
0.589965 0.311928 0.901698 V
0.584192 0.561769 0.896085 V
0.585004 0.811933 0.897335 V
0.088769 0.061761 0.603155 V
0.085561 0.311824 0.602950 V
0.087976 0.562293 0.603055 V
0.084291 0.811857 0.602827 V
0.411351 0.188816 0.105030 V
0.413234 0.436218 0.104921 V
0.416759 0.686728 0.105082 V
0.416239 0.938695 0.104644 V
0.915297 0.188420 0.395552 V
0.914818 0.436626 0.394898 V
0.914369 0.686509 0.394678 V
0.914789 0.938363 0.395373 V
0.561028 0.062790 0.388192 V
0.566483 0.311747 0.381970 V
0.560690 0.561523 0.388196 V
0.561905 0.812069 0.387071 V
0.061929 0.059176 0.112184 V
0.054888 0.313891 0.112510 V
0.062743 0.566941 0.112371 V
0.060850 0.811613 0.113360 V
0.439338 0.189952 0.616221 V
0.439076 0.433458 0.615860 V
0.437319 0.689121 0.616543 V
0.437728 0.934498 0.616701 V
0.938939 0.187545 0.882785 V
0.938626 0.439597 0.882944 V
0.936558 0.688266 0.883210 V
0.936934 0.938148 0.883178 V
0.791255 0.063770 0.849572 O
0.794185 0.312545 0.850201 O
0.791004 0.561994 0.849133 O
0.791071 0.813287 0.849589 O
0.294513 0.062039 0.648783 O
0.292058 0.312139 0.650696 O
0.294016 0.562225 0.648643 O
0.290005 0.811880 0.651102 O
0.204732 0.188783 0.146917 O
0.205548 0.435914 0.146850 O
0.208395 0.686589 0.149879 O
0.207420 0.939899 0.149048 O
0.708094 0.185003 0.356980 O
0.708028 0.439992 0.357172 O
0.707178 0.687507 0.353570 O
0.706733 0.937172 0.353870 O
0.888911 0.063197 0.519680 O
0.887801 0.312086 0.519984 O
0.888653 0.561668 0.519518 O
0.887021 0.812624 0.518885 O
0.385620 0.062498 0.980480 O
0.385572 0.312433 0.980198 O
0.385928 0.562576 0.980816 O
0.386939 0.812565 0.981812 O
0.114801 0.187426 0.479215 O
0.114292 0.437038 0.479092 O
0.113693 0.687318 0.478461 O
0.114063 0.937368 0.478677 O
0.609308 0.187477 0.018764 O
0.609969 0.437126 0.018633 O
0.613781 0.686223 0.020840 O
0.613560 0.938584 0.020869 O
0.978225 0.062659 0.281939 O
0.980988 0.312543 0.284683 O
0.979457 0.562539 0.281368 O
0.978930 0.812679 0.281221 O
0.478126 0.063569 0.218932 O
0.474118 0.312369 0.219147 O
0.478860 0.561709 0.218827 O
0.479558 0.812749 0.218077 O
0.021823 0.186803 0.715513 O
0.021362 0.437881 0.715371 O
0.019478 0.687292 0.715930 O
0.019972 0.937704 0.715705 O
0.521140 0.188427 0.783869 O
0.520886 0.436009 0.783962 O
0.518150 0.688052 0.784325 O
0.518307 0.936287 0.784220 O
0.576825 0.061618 0.573975 O
0.581965 0.311975 0.570408 O
0.576334 0.562472 0.574090 O
0.580483 0.811788 0.572970 O
0.079169 0.061956 0.925858 O
0.077475 0.313340 0.925095 O
0.079521 0.564487 0.926317 O
0.077671 0.812975 0.927751 O
0.422403 0.187735 0.430221 O
0.422539 0.436544 0.430024 O
0.421068 0.687992 0.430139 O
0.421278 0.936306 0.430391 O
0.928294 0.186922 0.068809 O
0.927192 0.439063 0.068582 O
0.918765 0.686680 0.069323 O
0.919966 0.939519 0.069551 O
