Li47 P16 O64
1.0
10.426359 0.000012 -0.015939
0.000013 12.257714 -0.000009
-0.015100 -0.000010 9.827791
Li P O
47 16 64
direct
0.164735 0.252641 0.151021 Li
0.654535 0.253410 0.097186 Li
0.666626 0.249078 0.597747 Li
0.663273 0.750002 0.097617 Li
0.664369 0.750553 0.598478 Li
0.164772 0.497343 0.150993 Li
0.165382 0.498392 0.652408 Li
0.164482 -0.001356 0.151959 Li
0.165228 -0.001342 0.652674 Li
0.337055 0.000739 0.400382 Li
0.336439 0.000937 0.905121 Li
0.339830 0.498233 0.396979 Li
0.338189 0.496159 0.909513 Li
0.835334 0.249026 0.347176 Li
0.833257 0.249154 0.849488 Li
0.836588 0.748393 0.348006 Li
0.836467 0.748761 0.847552 Li
0.339817 0.251760 0.397010 Li
0.338188 0.253849 0.909568 Li
0.337064 0.749253 0.400350 Li
0.336444 0.749085 0.905086 Li
0.836575 0.001602 0.348013 Li
0.836460 0.001241 0.847566 Li
0.835343 0.500966 0.347168 Li
0.833271 0.500848 0.849472 Li
0.654549 0.496587 0.097159 Li
0.666632 0.500924 0.597746 Li
0.663254 1.000005 0.097625 Li
0.664360 0.999457 0.598501 Li
0.165373 0.251610 0.652423 Li
0.164498 0.751344 0.151928 Li
0.165236 0.751341 0.652655 Li
0.918613 0.374994 0.147843 Li
0.921620 0.374999 0.649330 Li
0.922099 0.874998 0.149368 Li
0.923914 0.875003 0.648586 Li
0.427683 0.375003 0.607644 Li
0.428218 0.874996 0.101518 Li
0.424432 0.874998 0.600523 Li
0.077938 0.125934 0.350626 Li
0.077834 0.126051 0.852566 Li
0.077955 0.624050 0.350595 Li
0.077846 0.623953 0.852552 Li
0.576312 0.126680 0.399552 Li
0.573606 0.126214 0.899200 Li
0.576323 0.623320 0.399520 Li
0.573629 0.623805 0.899166 Li
0.910670 0.124841 0.095426 P
0.913782 0.124369 0.595519 P
0.910683 0.625154 0.095413 P
0.913795 0.625632 0.595507 P
0.409029 0.120600 0.153897 P
0.411202 0.124519 0.654736 P
0.409055 0.629398 0.153856 P
0.411215 0.625487 0.654716 P
0.087855 0.374996 0.404563 P
0.085545 0.374999 0.904579 P
0.087948 0.874997 0.404935 P
0.087597 0.875003 0.905133 P
0.592380 0.375000 0.348838 P
0.586881 0.375000 0.838627 P
0.590003 0.874999 0.345901 P
0.588999 0.875006 0.844734 P
0.841233 0.021421 0.146674 O
0.843471 0.021269 0.646282 O
0.839079 0.523151 0.146044 O
0.843982 0.523624 0.648609 O
0.331527 0.215326 0.098034 O
0.342011 0.226726 0.600600 O
0.344289 0.737354 0.108256 O
0.342196 0.728998 0.602132 O
0.158122 0.272268 0.353533 O
0.155755 0.272443 0.852975 O
0.157612 0.772168 0.353404 O
0.158068 0.772257 0.854198 O
0.661336 0.478626 0.403256 O
0.654106 0.477765 0.896315 O
0.659522 0.978007 0.398339 O
0.658913 0.977977 0.896432 O
0.158131 0.477714 0.353517 O
0.155751 0.477554 0.852968 O
0.157611 0.977830 0.353415 O
0.158062 0.977757 0.854214 O
0.661332 0.271371 0.403252 O
0.654098 0.272239 0.896338 O
0.659530 0.771991 0.398326 O
0.658923 0.772040 0.896433 O
0.839065 0.226843 0.146057 O
0.843971 0.226380 0.648615 O
0.841249 0.728573 0.146676 O
0.843478 0.728731 0.646265 O
0.344266 0.012644 0.108294 O
0.342190 0.021004 0.602158 O
0.331551 0.534672 0.097989 O
0.342019 0.523280 0.600587 O
0.548207 0.122604 0.101016 O
0.551141 0.123977 0.604989 O
0.548230 0.627397 0.100974 O
0.551155 0.626032 0.604972 O
0.049572 0.124967 0.148308 O
0.053031 0.123942 0.647338 O
0.049595 0.625024 0.148263 O
0.053045 0.626062 0.647322 O
0.453831 0.375000 0.402337 O
0.443984 0.375002 0.868428 O
0.450817 0.874998 0.396920 O
0.449919 0.875010 0.895559 O
0.948757 0.374998 0.351640 O
0.946070 0.374998 0.852235 O
0.948490 0.874999 0.353290 O
0.948804 0.875002 0.851654 O
0.600420 0.375004 0.194651 O
0.602915 0.374999 0.682282 O
0.593112 0.874999 0.189059 O
0.590699 0.875001 0.687702 O
0.084677 0.374995 0.061444 O
0.087792 0.375001 0.561732 O
0.087006 0.874996 0.061994 O
0.089377 0.874997 0.562017 O
0.411417 0.123913 0.311451 O
0.408093 0.124466 0.811549 O
0.411430 0.626081 0.311411 O
0.408107 0.625544 0.811530 O
0.912287 0.125039 0.438476 O
0.910636 0.124550 0.938240 O
0.912305 0.624957 0.438464 O
0.910643 0.625455 0.938227 O
