Mg7 Sc16 Se32
1.0
11.129146 -0.000008 -0.000016
-0.000009 11.129147 -0.000023
-0.000016 -0.000011 11.129306
Mg Sc Se
7 16 32
direct
0.469344 0.469346 0.469342 Mg
0.624158 0.125845 0.125843 Mg
0.125846 0.624157 0.125843 Mg
0.125846 0.125845 0.624157 Mg
0.376439 0.873563 0.873563 Mg
0.873563 0.376438 0.873564 Mg
0.873565 0.873565 0.376437 Mg
0.996064 0.749864 0.749866 Sc
0.749866 0.996063 0.749865 Sc
0.749866 0.749863 0.996061 Sc
1.000011 1.000008 1.000007 Sc
0.002388 0.250065 0.250064 Sc
0.250069 0.002384 0.250065 Sc
0.250069 0.250064 0.002385 Sc
0.747491 0.500063 0.254011 Sc
0.747488 0.254011 0.500063 Sc
-0.001560 0.500060 0.500061 Sc
0.254013 0.500062 0.747488 Sc
0.254013 0.747489 0.500063 Sc
0.500065 0.747489 0.254010 Sc
0.500063 -0.001560 0.500061 Sc
0.500063 0.254010 0.747489 Sc
0.500064 0.500061 -0.001560 Sc
0.757254 0.993323 0.993324 Se
0.993321 0.757256 0.993325 Se
0.993322 0.993323 0.757253 Se
0.755875 0.755876 0.755878 Se
0.242998 0.006624 0.006619 Se
0.006622 0.242999 0.006621 Se
0.006622 0.006623 0.243000 Se
0.243832 0.243832 0.243831 Se
0.756988 0.494067 0.494063 Se
0.992212 0.256734 0.492688 Se
0.992213 0.492685 0.256730 Se
0.758366 0.256735 0.256735 Se
0.241956 0.506273 0.506270 Se
0.008502 0.743275 0.507101 Se
0.008501 0.507100 0.743274 Se
0.241121 0.743268 0.743283 Se
0.256731 0.992214 0.492687 Se
0.494068 0.756987 0.494063 Se
0.492684 0.992214 0.256731 Se
0.256733 0.758367 0.256734 Se
0.743272 0.008503 0.507099 Se
0.506268 0.241955 0.506275 Se
0.507098 0.008501 0.743274 Se
0.743267 0.241122 0.743283 Se
0.256732 0.492685 0.992213 Se
0.492684 0.256734 0.992216 Se
0.494067 0.494067 0.756991 Se
0.256732 0.256733 0.758368 Se
0.743271 0.507101 0.008499 Se
0.507100 0.743273 0.008501 Se
0.506272 0.506272 0.241951 Se
0.743275 0.743275 0.241121 Se
