Li15 Fe16 P16 O64
1.0
10.242022 -0.001180 0.023954
-0.001367 11.964427 0.003218
0.009289 0.003643 9.372724
Li Fe P O
15 16 16 64
direct
0.505716 0.315281 0.748482 Li
0.500518 -0.000364 0.249025 Li
0.499977 0.001738 0.749341 Li
0.500987 0.501695 0.252442 Li
0.997953 0.249842 0.496485 Li
0.996897 0.247552 0.001584 Li
0.999404 0.748838 0.500688 Li
0.999221 0.750496 0.001763 Li
0.500017 0.249157 0.251669 Li
0.501532 0.749511 0.250707 Li
0.499530 0.742368 0.751885 Li
0.997589 0.500319 0.496453 Li
0.996643 0.502708 0.001875 Li
0.999681 0.000901 0.500456 Li
0.999452 0.998684 0.001694 Li
0.780533 0.124710 0.264529 Fe
0.780276 0.124935 0.763185 Fe
0.779632 0.625644 0.266221 Fe
0.778427 0.624907 0.761776 Fe
0.281583 0.124914 0.485520 Fe
0.281239 0.124510 0.985856 Fe
0.281859 0.625047 0.485699 Fe
0.281539 0.625178 0.985798 Fe
0.217613 0.374920 0.232048 Fe
0.224702 0.375409 0.744910 Fe
0.219091 0.874978 0.236170 Fe
0.219301 0.874904 0.736097 Fe
0.719860 0.375507 0.011733 Fe
0.718347 0.375996 0.516995 Fe
0.718780 0.874779 0.014064 Fe
0.718303 0.874916 0.514613 Fe
0.594781 0.125276 0.041519 P
0.593447 0.126043 0.542317 P
0.595437 0.626184 0.041805 P
0.592925 0.624017 0.541579 P
0.093354 0.124540 0.207598 P
0.094167 0.127667 0.710336 P
0.093240 0.625366 0.208710 P
0.094198 0.622162 0.710879 P
0.398043 0.374148 0.458122 P
0.407782 0.375213 0.957559 P
0.405714 0.875341 0.456867 P
0.407077 0.875165 0.956979 P
0.906062 0.374792 0.289537 P
0.910552 0.374866 0.788798 P
0.907009 0.875098 0.293580 P
0.907532 0.874775 0.792330 P
0.595308 0.126300 0.379884 O
0.598016 0.123703 0.879964 O
0.594786 0.623958 0.378436 O
0.600476 0.630819 0.881250 O
0.094955 0.125835 0.369769 O
0.094412 0.126198 0.872087 O
0.095024 0.624221 0.370933 O
0.094501 0.623461 0.872666 O
0.403262 0.374763 0.119579 O
0.383002 0.371467 0.619630 O
0.404967 0.875333 0.119002 O
0.402395 0.875739 0.618773 O
0.906034 0.374538 0.127174 O
0.908173 0.374722 0.627252 O
0.905617 0.875056 0.131408 O
0.906901 0.875174 0.630279 O
0.954976 0.124463 0.145017 O
0.957312 0.126807 0.644631 O
0.954811 0.625399 0.146300 O
0.957565 0.622925 0.644995 O
0.455578 0.126456 0.103592 O
0.454815 0.126539 0.603932 O
0.455871 0.623692 0.103296 O
0.454275 0.624519 0.600845 O
0.044356 0.374525 0.352660 O
0.052404 0.374555 0.848805 O
0.045244 0.875454 0.356769 O
0.046026 0.875167 0.855361 O
0.539292 0.374741 0.405088 O
0.544886 0.373129 0.898028 O
0.544293 0.875489 0.394037 O
0.545178 0.875584 0.893606 O
0.664676 0.022978 0.109648 O
0.664192 0.023261 0.608109 O
0.667143 0.523672 0.107054 O
0.672457 0.525485 0.603941 O
0.164784 0.226112 0.139258 O
0.165047 0.233117 0.647680 O
0.164723 0.727412 0.142646 O
0.168617 0.722313 0.643963 O
0.330945 0.271923 0.387226 O
0.329560 0.275459 0.889033 O
0.333922 0.773531 0.390417 O
0.335007 0.772974 0.891518 O
0.834973 0.476676 0.356006 O
0.841990 0.476587 0.857576 O
0.835212 0.977188 0.359592 O
0.835918 0.976929 0.858422 O
0.329915 0.476589 0.389864 O
0.325813 0.472727 0.891861 O
0.334338 0.977440 0.390155 O
0.334753 0.977210 0.891096 O
0.834223 0.273182 0.356606 O
0.841738 0.272812 0.857411 O
0.835945 0.772982 0.360260 O
0.836734 0.772264 0.858263 O
0.666606 0.227240 0.107565 O
0.668074 0.226634 0.607709 O
0.664337 0.728230 0.112713 O
0.663007 0.727813 0.606850 O
0.164669 0.022362 0.141976 O
0.168601 0.027611 0.643314 O
0.164628 0.523758 0.140747 O
0.165213 0.516664 0.648196 O
