Li46 P16 O64                            
   1.00000000000000     
    10.4276429999999998   -0.0013260000000000   -0.0108830000000000
    -0.0017310000000000   12.1927889999999994   -0.0026750000000000
    -0.0095780000000000   -0.0028610000000000    9.7875759999999996
   Li   P    O 
    46    16    64
Direct
  0.2139608528491839  0.2986242116917885  0.1631681786919801
  0.6677286809157003  0.2463057537488471  0.6060091431293643
  0.6612606832692013  0.7474050650988288  0.0971511452154909
  0.6644559162155895  0.7512323842433694  0.5992291460908015
  0.1615244966204147  0.5078929010606831  0.1501052939714247
  0.1651415445389404  0.5011881640766250  0.6522132970488819
  0.1658209047575142  0.9948713876645370  0.1536419819507516
  0.1651348549734701  0.9990642111563230  0.6532882809852667
  0.3362014475025137  0.9995990907537102  0.4024375531409289
  0.3375233643940687  0.9997423283369701  0.9019070273048104
  0.3356634466146256  0.5023799411425059  0.4024513573142184
  0.3392456992310184  0.4963504855993335  0.9088014660020439
  0.8392089798728262  0.2488803715220961  0.3466515153362513
  0.8363675852810885  0.2498176884187539  0.8529422287246791
  0.8355473114844737  0.7490509573858454  0.3481852437188796
  0.8356939948390110  0.7493722697911130  0.8478277550199268
  0.3379141121046838  0.2460723365492892  0.4084783344738229
  0.3410755087642081  0.2501575304795326  0.9016108036777600
  0.3369269827208938  0.7489662992113331  0.4012256422914600
  0.3361065819292416  0.7478950452056532  0.9028835699425650
  0.8386410138252808  0.0017350156144127  0.3498760715149523
  0.8363755262674974  0.0014350121680154  0.8459806486572918
  0.8371452561118974  0.5008084508817738  0.3454159014686357
  0.8356585862101730  0.4999324842144090  0.8497514541751057
  0.6592930491123271  0.4907175672125270  0.0915454223904965
  0.6683846703738245  0.5043438019063858  0.5958348903966331
  0.6685866474528822  0.9961333032499015  0.0983877712783646
  0.6654631028855846  0.9988908341542658  0.5972776110390705
  0.1651277647629594  0.2513986906231832  0.6541542085953755
  0.1646971592384432  0.7510259070408324  0.1521187310375527
  0.1651186082660706  0.7519005736823988  0.6521711060834189
  0.9284157896094433  0.3750081583563170  0.1454511220932208
  0.9255959492519777  0.3754336640807930  0.6516589456487333
  0.9224053621814355  0.8735786017888045  0.1490157963640203
  0.9240941696140137  0.8753959944482602  0.6483689397767568
  0.4174926722927630  0.3759000209036247  0.6219399265083984
  0.4265871255079007  0.8716370549155185  0.1009311398709120
  0.4246126100745414  0.8746668207356816  0.6011678185812582
  0.0817751704886024  0.1290335641442536  0.3435081115364433
  0.0801411972311555  0.1266404932410511  0.8564215266219931
  0.0754776053494683  0.6270732804767162  0.3526689372694420
  0.0763866175869787  0.6252761341856223  0.8506607454473752
  0.5774185260349272  0.1227327740814664  0.3933367424930015
  0.5802131857971028  0.1281069075312875  0.9091137302722456
  0.5760991159888743  0.6264668025944273  0.3987146257765912
  0.5756295815199388  0.6226174879027193  0.8982563707077716
  0.9155427826160401  0.1235361197388217  0.0952058227299678
  0.9159817616492961  0.1255733534617502  0.5952610672007934
  0.9086855555471653  0.6252309690088903  0.0952770495969721
  0.9128169515638002  0.6256672780654959  0.5953582129653615
  0.4125773082934922  0.1190810689872992  0.1545238174610623
  0.4138758913610559  0.1232340974102268  0.6551157694196060
  0.4106310086759656  0.6238025856224456  0.1544915131044397
  0.4119487265205845  0.6255355246549520  0.6549436603636487
  0.0899118066169309  0.3774582380136397  0.4050767093144130
  0.0911084640853427  0.3771202013240105  0.9048144535319548
  0.0885936493804701  0.8752554015417073  0.4049577262973937
  0.0881095570515863  0.8747668318444066  0.9048388951187769
  0.5871442767676086  0.3745408163695229  0.3524292256345850
  0.5882205180910176  0.3740188398394686  0.8314969627398177
  0.5896150916394021  0.8740074837931043  0.3453634809257197
  0.5889879504878957  0.8741246107573750  0.8453994420685130
  0.8430821651559476  0.0221562515784933  0.1488190160767952
  0.8436680831868314  0.0225562007332214  0.6449787548338021
  0.8394255066174556  0.5207347579517385  0.1450864384866786
  0.8441911341769962  0.5223026195793240  0.6486543554246791
  0.3453098958598010  0.2182752748865121  0.0926230710767039
  0.3428051455323889  0.2269878086865213  0.6051032176641167
  0.3439168787712270  0.7300541636163668  0.1049078258607493
  0.3423493932680922  0.7291775248954712  0.6032983220164349
  0.1640130717872744  0.2762505826367048  0.3523416260673485
  0.1606714909333464  0.2738392135191596  0.8531496952669366
  0.1590660413220306  0.7720642911334972  0.3535379086132656
  0.1582370367653985  0.7714560942886881  0.8533729206528679
  0.6583592238475962  0.4783111574806333  0.3969831419562598
  0.6559693394036855  0.4749465949637509  0.8930645037777993
  0.6602220250811962  0.9774767330813013  0.3961739869617550
  0.6603821107101577  0.9763900970874976  0.8981032903519167
  0.1581545745998741  0.4812648034619045  0.3524872254875066
  0.1592223482992093  0.4801781516445133  0.8499748348773030
  0.1587031504592191  0.9783424967001062  0.3532181497006646
  0.1592591173930410  0.9778006761010961  0.8543992365049552
  0.6594570921378681  0.2714898524344624  0.3968626633178983
  0.6558180366166989  0.2683746559087174  0.8748623680080493
  0.6591124282888895  0.7710472307229679  0.3989361776230568
  0.6577751609595993  0.7697291610630147  0.8960652649413022
  0.8566254781727199  0.2293448924655730  0.1513764118419197
  0.8460077244083556  0.2289055722620049  0.6468517010534870
  0.8373955904867050  0.7277823431472531  0.1470428880394604
  0.8422750831784146  0.7287516416473327  0.6468686791369008
  0.3419138892172471  0.0146352524935213  0.1059379487679717
  0.3426136205392006  0.0206171641706610  0.6027187037097633
  0.3349629316864658  0.5252114770007913  0.1027710227270164
  0.3416919505668283  0.5229642359283893  0.6011665333193722
  0.5507894954498366  0.1136450302357672  0.1047854879763915
  0.5515217793833205  0.1241718198464332  0.5987747144217938
  0.5497733827847573  0.6207361199966398  0.1017312586076823
  0.5511943618340795  0.6258300302017032  0.6030276061075345
  0.0552841390166365  0.1192606853893338  0.1442248947106744
  0.0540648257186660  0.1248923999124130  0.6497549307522371
  0.0469906148073652  0.6276141306738539  0.1495324650684997
  0.0523620912187592  0.6267221543258127  0.6455027465771602
  0.4484727266314049  0.3745613556466316  0.4007972160146485
  0.4449754684435510  0.3737795145109596  0.8633958119476723
  0.4505069023802642  0.8748541804382304  0.3969095364859566
  0.4499335229711275  0.8741828708934157  0.8969781588603398
  0.9509831597213241  0.3755205544906668  0.3528325917822443
  0.9505225352990609  0.3755181973890717  0.8564360375577224
  0.9494616138689277  0.8744948385365904  0.3525421069551578
  0.9492245338445843  0.8752585275378045  0.8518049727283200
  0.5822171377809469  0.3691113615678508  0.1928826926687225
  0.5978661780176117  0.3793544413909091  0.6735427792923431
  0.5911937928739953  0.8724071317531815  0.1879980193615393
  0.5901083407712926  0.8753309953910268  0.6877803959342786
  0.0949219524607840  0.3806372783008333  0.0622194869212714
  0.0911447824750879  0.3763767373186606  0.5623675158001851
  0.0877015859049110  0.8738592754624173  0.0623834621365867
  0.0894233829966242  0.8754953669735460  0.5624157156770621
  0.4086315417810239  0.1244051506746922  0.3118680471264206
  0.4150830428366089  0.1222232678960264  0.8120442592757829
  0.4122025642570390  0.6244878511242917  0.3125360401174719
  0.4105179955759307  0.6242881852460465  0.8121774168134287
  0.9166060719993099  0.1261900961543115  0.4376160373700548
  0.9109202674012701  0.1238856302674454  0.9380581527750909
  0.9097264497685598  0.6246616079036041  0.4377482159459311
  0.9098626287747136  0.6254668213137755  0.9377595602579196
 
             NaN             NaN             NaN
             NaN             NaN             NaN
             NaN             NaN             NaN
             NaN             NaN             NaN
             NaN             NaN             NaN
             NaN             NaN             NaN
             NaN             NaN             NaN
             NaN             NaN             NaN
             NaN             NaN             NaN
             NaN             NaN             NaN
             NaN             NaN             NaN
             NaN             NaN             NaN
             NaN             NaN             NaN
             NaN             NaN             NaN
             NaN             NaN             NaN
             NaN             NaN             NaN
             NaN             NaN             NaN
             NaN             NaN             NaN
             NaN             NaN             NaN
             NaN             NaN             NaN
             NaN             NaN             NaN
             NaN             NaN             NaN
             NaN             NaN             NaN
             NaN             NaN             NaN
             NaN             NaN             NaN
             NaN             NaN             NaN
             NaN             NaN             NaN
             NaN             NaN             NaN
             NaN             NaN             NaN
             NaN             NaN             NaN
             NaN             NaN             NaN
             NaN             NaN             NaN
             NaN             NaN             NaN
             NaN             NaN             NaN
             NaN             NaN             NaN
             NaN             NaN             NaN
             NaN             NaN             NaN
             NaN             NaN             NaN
             NaN             NaN             NaN
             NaN             NaN             NaN
             NaN             NaN             NaN
             NaN             NaN             NaN
             NaN             NaN             NaN
             NaN             NaN             NaN
             NaN             NaN             NaN
             NaN             NaN             NaN
             NaN             NaN             NaN
             NaN             NaN             NaN
             NaN             NaN             NaN
             NaN             NaN             NaN
             NaN             NaN             NaN
             NaN             NaN             NaN
             NaN             NaN             NaN
             NaN             NaN             NaN
             NaN             NaN             NaN
             NaN             NaN             NaN
             NaN             NaN             NaN
             NaN             NaN             NaN
             NaN             NaN             NaN
             NaN             NaN             NaN
             NaN             NaN             NaN
             NaN             NaN             NaN
             NaN             NaN             NaN
             NaN             NaN             NaN
             NaN             NaN             NaN
             NaN             NaN             NaN
             NaN             NaN             NaN
             NaN             NaN             NaN
             NaN             NaN             NaN
             NaN             NaN             NaN
             NaN             NaN             NaN
             NaN             NaN             NaN
             NaN             NaN             NaN
             NaN             NaN             NaN
             NaN             NaN             NaN
             NaN             NaN             NaN
             NaN             NaN             NaN
             NaN             NaN             NaN
             NaN             NaN             NaN
             NaN             NaN             NaN
             NaN             NaN             NaN
             NaN             NaN             NaN
             NaN             NaN             NaN
             NaN             NaN             NaN
             NaN             NaN             NaN
             NaN             NaN             NaN
             NaN             NaN             NaN
             NaN             NaN             NaN
             NaN             NaN             NaN
             NaN             NaN             NaN
             NaN             NaN             NaN
             NaN             NaN             NaN
             NaN             NaN             NaN
             NaN             NaN             NaN
             NaN             NaN             NaN
             NaN             NaN             NaN
             NaN             NaN             NaN
             NaN             NaN             NaN
             NaN             NaN             NaN
             NaN             NaN             NaN
             NaN             NaN             NaN
             NaN             NaN             NaN
             NaN             NaN             NaN
             NaN             NaN             NaN
             NaN             NaN             NaN
             NaN             NaN             NaN
             NaN             NaN             NaN
             NaN             NaN             NaN
             NaN             NaN             NaN
             NaN             NaN             NaN
             NaN             NaN             NaN
             NaN             NaN             NaN
             NaN             NaN             NaN
             NaN             NaN             NaN
             NaN             NaN             NaN
             NaN             NaN             NaN
             NaN             NaN             NaN
             NaN             NaN             NaN
             NaN             NaN             NaN
             NaN             NaN             NaN
             NaN             NaN             NaN
             NaN             NaN             NaN
             NaN             NaN             NaN
             NaN             NaN             NaN
             NaN             NaN             NaN
             NaN             NaN             NaN
