Li46 P16 O64                            
   1.00000000000000     
    10.4272819999999999    0.0014570000000000   -0.0088930000000000
     0.0013960000000000   12.1894650000000002   -0.0012860000000000
    -0.0079060000000000   -0.0016550000000000    9.7915320000000001
   Li   P    O 
    46    16    64
Direct
  0.2704791476044948  0.3458538753846617  0.1631705513105056
  0.6672157927152704  0.2463256732750815  0.6067296289175649
  0.6589879358685128  0.7462247069573592  0.0971800049921796
  0.6639845409815357  0.7508736093750580  0.5989222829052957
  0.1556750482075153  0.5118117183292622  0.1497200749927168
  0.1647952294708514  0.5011215675390511  0.6522655221254929
  0.1661345511081788  0.9951248648973516  0.1535015133002224
  0.1645924565900774  0.9992756081440988  0.6531842245924141
  0.3357721614633299  0.9994059427959737  0.4028532624166106
  0.3369971105451174  0.9995638454056346  0.9016409587313911
  0.3351266040594518  0.5032490786200629  0.4055074616850708
  0.3389801481913318  0.4966245004939665  0.9070966896574622
  0.8388884942407124  0.2493282863770659  0.3470426410256476
  0.8364034272579549  0.2501715665149702  0.8532363482175630
  0.8349782770475693  0.7488546690029597  0.3481824609622587
  0.8349504152150253  0.7493477521134709  0.8476498512055071
  0.3370204274040897  0.2438025554075683  0.4094375902009527
  0.3398537951516204  0.2487394513094808  0.9009605882240362
  0.3365178919007227  0.7483998553582689  0.4017923289091068
  0.3353420203377191  0.7471995602079511  0.9019413884827711
  0.8383240609494690  0.0017986628504061  0.3501553074039704
  0.8352782950250126  0.0011994956869462  0.8452054517738677
  0.8368519016185250  0.4996033340642727  0.3450064190985637
  0.8360718812847742  0.4992745337340031  0.8507649735863995
  0.6604725442190060  0.4885755821426730  0.0908804037726148
  0.6678735872217834  0.5033231863390530  0.5963150766916004
  0.6662864332961074  0.9948131293233660  0.0976419796840033
  0.6651212276079694  0.9983075740742403  0.5972214201465245
  0.1648110454770436  0.2516228934328437  0.6532441586807809
  0.1636123222600663  0.7513489442259861  0.1525898156393282
  0.1645458333469298  0.7519251803374207  0.6519965828618076
  0.9341724207626491  0.3731813535096111  0.1450143737145591
  0.9267501186646152  0.3753942701221006  0.6528960580817698
  0.9215654309507703  0.8733862018522406  0.1487922273551258
  0.9237662363965280  0.8754410149128352  0.6483040225112062
  0.4170381084879445  0.3752263246703636  0.6194723086764252
  0.4239640828474295  0.8704136209804044  0.1008813701802631
  0.4239887647755864  0.8743577856751197  0.6012708342089838
  0.0832429096871098  0.1317345471163799  0.3405525748540843
  0.0795920464509423  0.1271880700343049  0.8569809294159606
  0.0748036424157852  0.6272424034281686  0.3538409352542712
  0.0756219511993270  0.6251183737174045  0.8498494754006014
  0.5773174993746635  0.1223795722330131  0.3936755416011658
  0.5802265358164966  0.1277700072682123  0.9086839564458413
  0.5759302024572810  0.6256895633355026  0.3989524469831446
  0.5758506003261681  0.6215183678425609  0.8977006606452347
  0.9131232225490182  0.1221246870246544  0.0948576755641115
  0.9158520964282774  0.1258363832935099  0.5950662571251879
  0.9072737039971019  0.6256307168351429  0.0952439244723084
  0.9121801371992511  0.6253172626529963  0.5953765795626772
  0.4122588589843557  0.1196674927195350  0.1546998529773835
  0.4138382964291721  0.1227209338486642  0.6552638898928871
  0.4091798597998474  0.6201053528303888  0.1549421672484099
  0.4119256909543397  0.6252056605072903  0.6551260092504221
  0.0914497584897895  0.3769154169837505  0.4040717623418532
  0.0934620451904785  0.3770046705479077  0.9062587174292864
  0.0884589544036745  0.8754111145645397  0.4048051768531458
  0.0876011490306226  0.8747516079342080  0.9046999610840903
  0.5861631712156967  0.3739991796681827  0.3516292641437637
  0.5875867962752734  0.3733325408073799  0.8320640067778636
  0.5885182989487661  0.8734105320206175  0.3452548316344269
  0.5880461092283046  0.8733976973950114  0.8454756418529072
  0.8393899065462976  0.0215269626863555  0.1484529906874208
  0.8432164254317611  0.0227808191966300  0.6445162441751899
  0.8399573571414160  0.5202525423565636  0.1448441735836946
  0.8440043011184722  0.5219219479877540  0.6493228835821745
  0.3478652477328636  0.2209788005932676  0.0941634396414810
  0.3428999594782856  0.2265686114001552  0.6054034077465319
  0.3412532966494241  0.7249329675261112  0.1028258784643248
  0.3419669336594988  0.7287428535492885  0.6036335684560599
  0.1673595240317805  0.2771596044265112  0.3526168063501601
  0.1612448664626379  0.2738524572891149  0.8515207593988816
  0.1590866031208059  0.7719774636529790  0.3537533803198323
  0.1576275771884278  0.7713309798101691  0.8531127599734640
  0.6570470556208468  0.4777016019171432  0.3972784097335498
  0.6562365319633093  0.4743539412120596  0.8924759686600812
  0.6594579508527548  0.9767125861790111  0.3957277125419488
  0.6594555238314521  0.9756205295099654  0.8979625694636195
  0.1590909147025080  0.4814960505825969  0.3509091678207290
  0.1599050568635389  0.4805012977226772  0.8490400157863571
  0.1587760115844842  0.9782858728161445  0.3530352382362412
  0.1587041126307752  0.9777370254034548  0.8541922674642404
  0.6580574796604989  0.2710501391971606  0.3975469570959620
  0.6557970438353473  0.2677198576768957  0.8744038096664876
  0.6582914311056197  0.7704189731850382  0.3984956721898312
  0.6568058936113483  0.7689237151741483  0.8962625464627669
  0.8568183512178927  0.2288550807550060  0.1515662934526617
  0.8460507088580426  0.2293242746600284  0.6468898848572534
  0.8349547819976741  0.7276854654619291  0.1468889030902687
  0.8416674018050154  0.7285482053496902  0.6467062794840104
  0.3411025461534897  0.0160302066784603  0.1048447968040839
  0.3423437320279316  0.0202386670195537  0.6028818363544051
  0.3339348525408238  0.5185503346327475  0.1075509149988831
  0.3415771525009282  0.5225873272802946  0.6017340711484446
  0.5505903127901237  0.1139959720862728  0.1047361272596937
  0.5514434953776255  0.1234859885199045  0.5989055018526188
  0.5476451596655515  0.6174442763923632  0.1007497348950958
  0.5509894613482115  0.6255298864250102  0.6029680461879361
  0.0519497081810605  0.1152570524131091  0.1444995752521014
  0.0537364989017143  0.1249296729747093  0.6500086564609596
  0.0452456595220846  0.6297422452473996  0.1502877298513987
  0.0519226313540246  0.6267494178631400  0.6449568991521797
  0.4464196714087200  0.3741308216270494  0.3981573592353305
  0.4448154195105480  0.3732605905308311  0.8669978941577127
  0.4495313812765943  0.8742568432399633  0.3972849314379022
  0.4489519417129465  0.8733913407146885  0.8973796132979532
  0.9524124094619396  0.3749235808422228  0.3516733855996481
  0.9518113372095590  0.3754328339047255  0.8604457404948874
  0.9494021004653028  0.8743486015677172  0.3520488162928575
  0.9486381498348948  0.8752125830371806  0.8519527275376471
  0.5826763050518265  0.3687359868900026  0.1924874194378890
  0.5952621604719225  0.3790693189739124  0.6739714667669616
  0.5888845751316488  0.8715439685401326  0.1878693745839232
  0.5892739960906394  0.8746314495466406  0.6879226999901590
  0.1024129482425533  0.3811143698354479  0.0631018973632372
  0.0911682670763662  0.3773582557345970  0.5616776526165367
  0.0874986923046179  0.8738534017235051  0.0622489854246802
  0.0889165765613017  0.8755811139845433  0.5622254699085052
  0.4087691947714278  0.1235068439994526  0.3119756652845563
  0.4150660674714258  0.1216136323416490  0.8121451086586187
  0.4116277146769705  0.6235333246598892  0.3126386430640855
  0.4106451689113690  0.6238984947730160  0.8123099046639005
  0.9167390036674816  0.1264672276852717  0.4374942422497445
  0.9089890284747437  0.1231954533123402  0.9379271055092412
  0.9086838615079373  0.6240378987973237  0.4378173714793818
  0.9093602427990456  0.6257906602600064  0.9378566683766155
 
             NaN             NaN             NaN
             NaN             NaN             NaN
             NaN             NaN             NaN
             NaN             NaN             NaN
             NaN             NaN             NaN
             NaN             NaN             NaN
             NaN             NaN             NaN
             NaN             NaN             NaN
             NaN             NaN             NaN
             NaN             NaN             NaN
             NaN             NaN             NaN
             NaN             NaN             NaN
             NaN             NaN             NaN
             NaN             NaN             NaN
             NaN             NaN             NaN
             NaN             NaN             NaN
             NaN             NaN             NaN
             NaN             NaN             NaN
             NaN             NaN             NaN
             NaN             NaN             NaN
             NaN             NaN             NaN
             NaN             NaN             NaN
             NaN             NaN             NaN
             NaN             NaN             NaN
             NaN             NaN             NaN
             NaN             NaN             NaN
             NaN             NaN             NaN
             NaN             NaN             NaN
             NaN             NaN             NaN
             NaN             NaN             NaN
             NaN             NaN             NaN
             NaN             NaN             NaN
             NaN             NaN             NaN
             NaN             NaN             NaN
             NaN             NaN             NaN
             NaN             NaN             NaN
             NaN             NaN             NaN
             NaN             NaN             NaN
             NaN             NaN             NaN
             NaN             NaN             NaN
             NaN             NaN             NaN
             NaN             NaN             NaN
             NaN             NaN             NaN
             NaN             NaN             NaN
             NaN             NaN             NaN
             NaN             NaN             NaN
             NaN             NaN             NaN
             NaN             NaN             NaN
             NaN             NaN             NaN
             NaN             NaN             NaN
             NaN             NaN             NaN
             NaN             NaN             NaN
             NaN             NaN             NaN
             NaN             NaN             NaN
             NaN             NaN             NaN
             NaN             NaN             NaN
             NaN             NaN             NaN
             NaN             NaN             NaN
             NaN             NaN             NaN
             NaN             NaN             NaN
             NaN             NaN             NaN
             NaN             NaN             NaN
             NaN             NaN             NaN
             NaN             NaN             NaN
             NaN             NaN             NaN
             NaN             NaN             NaN
             NaN             NaN             NaN
             NaN             NaN             NaN
             NaN             NaN             NaN
             NaN             NaN             NaN
             NaN             NaN             NaN
             NaN             NaN             NaN
             NaN             NaN             NaN
             NaN             NaN             NaN
             NaN             NaN             NaN
             NaN             NaN             NaN
             NaN             NaN             NaN
             NaN             NaN             NaN
             NaN             NaN             NaN
             NaN             NaN             NaN
             NaN             NaN             NaN
             NaN             NaN             NaN
             NaN             NaN             NaN
             NaN             NaN             NaN
             NaN             NaN             NaN
             NaN             NaN             NaN
             NaN             NaN             NaN
             NaN             NaN             NaN
             NaN             NaN             NaN
             NaN             NaN             NaN
             NaN             NaN             NaN
             NaN             NaN             NaN
             NaN             NaN             NaN
             NaN             NaN             NaN
             NaN             NaN             NaN
             NaN             NaN             NaN
             NaN             NaN             NaN
             NaN             NaN             NaN
             NaN             NaN             NaN
             NaN             NaN             NaN
             NaN             NaN             NaN
             NaN             NaN             NaN
             NaN             NaN             NaN
             NaN             NaN             NaN
             NaN             NaN             NaN
             NaN             NaN             NaN
             NaN             NaN             NaN
             NaN             NaN             NaN
             NaN             NaN             NaN
             NaN             NaN             NaN
             NaN             NaN             NaN
             NaN             NaN             NaN
             NaN             NaN             NaN
             NaN             NaN             NaN
             NaN             NaN             NaN
             NaN             NaN             NaN
             NaN             NaN             NaN
             NaN             NaN             NaN
             NaN             NaN             NaN
             NaN             NaN             NaN
             NaN             NaN             NaN
             NaN             NaN             NaN
             NaN             NaN             NaN
             NaN             NaN             NaN
             NaN             NaN             NaN
             NaN             NaN             NaN
