Li48 P16 O64                            
   1.00000000000000     
    10.5825656531672738    0.0000109955322264   -0.0128434004897820
     0.0000118609581269   12.4105076459445005   -0.0000270486345574
    -0.0121352675973536   -0.0000236506362535   10.0182588662559713
   Li   P    O 
    47    16    64
Direct
  0.1644828849105573  0.2523692494985757  0.1496286235144045
  0.6533840175382633  0.2538858453479815  0.0978847861832767
  0.6661824720231827  0.2496826995305971  0.5983698563011074
  0.6627007370429758  0.7500752100978573  0.0988150097825163
  0.6639786263797222  0.7505100374212155  0.5994256821319344
  0.1645216927796645  0.4976036722626476  0.1496064389091110
  0.1653405077305588  0.4984169947053094  0.6514190279410484
  0.1642573159853534  0.9984152568882245  0.1509893936767496
  0.1647980799321096  0.9988013492041932  0.6515661941235880
  0.3375567621686036  0.0008617639045467  0.3995122204324330
  0.3370025571332605  0.0007580979798191  0.9036082821177021
  0.3403394892974908  0.4983495358897978  0.3952510422861092
  0.3388208182970603  0.4962100583136792  0.9089646503504276
  0.8355994727841680  0.2489974543098807  0.3485526178248046
  0.8336741547159983  0.2491103476075226  0.8506813415609403
  0.8370849349445755  0.7484474479702177  0.3493701105233998
  0.8368419245957449  0.7487646164776572  0.8490653435653747
  0.3403237259699833  0.2516460664596764  0.3952777891907773
  0.3388169728111285  0.2538160125558460  0.9089865932006442
  0.3375602146237571  0.7491395346822829  0.3994797949858855
  0.3370160846677218  0.7492552343007397  0.9035842340925643
  0.8370678451314292  0.0015458958932699  0.3493727955898735
  0.8368347290438918  0.0012356134680385  0.8490749720540119
  0.8356075092019813  0.5009906697816866  0.3485529461415096
  0.8336912223732200  0.5008872958473521  0.8506675242229066
  0.6533913083838091  0.4961202976705354  0.0978639591077789
  0.6661883602893247  0.5003236062711262  0.5983719513559258
  0.6626754282404977  0.9999426459475580  0.0988130536691140
  0.6639667192868195  0.9995005365645996  0.5994480470371503
  0.1653339202386383  0.2515781736026556  0.6514380906501436
  0.1642653194125949  0.7515701330676684  0.1509707661678625
  0.1648105594888506  0.7511957526008537  0.6515439387914089
  0.9212875539670770  0.3749995482195551  0.1483223768222187
  0.9244028520416588  0.3749946352444954  0.6497306599957104
  0.9242923276109440  0.8749959190297378  0.1495723950320969
  0.9259869755690290  0.8750002333340533  0.6490568744878576
  0.4299582008204997  0.3750022481537872  0.6060860521278613
  0.4294420922960271  0.8750064057188884  0.1023443974794081
  0.4265202616267537  0.8749945596037417  0.6007294741133630
  0.0756054107859866  0.1260122742815473  0.3505435922320927
  0.0755680633802643  0.1262294787853533  0.8526623548705805
  0.0756180904040627  0.6239562521173259  0.3505111438052049
  0.0755825605613723  0.6237723589726520  0.8526465853739550
  0.5739630653617369  0.1268458693943167  0.3994396469281328
  0.5715621554623351  0.1264316174055989  0.8991791298933405
  0.5739808746671482  0.6231505882428817  0.3994119986448101
  0.5715825355661974  0.6235911034010543  0.8991554192135753
  0.9100757481522080  0.1247434331107328  0.0972660790631170
  0.9131648218345302  0.1243717614904092  0.5973954067702771
  0.9100943215766776  0.6252460042804729  0.0972520099718491
  0.9131800424855283  0.6256234838327352  0.5973849320326188
  0.4081599883191315  0.1201371316136194  0.1519089410525095
  0.4108303796668118  0.1244568366330585  0.6532149078148708
  0.4081796683115565  0.6298751243355276  0.1518808790555055
  0.4108401273454695  0.6255514977204094  0.6531884211386610
  0.0886405021977541  0.3749877982468428  0.4030481469581099
  0.0861347703192303  0.3749982750963753  0.9030253838320047
  0.0886192078898439  0.8749947213847642  0.4037334647141121
  0.0882414092455679  0.8749994094368975  0.9039288708810955
  0.5933016881782412  0.3749995020858854  0.3495935057522656
  0.5873152749953390  0.3750063335087005  0.8400039926106464
  0.5906562244510970  0.8750010240363871  0.3476568597215339
  0.5896422323812689  0.8750094764680282  0.8456715349269129
  0.8406911135304023  0.0213821234168361  0.1481290664693899
  0.8429777409261107  0.0213564588114145  0.6478844749271356
  0.8390270700539298  0.5231318672931554  0.1476006101188269
  0.8435911136671780  0.5234863300203190  0.6498385140077029
  0.3303796923139602  0.2144693287874631  0.0963056167649698
  0.3418982520937111  0.2267938105929799  0.5996826800476699
  0.3439787477234805  0.7379733111312743  0.1069546008209762
  0.3417298371367092  0.7289087907316268  0.6010596760515372
  0.1586075510690284  0.2722592306844086  0.3521633070443350
  0.1560816558134892  0.2724234518593001  0.8517783468976398
  0.1581057242522377  0.7721754643902287  0.3525088622949325
  0.1584763823357389  0.7722623211367945  0.8532428340835930
  0.6615301607471248  0.4785958623239708  0.4042766144375966
  0.6546609102802001  0.4777090710376860  0.8970650752429630
  0.6600316823752838  0.9779896470288734  0.3995291466366582
  0.6592709604609532  0.9778906020605732  0.8973401025486417
  0.1586379264747033  0.4776945987946055  0.3521451694017988
  0.1560849416338204  0.4775707756641241  0.8517778790255014
  0.1581112263024524  0.9778131990970842  0.3525170272263533
  0.1584690136547259  0.9777447305239624  0.8532590530130206
  0.6615230688757103  0.2713958761184282  0.4042657101770701
  0.6546476831615514  0.2723030556223083  0.8970799654479639
  0.6600413097626597  0.7720106998022670  0.3995111256334060
  0.6592830333103264  0.7721354011626606  0.8973426878739407
  0.8390164275451528  0.2268630897745638  0.1476126531353822
  0.8435747004937005  0.2265098741045151  0.6498461169979380
  0.8407213316459480  0.7286129993789029  0.1481213416253828
  0.8429882007590405  0.7286399106681460  0.6478694126766130
  0.3439689568863581  0.0120359753064776  0.1069737212866841
  0.3417238522638915  0.0210979793907642  0.6010839167246046
  0.3304063287072233  0.5355416844820600  0.0962696884988768
  0.3419060305508484  0.5232142898475721  0.5996604961816616
  0.5468508922713999  0.1226672960802414  0.0990139463020383
  0.5501356678879981  0.1238935431592381  0.6029893492197447
  0.5468718952655434  0.6273527982585931  0.0989904556852796
  0.5501437070570517  0.6261137537901690  0.6029599269533797
  0.0485030164676541  0.1246456192320084  0.1500233909188969
  0.0519299998986905  0.1239516218198886  0.6491827004875954
  0.0485242201423287  0.6253330226999166  0.1500026920558691
  0.0519443240651407  0.6260463748786238  0.6491737640512432
  0.4547285068815645  0.3749981702065260  0.4020465168209560
  0.4452231483663419  0.3750117534720673  0.8714183398593980
  0.4519606635735157  0.8749957703127971  0.3988431515774628
  0.4509380000280814  0.8750099489580638  0.8961468478781426
  0.9499194790404781  0.3749962704625217  0.3505766837379902
  0.9471368347449278  0.3749979047869467  0.8508202706856460
  0.9496725385487658  0.8749994367530608  0.3520351208801998
  0.9498928689526208  0.8750000691228147  0.8505976569908198
  0.6022871279340013  0.3750072322061612  0.1966287179160871
  0.6025501572092740  0.3750029900938260  0.6845477100950892
  0.5932718698255739  0.8750060285812618  0.1918210938482701
  0.5914371400904601  0.8750035907436082  0.6896270198666323
  0.0853557825696772  0.3749948917323636  0.0588972497849874
  0.0887363039536236  0.3749965885255370  0.5591989806914729
  0.0873484343911525  0.8749929426205735  0.0597719831561975
  0.0897464978968513  0.8749958283579069  0.5597933236500051
  0.4108820067391631  0.1237695833705063  0.3084333097032868
  0.4082089275384785  0.1242537372483647  0.8089843286599354
  0.4108962285116980  0.6262327256255874  0.3084054128485158
  0.4082225205034171  0.6257604696940161  0.8089590925533486
  0.9119553788980309  0.1249421784551610  0.4413792661993627
  0.9101761037841429  0.1245140562971243  0.9410902436839012
  0.9119738550101176  0.6250478714028869  0.4413679114020049
  0.9101874802502230  0.6254821086969083  0.9410755337167264
 
  0.00000000E+00  0.00000000E+00  0.00000000E+00
  0.00000000E+00  0.00000000E+00  0.00000000E+00
  0.00000000E+00  0.00000000E+00  0.00000000E+00
  0.00000000E+00  0.00000000E+00  0.00000000E+00
  0.00000000E+00  0.00000000E+00  0.00000000E+00
  0.00000000E+00  0.00000000E+00  0.00000000E+00
  0.00000000E+00  0.00000000E+00  0.00000000E+00
  0.00000000E+00  0.00000000E+00  0.00000000E+00
  0.00000000E+00  0.00000000E+00  0.00000000E+00
  0.00000000E+00  0.00000000E+00  0.00000000E+00
  0.00000000E+00  0.00000000E+00  0.00000000E+00
  0.00000000E+00  0.00000000E+00  0.00000000E+00
  0.00000000E+00  0.00000000E+00  0.00000000E+00
  0.00000000E+00  0.00000000E+00  0.00000000E+00
  0.00000000E+00  0.00000000E+00  0.00000000E+00
  0.00000000E+00  0.00000000E+00  0.00000000E+00
  0.00000000E+00  0.00000000E+00  0.00000000E+00
  0.00000000E+00  0.00000000E+00  0.00000000E+00
  0.00000000E+00  0.00000000E+00  0.00000000E+00
  0.00000000E+00  0.00000000E+00  0.00000000E+00
  0.00000000E+00  0.00000000E+00  0.00000000E+00
  0.00000000E+00  0.00000000E+00  0.00000000E+00
  0.00000000E+00  0.00000000E+00  0.00000000E+00
  0.00000000E+00  0.00000000E+00  0.00000000E+00
  0.00000000E+00  0.00000000E+00  0.00000000E+00
  0.00000000E+00  0.00000000E+00  0.00000000E+00
  0.00000000E+00  0.00000000E+00  0.00000000E+00
  0.00000000E+00  0.00000000E+00  0.00000000E+00
  0.00000000E+00  0.00000000E+00  0.00000000E+00
  0.00000000E+00  0.00000000E+00  0.00000000E+00
  0.00000000E+00  0.00000000E+00  0.00000000E+00
  0.00000000E+00  0.00000000E+00  0.00000000E+00
  0.00000000E+00  0.00000000E+00  0.00000000E+00
  0.00000000E+00  0.00000000E+00  0.00000000E+00
  0.00000000E+00  0.00000000E+00  0.00000000E+00
  0.00000000E+00  0.00000000E+00  0.00000000E+00
  0.00000000E+00  0.00000000E+00  0.00000000E+00
  0.00000000E+00  0.00000000E+00  0.00000000E+00
  0.00000000E+00  0.00000000E+00  0.00000000E+00
  0.00000000E+00  0.00000000E+00  0.00000000E+00
  0.00000000E+00  0.00000000E+00  0.00000000E+00
  0.00000000E+00  0.00000000E+00  0.00000000E+00
  0.00000000E+00  0.00000000E+00  0.00000000E+00
  0.00000000E+00  0.00000000E+00  0.00000000E+00
  0.00000000E+00  0.00000000E+00  0.00000000E+00
  0.00000000E+00  0.00000000E+00  0.00000000E+00
  0.00000000E+00  0.00000000E+00  0.00000000E+00
  0.00000000E+00  0.00000000E+00  0.00000000E+00
  0.00000000E+00  0.00000000E+00  0.00000000E+00
  0.00000000E+00  0.00000000E+00  0.00000000E+00
  0.00000000E+00  0.00000000E+00  0.00000000E+00
  0.00000000E+00  0.00000000E+00  0.00000000E+00
  0.00000000E+00  0.00000000E+00  0.00000000E+00
  0.00000000E+00  0.00000000E+00  0.00000000E+00
  0.00000000E+00  0.00000000E+00  0.00000000E+00
  0.00000000E+00  0.00000000E+00  0.00000000E+00
  0.00000000E+00  0.00000000E+00  0.00000000E+00
  0.00000000E+00  0.00000000E+00  0.00000000E+00
  0.00000000E+00  0.00000000E+00  0.00000000E+00
  0.00000000E+00  0.00000000E+00  0.00000000E+00
  0.00000000E+00  0.00000000E+00  0.00000000E+00
  0.00000000E+00  0.00000000E+00  0.00000000E+00
  0.00000000E+00  0.00000000E+00  0.00000000E+00
  0.00000000E+00  0.00000000E+00  0.00000000E+00
  0.00000000E+00  0.00000000E+00  0.00000000E+00
  0.00000000E+00  0.00000000E+00  0.00000000E+00
  0.00000000E+00  0.00000000E+00  0.00000000E+00
  0.00000000E+00  0.00000000E+00  0.00000000E+00
  0.00000000E+00  0.00000000E+00  0.00000000E+00
  0.00000000E+00  0.00000000E+00  0.00000000E+00
  0.00000000E+00  0.00000000E+00  0.00000000E+00
  0.00000000E+00  0.00000000E+00  0.00000000E+00
  0.00000000E+00  0.00000000E+00  0.00000000E+00
  0.00000000E+00  0.00000000E+00  0.00000000E+00
  0.00000000E+00  0.00000000E+00  0.00000000E+00
  0.00000000E+00  0.00000000E+00  0.00000000E+00
  0.00000000E+00  0.00000000E+00  0.00000000E+00
  0.00000000E+00  0.00000000E+00  0.00000000E+00
  0.00000000E+00  0.00000000E+00  0.00000000E+00
  0.00000000E+00  0.00000000E+00  0.00000000E+00
  0.00000000E+00  0.00000000E+00  0.00000000E+00
  0.00000000E+00  0.00000000E+00  0.00000000E+00
  0.00000000E+00  0.00000000E+00  0.00000000E+00
  0.00000000E+00  0.00000000E+00  0.00000000E+00
  0.00000000E+00  0.00000000E+00  0.00000000E+00
  0.00000000E+00  0.00000000E+00  0.00000000E+00
  0.00000000E+00  0.00000000E+00  0.00000000E+00
  0.00000000E+00  0.00000000E+00  0.00000000E+00
  0.00000000E+00  0.00000000E+00  0.00000000E+00
  0.00000000E+00  0.00000000E+00  0.00000000E+00
  0.00000000E+00  0.00000000E+00  0.00000000E+00
  0.00000000E+00  0.00000000E+00  0.00000000E+00
  0.00000000E+00  0.00000000E+00  0.00000000E+00
  0.00000000E+00  0.00000000E+00  0.00000000E+00
  0.00000000E+00  0.00000000E+00  0.00000000E+00
  0.00000000E+00  0.00000000E+00  0.00000000E+00
  0.00000000E+00  0.00000000E+00  0.00000000E+00
  0.00000000E+00  0.00000000E+00  0.00000000E+00
  0.00000000E+00  0.00000000E+00  0.00000000E+00
  0.00000000E+00  0.00000000E+00  0.00000000E+00
  0.00000000E+00  0.00000000E+00  0.00000000E+00
  0.00000000E+00  0.00000000E+00  0.00000000E+00
  0.00000000E+00  0.00000000E+00  0.00000000E+00
  0.00000000E+00  0.00000000E+00  0.00000000E+00
  0.00000000E+00  0.00000000E+00  0.00000000E+00
  0.00000000E+00  0.00000000E+00  0.00000000E+00
  0.00000000E+00  0.00000000E+00  0.00000000E+00
  0.00000000E+00  0.00000000E+00  0.00000000E+00
  0.00000000E+00  0.00000000E+00  0.00000000E+00
  0.00000000E+00  0.00000000E+00  0.00000000E+00
  0.00000000E+00  0.00000000E+00  0.00000000E+00
  0.00000000E+00  0.00000000E+00  0.00000000E+00
  0.00000000E+00  0.00000000E+00  0.00000000E+00
  0.00000000E+00  0.00000000E+00  0.00000000E+00
  0.00000000E+00  0.00000000E+00  0.00000000E+00
  0.00000000E+00  0.00000000E+00  0.00000000E+00
  0.00000000E+00  0.00000000E+00  0.00000000E+00
  0.00000000E+00  0.00000000E+00  0.00000000E+00
  0.00000000E+00  0.00000000E+00  0.00000000E+00
  0.00000000E+00  0.00000000E+00  0.00000000E+00
  0.00000000E+00  0.00000000E+00  0.00000000E+00
  0.00000000E+00  0.00000000E+00  0.00000000E+00
  0.00000000E+00  0.00000000E+00  0.00000000E+00
  0.00000000E+00  0.00000000E+00  0.00000000E+00
  0.00000000E+00  0.00000000E+00  0.00000000E+00
  0.00000000E+00  0.00000000E+00  0.00000000E+00
  0.00000000E+00  0.00000000E+00  0.00000000E+00
