Li47 P16 O64
1.0
10.476856 -0.003678 0.010888
-0.004239 12.181130 0.005706
0.010260 0.004593 9.841863
Li P O
47 16 64
direct
0.421578 0.373504 0.102101 Li
0.664088 0.249185 0.099484 Li
0.663356 0.250438 0.597722 Li
0.664743 0.749787 0.098160 Li
0.663649 0.750866 0.597332 Li
0.163623 0.492626 0.154322 Li
0.162641 0.501912 0.651925 Li
0.166140 0.003225 0.149667 Li
0.163333 0.001821 0.652306 Li
0.336489 0.002189 0.401386 Li
0.336447 0.002198 0.903318 Li
0.335117 0.499470 0.401428 Li
0.332898 0.500242 0.901478 Li
0.837389 0.247962 0.348399 Li
0.835927 0.249743 0.847911 Li
0.836855 0.749590 0.347345 Li
0.836564 0.749226 0.848440 Li
0.334686 0.248808 0.396242 Li
0.331162 0.249339 0.907431 Li
0.335909 0.748982 0.402121 Li
0.335568 0.748852 0.902581 Li
0.837257 0.001377 0.345765 Li
0.836126 0.001094 0.847866 Li
0.837688 0.499392 0.347558 Li
0.836602 0.500667 0.848778 Li
0.665105 0.498138 0.097770 Li
0.663608 0.499396 0.597939 Li
0.663568 0.995748 0.096565 Li
0.664176 0.998734 0.598097 Li
0.162287 0.253223 0.647103 Li
0.164019 0.750450 0.153185 Li
0.163756 0.752304 0.651597 Li
0.932147 0.368031 0.152084 Li
0.920766 0.375967 0.649709 Li
0.925494 0.875881 0.148721 Li
0.925022 0.876162 0.649039 Li
0.423513 0.374339 0.601259 Li
0.423919 0.875689 0.101383 Li
0.423388 0.875771 0.600900 Li
0.079163 0.131919 0.338197 Li
0.075971 0.129370 0.857257 Li
0.076238 0.623478 0.351229 Li
0.075895 0.624981 0.850582 Li
0.576788 0.124525 0.397480 Li
0.575454 0.125204 0.902006 Li
0.575888 0.624190 0.398698 Li
0.574924 0.624127 0.899431 Li
0.909354 0.121779 0.095477 P
0.911738 0.124659 0.595085 P
0.912601 0.624174 0.096052 P
0.910665 0.626838 0.595128 P
0.415986 0.125145 0.154083 P
0.412206 0.125457 0.654947 P
0.411517 0.624726 0.154792 P
0.411418 0.625178 0.654625 P
0.087777 0.374347 0.410292 P
0.086564 0.377591 0.901367 P
0.089431 0.875900 0.404397 P
0.089242 0.875343 0.904876 P
0.588877 0.375057 0.345311 P
0.587298 0.375525 0.845261 P
0.588463 0.873984 0.345396 P
0.587736 0.874107 0.844786 P
0.836035 0.018116 0.144134 O
0.841328 0.020855 0.646457 O
0.841985 0.521152 0.147509 O
0.839519 0.524489 0.647676 O
0.354631 0.228797 0.099758 O
0.343305 0.228637 0.602924 O
0.341992 0.728483 0.103629 O
0.341502 0.728667 0.603285 O
0.158495 0.269611 0.373942 O
0.157452 0.274889 0.848685 O
0.158641 0.771303 0.354519 O
0.159226 0.772200 0.852153 O
0.659108 0.478476 0.396995 O
0.658088 0.478855 0.896389 O
0.659099 0.976876 0.396775 O
0.657976 0.977313 0.895136 O
0.158276 0.477111 0.355132 O
0.157426 0.480890 0.847060 O
0.160433 0.978070 0.352136 O
0.158824 0.978996 0.853631 O
0.658843 0.271863 0.397164 O
0.656826 0.272312 0.897643 O
0.658454 0.770509 0.396865 O
0.657977 0.770818 0.896516 O
0.839851 0.225130 0.149172 O
0.839612 0.227416 0.645513 O
0.842221 0.727976 0.146992 O
0.840746 0.730665 0.645870 O
0.344993 0.021480 0.102773 O
0.341818 0.021936 0.603738 O
0.341249 0.521942 0.103318 O
0.341662 0.522182 0.602510 O
0.556501 0.119841 0.105878 O
0.550781 0.124160 0.602342 O
0.550129 0.624647 0.102638 O
0.549924 0.625346 0.602380 O
0.045303 0.116905 0.146525 O
0.048607 0.125559 0.650355 O
0.050577 0.624845 0.148808 O
0.048742 0.628086 0.647255 O
0.450681 0.375427 0.397931 O
0.448730 0.376857 0.895733 O
0.450218 0.874366 0.398350 O
0.449487 0.874150 0.897425 O
0.950232 0.373801 0.354330 O
0.948400 0.375982 0.845954 O
0.951052 0.875236 0.352194 O
0.950726 0.874902 0.852948 O
0.589638 0.375264 0.188726 O
0.589561 0.375217 0.688249 O
0.588468 0.872740 0.188779 O
0.588015 0.873776 0.688001 O
0.083726 0.382391 0.055245 O
0.082898 0.382310 0.567035 O
0.090638 0.874170 0.061442 O
0.089543 0.876463 0.561409 O
0.413463 0.124060 0.311429 O
0.411605 0.125427 0.811701 O
0.410960 0.624797 0.311693 O
0.410614 0.625162 0.811384 O
0.912625 0.123949 0.438472 O
0.906798 0.124783 0.938111 O
0.910372 0.625645 0.438363 O
0.911701 0.625140 0.939097 O
