Na15 V32 O64                            
   1.00000000000000     
     9.2533340000000006   -0.0039280000000000    0.0016840000000000
    -0.0051210000000000   11.8409230000000001    0.0297090000000000
     0.0013970000000000    0.0277310000000000   10.7969709999999992
   Na   V    O 
    15    32    64
Direct
  0.7210809907575583  0.3367882328399718  0.1516395911772247
  0.7214564171624107  0.0681352189254760  0.1495026589487359
  0.7208393316869443  0.7991156665449293  0.1536979659020014
  0.2201369043875810  0.0682691815397652  0.3487879251517625
  0.2258316145971424  0.3194761538169369  0.3462521922908893
  0.2258056531800733  0.5687983571978712  0.3500371058803414
  0.2226184201479767  0.8182607664550668  0.3445476615944194
  0.2353469410862567  0.1930046335796787  0.8435445538366205
  0.2335654057344409  0.4430023837417709  0.8486636839500139
  0.2366027514739528  0.6930572402626294  0.8446819662992588
  0.2344323287355256  0.9435122351183980  0.8542676349032933
  0.7351776367618669  0.1929391203413430  0.6529333325979700
  0.7326436079342742  0.4422970428607929  0.6426935892903582
  0.7363579218375035  0.6931552077744478  0.6542798328560318
  0.7324721429458805  0.9423801981937172  0.6456227563807695
  0.5609880304168509  0.0683811659596404  0.8937741682333431
  0.5590133076144203  0.3206818227543916  0.8928294049014431
  0.5651210654965049  0.5677953274295348  0.8938947786380161
  0.5589060479729695  0.8180388683455952  0.8980515939552044
  0.0625946756232273  0.0689007719296469  0.6051880297011845
  0.0592238051206349  0.3191710513476342  0.6001619758819103
  0.0622493112612716  0.5689664730377324  0.6044462905459067
  0.0629658944760222  0.8194670192053001  0.6034301043622847
  0.4005508386510837  0.1965360699302499  0.0981265985108409
  0.3956275732793404  0.4434496230782268  0.1002980915177965
  0.3967315956302986  0.6891441119720673  0.0991007223177248
  0.4003434348320762  0.9417538520794261  0.1092192705219754
  0.8984069759089409  0.1919065487578911  0.3971562103574588
  0.8956053047364128  0.4428292856546572  0.3888438114728022
  0.8986233590461854  0.6990083185961251  0.3991270919656859
  0.8961418234920837  0.9439414613661316  0.3936354715957227
  0.5418296659139867  0.0700191054254460  0.3858120405841212
  0.5452372749541049  0.3135297783728587  0.3860902015432956
  0.5487484899491341  0.5696937469228511  0.3808964639119950
  0.5408242036074974  0.8141720358457321  0.3863387561639824
  0.0426187845790009  0.0667208969751734  0.1113858723828775
  0.0414714975178673  0.3098883679504654  0.1099593502327577
  0.0385543990306790  0.5658049769626514  0.1167032556227892
  0.0422617078287127  0.8193638759168693  0.1088741261270631
  0.4161208506580214  0.1910333624417413  0.6125800956083243
  0.4111454222281208  0.4410909991435977  0.6054581050917974
  0.4187384493836440  0.6900203252700893  0.6122885934411413
  0.4114902390245276  0.9408057601138790  0.6123415422726758
  0.9148671304003446  0.1923068094061717  0.8839677259830703
  0.9127123593357120  0.4412407410077718  0.8871170251466108
  0.9162403232034635  0.6921604937680109  0.8871592394106372
  0.9096507896925299  0.9409663598894948  0.8857797754451738
  0.7720421802917500  0.0711084106229225  0.8455289407176919
  0.7701128546795879  0.3107791676747528  0.8472476525168180
  0.7777646964091695  0.5720978991301148  0.8453721191795730
  0.7692093551535145  0.8098880302173352  0.8484235031347300
  0.2731941603534096  0.0709494822705576  0.6527044604137079
  0.2688434399585386  0.3107063249009672  0.6460698727398755
  0.2739056156715174  0.5715352625031764  0.6493779456397253
  0.2699973740662648  0.8108065892262207  0.6494932928617053
  0.1857292334453314  0.1988637870327625  0.1488682912546986
  0.1802053316495687  0.4407305727195654  0.1466716825461659
  0.1829269586530762  0.6934946434507888  0.1441176798201475
  0.1836519107004038  0.9348413059020777  0.1507209262327533
  0.6893448310163300  0.1830559465091686  0.3496982993787136
  0.6855762690872579  0.4399523941009714  0.3497783844406757
  0.6895367092548897  0.7044790733652355  0.3533919037030583
  0.6820071280739801  0.9434423328885361  0.3529009999772118
  0.8668650120384301  0.0733749376605032  0.5188235963733432
  0.8645874409019855  0.3146033403308387  0.5175553081073938
  0.8674794791594569  0.5754101099457226  0.5126896171854215
  0.8659099935694297  0.8157132903041470  0.5215769758378742
  0.3642153493275613  0.0741479202228593  0.9845427758539415
  0.3638438606062109  0.3150830856338167  0.9744541211533508
  0.3651009410682561  0.5704227828491353  0.9753682606887489
  0.3635108919548630  0.8134376661637660  0.9817470138672867
  0.0926078572567654  0.1987194089634000  0.4790800644709856
  0.0918564484839237  0.4402659970165365  0.4785403787306931
  0.0935362771009859  0.7005292872332295  0.4805988631213856
  0.0936348713837832  0.9406579763055538  0.4795287142236218
  0.5923426213211973  0.1997386337212368  0.0164781374182676
  0.5906622443852863  0.4391241373245741  0.0147616823234972
  0.5894696890715273  0.6990648057825599  0.0150107817244587
  0.5922408071803736  0.9397990806704710  0.0193799622408758
  0.9586581342410541  0.0712935781985308  0.2813646321811530
  0.9547781552450618  0.3093841748620459  0.2801384810538561
  0.9668333039281943  0.5730031098199886  0.2776226149777121
  0.9571396844722870  0.8111728638837497  0.2815073842973992
  0.4573865028300640  0.0720493186664677  0.2188233462810382
  0.4545431371366120  0.3096031525265988  0.2131299509570935
  0.4476610791911168  0.5769611466827660  0.2135882473439609
  0.4565398756328145  0.8122167811097730  0.2197193128319566
  0.0005941665904638  0.1968044318650979  0.7178214139854860
  0.0020346711306634  0.4360854711485959  0.7151452609506801
  0.0038670131448550  0.6956541423721778  0.7205887090728910
  0.0005463807512757  0.9352565094259161  0.7145931488104270
  0.4996720220036407  0.1943490192742763  0.7789517450447622
  0.5029517907478318  0.4341119124013368  0.7796802228206565
  0.5023421126509235  0.6944310906195480  0.7790573258109187
  0.4986283788474704  0.9342512918351691  0.7848745820400543
  0.5551491201494699  0.0702266164245390  0.5713700080214957
  0.5538326997522161  0.3103825287917575  0.5697773321752027
  0.5564165650688061  0.5719681619704303  0.5692245973696608
  0.5544253404605820  0.8133075383146159  0.5704446684940500
  0.0523866681656703  0.0706298856088745  0.9253488823848520
  0.0557631214734137  0.3113271859691522  0.9272360096919688
  0.0553155050883904  0.5708027601971165  0.9329900175026840
  0.0563992202211807  0.8150146188541986  0.9278229822474854
  0.3986954388110865  0.1857275610351607  0.4283545708919936
  0.4054589645519441  0.4424564203199298  0.4231795570427048
  0.4004241744834229  0.6970906665174681  0.4284376515191379
  0.4069648444517465  0.9422538817693924  0.4253051801873322
  0.8980313069823468  0.1948139276363320  0.0681589115684251
  0.9112138718826316  0.4366852498658003  0.0727390973661434
  0.9065547104849466  0.6963872312791874  0.0697933707771941
  0.9008620952279439  0.9371168916827796  0.0720702077277281
 
             NaN             NaN             NaN
             NaN             NaN             NaN
             NaN             NaN             NaN
             NaN             NaN             NaN
             NaN             NaN             NaN
             NaN             NaN             NaN
             NaN             NaN             NaN
             NaN             NaN             NaN
             NaN             NaN             NaN
             NaN             NaN             NaN
             NaN             NaN             NaN
             NaN             NaN             NaN
             NaN             NaN             NaN
             NaN             NaN             NaN
             NaN             NaN             NaN
             NaN             NaN             NaN
             NaN             NaN             NaN
             NaN             NaN             NaN
             NaN             NaN             NaN
             NaN             NaN             NaN
             NaN             NaN             NaN
             NaN             NaN             NaN
             NaN             NaN             NaN
             NaN             NaN             NaN
             NaN             NaN             NaN
             NaN             NaN             NaN
             NaN             NaN             NaN
             NaN             NaN             NaN
             NaN             NaN             NaN
             NaN             NaN             NaN
             NaN             NaN             NaN
             NaN             NaN             NaN
             NaN             NaN             NaN
             NaN             NaN             NaN
             NaN             NaN             NaN
             NaN             NaN             NaN
             NaN             NaN             NaN
             NaN             NaN             NaN
             NaN             NaN             NaN
             NaN             NaN             NaN
             NaN             NaN             NaN
             NaN             NaN             NaN
             NaN             NaN             NaN
             NaN             NaN             NaN
             NaN             NaN             NaN
             NaN             NaN             NaN
             NaN             NaN             NaN
             NaN             NaN             NaN
             NaN             NaN             NaN
             NaN             NaN             NaN
             NaN             NaN             NaN
             NaN             NaN             NaN
             NaN             NaN             NaN
             NaN             NaN             NaN
             NaN             NaN             NaN
             NaN             NaN             NaN
             NaN             NaN             NaN
             NaN             NaN             NaN
             NaN             NaN             NaN
             NaN             NaN             NaN
             NaN             NaN             NaN
             NaN             NaN             NaN
             NaN             NaN             NaN
             NaN             NaN             NaN
             NaN             NaN             NaN
             NaN             NaN             NaN
             NaN             NaN             NaN
             NaN             NaN             NaN
             NaN             NaN             NaN
             NaN             NaN             NaN
             NaN             NaN             NaN
             NaN             NaN             NaN
             NaN             NaN             NaN
             NaN             NaN             NaN
             NaN             NaN             NaN
             NaN             NaN             NaN
             NaN             NaN             NaN
             NaN             NaN             NaN
             NaN             NaN             NaN
             NaN             NaN             NaN
             NaN             NaN             NaN
             NaN             NaN             NaN
             NaN             NaN             NaN
             NaN             NaN             NaN
             NaN             NaN             NaN
             NaN             NaN             NaN
             NaN             NaN             NaN
             NaN             NaN             NaN
             NaN             NaN             NaN
             NaN             NaN             NaN
             NaN             NaN             NaN
             NaN             NaN             NaN
             NaN             NaN             NaN
             NaN             NaN             NaN
             NaN             NaN             NaN
             NaN             NaN             NaN
             NaN             NaN             NaN
             NaN             NaN             NaN
             NaN             NaN             NaN
             NaN             NaN             NaN
             NaN             NaN             NaN
             NaN             NaN             NaN
             NaN             NaN             NaN
             NaN             NaN             NaN
             NaN             NaN             NaN
             NaN             NaN             NaN
             NaN             NaN             NaN
             NaN             NaN             NaN
             NaN             NaN             NaN
             NaN             NaN             NaN
             NaN             NaN             NaN
