Li47 P16 O64                            
   1.00000000000000     
    10.5701450000000001    0.0008060000000000   -0.0019740000000000
     0.0009410000000000   12.3352640000000005    0.0008430000000000
    -0.0018830000000000    0.0006670000000000    9.9816870000000009
   Li   P    O 
    47    16    64
Direct
  0.2442601599795792  0.3270901740413933  0.1647831895659100
  0.6588889166984069  0.2516211842495939  0.0975116630818492
  0.6676697337204075  0.2477877117120957  0.5988286217518003
  0.6588835842705720  0.7479623788397752  0.0980318444795061
  0.6638358034740721  0.7502386952006334  0.5991455810545367
  0.1556102964523833  0.5129197944023421  0.1479109784651186
  0.1650768521828135  0.5008431470863095  0.6504436215835272
  0.1645534154925972  0.0005588104488821  0.1491050675215837
  0.1640288250711128  0.0004259106870922  0.6514292820335323
  0.3368820966322766  0.0003466402738308  0.3995866283007831
  0.3368072076203940  0.9992616734019907  0.9011661168554890
  0.3383486418924080  0.5007400388290233  0.4001661040204122
  0.3380938710305575  0.4973815287268911  0.9075198768123958
  0.8381018993045494  0.2492656237668320  0.3483680484392370
  0.8369197086415926  0.2495258944671730  0.8511627746083260
  0.8352821896807783  0.7488501682533615  0.3489793315862437
  0.8358007240741276  0.7496728244739949  0.8485585520913188
  0.3416110480885300  0.2463287865394876  0.4066903532820186
  0.3388009727851948  0.2495222321724861  0.9014871405774212
  0.3368989341870094  0.7484406309133396  0.4005120506056411
  0.3352513227649546  0.7475228786569522  0.9016057973489167
  0.8382334385616349  0.0022275830308014  0.3502179021532238
  0.8363688644861972  0.0009417754417518  0.8466995092125248
  0.8375554630939475  0.4995329038308755  0.3463559090667711
  0.8363296228784250  0.5010168803517184  0.8531966163560103
  0.6575331748471358  0.4955424297005156  0.0973137452189498
  0.6676259201174101  0.5004018547176277  0.5991733273101751
  0.6625095056650538  0.9942153180212773  0.0971299641932882
  0.6650966747248647  0.9976301732719610  0.5982472887408462
  0.1650385348012343  0.2526394277269832  0.6515908075548897
  0.1628584571258905  0.7541456847249297  0.1523625537850772
  0.1643818960815936  0.7527059032048260  0.6502394497431755
  0.9333967611570176  0.3705571109221663  0.1466408246193094
  0.9274958804867304  0.3758098554783563  0.6522242354088760
  0.9235029479943243  0.8743773795479211  0.1479954860822331
  0.9259892756730708  0.8757514558436416  0.6482443093446257
  0.4260201008301810  0.3748060505546781  0.6096010159437197
  0.4252759209544545  0.8720160990053576  0.1014751720770461
  0.4254322712750100  0.8743147669631026  0.6003357819018572
  0.0799634928138493  0.1336461876579108  0.3410885808369862
  0.0768247609878658  0.1275824599124096  0.8556846789910501
  0.0735785447096843  0.6282264311374812  0.3539524083470300
  0.0741863786343818  0.6263935101748014  0.8495830305746064
  0.5765442518754269  0.1235303951942055  0.3981195582092774
  0.5751459161062895  0.1227264977334453  0.8981815079201690
  0.5745843170726446  0.6237373936846069  0.3992136542980094
  0.5723456500352841  0.6229017829409208  0.8977104435434459
  0.9086451788084865  0.1231405195589971  0.0961367435741292
  0.9145509918864198  0.1261299629369038  0.5967415937863377
  0.9074223681196688  0.6269913401199920  0.0969099581734931
  0.9119605919821847  0.6256320295476013  0.5970345892352755
  0.4137852368894672  0.1211623484767834  0.1520138880893122
  0.4126012079444420  0.1231746669655418  0.6536508717837791
  0.4072348243388705  0.6239567144385039  0.1531416688778002
  0.4113609999517015  0.6244520216200709  0.6535085397465421
  0.0919162681551018  0.3777591308385040  0.4022851606448842
  0.0920525030008712  0.3775144251608467  0.9048076656375540
  0.0891592188579115  0.8767967213567339  0.4028768104548884
  0.0882808911075974  0.8757237435558783  0.9031313179640621
  0.5923076205656497  0.3736995264200957  0.3489483739054345
  0.5887476635446266  0.3738888707351420  0.8403935906173357
  0.5888255462985966  0.8736691879223195  0.3467565102505297
  0.5882611488223507  0.8730477719495362  0.8455031471407228
  0.8367887179479472  0.0201908678311697  0.1469562624655743
  0.8429530143784292  0.0226364910782852  0.6460071966748040
  0.8405112624988985  0.5217867972249540  0.1465056767998009
  0.8440520822176051  0.5224090623037502  0.6516089053114662
  0.3455832795924809  0.2209035424778190  0.0930556995330787
  0.3433882367431564  0.2272886586291468  0.6030940309362095
  0.3401208677602036  0.7300024328953909  0.1039200023221831
  0.3417139116576330  0.7278509091059159  0.6015407542762150
  0.1694162514441271  0.2785526443639766  0.3506836155666155
  0.1602664993853364  0.2744181346183017  0.8511587765168519
  0.1596315787866706  0.7732439026229200  0.3529181436572412
  0.1585111816093308  0.7724930530189731  0.8516793150944383
  0.6605242190088289  0.4775610636113943  0.4024343789459169
  0.6560883198120268  0.4766937206074295  0.8965484696281698
  0.6597384540456182  0.9769138543360423  0.3972322825024883
  0.6590625992515911  0.9759398058229060  0.8970595134055687
  0.1588016684229417  0.4826385005506175  0.3502156867928076
  0.1584992002655984  0.4808974488131657  0.8484272564976764
  0.1589423013155344  0.9798334415751453  0.3508678585089612
  0.1589856708456975  0.9789811501430014  0.8527230729753159
  0.6607154216358031  0.2700138899710201  0.4026978228560410
  0.6552576453075349  0.2704577936514412  0.8965043032710314
  0.6583372802365107  0.7704258569010418  0.3990715657857359
  0.6575949893660724  0.7693546307726850  0.8966340990132133
  0.8400420811918017  0.2271490631421973  0.1472026977647548
  0.8444875160476143  0.2290476749816003  0.6496982222682371
  0.8345899829126084  0.7290411463058593  0.1474871653541237
  0.8415936721060561  0.7289907090963028  0.6477524426325612
  0.3443540286919951  0.0166401538568146  0.1035379427505722
  0.3417688358536630  0.0208757394919794  0.6005919981892892
  0.3306677070492283  0.5251209308910241  0.1027521423866304
  0.3425506729416603  0.5213084491540427  0.5998664747258847
  0.5529831710264572  0.1203890011544520  0.1013194881334304
  0.5512953332418109  0.1230576511326170  0.6013448794358521
  0.5450100275757315  0.6219917353330658  0.0979409571737456
  0.5506707739139831  0.6246235683393205  0.6028883447544968
  0.0454449059351516  0.1188227690872435  0.1497884207258877
  0.0524582493534046  0.1259216115737151  0.6507401043868102
  0.0449835258689133  0.6316813063422188  0.1519114290581298
  0.0514527726837385  0.6272351271773339  0.6465637474705300
  0.4524575467453688  0.3737195737065331  0.3983980950808269
  0.4458055604983470  0.3740869221863437  0.8726360368222875
  0.4502236500476174  0.8745793572243968  0.3990259141640384
  0.4496833394235264  0.8732617916370512  0.8976477292710242
  0.9539029021530402  0.3737199146248543  0.3484865694255885
  0.9508752702297398  0.3756544146829807  0.8591809852751865
  0.9504330190148788  0.8753904805490825  0.3502649618459737
  0.9498548518036869  0.8756403489720984  0.8500769979525010
  0.5996450984373569  0.3733902151688940  0.1946702962359331
  0.5999282099403314  0.3739893089980775  0.6841686809023007
  0.5886220167281838  0.8724235549388943  0.1904311690651406
  0.5893121228704142  0.8739535943410927  0.6891289740987275
  0.0993770988065119  0.3813973932385785  0.0609060299147589
  0.0903351034313600  0.3773527680957764  0.5587074296925780
  0.0878345259861294  0.8756163015612038  0.0594497689467176
  0.0894094176417738  0.8770713486861187  0.5592983665863928
  0.4122950635386544  0.1244326978355840  0.3083090268915617
  0.4116392153223027  0.1221069403943026  0.8097211456894364
  0.4111304823581665  0.6244920583804937  0.3097483463872445
  0.4088517887057003  0.6238895558175377  0.8096600687508136
  0.9151324639278210  0.1271783551766518  0.4402921393018216
  0.9086424031380713  0.1239755253460899  0.9396921041663452
  0.9089724685053759  0.6241430130023984  0.4406090905015789
  0.9099913275637180  0.6269421693151959  0.9404866905865593
 
             NaN             NaN             NaN
             NaN             NaN             NaN
             NaN             NaN             NaN
             NaN             NaN             NaN
             NaN             NaN             NaN
             NaN             NaN             NaN
             NaN             NaN             NaN
             NaN             NaN             NaN
             NaN             NaN             NaN
             NaN             NaN             NaN
             NaN             NaN             NaN
             NaN             NaN             NaN
             NaN             NaN             NaN
             NaN             NaN             NaN
             NaN             NaN             NaN
             NaN             NaN             NaN
             NaN             NaN             NaN
             NaN             NaN             NaN
             NaN             NaN             NaN
             NaN             NaN             NaN
             NaN             NaN             NaN
             NaN             NaN             NaN
             NaN             NaN             NaN
             NaN             NaN             NaN
             NaN             NaN             NaN
             NaN             NaN             NaN
             NaN             NaN             NaN
             NaN             NaN             NaN
             NaN             NaN             NaN
             NaN             NaN             NaN
             NaN             NaN             NaN
             NaN             NaN             NaN
             NaN             NaN             NaN
             NaN             NaN             NaN
             NaN             NaN             NaN
             NaN             NaN             NaN
             NaN             NaN             NaN
             NaN             NaN             NaN
             NaN             NaN             NaN
             NaN             NaN             NaN
             NaN             NaN             NaN
             NaN             NaN             NaN
             NaN             NaN             NaN
             NaN             NaN             NaN
             NaN             NaN             NaN
             NaN             NaN             NaN
             NaN             NaN             NaN
             NaN             NaN             NaN
             NaN             NaN             NaN
             NaN             NaN             NaN
             NaN             NaN             NaN
             NaN             NaN             NaN
             NaN             NaN             NaN
             NaN             NaN             NaN
             NaN             NaN             NaN
             NaN             NaN             NaN
             NaN             NaN             NaN
             NaN             NaN             NaN
             NaN             NaN             NaN
             NaN             NaN             NaN
             NaN             NaN             NaN
             NaN             NaN             NaN
             NaN             NaN             NaN
             NaN             NaN             NaN
             NaN             NaN             NaN
             NaN             NaN             NaN
             NaN             NaN             NaN
             NaN             NaN             NaN
             NaN             NaN             NaN
             NaN             NaN             NaN
             NaN             NaN             NaN
             NaN             NaN             NaN
             NaN             NaN             NaN
             NaN             NaN             NaN
             NaN             NaN             NaN
             NaN             NaN             NaN
             NaN             NaN             NaN
             NaN             NaN             NaN
             NaN             NaN             NaN
             NaN             NaN             NaN
             NaN             NaN             NaN
             NaN             NaN             NaN
             NaN             NaN             NaN
             NaN             NaN             NaN
             NaN             NaN             NaN
             NaN             NaN             NaN
             NaN             NaN             NaN
             NaN             NaN             NaN
             NaN             NaN             NaN
             NaN             NaN             NaN
             NaN             NaN             NaN
             NaN             NaN             NaN
             NaN             NaN             NaN
             NaN             NaN             NaN
             NaN             NaN             NaN
             NaN             NaN             NaN
             NaN             NaN             NaN
             NaN             NaN             NaN
             NaN             NaN             NaN
             NaN             NaN             NaN
             NaN             NaN             NaN
             NaN             NaN             NaN
             NaN             NaN             NaN
             NaN             NaN             NaN
             NaN             NaN             NaN
             NaN             NaN             NaN
             NaN             NaN             NaN
             NaN             NaN             NaN
             NaN             NaN             NaN
             NaN             NaN             NaN
             NaN             NaN             NaN
             NaN             NaN             NaN
             NaN             NaN             NaN
             NaN             NaN             NaN
             NaN             NaN             NaN
             NaN             NaN             NaN
             NaN             NaN             NaN
             NaN             NaN             NaN
             NaN             NaN             NaN
             NaN             NaN             NaN
             NaN             NaN             NaN
             NaN             NaN             NaN
             NaN             NaN             NaN
             NaN             NaN             NaN
             NaN             NaN             NaN
             NaN             NaN             NaN
             NaN             NaN             NaN
