Li47 P16 O64                            
   1.00000000000000     
    10.5701450000000001    0.0008060000000000   -0.0019740000000000
     0.0009410000000000   12.3352640000000005    0.0008430000000000
    -0.0018830000000000    0.0006670000000000    9.9816870000000009
   Li   P    O 
    47    16    64
Direct
  0.2448977370515240  0.3273079903722373  0.1668411529816224
  0.6594815193165172  0.2517372511630840  0.0975042176838559
  0.6676058007751713  0.2476723913365506  0.5990349215839544
  0.6579092256491795  0.7478358157413583  0.0977636020700375
  0.6639538760704076  0.7503780273483999  0.5994332212181968
  0.1553083669802342  0.5142215488336015  0.1472282298706278
  0.1654232217226133  0.5009742082637325  0.6503116182308676
  0.1642123325323916  0.0006592063142209  0.1492183006450768
  0.1640993370689045  1.0005008864303460  0.6514784529806635
  0.3372186070619193  0.0000750813450946  0.3990467796816943
  0.3369621298625491 -0.0010155249010030  0.9011307349624738
  0.3381624051383571  0.5008936022560745  0.3998420434989924
  0.3383042480369157  0.4973339058530556  0.9077305452693242
  0.8379826437253812  0.2491926808933865  0.3481321455629062
  0.8371040469698181  0.2497529915034009  0.8517541815076588
  0.8351380317586703  0.7486526745826163  0.3488565382605100
  0.8357457801608875  0.7498405996641246  0.8486955622207319
  0.3418530931524749  0.2460785859272927  0.4069149856928321
  0.3388924081249035  0.2493150628064039  0.9017374867038987
  0.3371015426797124  0.7484439349386932  0.4006791725444576
  0.3352811290348797  0.7475593597594758  0.9015221915568450
  0.8384589399012140  0.0021164132972551  0.3500006653726787
  0.8363879784890192  0.0009083931159524  0.8469337367188041
  0.8374315896321030  0.4992490069735948  0.3460798558563102
  0.8362411955986541  0.5010270765103874  0.8536838160089458
  0.6580179605568792  0.4952682788450227  0.0973182226469458
  0.6675442198527296  0.5006286357706724  0.5993289705162737
  0.6626122733665584  0.9942255526243575  0.0974132762094555
  0.6650247837814158  0.9975665537769409  0.5981417614620115
  0.1653008826518491  0.2523203617130982  0.6518220452739920
  0.1630063730045135  0.7544545303394996  0.1526733528594457
  0.1642039598387905  0.7527116926530018  0.6503795586516323
  0.9342780103221805  0.3699125276609845  0.1460866188119764
  0.9277797264663581  0.3756634846968921  0.6524762501482015
  0.9230713968148506  0.8743791170824116  0.1478195790260738
  0.9259230906064745  0.8756114785230212  0.6484036330276901
  0.4257585338712267  0.3749083101631844  0.6098041559857424
  0.4251042461687077  0.8719499577628727  0.1016020837363112
  0.4257432308933895  0.8743352135522210  0.6000745358308596
  0.0799885696573894  0.1336726318418167  0.3404924205400564
  0.0769021933773254  0.1275273705929455  0.8560493590599935
  0.0734037805183980  0.6287326615243597  0.3536394499198043
  0.0737221023225136  0.6265532164478201  0.8496024030324423
  0.5764774993596733  0.1234493865965893  0.3977303533536098
  0.5750781672208860  0.1229451182770498  0.8979718414787193
  0.5742767629227188  0.6238495441058481  0.3992927656147544
  0.5721410443374708  0.6229218740977841  0.8975569355385512
  0.9087708344239795  0.1226705685102734  0.0962383006890176
  0.9146673996374889  0.1262261843201329  0.5968392982902008
  0.9072991615928296  0.6270623530534749  0.0970256225202121
  0.9119471765006203  0.6252492824445410  0.5970249905194448
  0.4133826329822490  0.1217782694921951  0.1517442449388517
  0.4124002038524861  0.1230374532212302  0.6536777800568936
  0.4073056088288660  0.6238794490581071  0.1534029712235588
  0.4112466235777019  0.6245716238128961  0.6534108657633229
  0.0919883877592124  0.3779769692935732  0.4018277093852122
  0.0923359952223610  0.3774878553708061  0.9048787848049400
  0.0893063389812458  0.8768807120737611  0.4030769211298555
  0.0884830946753319  0.8758283097735443  0.9030047243229502
  0.5921273404086258  0.3737836936483569  0.3494633725881930
  0.5883107983861858  0.3738997872772166  0.8401855887146862
  0.5889510780720866  0.8736668254690432  0.3464718536992731
  0.5883559595634896  0.8730317278979868  0.8455759458793953
  0.8361186318513758  0.0199718060059304  0.1466052128323416
  0.8430226140339770  0.0227960073050553  0.6459930374587008
  0.8405713094960846  0.5218321129896599  0.1464108103831860
  0.8442503705908617  0.5219544482840228  0.6517998509047018
  0.3453955203671076  0.2208263460190743  0.0941591729108532
  0.3431288953968056  0.2271998672201709  0.6033440736799701
  0.3400313063314070  0.7296870328989175  0.1037394104158182
  0.3415801020626355  0.7280256592975740  0.6016861634008519
  0.1697098910275573  0.2790077464027086  0.3501451480172925
  0.1603097062630670  0.2747117191647112  0.8507100685495247
  0.1600395659661552  0.7733744200004415  0.3532140302037525
  0.1585982216093439  0.7724355019207658  0.8515701172465855
  0.6601352957627037  0.4776347047995826  0.4024974133030392
  0.6559230807120554  0.4768796071102844  0.8963651979261285
  0.6597369501207209  0.9770673738188785  0.3969623832920748
  0.6592386273415964  0.9758886574349260  0.8970126131316398
  0.1583332947886213  0.4830235720656867  0.3499267162691507
  0.1587882329122338  0.4806961009624020  0.8486339157659110
  0.1591411487800701  0.9798665102156847  0.3511700240810116
  0.1593650113203911  0.9789392845246302  0.8525250966947414
  0.6604711095514507  0.2700336224542954  0.4028200460896135
  0.6551661801538819  0.2704626429275176  0.8963627789565294
  0.6585572814911946  0.7703852193655295  0.3987793785009261
  0.6576609532661579  0.7692176985387705  0.8964977284726072
  0.8402229075917970  0.2269587080392210  0.1472845196230926
  0.8446398757608151  0.2292169163421768  0.6499305814339655
  0.8347713609450031  0.7289428726378832  0.1477259337801985
  0.8417329588297786  0.7284894729378097  0.6480508694533030
  0.3447349556495076  0.0171661240167720  0.1034115245830983
  0.3416297826710122  0.0208272018433476  0.6004975612237967
  0.3304802078547900  0.5248393384479036  0.1029914078934425
  0.3424723302715202  0.5215314291689419  0.5993744653398199
  0.5523366625683919  0.1206803560838321  0.1012663697352551
  0.5509747414260937  0.1230881431440242  0.6011843642033079
  0.5449071348740457  0.6216144212338491  0.0981662620346553
  0.5505070474600370  0.6248741243130802  0.6028652659964535
  0.0451030561870380  0.1182476901308224  0.1496752821637466
  0.0526491455402928  0.1259782881537535  0.6509292092864215
  0.0448161002452098  0.6319979269188418  0.1517447450011911
  0.0517045504329981  0.6269092490356846  0.6465020736866270
  0.4521119990748352  0.3736967325351054  0.3985232336700008
  0.4457136517206490  0.3739742261311364  0.8724032609016439
  0.4502866048663897  0.8745578944599864  0.3989871665850208
  0.4498518153982691  0.8730424379130811  0.8981823501735924
  0.9541416598319888  0.3735754659639778  0.3479957052332172
  0.9510635625079337  0.3755568170593879  0.8596968716188178
  0.9507259201373631  0.8751794667337170  0.3501886636305754
  0.9501567172856069  0.8757668343506165  0.8499017078310899
  0.5994378372187343  0.3733486697588873  0.1945005463108365
  0.5995995939262819  0.3740817207831721  0.6838822038903679
  0.5884431237649653  0.8724043482887367  0.1901182912152440
  0.5890351907564060  0.8740437485283750  0.6892389547194719
  0.0994323696296935  0.3814806041471522  0.0608465264650693
  0.0907107864149477  0.3772948751051141  0.5581562396288043
  0.0880642834230274  0.8757135086132846  0.0593143131114771
  0.0893034086359295  0.8771309772861640  0.5594693167613367
  0.4120332505562754  0.1246077209298105  0.3080418629868906
  0.4115725260937816  0.1218284547465151  0.8096586326341425
  0.4109835638195068  0.6245914278600203  0.3097067761004413
  0.4086679239018729  0.6237250237505838  0.8095169622931335
  0.9153975142426375  0.1273918312604319  0.4403496733328447
  0.9085863402081379  0.1237943683238703  0.9396287043801311
  0.9089364040173261  0.6237990775931138  0.4406962612596422
  0.9098430458658385  0.6268855296919239  0.9407723210629022
 
             NaN             NaN             NaN
             NaN             NaN             NaN
             NaN             NaN             NaN
             NaN             NaN             NaN
             NaN             NaN             NaN
             NaN             NaN             NaN
             NaN             NaN             NaN
             NaN             NaN             NaN
             NaN             NaN             NaN
             NaN             NaN             NaN
             NaN             NaN             NaN
             NaN             NaN             NaN
             NaN             NaN             NaN
             NaN             NaN             NaN
             NaN             NaN             NaN
             NaN             NaN             NaN
             NaN             NaN             NaN
             NaN             NaN             NaN
             NaN             NaN             NaN
             NaN             NaN             NaN
             NaN             NaN             NaN
             NaN             NaN             NaN
             NaN             NaN             NaN
             NaN             NaN             NaN
             NaN             NaN             NaN
             NaN             NaN             NaN
             NaN             NaN             NaN
             NaN             NaN             NaN
             NaN             NaN             NaN
             NaN             NaN             NaN
             NaN             NaN             NaN
             NaN             NaN             NaN
             NaN             NaN             NaN
             NaN             NaN             NaN
             NaN             NaN             NaN
             NaN             NaN             NaN
             NaN             NaN             NaN
             NaN             NaN             NaN
             NaN             NaN             NaN
             NaN             NaN             NaN
             NaN             NaN             NaN
             NaN             NaN             NaN
             NaN             NaN             NaN
             NaN             NaN             NaN
             NaN             NaN             NaN
             NaN             NaN             NaN
             NaN             NaN             NaN
             NaN             NaN             NaN
             NaN             NaN             NaN
             NaN             NaN             NaN
             NaN             NaN             NaN
             NaN             NaN             NaN
             NaN             NaN             NaN
             NaN             NaN             NaN
             NaN             NaN             NaN
             NaN             NaN             NaN
             NaN             NaN             NaN
             NaN             NaN             NaN
             NaN             NaN             NaN
             NaN             NaN             NaN
             NaN             NaN             NaN
             NaN             NaN             NaN
             NaN             NaN             NaN
             NaN             NaN             NaN
             NaN             NaN             NaN
             NaN             NaN             NaN
             NaN             NaN             NaN
             NaN             NaN             NaN
             NaN             NaN             NaN
             NaN             NaN             NaN
             NaN             NaN             NaN
             NaN             NaN             NaN
             NaN             NaN             NaN
             NaN             NaN             NaN
             NaN             NaN             NaN
             NaN             NaN             NaN
             NaN             NaN             NaN
             NaN             NaN             NaN
             NaN             NaN             NaN
             NaN             NaN             NaN
             NaN             NaN             NaN
             NaN             NaN             NaN
             NaN             NaN             NaN
             NaN             NaN             NaN
             NaN             NaN             NaN
             NaN             NaN             NaN
             NaN             NaN             NaN
             NaN             NaN             NaN
             NaN             NaN             NaN
             NaN             NaN             NaN
             NaN             NaN             NaN
             NaN             NaN             NaN
             NaN             NaN             NaN
             NaN             NaN             NaN
             NaN             NaN             NaN
             NaN             NaN             NaN
             NaN             NaN             NaN
             NaN             NaN             NaN
             NaN             NaN             NaN
             NaN             NaN             NaN
             NaN             NaN             NaN
             NaN             NaN             NaN
             NaN             NaN             NaN
             NaN             NaN             NaN
             NaN             NaN             NaN
             NaN             NaN             NaN
             NaN             NaN             NaN
             NaN             NaN             NaN
             NaN             NaN             NaN
             NaN             NaN             NaN
             NaN             NaN             NaN
             NaN             NaN             NaN
             NaN             NaN             NaN
             NaN             NaN             NaN
             NaN             NaN             NaN
             NaN             NaN             NaN
             NaN             NaN             NaN
             NaN             NaN             NaN
             NaN             NaN             NaN
             NaN             NaN             NaN
             NaN             NaN             NaN
             NaN             NaN             NaN
             NaN             NaN             NaN
             NaN             NaN             NaN
             NaN             NaN             NaN
             NaN             NaN             NaN
             NaN             NaN             NaN
