Li7 Mn16 O32                            
   1.00000000000000     
     8.2213250000000002   -0.0163180000000000    0.0300090000000000
    -0.0150120000000000    8.6162939999999999   -0.0668860000000000
     0.0252960000000000   -0.0693780000000000    8.2566249999999997
   Li   Mn   O 
     7    16    32
Direct
  0.2499960622087611  0.4999971404151166  0.7499955859194215
  0.8735636881776050  0.8775665313061577  0.8771523903480423
  0.1289644391199503  0.1190942945096134  0.1180963182759208
  0.8770456300811638  0.3782147489031816  0.3749595658298508
  0.3710399464350438  0.8809126012125001  0.3819017983402443
  0.6264363238840950  0.1224385020361192  0.6228474680895334
  0.6229582827307873  0.6217816955864268  0.1250408172037818
  0.4986484702151725  0.2435723015252675  0.2527849836448449
  0.2499997233757514  0.5000081428701254  0.2500085945025894
  0.2480148457450009  0.2513792614876342  0.5027222487344275
  0.5025585132877470  0.4914657550787536  0.5012420545220830
  0.4992397239521443  0.7437798086269086  0.7458205850829835
  0.7500066651242038  0.5000045204726752  0.7499987657794901
  0.7568630111532577  0.7432374113883700  0.4951621506995575
  0.2499957906630111  0.9999915495681435  0.7499973119342086
  0.2519845959850512  0.7486204778306109  0.9972917425041419
  0.5021692073493307  0.9944439011840308  0.0018064204662708
  0.7499936294743325  0.0000038819134313  0.2499977325008077
  0.7431320596645554  0.2567658219016993  0.0048394031086154
  0.0007677704828647  0.2562085470825444  0.7541821187367648
 -0.0025466951272490  0.5085323614425568  0.9987626257094038
  0.0013442915899816  0.7564308845793971  0.2472003448897791
  0.9978270083246167  0.0055544422608518  0.4981856588258795
  0.7303549766825761 -0.0003075900830811  0.0158549335446701
  0.0144115352318820  0.7338779834056878  0.0077348839124814
  0.0140747256229503  0.0369036446127263  0.7611487581298445
  0.7396023526871192  0.7273521020292336  0.7330940320344904
  0.2650403691909573  0.9744178351540583  0.9834133014463348
  0.9898705983877751  0.2823882866563405  0.9895425169948397
  0.9861597971034721  0.9741053523135369  0.2367135223850581
  0.2632657507452088  0.2473097593204105  0.2710393456450627
  0.7335678097430668  0.4909097141566390  0.5203073050112462
  0.0129095223234520  0.2428160826807144  0.5181632692555077
  0.0150004910630165  0.5231289564227100  0.2342570191967426
  0.7310910821980559  0.2576962366218909  0.2348905396927900
  0.2677309589568592  0.4755100187136832  0.4947112621265081
  0.9939293988322906  0.7742276533832082  0.4750410672202002
  0.9856356257245772  0.4849767508133210  0.7640555553245593
  0.2706702779762289  0.7360483542421900  0.7666732723246485
  0.2349517947126609  0.0255753222447603  0.5165726712688138
  0.5101334767743890  0.7176068012679675  0.5104650768891039
  0.5138303316885141  0.0259035076583094  0.2632851273780513
  0.2367209837009670  0.7527099901162057  0.2289673759899416
  0.7696447900882570  1.0003153641405513  0.4841399471204282
  0.4855906086587138  0.2661179943353904  0.4922597541925802
  0.4859128868625920  0.9630849325516760  0.7388327978255090
  0.7604048572446276  0.2726507160276959  0.7669083199139436
  0.2322770597488323  0.5244885217791134  0.0053085013701570
  0.5060675608950236  0.2257630163047631  0.0249471811903327
  0.5143811485119020  0.5150197726440267  0.7359486775239118
  0.2293340862362968  0.2639259730600253  0.7333376867112571
  0.7664451779241575  0.5090894111039109  0.9796870330367846
  0.4870934203123852  0.7571920996410934  0.9818428266857050
  0.4849951419641072  0.4768768529972533  0.2657468971192509
  0.7688979654117213  0.7423133650917113  0.2651052608248726
 
             NaN             NaN             NaN
             NaN             NaN             NaN
             NaN             NaN             NaN
             NaN             NaN             NaN
             NaN             NaN             NaN
             NaN             NaN             NaN
             NaN             NaN             NaN
             NaN             NaN             NaN
             NaN             NaN             NaN
             NaN             NaN             NaN
             NaN             NaN             NaN
             NaN             NaN             NaN
             NaN             NaN             NaN
             NaN             NaN             NaN
             NaN             NaN             NaN
             NaN             NaN             NaN
             NaN             NaN             NaN
             NaN             NaN             NaN
             NaN             NaN             NaN
             NaN             NaN             NaN
             NaN             NaN             NaN
             NaN             NaN             NaN
             NaN             NaN             NaN
             NaN             NaN             NaN
             NaN             NaN             NaN
             NaN             NaN             NaN
             NaN             NaN             NaN
             NaN             NaN             NaN
             NaN             NaN             NaN
             NaN             NaN             NaN
             NaN             NaN             NaN
             NaN             NaN             NaN
             NaN             NaN             NaN
             NaN             NaN             NaN
             NaN             NaN             NaN
             NaN             NaN             NaN
             NaN             NaN             NaN
             NaN             NaN             NaN
             NaN             NaN             NaN
             NaN             NaN             NaN
             NaN             NaN             NaN
             NaN             NaN             NaN
             NaN             NaN             NaN
             NaN             NaN             NaN
             NaN             NaN             NaN
             NaN             NaN             NaN
             NaN             NaN             NaN
             NaN             NaN             NaN
             NaN             NaN             NaN
             NaN             NaN             NaN
             NaN             NaN             NaN
             NaN             NaN             NaN
             NaN             NaN             NaN
             NaN             NaN             NaN
             NaN             NaN             NaN
