Li7 Mn16 O32
1.0
8.221325 -0.016318 0.030009
-0.015012 8.616294 -0.066886
0.025296 -0.069378 8.256625
Li Mn O
7 16 32
direct
0.250004 0.500029 0.750003 Li
0.872510 0.877904 0.876244 Li
0.129870 0.117561 0.120794 Li
0.874650 0.379686 0.373553 Li
0.370090 0.882449 0.379199 Li
0.627483 0.122080 0.623793 Li
0.625358 0.620276 0.126433 Li
0.498897 0.245979 0.252024 Mn
0.249987 0.500006 0.250028 Mn
0.248076 0.252932 0.502879 Mn
0.499803 0.492048 0.502666 Mn
0.495894 0.741024 0.747516 Mn
0.750035 0.499996 0.749990 Mn
0.754576 0.744024 0.495823 Mn
0.249988 -0.000020 0.749993 Mn
0.251926 0.747068 0.997123 Mn
0.502139 0.994450 0.000994 Mn
0.750010 0.000019 0.249992 Mn
0.745395 0.255999 0.004140 Mn
0.004141 0.258953 0.752516 Mn
0.000227 0.507926 0.997355 Mn
0.001069 0.754045 0.247982 Mn
0.997847 0.005569 0.498979 Mn
0.731726 0.001862 0.015004 O
0.014434 0.733772 0.007745 O
0.012154 0.036349 0.753764 O
0.737528 0.727230 0.732973 O
0.264304 0.973802 0.983718 O
0.993305 0.282164 0.988250 O
0.986708 0.974399 0.244984 O
0.264912 0.244484 0.270722 O
0.730670 0.491501 0.519119 O
0.014744 0.249916 0.518179 O
0.012421 0.523678 0.233169 O
0.731973 0.256151 0.234126 O
0.264675 0.477012 0.486418 O
0.994242 0.764621 0.476776 O
-0.014781 0.486404 0.762761 O
0.267741 0.741394 0.766278 O
0.235644 0.026169 0.516248 O
0.506750 0.717826 0.511748 O
0.513272 0.025621 0.255008 O
0.235058 0.755521 0.229309 O
0.768303 0.998236 0.484974 O
0.485567 0.266212 0.492261 O
0.487839 0.963639 0.746191 O
0.762511 0.272761 0.767005 O
0.235332 0.522998 0.013652 O
0.505673 0.235385 0.023208 O
0.514862 0.513582 0.737261 O
0.232285 0.258560 0.733731 O
0.769364 0.508442 0.980884 O
0.485274 0.750111 0.981847 O
0.487550 0.476306 0.266848 O
0.767987 0.743886 0.265815 O
