Li15 Fe16 P16 O64
1.0
10.241596 0.001375 0.023593
0.000944 11.964759 -0.003467
0.011280 -0.004495 9.372597
Li Fe P O
15 16 16 64
direct
0.505825 0.435196 0.748652 Li
0.501620 0.000439 0.250760 Li
0.499597 0.007861 0.751972 Li
0.500024 0.500768 0.251773 Li
0.997509 0.249611 0.496178 Li
0.996751 0.247213 0.001566 Li
0.999484 0.749296 0.500758 Li
0.999358 0.751354 0.002028 Li
0.501095 0.248174 0.252439 Li
0.500358 0.750318 0.249094 Li
0.499868 0.748413 0.749175 Li
0.997985 0.500143 0.496527 Li
0.996682 0.502444 0.001737 Li
0.999326 0.001242 0.500605 Li
0.999273 0.999425 0.001817 Li
0.779880 0.124286 0.265898 Fe
0.778478 0.125113 0.761810 Fe
0.780476 0.625293 0.264703 Fe
0.780250 0.625100 0.763211 Fe
0.281939 0.124971 0.485491 Fe
0.281843 0.124754 0.985180 Fe
0.281442 0.625013 0.485826 Fe
0.281126 0.625473 0.986085 Fe
0.217698 0.375078 0.231786 Fe
0.224801 0.374647 0.744786 Fe
0.219087 0.875020 0.236176 Fe
0.219272 0.875074 0.736096 Fe
0.719820 0.374480 0.011683 Fe
0.718382 0.374040 0.516969 Fe
0.718665 0.875054 0.014271 Fe
0.718055 0.875259 0.514995 Fe
0.595378 0.123747 0.041799 P
0.592917 0.126101 0.541578 P
0.594766 0.624689 0.041670 P
0.593468 0.623991 0.542326 P
0.093430 0.124592 0.208214 P
0.094316 0.127864 0.710602 P
0.093312 0.625445 0.207986 P
0.094047 0.622388 0.710695 P
0.398032 0.375845 0.458010 P
0.407867 0.374768 0.957386 P
0.405634 0.874608 0.456891 P
0.407116 0.874760 0.956956 P
0.906068 0.375204 0.289320 P
0.910627 0.375148 0.788689 P
0.906911 0.874919 0.293700 P
0.907456 0.875283 0.792638 P
0.594928 0.125857 0.378428 O
0.600360 0.119175 0.881217 O
0.595256 0.623614 0.379903 O
0.598053 0.626332 0.880121 O
0.095116 0.125784 0.370466 O
0.094668 0.126576 0.872386 O
0.094903 0.624147 0.370161 O
0.094228 0.623903 0.872439 O
0.403366 0.375132 0.119394 O
0.383004 0.378550 0.619519 O
0.404980 0.874652 0.118974 O
0.402326 0.874138 0.618804 O
0.906006 0.375529 0.126940 O
0.908220 0.375188 0.627139 O
0.905508 0.874834 0.131517 O
0.906756 0.874970 0.630574 O
0.954998 0.124536 0.145782 O
0.957629 0.127138 0.644805 O
0.954929 0.625460 0.145413 O
0.957250 0.623293 0.644906 O
0.455795 0.126123 0.103274 O
0.454223 0.125545 0.600785 O
0.455566 0.623356 0.103767 O
0.454860 0.623352 0.604024 O
0.044384 0.375596 0.352345 O
0.052465 0.375379 0.848689 O
0.045171 0.874559 0.356836 O
0.045993 0.874881 0.855554 O
0.539308 0.375094 0.405045 O
0.544984 0.376958 0.897828 O
0.544243 0.874658 0.394077 O
0.545241 0.874431 0.893609 O
0.664384 0.021768 0.112682 O
0.662943 0.022344 0.607160 O
0.666810 0.522802 0.107597 O
0.668340 0.523502 0.607690 O
0.164806 0.226194 0.140287 O
0.165399 0.233335 0.647960 O
0.164537 0.727627 0.142271 O
0.168529 0.722398 0.643648 O
0.329808 0.273477 0.389677 O
0.325989 0.277248 0.891636 O
0.334479 0.772403 0.390189 O
0.334914 0.772609 0.891229 O
0.834142 0.476730 0.356551 O
0.841877 0.477231 0.857243 O
0.835911 0.977099 0.360247 O
0.836569 0.977691 0.858627 O
0.331048 0.478150 0.387248 O
0.329547 0.474543 0.889042 O
0.333680 0.976327 0.390453 O
0.334938 0.976823 0.891298 O
0.835089 0.273258 0.355735 O
0.841945 0.273460 0.857516 O
0.835072 0.772902 0.359871 O
0.835973 0.773007 0.858624 O
0.666957 0.226339 0.107011 O
0.672350 0.224661 0.603873 O
0.664527 0.727046 0.109834 O
0.664087 0.726834 0.608088 O
0.164837 0.022473 0.142255 O
0.168745 0.027689 0.643717 O
0.164852 0.523955 0.139552 O
0.164882 0.516925 0.647960 O
