Mg1 Ti16 S32                            
   1.00000000000000     
     9.9110739999999993    0.0062810000000000    0.0039780000000000
    -0.0025100000000000    9.9113469999999992    0.0007870000000000
    -0.0037990000000000   -0.0008290000000000    9.9140110000000004
   Mg   Ti   S 
     1    16    32
Direct
  0.3751658981150969  0.3749197094936218  0.8718222432650682
  0.2470426555347429  0.7597191969404286  0.0006732269204013
  0.5029585228580934  0.9902712530017304  0.0007384433216358
  0.7597411553202070  0.2470294180021581  0.0007450464207027
  0.9903000303173349  0.5029246670205527  0.0006607021782364
  0.5028663573376871  0.2471429667272218  0.2584937999587674
  0.2471655822363200  0.5028367835576435  0.2583540845567734
  0.2465637115651039  0.2467580361263990  0.4878801050642471
  0.5032088731204351  0.5034557582748791  0.4878607848634658
  0.5035897518144219  0.7607414237733936  0.7444583392866517
  0.7606558431077997  0.5036423655790497  0.7444523292309653
  0.7515559847785810  0.7515736483204987  0.4953517231271010
  0.2463642245006786  0.9893789872779634  0.7444377616923796
  0.7512863189794036  0.9987343303431571  0.2488948262569002
  0.9892596610086130  0.2463869222296099  0.7444290942003291
  0.9987346060569193  0.7512531734363844  0.2489041915224537
  0.9984373732575864  0.9984672193094329  0.4953310335147076
  0.7483986070847457  0.0016344150328383  0.0011714693594017
  0.0016512957372435  0.7483547872830387  0.0011468644352564
  0.0012206827169663  0.0012487331157933  0.7431268819454332
  0.7487644944803048  0.7487997845886505  0.7431386673773305
  0.2541723812556645  0.9996041132750710  0.9928485533784569
  0.9996309073468069  0.2541485080183644  0.9928171080665980
  0.9971033431548685  0.9970615238589510  0.2500442500544549
  0.2544122732915791  0.2543694773669100  0.2481215268905573
  0.7485252425385939  0.5038803825618576  0.4989690676208973
  0.0013637875609611  0.2461647763980724  0.4989458978507075
  0.0016994607770047  0.5036941201331716  0.2459284396808301
  0.7483646791799548  0.2462958319621648  0.2460100291646332
  0.2544397061205913  0.4955443293541901  0.4979241285150699
  0.9972212284233188  0.7528100549694750  0.4942254853489905
  1.0001560063559451  0.4953234306003467  0.7517582065150110
  0.2546530434508688  0.7498794278860690  0.7517673505964314
  0.2461387932002041  0.0014812996321811  0.4989647781201986
  0.5038355030280346  0.7486557918067447  0.4989681066595041
  0.5037368979830411  0.0016605669264577  0.2460127976245380
  0.2463224560087283  0.7483146503517163  0.2459365020797245
  0.7527960256052862  0.9972343084061167  0.4942331923004846
  0.4954135051497310  0.2545962299485517  0.4980460688979932
  0.4953353896985263  1.0002433148308578  0.7518143091082257
  0.7497824049648044  0.2546860242193797  0.7518158785289825
  0.2392704622546422  0.5107679775008650  0.0091086720278875
  0.5108409883574916  0.2391847349907843  0.0092583090058197
  0.5116301682338159  0.5117709302031603  0.7363880409597890
  0.2382614965784175  0.2383832974817849  0.7363853899236064
  0.7504330481795667  0.4958393919167023  0.9928605194903419
  0.4958659083434122  0.7503997602574174  0.9928270392979580
  0.4956470316593946  0.4956097113015314  0.2481243185030957
  0.7529643034088318  0.7529426215734616  0.2500502059919139
 
             NaN             NaN             NaN
             NaN             NaN             NaN
             NaN             NaN             NaN
             NaN             NaN             NaN
             NaN             NaN             NaN
             NaN             NaN             NaN
             NaN             NaN             NaN
             NaN             NaN             NaN
             NaN             NaN             NaN
             NaN             NaN             NaN
             NaN             NaN             NaN
             NaN             NaN             NaN
             NaN             NaN             NaN
             NaN             NaN             NaN
             NaN             NaN             NaN
             NaN             NaN             NaN
             NaN             NaN             NaN
             NaN             NaN             NaN
             NaN             NaN             NaN
             NaN             NaN             NaN
             NaN             NaN             NaN
             NaN             NaN             NaN
             NaN             NaN             NaN
             NaN             NaN             NaN
             NaN             NaN             NaN
             NaN             NaN             NaN
             NaN             NaN             NaN
             NaN             NaN             NaN
             NaN             NaN             NaN
             NaN             NaN             NaN
             NaN             NaN             NaN
             NaN             NaN             NaN
             NaN             NaN             NaN
             NaN             NaN             NaN
             NaN             NaN             NaN
             NaN             NaN             NaN
             NaN             NaN             NaN
             NaN             NaN             NaN
             NaN             NaN             NaN
             NaN             NaN             NaN
             NaN             NaN             NaN
             NaN             NaN             NaN
             NaN             NaN             NaN
             NaN             NaN             NaN
             NaN             NaN             NaN
             NaN             NaN             NaN
             NaN             NaN             NaN
             NaN             NaN             NaN
             NaN             NaN             NaN
