Mg1 Ti16 S32
1.0
9.911074 0.006281 0.003978
-0.002510 9.911347 0.000787
-0.003799 -0.000829 9.914011
Mg Ti S
1 16 32
direct
0.375122 0.374910 0.749911 Mg
0.249008 0.753251 0.004648 Ti
0.500631 -0.003478 0.004298 Ti
0.753478 0.249337 0.004232 Ti
0.996534 0.500710 0.004391 Ti
0.500696 0.249416 0.249426 Ti
0.249158 0.500720 0.249608 Ti
0.246495 0.246377 0.492445 Ti
0.503700 0.503765 0.492530 Ti
0.503606 0.753697 0.750173 Ti
0.753844 0.503681 0.749982 Ti
0.750988 0.751125 0.498852 Ti
0.246379 -0.003847 0.750055 Ti
0.750694 -0.000621 0.250514 Ti
0.996334 0.246343 0.749996 Ti
0.999146 0.750788 0.250795 Ti
0.998967 0.999014 0.498815 Ti
0.746805 0.003244 0.004036 S
0.003097 0.746822 0.004205 S
0.002243 0.002244 0.747554 S
0.747769 0.747810 0.747574 S
0.252930 0.997288 0.996564 S
0.997357 0.252946 0.996507 S
0.996898 0.996924 0.253426 S
0.253086 0.253086 0.250730 S
0.748026 0.503706 0.503495 S
0.002095 0.246380 0.503538 S
0.003282 0.502849 0.248036 S
0.746633 0.247252 0.247866 S
0.254133 0.495857 0.495832 S
0.996928 0.753086 0.497232 S
0.997919 0.495781 0.753817 S
0.254213 0.752102 0.753913 S
0.246411 0.001992 0.503552 S
0.503621 0.748049 0.503620 S
0.502850 0.003485 0.247930 S
0.247084 0.746612 0.248159 S
0.753071 0.997041 0.497104 S
0.495940 0.254200 0.495675 S
0.495766 0.997788 0.753794 S
0.752241 0.254277 0.753713 S
0.245966 0.503974 0.003360 S
0.504027 0.246033 0.003123 S
0.504343 0.504246 0.744963 S
0.245796 0.245664 0.744934 S
0.752652 0.497093 0.996492 S
0.496995 0.752687 0.996615 S
0.496846 0.497007 0.250764 S
0.753040 0.753212 0.253432 S
