Mg1 Ti16 S32                            
   1.00000000000000     
     9.8638969999999997   -0.0021560000000000   -0.0007730000000000
    -0.0021560000000000    9.8638899999999996    0.0007790000000000
    -0.0007690000000000    0.0007750000000000    9.8651999999999997
   Mg   Ti   S 
     1    16    32
Direct
  0.4015969139544431  0.3484027353249263  0.8464018260685906
  0.2484903672645881  0.7524558630726069 -0.0005633186266485
  0.5005812831779983  0.9883696675314356  0.0084051380130468
  0.7616302205936397  0.2494182721375477  0.0084050739472811
  0.9975438983130812  0.5015094351822744 -0.0005633388285047
  0.5038501964351739  0.2461493425600967  0.2694135468000156
  0.2484112566053461  0.5015884150208670  0.2515503898944743
  0.2387608618144039  0.2485775209255917  0.4863538005018012
  0.5014219858635552  0.5112384420537120  0.4863537544283205
  0.5039644669100761  0.7710391551769141  0.7437228780297582
  0.7620694441421386  0.5111620992026508  0.7467300503165274
  0.7532225155627645  0.7521175112559595  0.4939863326757172
  0.2388373363912085  0.9879300473251004  0.7467298865250687
  0.7529954111798907  0.9970042235115376  0.2487556384340433
  0.9789608526068202  0.2460353036427176  0.7437226376274344
  0.9996001617762924  0.7503994087896172  0.2473674572640006
  0.9978820263198687  0.9967768915381257  0.4939862941515057
  0.7471906868449757  0.0028087845070537  0.0027080832736793
  0.0040394295036867  0.7459603986119345 -0.0015544804249567
 -0.0047729289680247 -0.0005348193831226  0.7434178548921002
  0.7505342382487792  0.7547725464276169  0.7434178292451461
  0.2517047122311242  0.9952529191383771  0.9955776644212782
  0.9997732691499062  0.2511472597650667  0.9920122766591651
  0.9989084695928886  0.9957741554563472  0.2482779082488753
  0.2556153425059319  0.2513210874640858  0.2482332340538412
  0.7475072924280091  0.5055739868707275  0.5001361211597921
 -0.0047063342100901  0.2461149537905801  0.4971453029392683
  0.0038051336319546  0.5011864190618104  0.2436941022040272
  0.7504900270156305  0.2461459853229900  0.2521377404759173
  0.2519408214445847  0.4980589699434773  0.4934612772810149
  0.9988691448088651  0.7511302498712822  0.4928180255579728
  0.9999324666907755  0.4943823686842149  0.7487706884376657
  0.2556176348779674  0.7500670150841815  0.7487707586420314
  0.2444255122833137  0.0024921972872269  0.5001360532070207
  0.5038848089364726  0.7547060415283449  0.4971454742405186
  0.5038537121926538 -0.0004905818308591  0.2521378318869715
  0.2488130313001490  0.7461945912362987  0.2436940820881694
  0.7526302077221579  0.9973695166319313  0.4944524016624890
  0.4910120329210282  0.2589875198766952  0.5062329401292386
  0.4908785761627054  1.0080168657923778  0.7565273967740936
  0.7419829316466562  0.2591209062528288  0.7565273800534729
  0.2491495259697834  0.5008499181145794 -0.0010220010697598
  0.5117644088587278  0.2382354484099360  0.0210964146229916
  0.5119716668300602  0.5229599678220069  0.7360562428120813
  0.2270393579428525  0.2380278790431617  0.7360561388980058
  0.7547467748480569  0.4982949786147531  0.9955776575550047
  0.4988522338757647  0.7502263467736213  0.9920122008013939
  0.4986783822205646  0.4943843921197364  0.2482332056661986
  0.7542255856877246  0.7510910479727937  0.2482779881821326
 
             NaN             NaN             NaN
             NaN             NaN             NaN
             NaN             NaN             NaN
             NaN             NaN             NaN
             NaN             NaN             NaN
             NaN             NaN             NaN
             NaN             NaN             NaN
             NaN             NaN             NaN
             NaN             NaN             NaN
             NaN             NaN             NaN
             NaN             NaN             NaN
             NaN             NaN             NaN
             NaN             NaN             NaN
             NaN             NaN             NaN
             NaN             NaN             NaN
             NaN             NaN             NaN
             NaN             NaN             NaN
             NaN             NaN             NaN
             NaN             NaN             NaN
             NaN             NaN             NaN
             NaN             NaN             NaN
             NaN             NaN             NaN
             NaN             NaN             NaN
             NaN             NaN             NaN
             NaN             NaN             NaN
             NaN             NaN             NaN
             NaN             NaN             NaN
             NaN             NaN             NaN
             NaN             NaN             NaN
             NaN             NaN             NaN
             NaN             NaN             NaN
             NaN             NaN             NaN
             NaN             NaN             NaN
             NaN             NaN             NaN
             NaN             NaN             NaN
             NaN             NaN             NaN
             NaN             NaN             NaN
             NaN             NaN             NaN
             NaN             NaN             NaN
             NaN             NaN             NaN
             NaN             NaN             NaN
             NaN             NaN             NaN
             NaN             NaN             NaN
             NaN             NaN             NaN
             NaN             NaN             NaN
             NaN             NaN             NaN
             NaN             NaN             NaN
             NaN             NaN             NaN
             NaN             NaN             NaN
