Mg1 Ti16 S32
1.0
9.863897 -0.002156 -0.000773
-0.002156 9.863890 0.000779
-0.000769 0.000775 9.865200
Mg Ti S
1 16 32
direct
0.406341 0.343658 0.749694 Mg
0.248073 0.753130 0.005575 Ti
0.501325 -0.005787 0.007264 Ti
0.755786 0.248673 0.007266 Ti
0.996869 0.501925 0.005574 Ti
0.500983 0.249016 0.249829 Ti
0.248371 0.501629 0.249742 Ti
0.243759 0.246175 0.490187 Ti
0.503824 0.506240 0.490185 Ti
0.503413 0.753573 0.750302 Ti
0.756101 0.505882 0.750372 Ti
0.751824 0.751253 0.497852 Ti
0.244118 -0.006102 0.750371 Ti
0.751871 0.998128 0.250948 Ti
0.996425 0.246587 0.750302 Ti
0.998839 0.751160 0.250781 Ti
0.998746 0.998174 0.497852 Ti
0.747461 0.002539 0.003900 S
0.002379 0.747622 0.003508 S
0.000738 1.001506 0.747686 S
0.748493 0.749261 0.747685 S
0.252734 -0.002564 0.997121 S
0.998715 0.252567 0.997171 S
0.997621 0.997410 0.252248 S
0.252650 0.252568 0.249301 S
0.748353 0.503765 0.502830 S
0.000781 0.246723 0.502752 S
0.002255 0.502551 0.248851 S
0.747609 0.247494 0.249465 S
0.253618 0.496383 0.495255 S
0.997718 0.752282 0.497357 S
0.998490 0.496508 0.753275 S
0.253492 0.751510 0.753276 S
0.246236 1.001646 0.502830 S
0.503277 0.749219 0.502753 S
0.502505 0.002391 0.249464 S
0.247447 0.747746 0.248851 S
0.752533 0.997466 0.497276 S
0.495894 0.254108 0.495163 S
0.495950 -0.002897 0.753869 S
0.752897 0.254050 0.753868 S
0.246273 0.503729 0.003508 S
0.504245 0.245755 0.003915 S
0.504718 0.504647 0.744903 S
0.245353 0.245281 0.744903 S
0.752564 0.497266 0.997122 S
0.497432 0.751287 0.997171 S
0.497432 0.497350 0.249302 S
0.752589 0.752378 0.252248 S
