Li46 P16 O64
1.0
10.581895 0.003860 -0.004133
0.004502 12.339282 -0.001263
-0.003909 -0.001040 9.991552
Li P O
46 16 64
direct
0.411786 0.253494 0.124153 Li
0.665712 0.248462 0.602666 Li
0.664016 0.749898 0.099158 Li
0.664197 0.751570 0.599263 Li
0.165727 0.493794 0.152359 Li
0.164249 0.500836 0.651659 Li
0.163209 0.996380 0.152519 Li
0.163919 0.998977 0.651736 Li
0.336479 0.000753 0.401534 Li
0.336422 0.000877 0.900115 Li
0.337539 0.500442 0.398723 Li
0.337347 0.497381 0.907539 Li
0.837000 0.248329 0.348968 Li
0.835535 0.249043 0.851546 Li
0.836983 0.748878 0.349451 Li
0.836840 0.748966 0.849304 Li
0.337309 0.251212 0.395078 Li
0.336180 0.253151 0.905554 Li
0.336583 0.749704 0.400404 Li
0.336563 0.749568 0.901731 Li
0.837379 0.001187 0.349912 Li
0.837183 0.001127 0.848731 Li
0.836429 0.501543 0.347959 Li
0.834705 0.501368 0.849762 Li
0.656746 0.494132 0.096404 Li
0.666383 0.503216 0.597655 Li
0.666100 0.998017 0.097738 Li
0.664406 0.999238 0.599276 Li
0.163357 0.250913 0.648645 Li
0.163075 0.750024 0.151361 Li
0.164139 0.751508 0.651523 Li
0.924668 0.373381 0.149229 Li
0.922715 0.375782 0.649351 Li
0.924972 0.873942 0.149364 Li
0.926009 0.875164 0.649091 Li
0.423483 0.375833 0.608825 Li
0.429529 0.874777 0.100816 Li
0.426102 0.875315 0.600946 Li
0.076854 0.127006 0.347480 Li
0.075821 0.125866 0.854303 Li
0.074958 0.623950 0.350863 Li
0.074941 0.624745 0.852354 Li
0.575151 0.125323 0.398339 Li
0.574448 0.127690 0.900643 Li
0.574296 0.625693 0.399106 Li
0.572721 0.624640 0.898588 Li
0.911771 0.123580 0.097615 P
0.912847 0.124480 0.597169 P
0.910140 0.623987 0.097348 P
0.912131 0.626140 0.597075 P
0.410410 0.120221 0.152829 P
0.411073 0.125122 0.653455 P
0.409727 0.629006 0.152606 P
0.410878 0.625973 0.653497 P
0.088181 0.375132 0.406350 P
0.086147 0.376135 0.901969 P
0.088914 0.874653 0.403808 P
0.088625 0.874615 0.904128 P
0.591069 0.375691 0.350807 P
0.587809 0.375345 0.837896 P
0.589991 0.875247 0.347084 P
0.589494 0.875154 0.846151 P
0.840170 0.020725 0.148208 O
0.842191 0.021364 0.648100 O
0.838405 0.521425 0.147639 O
0.841928 0.523617 0.649584 O
0.339674 0.218837 0.094073 O
0.341844 0.228445 0.600932 O
0.343921 0.736304 0.106170 O
0.341403 0.729597 0.601926 O
0.157978 0.270210 0.362872 O
0.156385 0.272539 0.852150 O
0.158301 0.770999 0.352621 O
0.159027 0.771460 0.852901 O
0.660333 0.479288 0.402475 O
0.655243 0.477086 0.896368 O
0.659640 0.978596 0.398721 O
0.659632 0.978273 0.897593 O
0.159388 0.476923 0.353279 O
0.157255 0.478520 0.849907 O
0.159356 0.977535 0.352473 O
0.158893 0.977929 0.853519 O
0.660138 0.271853 0.402317 O
0.655289 0.270525 0.886011 O
0.659561 0.771828 0.398818 O
0.658897 0.771599 0.897677 O
0.846949 0.227593 0.151543 O
0.842689 0.227565 0.648718 O
0.840940 0.728007 0.148466 O
0.841857 0.729648 0.647554 O
0.341146 0.015528 0.104847 O
0.341321 0.021777 0.601586 O
0.331635 0.533953 0.096289 O
0.341369 0.523124 0.600356 O
0.547524 0.118800 0.098646 O
0.549837 0.124781 0.601457 O
0.547933 0.625763 0.099527 O
0.549771 0.626505 0.602056 O
0.049817 0.119096 0.149439 O
0.050985 0.124448 0.650345 O
0.048422 0.623443 0.150347 O
0.050622 0.626590 0.649051 O
0.452505 0.375649 0.402214 O
0.445518 0.374525 0.871956 O
0.451252 0.875366 0.398468 O
0.450901 0.875595 0.897910 O
0.950113 0.374965 0.352832 O
0.947754 0.375405 0.848542 O
0.950321 0.875020 0.351551 O
0.950322 0.874834 0.851196 O
0.593824 0.374249 0.196345 O
0.597389 0.378172 0.681634 O
0.591880 0.874990 0.190801 O
0.590180 0.875340 0.689931 O
0.083853 0.378418 0.057133 O
0.086935 0.378034 0.562641 O
0.088132 0.873817 0.060304 O
0.089569 0.875052 0.560078 O
0.410840 0.124197 0.308539 O
0.409639 0.125039 0.809421 O
0.411117 0.625580 0.308985 O
0.409322 0.625358 0.809597 O
0.912474 0.124651 0.441008 O
0.910056 0.124689 0.941361 O
0.911246 0.625027 0.440772 O
0.910220 0.624709 0.940905 O
