Li47 P16 O64                            
   1.00000000000000     
    10.5918849999999996    0.0012460000000000   -0.0040550000000000
     0.0014560000000000   12.2987800000000007   -0.0032490000000000
    -0.0037910000000000   -0.0025840000000000    9.9893099999999997
   Li   P    O 
    47    16    64
Direct
  0.4496936248241877  0.3487794251844970  0.0910701748695871
  0.6637425884168504  0.2507514802192973  0.6047733342613454
  0.6644635206818995  0.7508248527378025  0.0987015185004438
  0.6643596778808888  0.7521378513135829  0.6000214651751971
  0.1657070775010179  0.4983314055399196  0.1501395022793454
  0.1643144944314048  0.4994112277254535  0.6511999491685631
  0.1638494803174687  0.9937933090576252  0.1543032108771042
  0.1641340541776771  0.9981859286440906  0.6511436824424474
  0.3365511989199752 -0.0002634653781539  0.4019746278929917
  0.3370374522365061 -0.0000776055720654  0.9009024773981538
  0.3369083914078669  0.5013813908799324  0.3987958977395616
  0.3381517103109167  0.4985614751081634  0.9054304416587373
  0.8344740123708040  0.2493505240526126  0.3469352168086883
  0.8377920514397840  0.2493182729657390  0.8525708722138015
  0.8367318276342351  0.7488382067395426  0.3494711299383228
  0.8369807757825257  0.7490692361185430  0.8491620042657831
  0.3361977053516585  0.2487112474375918  0.4005043879603478
  0.3343142066501930  0.2468573548076792  0.8972707068452930
  0.3371143130437808  0.7492059877564582  0.4008362257667008
  0.3368178096652490  0.7488715193611480  0.9018660067705105
  0.8368594333876388  0.0011016496444388  0.3500790309663191
  0.8366330607708296  0.0014487821467824  0.8489672420736182
  0.8354986838975131  0.5016178171645452  0.3490372367208769
  0.8368941745210690  0.5008447993267300  0.8491813779619097
  0.6645577674947279  0.4960439885606254  0.0965579162905971
  0.6642956363385266  0.5027065135919544  0.5997672345159835
  0.6658798987918414  0.0022343043833926  0.1012434384481290
  0.6636886883311975  0.0005246165677464  0.5986393370572735
  0.1644852091121098  0.2512094570405719  0.1497385197622453
  0.1628965481296749  0.2504226664116302  0.6505593278535323
  0.1645348658251819  0.7501653083157011  0.1509365718718903
  0.1638170000262304  0.7507541508799919  0.6521272737266701
  0.9238767565436655  0.3763960155852427  0.1464109745932472
  0.9258465350470279  0.3751814760635584  0.6490244670795572
  0.9252988506119442  0.8743839967468812  0.1495778302791796
  0.9253748543083687  0.8752236428601552  0.6491168996150610
  0.4220163166381098  0.3762316919584057  0.6001463973542592
  0.4284245520647587  0.8738100663240851  0.1014409736041312
  0.4266724848388179  0.8752057904833666  0.6017199873571060
  0.0754890947371116  0.1241399935721784  0.3520972204002676
  0.0754891177177479  0.1242443875145213  0.8506876780954139
  0.0746110221616096  0.6245481824176504  0.3507689911758561
  0.0754149421698223  0.6243064682385112  0.8521813484612815
  0.5746676578711999  0.1266408146950276  0.3951408016922667
  0.5777172468737999  0.1293712805814548  0.9063788754190769
  0.5745546798883273  0.6264186257683103  0.4002888085219569
  0.5742424992793216  0.6247427083670376  0.8985696253044483
  0.9155458136664961  0.1240540126723518  0.0975870643258085
  0.9120828044503879  0.1251418477479181  0.5962620997661174
  0.9115516409044054  0.6253241751822901  0.0968250488753608
  0.9119818539073572  0.6252005581573074  0.5971381750717836
  0.4083418198359012  0.1198310820199122  0.1526890847186043
  0.4114164976284044  0.1245278600185330  0.6530925898291854
  0.4122111405323935  0.6250792204063212  0.1525917872391628
  0.4107827828384901  0.6259147653437029  0.6540039510090558
  0.0887170353839184  0.3753246026061645  0.4030088081073364
  0.0891914474535296  0.3749851695747896  0.9029680737339660
  0.0886572446228720  0.8740477169068654  0.4046808490576561
  0.0887631713304832  0.8745388637908246  0.9036296977521608
  0.5889927417683791  0.3771594215671950  0.3504954649869217
  0.5892347261988499  0.3742721652679620  0.8401619872687475
  0.5900154607330496  0.8753502841655708  0.3470497914372462
  0.5900816367783954  0.8755530414136401  0.8470477328232354
  0.8436935769195131  0.0220467482337542  0.1497686623767439
  0.8413231587203247  0.0219957534229999  0.6477936461912149
  0.8408432185410236  0.5222361907397652  0.1480676100369256
  0.8418351681008338  0.5218957553193041  0.6487219287259728
  0.3385335220376354  0.2225635805589377  0.0981722951878626
  0.3402018433706758  0.2279916621540062  0.6024453677409471
  0.3430175161097644  0.7302249927375495  0.1034187113357227
  0.3410106137041170  0.7299907841474828  0.6036778096290236
  0.1578613880477938  0.2713382948874499  0.3510901013102316
  0.1580979097071217  0.2709609293576186  0.8510129904500255
  0.1589969969263757  0.7708226609481719  0.3527885583085854
  0.1589888103287841  0.7708933837085938  0.8528589308697948
  0.6590213034761782  0.4802670802513096  0.4037880264177248
  0.6590422224130358  0.4765243721631829  0.8955125588798986
  0.6594056001688681  0.9793370535349927  0.3980990443428059
  0.6604244705407697  0.9784623822659069  0.8992970039071364
  0.1593061914560529  0.4783555501549005  0.3515609242170622
  0.1602217296522264  0.4779339826243386  0.8515586976435527
  0.1589396975043899  0.9776219253278610  0.3540899356339443
  0.1593385954984216  0.9777949792508654  0.8524709101214035
  0.6588055934802084  0.2733506545798127  0.4010900747522563
  0.6606497264618660  0.2687037695873305  0.8765229658347401
  0.6602300379987882  0.7721072720752625  0.3992640823709528
  0.6595845679399163  0.7712910319033968  0.8972626754752477
  0.8558430837471940  0.2296373818331052  0.1526364157793949
  0.8431894000815101  0.2290212596977100  0.6477229429791136
  0.8417221955934361  0.7290125492090168  0.1481421759225744
  0.8417786894156853  0.7287929450278028  0.6481671350147646
  0.3374983950465006  0.0154874114965568  0.1046391632156138
  0.3412405504329882  0.0209179746494673  0.6018086973163972
  0.3406712973844146  0.5232951005624138  0.1006382726655702
  0.3406017619910987  0.5232360873691786  0.6004347106570900
  0.5444226189047486  0.1177339611459712  0.0989630912755672
  0.5489515380162925  0.1255659216316432  0.5989517652190107
  0.5504950154074703  0.6250946967808171  0.0996713881085119
  0.5493443796699400  0.6272425858707658  0.6025666522900046
  0.0552394724031712  0.1208351904184834  0.1474054902741344
  0.0506048401067205  0.1240889016808894  0.6483123101696066
  0.0499594210281563  0.6247883799720850  0.1490058724460898
  0.0502630113810779  0.6250448996805399  0.6495451437928139
  0.4502498690064697  0.3751065680646284  0.4022559396800201
  0.4522843125235295  0.3710186843223395  0.8965663331251305
  0.4515407155880546  0.8748450668953984  0.3989595628362145
  0.4515966895285201  0.8750313300677197  0.8989191173902836
  0.9500668895249773  0.3760040511490618  0.3518636537725958
  0.9507773625218676  0.3757182341201227  0.8509756026656814
  0.9504342338135832  0.8745238573887421  0.3520550181470943
  0.9505794313383417  0.8750648181290213  0.8507850303977362
  0.5898736458221566  0.3805563117768278  0.1960560562807868
  0.5849681604557456  0.3807250722834916  0.6840832344626014
  0.5915212397720443  0.8749755177235671  0.1908677781319650
  0.5904419270676347  0.8763899482658790  0.6907033218812972
  0.0897697821756486  0.3749255832545885  0.0591038499986745
  0.0900274680695567  0.3750487279084113  0.5592940313242927
  0.0882065983659804  0.8738275454260473  0.0598935013071053
  0.0888989450968335  0.8739758120515165  0.5608690344962229
  0.4078946553604914  0.1237495180919101  0.3090319610830170
  0.4118728430773749  0.1238779347958868  0.8091970518300061
  0.4125709912871558  0.6251683276593435  0.3092033930140440
  0.4099632331147570  0.6240389738811267  0.8102959600047532
  0.9114193792068390  0.1251365167199785  0.4400063856552978
  0.9128790868258363  0.1242086023022156  0.9415371704903567
  0.9115053773834254  0.6249553294705725  0.4408307655669689
  0.9111044630440734  0.6251614169618110  0.9404827594222384
 
             NaN             NaN             NaN
             NaN             NaN             NaN
             NaN             NaN             NaN
             NaN             NaN             NaN
             NaN             NaN             NaN
             NaN             NaN             NaN
             NaN             NaN             NaN
             NaN             NaN             NaN
             NaN             NaN             NaN
             NaN             NaN             NaN
             NaN             NaN             NaN
             NaN             NaN             NaN
             NaN             NaN             NaN
             NaN             NaN             NaN
             NaN             NaN             NaN
             NaN             NaN             NaN
             NaN             NaN             NaN
             NaN             NaN             NaN
             NaN             NaN             NaN
             NaN             NaN             NaN
             NaN             NaN             NaN
             NaN             NaN             NaN
             NaN             NaN             NaN
             NaN             NaN             NaN
             NaN             NaN             NaN
             NaN             NaN             NaN
             NaN             NaN             NaN
             NaN             NaN             NaN
             NaN             NaN             NaN
             NaN             NaN             NaN
             NaN             NaN             NaN
             NaN             NaN             NaN
             NaN             NaN             NaN
             NaN             NaN             NaN
             NaN             NaN             NaN
             NaN             NaN             NaN
             NaN             NaN             NaN
             NaN             NaN             NaN
             NaN             NaN             NaN
             NaN             NaN             NaN
             NaN             NaN             NaN
             NaN             NaN             NaN
             NaN             NaN             NaN
             NaN             NaN             NaN
             NaN             NaN             NaN
             NaN             NaN             NaN
             NaN             NaN             NaN
             NaN             NaN             NaN
             NaN             NaN             NaN
             NaN             NaN             NaN
             NaN             NaN             NaN
             NaN             NaN             NaN
             NaN             NaN             NaN
             NaN             NaN             NaN
             NaN             NaN             NaN
             NaN             NaN             NaN
             NaN             NaN             NaN
             NaN             NaN             NaN
             NaN             NaN             NaN
             NaN             NaN             NaN
             NaN             NaN             NaN
             NaN             NaN             NaN
             NaN             NaN             NaN
             NaN             NaN             NaN
             NaN             NaN             NaN
             NaN             NaN             NaN
             NaN             NaN             NaN
             NaN             NaN             NaN
             NaN             NaN             NaN
             NaN             NaN             NaN
             NaN             NaN             NaN
             NaN             NaN             NaN
             NaN             NaN             NaN
             NaN             NaN             NaN
             NaN             NaN             NaN
             NaN             NaN             NaN
             NaN             NaN             NaN
             NaN             NaN             NaN
             NaN             NaN             NaN
             NaN             NaN             NaN
             NaN             NaN             NaN
             NaN             NaN             NaN
             NaN             NaN             NaN
             NaN             NaN             NaN
             NaN             NaN             NaN
             NaN             NaN             NaN
             NaN             NaN             NaN
             NaN             NaN             NaN
             NaN             NaN             NaN
             NaN             NaN             NaN
             NaN             NaN             NaN
             NaN             NaN             NaN
             NaN             NaN             NaN
             NaN             NaN             NaN
             NaN             NaN             NaN
             NaN             NaN             NaN
             NaN             NaN             NaN
             NaN             NaN             NaN
             NaN             NaN             NaN
             NaN             NaN             NaN
             NaN             NaN             NaN
             NaN             NaN             NaN
             NaN             NaN             NaN
             NaN             NaN             NaN
             NaN             NaN             NaN
             NaN             NaN             NaN
             NaN             NaN             NaN
             NaN             NaN             NaN
             NaN             NaN             NaN
             NaN             NaN             NaN
             NaN             NaN             NaN
             NaN             NaN             NaN
             NaN             NaN             NaN
             NaN             NaN             NaN
             NaN             NaN             NaN
             NaN             NaN             NaN
             NaN             NaN             NaN
             NaN             NaN             NaN
             NaN             NaN             NaN
             NaN             NaN             NaN
             NaN             NaN             NaN
             NaN             NaN             NaN
             NaN             NaN             NaN
             NaN             NaN             NaN
             NaN             NaN             NaN
             NaN             NaN             NaN
             NaN             NaN             NaN
