Li7 Mn16 O32                            
   1.00000000000000     
     8.6028450000000003    0.0196490000000000   -0.0168650000000000
     0.0171640000000000    8.0919840000000001   -0.0928640000000000
    -0.0170990000000000    0.0022820000000000    8.0680929999999993
   Li   Mn   O 
     7    16    32
Direct
  0.1929295237214414  0.5487806677237987  0.7015015912819887
  0.8669508949071144  0.8758929766660190  0.8778776145056236
  0.1383724820424035  0.1296370160474104  0.1203654457065504
  0.8676032245668964  0.3721909095133668  0.3738413628716832
  0.3636201468837898  0.8699880432170178  0.3800727842821781
  0.6336195599376524  0.1242986873483500  0.6245385394946761
  0.6330522923527988  0.6259656385678865  0.1260050902325496
  0.4998985375799940  0.2489941947419638  0.2494048865732754
  0.2503674253201520  0.4992995500960247  0.2476421744019030
  0.2514944384948640  0.2510910024466853  0.5028430785951915
  0.5073643398133902  0.4979709801893992  0.4993174139819090
  0.5073473782069845  0.7508814499514870  0.7512548047442732
  0.7497706957250980  0.5004424031476191  0.7497739224052294
  0.7573076400252506  0.7480954527460886  0.4997835036291433
  0.2500022876538374  0.0018128837245143  0.7506763439763472
  0.2514959917116607  0.7473029114246095  0.9986828286452750
  0.5000888830897756  0.0005324048870033  0.0009139984598289
  0.7501283074775810  0.9999036700910864  0.2499850245253481
  0.7429130346152917  0.2520282869092030  0.0002484929855382
  0.9932810469211831  0.2482638731269121  0.7490026338644016
  0.9932760963385723  0.5017282119765885  0.0015552850969945
  0.0005493561637470  0.7505308008348966  0.2507086338521505
  0.0002377685728873  0.9992896304785600  0.4994642646574145
  0.7234913295584487  0.0101102751694224  0.0124842908414147
  0.9952309031798185  0.7358850144009197  0.0150560438697078
  0.9981551293469912  0.0159735476356875  0.7372303718873890
  0.7341468543451890  0.7355981350296916  0.7383605355916606
  0.2758305796486301  0.9867907339484322  0.9862018825040729
  0.9941143230038076  0.2665363969690347  0.9850156776115511
  0.0033638476136327  0.9854399447190999  0.2638491088272157
  0.2760548781310496  0.2639851741158040  0.2627090150356838
  0.7330527217446133  0.5073750209031468  0.5143851695141873
  0.9946706688347127  0.2344423138461612  0.5143203022532750
  0.9985367714568599  0.5136301450658465  0.2344477563354809
  0.7238723173405508  0.2395397997515472  0.2373824931618452
  0.2862868530945071  0.4871940720584814  0.4951667232047936
  0.0034888347331288  0.7673292256799545  0.4834018508477362
  0.9760178340359604  0.4879926912879951  0.7611063705747929
  0.2866270198232380  0.7549406529084175  0.7618532061129970
  0.2250208898052910  0.0122932463879784  0.5151972632502114
  0.5061924633404297  0.7330178575494548  0.5155169061604910
  0.4976200458367926  0.0136750209879482  0.2371257065977010
  0.2250738118654491  0.7344734607959134  0.2380625339881018
  0.7772469991916490  0.9889823479995042  0.4881604371382515
  0.5056525576670158  0.2642559236366391  0.4857771803589803
  0.5018505781309961  0.9835128421030850  0.7634263575783177
  0.7664019196203967  0.2653013440155985  0.7621349438408249
  0.2120688895342259  0.5138684991829944  0.0021345499385882
  0.4980610143614578  0.2309590242386532  0.0182579918802181
  0.5287872762740949  0.5127774468128115  0.7382236460761563
  0.2115971021369167  0.2472182166977745  0.7368618359917021
  0.7677412276733732  0.4929111967362536  0.9849247159654186
  0.5056823637770280  0.7646459568762503  0.9855803659329527
  0.5019667005143336  0.4857267574013942  0.2660668664373927
  0.7771662652233515  0.7599155600142535  0.2628978038996692
 
             NaN             NaN             NaN
             NaN             NaN             NaN
             NaN             NaN             NaN
             NaN             NaN             NaN
             NaN             NaN             NaN
             NaN             NaN             NaN
             NaN             NaN             NaN
             NaN             NaN             NaN
             NaN             NaN             NaN
             NaN             NaN             NaN
             NaN             NaN             NaN
             NaN             NaN             NaN
             NaN             NaN             NaN
             NaN             NaN             NaN
             NaN             NaN             NaN
             NaN             NaN             NaN
             NaN             NaN             NaN
             NaN             NaN             NaN
             NaN             NaN             NaN
             NaN             NaN             NaN
             NaN             NaN             NaN
             NaN             NaN             NaN
             NaN             NaN             NaN
             NaN             NaN             NaN
             NaN             NaN             NaN
             NaN             NaN             NaN
             NaN             NaN             NaN
             NaN             NaN             NaN
             NaN             NaN             NaN
             NaN             NaN             NaN
             NaN             NaN             NaN
             NaN             NaN             NaN
             NaN             NaN             NaN
             NaN             NaN             NaN
             NaN             NaN             NaN
             NaN             NaN             NaN
             NaN             NaN             NaN
             NaN             NaN             NaN
             NaN             NaN             NaN
             NaN             NaN             NaN
             NaN             NaN             NaN
             NaN             NaN             NaN
             NaN             NaN             NaN
             NaN             NaN             NaN
             NaN             NaN             NaN
             NaN             NaN             NaN
             NaN             NaN             NaN
             NaN             NaN             NaN
             NaN             NaN             NaN
             NaN             NaN             NaN
             NaN             NaN             NaN
             NaN             NaN             NaN
             NaN             NaN             NaN
             NaN             NaN             NaN
             NaN             NaN             NaN
