Li7 Mn16 O32                            
   1.00000000000000     
     8.6028450000000003    0.0196490000000000   -0.0168650000000000
     0.0171640000000000    8.0919840000000001   -0.0928640000000000
    -0.0170990000000000    0.0022820000000000    8.0680929999999993
   Li   Mn   O 
     7    16    32
Direct
  0.1943383678849308  0.5474038968878714  0.7028516175091447
  0.8668638488184321  0.8759510681556411  0.8777950209571792
  0.1382824506020871  0.1297363172188500  0.1202531845335514
  0.8675317751847452  0.3723002952628680  0.3738013285772058
  0.3634275952812618  0.8700747231835791  0.3799627733834777
  0.6334988862301214  0.1243843006497310  0.6244954572610323
  0.6329642773339661  0.6260880040232178  0.1259129670908178
  0.4998901290783897  0.2489959228914717  0.2493614693485816
  0.2503290002916051  0.4993425764133980  0.2476148485314599
  0.2514182811992228  0.2510096499319880  0.5026948987688034
  0.5073806220768099  0.4979882658602227  0.4992611447043476
  0.5073825440257945  0.7509373313202922  0.7512112838325281
  0.7497946282155037  0.5004382112274495  0.7497952082829129
  0.7573485761277992  0.7480760540526732  0.4997476589878397
  0.2499919327910659  0.0018604825484587  0.7506571739078587
  0.2514552311050777  0.7474707046044728  0.9986772116253666
  0.5001144708922399  0.0005258715266804  0.0009487701124623
  0.7501241059657111  0.9998700093913352  0.2500169469336169
  0.7428770738209075  0.2521013595363986  0.0002614046084759
  0.9932207114888132  0.2482179176516388  0.7490074667939565
  0.9932197859866567  0.5017620021218273  0.0015545696237082
  1.0005558672519184  0.7505376184574954  0.2506943964575984
  1.0002239487502840 -0.0006914142059331  0.4994759166658737
  0.7235088029620458  0.0101170864514929  0.0124891839615351
  0.9950804798264580  0.7358931800635928  0.0150576443828716
  0.9979051814183463  0.0160039283088255  0.7371704132777769
  0.7341211254354688  0.7356090511135374  0.7382984991347139
  0.2758577343104839  0.9869214008244195  0.9862154295259007
  0.9940291954143156  0.2665767696670402  0.9849957441518445
  0.0034467902175737  0.9854392231816135  0.2638573906635317
  0.2760212687892691  0.2640070371856085  0.2625474573422477
  0.7330065683290947  0.5073758511641970  0.5143808511126595
  0.9946332846698370  0.2345015684469237  0.5143296574832731
  0.9983929674910174  0.5136709822376683  0.2344238871791005
  0.7238500327900304  0.2396433230521357  0.2373306021887696
  0.2861883978084243  0.4871108258119877  0.4951299434505698
  1.0035478328447747  0.7673729114132799  0.4833913490111770
  0.9760505041508384  0.4880153588325506  0.7610732923803128
  0.2865264011579919  0.7551539604889465  0.7618380293299406
  0.2249844935026252  0.0124106432241085  0.5150540498919485
  0.5061366049943093  0.7330332294928978  0.5154746556137606
  0.4976703322506992  0.0137177817638445  0.2371141176731388
  0.2250590125545308  0.7345519437051956  0.2379470196642345
  0.7772221374058935  0.9890382473006912  0.4880702900192189
  0.5056332133216755  0.2643028246446515  0.4857088528416151
  0.5019672238473898  0.9835225863308834  0.7634119802331976
  0.7663495644707751  0.2653611523892059  0.7621289925383876
  0.2120312480041558  0.5138877249773904  0.0022183622390994
  0.4981357733318572  0.2309860393787309  0.0181757729758168
  0.5287275837579606  0.5128106664296398  0.7381812859637471
  0.2116044680992976  0.2468953251753251  0.7369511435835437
  0.7677028182055158  0.4929801820916935  0.9848784410241154
  0.5057028795281299  0.7646625125686165  0.9854886002006132
  0.5018852046523680  0.4857828814271640  0.2660276814719471
  0.7771600236510756  0.7598903360960192  0.2629581040725139
 
             NaN             NaN             NaN
             NaN             NaN             NaN
             NaN             NaN             NaN
             NaN             NaN             NaN
             NaN             NaN             NaN
             NaN             NaN             NaN
             NaN             NaN             NaN
             NaN             NaN             NaN
             NaN             NaN             NaN
             NaN             NaN             NaN
             NaN             NaN             NaN
             NaN             NaN             NaN
             NaN             NaN             NaN
             NaN             NaN             NaN
             NaN             NaN             NaN
             NaN             NaN             NaN
             NaN             NaN             NaN
             NaN             NaN             NaN
             NaN             NaN             NaN
             NaN             NaN             NaN
             NaN             NaN             NaN
             NaN             NaN             NaN
             NaN             NaN             NaN
             NaN             NaN             NaN
             NaN             NaN             NaN
             NaN             NaN             NaN
             NaN             NaN             NaN
             NaN             NaN             NaN
             NaN             NaN             NaN
             NaN             NaN             NaN
             NaN             NaN             NaN
             NaN             NaN             NaN
             NaN             NaN             NaN
             NaN             NaN             NaN
             NaN             NaN             NaN
             NaN             NaN             NaN
             NaN             NaN             NaN
             NaN             NaN             NaN
             NaN             NaN             NaN
             NaN             NaN             NaN
             NaN             NaN             NaN
             NaN             NaN             NaN
             NaN             NaN             NaN
             NaN             NaN             NaN
             NaN             NaN             NaN
             NaN             NaN             NaN
             NaN             NaN             NaN
             NaN             NaN             NaN
             NaN             NaN             NaN
             NaN             NaN             NaN
             NaN             NaN             NaN
             NaN             NaN             NaN
             NaN             NaN             NaN
             NaN             NaN             NaN
             NaN             NaN             NaN
