Li15 Fe16 P16 O64
1.0
10.426661 0.000930 0.005654
0.001087 12.142334 -0.000817
0.003602 -0.000754 9.521508
Li Fe P O
15 16 16 64
direct
0.499282 0.432088 0.745934 Li
0.496592 0.497028 0.244480 Li
0.497957 0.004365 0.249111 Li
0.496091 0.010835 0.759200 Li
0.999887 0.251571 0.502755 Li
0.000897 0.251391 0.001505 Li
0.006230 0.744865 0.496578 Li
0.000899 0.747320 0.995602 Li
0.497915 0.252466 0.246208 Li
0.497014 0.746279 0.247662 Li
0.497219 0.745800 0.755880 Li
0.001187 0.003377 0.995146 Li
0.006383 0.005190 0.496479 Li
0.000538 0.498337 0.001754 Li
0.999835 0.497749 0.503023 Li
0.779501 0.127155 0.262912 Fe
0.779391 0.126713 0.763512 Fe
0.779456 0.622355 0.262740 Fe
0.781056 0.623853 0.764217 Fe
0.284531 0.126693 0.488940 Fe
0.282505 0.127418 0.985665 Fe
0.283553 0.623642 0.487670 Fe
0.281875 0.623526 0.985895 Fe
0.219423 0.375205 0.236310 Fe
0.222821 0.374366 0.738729 Fe
0.220570 0.875131 0.236581 Fe
0.219369 0.874942 0.736062 Fe
0.716748 0.374464 0.010669 Fe
0.717516 0.373667 0.516029 Fe
0.715271 0.875308 0.015968 Fe
0.719690 0.875338 0.507755 Fe
0.595687 0.123203 0.042038 P
0.595313 0.121520 0.538718 P
0.595338 0.625811 0.041544 P
0.595393 0.628164 0.539623 P
0.093982 0.123631 0.209046 P
0.093899 0.123980 0.707886 P
0.093585 0.626432 0.208504 P
0.094044 0.625659 0.707681 P
0.405492 0.376659 0.458066 P
0.405971 0.375190 0.959022 P
0.408385 0.874637 0.459946 P
0.404951 0.875060 0.958670 P
0.906841 0.375029 0.292024 P
0.907289 0.375101 0.792991 P
0.904722 0.874667 0.293324 P
0.899196 0.875066 0.791756 P
0.596591 0.122421 0.376952 O
0.601848 0.116971 0.882198 O
0.596768 0.627275 0.378345 O
0.599922 0.629625 0.880830 O
0.097084 0.122390 0.370655 O
0.095944 0.122931 0.869376 O
0.096744 0.627386 0.370089 O
0.095918 0.627141 0.869109 O
0.402916 0.375481 0.121959 O
0.398709 0.380104 0.617389 O
0.402978 0.874768 0.120355 O
0.403368 0.873955 0.620305 O
0.904856 0.375345 0.130646 O
0.903667 0.374977 0.631263 O
0.901461 0.874739 0.133161 O
0.887340 0.874672 0.629184 O
0.955690 0.122209 0.147727 O
0.956088 0.122442 0.645546 O
0.955228 0.627747 0.147408 O
0.956122 0.627530 0.645352 O
0.457152 0.124323 0.103041 O
0.459149 0.118739 0.600540 O
0.457044 0.625597 0.102993 O
0.459141 0.629205 0.603278 O
0.044266 0.375395 0.355526 O
0.044962 0.375258 0.854943 O
0.041518 0.874584 0.356489 O
0.039368 0.874666 0.845130 O
0.544422 0.375437 0.397785 O
0.543690 0.377147 0.901416 O
0.550359 0.874611 0.401545 O
0.542722 0.874576 0.897113 O
0.665153 0.022301 0.114894 O
0.666038 0.014932 0.601182 O
0.665807 0.523785 0.107442 O
0.671690 0.529752 0.605244 O
0.162860 0.226152 0.143226 O
0.163936 0.225905 0.641594 O
0.164810 0.727910 0.141435 O
0.165787 0.726923 0.639610 O
0.335346 0.274328 0.391062 O
0.329081 0.275612 0.897132 O
0.340879 0.773044 0.389693 O
0.333484 0.773622 0.891953 O
0.835331 0.476442 0.358960 O
0.836494 0.476980 0.859288 O
0.829615 0.973956 0.363778 O
0.832163 0.977269 0.860058 O
0.336405 0.478256 0.386910 O
0.333139 0.477023 0.894145 O
0.340336 0.976076 0.390269 O
0.334022 0.976827 0.892248 O
0.836405 0.272993 0.358210 O
0.836495 0.273560 0.859715 O
0.829259 0.775447 0.363491 O
0.831529 0.773085 0.860181 O
0.665879 0.225701 0.107167 O
0.675282 0.218201 0.601730 O
0.665380 0.726974 0.112289 O
0.666010 0.734144 0.602237 O
0.165439 0.022387 0.141661 O
0.165365 0.022444 0.640101 O
0.162698 0.524184 0.142062 O
0.163555 0.523397 0.641572 O
