Na47 P16 S64                            
   1.00000000000000     
    13.9449319999999997   -0.0162630000000000    0.0000120000000000
    -0.0163200000000000   13.9665739999999996    0.0000610000000000
     0.0000370000000000    0.0000250000000000   14.2579419999999999
   Na   P    S 
    47    16    64
Direct
  0.6501050187634121  0.7524845130556912  0.7488247168134663
  0.9999283415000946  0.2503384100967239  0.2067971887163793
  0.9996311964906894  0.2501531311044189  0.7060316392962775
  0.9995606786086881  0.7503845070241013  0.2125564314215893
  0.9911827399424951  0.7510762926867471  0.7165994703218601
  0.5000339811192802  0.2496722434008447  0.2085102871097533
  0.5004799995024314  0.2500358950114645  0.7080584027842605
  0.5002871355939931  0.7496699155170319  0.2115391830187221
  0.2493351780333839  0.9992974888901998  0.2885894815951957
  0.2477200313523369  0.9987444206711658  0.7871418079099897
  0.2517491109179417  0.5006695859608357  0.2953730448390388
  0.2504570724644211  0.5032235670727943  0.7935040793883417
  0.7483131474742564  0.9991072666753738  0.2938952607819303
  0.7493254209897700  0.9904660963441430  0.7898120468773300
  0.7506103329638805  0.5009706534260303  0.2870018074294975
  0.7537561653299960  0.5083571256320027  0.7836658386593598
  0.2532945683716790  0.9985508673301737  0.0371580736240773
  0.2433687011737433  0.0009199056368203  0.5377888169209015
  0.2470831394913162  0.4993167946480455  0.0455054134823030
  0.2553003541322880  0.5038198697254614  0.5459587470603680
  0.7526575901533050  0.0009971720259614  0.0431355184128464
  0.7450105635087922  0.9972829964574004  0.5428070543839425
  0.7466290770846911  0.5013576179738877  0.0348638636658762
  0.7575303586380642  0.4977648448458751  0.5347915330199271
  0.9999310410790372  0.2491804297166098  0.4561391988615640
  0.9992449077664673  0.2515620836206409  0.9556949577766574
  0.0001595411258819  0.7491487604985565  0.4653069421082492
  0.0000124142408637  0.7517611604756596  0.9616954254928700
  0.5000737941972986  0.2508352223312684  0.4584330366092928
  0.5006826417006707  0.2484212517997975  0.9569181434826817
  0.4998240225543000  0.7509844342376084  0.4774400422177507
  0.4981493828802641  0.7483288841377913  0.9530837002644432
  0.9917849447126699  0.0002053521930776  0.5008560868856193
  0.0018537474793305  0.0072957270153040  0.0000833843117576
  0.0099449715533737  0.4967393345539861  0.4997451054976096
  0.9984425489483684  0.4979234326534225  0.9989239585499732
  0.4928443069769628  0.0001061820577775  0.4997089430554666
  0.5067483980990630  0.9980734548186945  0.0000818256489765
  0.5048208960093064  0.5029981283323366  0.5011773782209517
  0.4919854169097349  0.4968564999148910  0.0017664377949274
  0.2484612617178428  0.2518072764136789  0.2497963175758144
  0.2488168293267492  0.2533110724917549  0.7499887037867197
  0.2517394055616506  0.7481300220753013  0.2500872680456823
  0.2955372565889292  0.7486883722130173  0.7497741137088525
  0.7515614873544365  0.2482118899348293  0.2494796760517630
  0.7512457570176210  0.2465801668948657  0.7501933669618595
  0.7480929328206969  0.7518662456123764  0.2493936990928347
  0.9991179410025026  0.0008192228942434  0.2497067452700037
  0.9987187564639370  0.0028694626168075  0.7509206304280411
  0.0010886888483057  0.4995884624859031  0.2497452386084404
  0.0022721246384663  0.4980592264575066  0.7489158185138081
  0.4996990447934166  0.9999082375614918  0.2502470301473352
  0.4976829897380597  0.0005102928316845  0.7496567997405421
  0.5000965202208505  0.4996518412974567  0.2504541750666860
  0.5003219807901687  0.4989563185128887  0.7510345616966987
  0.2497379844496805  0.2503704436001470  0.0000419525891004
  0.2495369285000990  0.2513361849564291  0.4993769102163981
  0.2504562784435151  0.7476322857751612  0.0009278159141033
  0.2491919207576387  0.7527487258854038  0.4988753262326568
  0.7502211900397455  0.2495667409329627  0.9997194739387680
  0.7504217838912339  0.2485395895562874  0.4990936117637261
  0.7494114277830235  0.7510265146766031  0.0009944979925365
  0.7512734372741221  0.7475954674246594  0.4967726671761667
  0.1551070673383919  0.1731789894444020  0.0825742057528487
  0.1541487496731619  0.1754505648055087  0.5818101638483455
  0.1534711568937297  0.6749673624932768  0.0844545021892671
  0.1573339980308575  0.6774981859279663  0.5851012566930081
  0.6549677638322891  0.1742333202092183  0.0833491056814353
  0.6543576019171411  0.1743529966780244  0.5819058851821666
  0.6543330379168850  0.6746979169717235  0.0833052468202311
  0.6573454862073120  0.6657857322711536  0.5746307236630628
  0.3452955350333369  0.3254131634213948  0.0833957424551457
  0.3454638522614388  0.3259926267876239  0.5820719495966316
  0.3456195554794590  0.8243336886384753  0.0830403615218529
  0.3434945766162443  0.8325498237743574  0.5777930974666461
  0.8446402139542926  0.3271210259923549  0.0823372433574576
  0.8460164555862733  0.3240833755174179  0.5816009335341192
  0.8448960293623884  0.8261751281221450  0.0841724931052283
  0.8430002796682814  0.8241100859794912  0.5816033974805492
  0.1738486947883189  0.3472654665689561  0.4175027730583807
  0.1737305963244893  0.3465986043897118  0.9190541408728592
  0.1708111175988236  0.8430727316497268  0.4130871128551945
  0.1777293393463708  0.8399343912654729  0.9138297196494989
  0.6760807289891986  0.3435508854119433  0.4151596376835158
  0.6754282218964462  0.3434013270357852  0.9157071133767687
  0.6724714039959068  0.8427181911013690  0.4163013376135751
  0.6715301840245544  0.8494657679473718  0.9227692249287287
  0.3243170719619997  0.1564863499363227  0.4156322408588977
  0.3246469145014288  0.1563587899332219  0.9161476236595334
  0.3271647291844388  0.6571176561600112  0.4178865610485332
  0.3266968199062035  0.6484345026754852  0.9230279672577453
  0.8257956086704041  0.1523433718393363  0.4172564314262033
  0.8260758721452390  0.1533457185438820  0.9186792425027051
  0.8295181115847967  0.6571547847865560  0.4109888180420498
  0.8242779179643378  0.6586002382803713  0.9162856486173112
  0.0962997582597325  0.4230347092421454  0.1678316675150455
  0.1009107135303893  0.4221559393228773  0.6699515697632563
  0.0932390389144260  0.9256795127191637  0.1654217741764725
  0.0901841736568798  0.9258732468408368  0.6661173983863264
  0.5938192173743602  0.4243929166990199  0.1657640836019709
  0.5957305509076889  0.4248380262584561  0.6671418660203372
  0.5962253042604431  0.9244378341115720  0.1690706428061759
  0.5894384098971059  0.9247640723134296  0.6639820878416742
  0.4059837603454284  0.0749822795401229  0.1654375002660800
  0.4022975239941928  0.0771820885070014  0.6677115665242823
  0.4034623454944537  0.5751797877704021  0.1692381537501717
  0.4087566642828833  0.5787854929999696  0.6693582110496976
  0.9037309853301849  0.0774261683039086  0.1680622322159948
  0.9003660328632606  0.0766477151551896  0.6697229061822867
  0.9070753431570822  0.5747272376967203  0.1655560015188300
  0.9111730752904634  0.5725173218415307  0.6617634927729483
  0.0758427690652113  0.0949993328333250  0.3328749023320441
  0.0774133890907436  0.0997428394036390  0.8296889540678549
  0.0768171629904657  0.5947757620796850  0.3325283605009943
  0.0738795391545253  0.5932756555526026  0.8344038313701745
  0.5742475435624144  0.0955521902350398  0.3337301496607665
  0.5774096427524640  0.0950076424145223  0.8302667851772227
  0.5762166801528252  0.5945660811665476  0.3325229364538131
  0.5771181782864545  0.5857403915608117  0.8415644614511706
  0.4254541333419226  0.4042335012671501  0.3340416313585379
  0.4222470946226480  0.4018345838144057  0.8302724835624602
  0.4233926071131506  0.9050706876150443  0.3325157631226006
  0.4220233544295908  0.9100124910193657  0.8367173398517025
  0.9243903722360116  0.4051899040931417  0.3326957043625001
  0.9226530933483446  0.4034458821253679  0.8294071319813696
  0.9237149958931568  0.9054787834561040  0.3323712334946052
  0.9268699685288340  0.9098024263833651  0.8382870936455120
 
             NaN             NaN             NaN
             NaN             NaN             NaN
             NaN             NaN             NaN
             NaN             NaN             NaN
             NaN             NaN             NaN
             NaN             NaN             NaN
             NaN             NaN             NaN
             NaN             NaN             NaN
             NaN             NaN             NaN
             NaN             NaN             NaN
             NaN             NaN             NaN
             NaN             NaN             NaN
             NaN             NaN             NaN
             NaN             NaN             NaN
             NaN             NaN             NaN
             NaN             NaN             NaN
             NaN             NaN             NaN
             NaN             NaN             NaN
             NaN             NaN             NaN
             NaN             NaN             NaN
             NaN             NaN             NaN
             NaN             NaN             NaN
             NaN             NaN             NaN
             NaN             NaN             NaN
             NaN             NaN             NaN
             NaN             NaN             NaN
             NaN             NaN             NaN
             NaN             NaN             NaN
             NaN             NaN             NaN
             NaN             NaN             NaN
             NaN             NaN             NaN
             NaN             NaN             NaN
             NaN             NaN             NaN
             NaN             NaN             NaN
             NaN             NaN             NaN
             NaN             NaN             NaN
             NaN             NaN             NaN
             NaN             NaN             NaN
             NaN             NaN             NaN
             NaN             NaN             NaN
             NaN             NaN             NaN
             NaN             NaN             NaN
             NaN             NaN             NaN
             NaN             NaN             NaN
             NaN             NaN             NaN
             NaN             NaN             NaN
             NaN             NaN             NaN
             NaN             NaN             NaN
             NaN             NaN             NaN
             NaN             NaN             NaN
             NaN             NaN             NaN
             NaN             NaN             NaN
             NaN             NaN             NaN
             NaN             NaN             NaN
             NaN             NaN             NaN
             NaN             NaN             NaN
             NaN             NaN             NaN
             NaN             NaN             NaN
             NaN             NaN             NaN
             NaN             NaN             NaN
             NaN             NaN             NaN
             NaN             NaN             NaN
             NaN             NaN             NaN
             NaN             NaN             NaN
             NaN             NaN             NaN
             NaN             NaN             NaN
             NaN             NaN             NaN
             NaN             NaN             NaN
             NaN             NaN             NaN
             NaN             NaN             NaN
             NaN             NaN             NaN
             NaN             NaN             NaN
             NaN             NaN             NaN
             NaN             NaN             NaN
             NaN             NaN             NaN
             NaN             NaN             NaN
             NaN             NaN             NaN
             NaN             NaN             NaN
             NaN             NaN             NaN
             NaN             NaN             NaN
             NaN             NaN             NaN
             NaN             NaN             NaN
             NaN             NaN             NaN
             NaN             NaN             NaN
             NaN             NaN             NaN
             NaN             NaN             NaN
             NaN             NaN             NaN
             NaN             NaN             NaN
             NaN             NaN             NaN
             NaN             NaN             NaN
             NaN             NaN             NaN
             NaN             NaN             NaN
             NaN             NaN             NaN
             NaN             NaN             NaN
             NaN             NaN             NaN
             NaN             NaN             NaN
             NaN             NaN             NaN
             NaN             NaN             NaN
             NaN             NaN             NaN
             NaN             NaN             NaN
             NaN             NaN             NaN
             NaN             NaN             NaN
             NaN             NaN             NaN
             NaN             NaN             NaN
             NaN             NaN             NaN
             NaN             NaN             NaN
             NaN             NaN             NaN
             NaN             NaN             NaN
             NaN             NaN             NaN
             NaN             NaN             NaN
             NaN             NaN             NaN
             NaN             NaN             NaN
             NaN             NaN             NaN
             NaN             NaN             NaN
             NaN             NaN             NaN
             NaN             NaN             NaN
             NaN             NaN             NaN
             NaN             NaN             NaN
             NaN             NaN             NaN
             NaN             NaN             NaN
             NaN             NaN             NaN
             NaN             NaN             NaN
             NaN             NaN             NaN
             NaN             NaN             NaN
             NaN             NaN             NaN
             NaN             NaN             NaN
             NaN             NaN             NaN
