Li17 Co18 O36                           
   1.00000000000000     
     8.2794699999999999    0.6362880000000000    1.3377230000000000
     3.4778910000000001    7.5384700000000002    1.3447600000000000
     1.2050419999999999    0.8420760000000000    9.7550220000000003
   Li   Co   O 
    17    18    36
Direct
  0.3164402622881968  0.4204304361108857  0.5071018490713542
  0.3328118452137509  0.3340852528291037  0.0017210550676906
  0.3323215932592505  0.6684028857829702  0.0010621277459183
  0.3332344786487722  1.0008647241321247  1.0009185961465430
  0.3323804568369693  0.9997906555708853  0.5007558996521836
  0.6668260802628535  0.3337573545557928  1.0012568399724155
  0.6655131442882886  0.3379558613857804  0.5017808518176312
  0.6657214029908416  0.6683539217048119  1.0011865868022043
  0.6505279024193213  0.6674470813738730  0.5009540217375563
  0.6659935295965222  1.0008311729685522  0.0018659267678026
  0.6539166543170871  1.0135576564864879  0.5019157987983471
 -0.0005580365431709  0.3340087183442267  1.0005763510061101
  0.0080472568543307  0.3347925501664422  0.4996936211561749
 -0.0010657810737906  0.6682858258439002  0.0012235932513101
 -0.0148009509070074  0.6798360229132551  0.4996430725745269
 -0.0006488362318722  0.0018409139906686  0.9997633604175892
  0.0129946743145610  0.9876973715454083  0.5008242176295971
  0.1620313352811645  0.1704753997301969  0.2472731812110325
  0.1696180555561721  0.1659989134986153  0.7503013049206463
  0.1621146636004512  0.5041176300993678  0.2476037589830967
  0.1677258685979678  0.5001854629136275  0.7536673560269882
  0.1623048697207214  0.8384435201069311  0.2490277293327871
  0.1694660779729638  0.8312942453164832  0.7498114584551528
  0.4942042419300476  0.1703783179659070  0.2505919457767769
  0.5011802102256299  0.1647904341203358  0.7548433811291424
  0.4944809704747795  0.5052620460246944  0.2499794307538602
  0.5015904744461754  0.5004647237351225  0.7538702233350880
  0.4954300954785358  0.8355796483140462  0.2520588092026739
  0.5010143211165174  0.8321261239135759  0.7533626917153290
  0.8280928253868641  0.1705053951175064  0.2507666362072190
  0.8349923294789002  0.1659353248724617  0.7501554566230718
  0.8292823623172257  0.5018576510132483  0.2486296312996767
  0.8350716968820893  0.4995773303774613  0.7511802929788771
  0.8286317975450300  0.8364641406773287  0.2497079450770559
  0.8339980108422953  0.8326498632528803  0.7536743766094182
  0.2478059978796102  0.2570936317777952  0.3555720886313518
  0.2540025912628768  0.2520779317878998  0.8625997985505814
  0.2453148823872919  0.5954568010472215  0.3513273432252571
  0.2544694667801541  0.5869869943233623  0.8627028129758133
  0.2482102780067449  0.9281954181468697  0.3546711986621931
  0.2537328255306328  0.9198973700319679  0.8607445727661598
  0.5809890636325046  0.2590652309136514  0.3596037648821145
  0.5901519872311185  0.2517412108774064  0.8628534879434847
  0.5865607139323433  0.5877569277932808  0.3564511230144098
  0.5899139661145838  0.5849921914970511  0.8630225052466314
  0.5822909310059504  0.9230217980851428  0.3604652042610147
  0.5876373216913280  0.9184579187863382  0.8644293496532421
  0.9170865715554105  0.2561097126663460  0.3584584259255491
  0.9225000166219762  0.2526013076489377  0.8592373596161180
  0.9163938066541555  0.5891991508526876  0.3579914429212093
  0.9209195843885514  0.5856138451624222  0.8621003769302688
  0.9159785500737353  0.9234087457523678  0.3591896951482036
  0.9224712964434625  0.9199441384530411  0.8606273375660654
  0.0739887637706824  0.0841420123670107  0.1388654667300072
  0.0824370676810683  0.0789529141443632  0.6406405010941748
  0.0759188013457561  0.4171130658302156  0.1372523409029987
  0.0826452494872564  0.4149615701948712  0.6417442840352989
  0.0743537128326906  0.7517700703639695  0.1389211484407491
  0.0771709632491416  0.7453501480207868  0.6458764089104473
  0.4101698283859873  0.0821957086097338  0.1404752928270094
  0.4158283479727624  0.0767788133163341  0.6456980832492628
  0.4095765029551324  0.4164954016995864  0.1397449526574931
  0.4174958772526149  0.4092591631180775  0.6512947632107646
  0.4094169728327673  0.7510063969925380  0.1401048540570639
  0.4160805640697406  0.7460853675220759  0.6467966180994271
  0.7415487437686816  0.0833487997841482  0.1415939758069058
  0.7466749167657825  0.0790110752466527  0.6432693208248919
  0.7417897509876125  0.4158513116710978  0.1403116631978504
  0.7471551671590231  0.4136748722279125  0.6422476908361412
  0.7419146507848056  0.7496696901553792  0.1408891894161774
  0.7466114228726297  0.7469107585613354  0.6437579436533072
 
             NaN             NaN             NaN
             NaN             NaN             NaN
             NaN             NaN             NaN
             NaN             NaN             NaN
             NaN             NaN             NaN
             NaN             NaN             NaN
             NaN             NaN             NaN
             NaN             NaN             NaN
             NaN             NaN             NaN
             NaN             NaN             NaN
             NaN             NaN             NaN
             NaN             NaN             NaN
             NaN             NaN             NaN
             NaN             NaN             NaN
             NaN             NaN             NaN
             NaN             NaN             NaN
             NaN             NaN             NaN
             NaN             NaN             NaN
             NaN             NaN             NaN
             NaN             NaN             NaN
             NaN             NaN             NaN
             NaN             NaN             NaN
             NaN             NaN             NaN
             NaN             NaN             NaN
             NaN             NaN             NaN
             NaN             NaN             NaN
             NaN             NaN             NaN
             NaN             NaN             NaN
             NaN             NaN             NaN
             NaN             NaN             NaN
             NaN             NaN             NaN
             NaN             NaN             NaN
             NaN             NaN             NaN
             NaN             NaN             NaN
             NaN             NaN             NaN
             NaN             NaN             NaN
             NaN             NaN             NaN
             NaN             NaN             NaN
             NaN             NaN             NaN
             NaN             NaN             NaN
             NaN             NaN             NaN
             NaN             NaN             NaN
             NaN             NaN             NaN
             NaN             NaN             NaN
             NaN             NaN             NaN
             NaN             NaN             NaN
             NaN             NaN             NaN
             NaN             NaN             NaN
             NaN             NaN             NaN
             NaN             NaN             NaN
             NaN             NaN             NaN
             NaN             NaN             NaN
             NaN             NaN             NaN
             NaN             NaN             NaN
             NaN             NaN             NaN
             NaN             NaN             NaN
             NaN             NaN             NaN
             NaN             NaN             NaN
             NaN             NaN             NaN
             NaN             NaN             NaN
             NaN             NaN             NaN
             NaN             NaN             NaN
             NaN             NaN             NaN
             NaN             NaN             NaN
             NaN             NaN             NaN
             NaN             NaN             NaN
             NaN             NaN             NaN
             NaN             NaN             NaN
             NaN             NaN             NaN
             NaN             NaN             NaN
             NaN             NaN             NaN
