Li47 P16 O64
1.0
10.470232 -0.002772 -0.011626
-0.003190 12.192230 -0.005152
-0.010954 -0.004142 9.839808
Li P O
47 16 64
direct
0.459979 0.353684 0.097825 Li
0.662819 0.252642 0.602329 Li
0.663920 0.750379 0.096991 Li
0.663811 0.752029 0.598432 Li
0.165077 0.498023 0.152042 Li
0.163827 0.499244 0.652105 Li
0.163669 0.996188 0.153238 Li
0.164323 0.998826 0.652018 Li
0.336214 0.001040 0.401947 Li
0.337144 0.001355 0.904369 Li
0.336978 0.500319 0.400660 Li
0.337730 0.498934 0.903290 Li
0.831688 0.249266 0.343153 Li
0.834512 0.248851 0.853240 Li
0.835743 0.748808 0.347552 Li
0.836036 0.749010 0.847911 Li
0.336465 0.249974 0.401373 Li
0.337478 0.248702 0.902610 Li
0.336619 0.749223 0.401405 Li
0.336812 0.749538 0.902861 Li
0.836428 0.002143 0.346859 Li
0.836479 0.002129 0.848484 Li
0.833176 0.500338 0.348324 Li
0.834895 0.499633 0.848691 Li
0.662512 0.493082 0.095889 Li
0.663129 0.501740 0.598050 Li
0.665828 1.002812 0.100002 Li
0.663505 1.001463 0.597872 Li
0.164159 0.249651 0.150567 Li
0.163652 0.250591 0.652196 Li
0.164657 0.750025 0.151871 Li
0.163793 0.750980 0.652597 Li
0.921229 0.373720 0.147923 Li
0.923261 0.374399 0.648785 Li
0.923685 0.875679 0.148718 Li
0.923415 0.875708 0.649028 Li
0.421622 0.375844 0.601197 Li
0.425818 0.875789 0.101311 Li
0.424946 0.876070 0.600925 Li
0.075780 0.125325 0.348343 Li
0.076916 0.124771 0.852461 Li
0.075323 0.624063 0.350628 Li
0.076174 0.624185 0.851452 Li
0.576047 0.128968 0.393631 Li
0.578436 0.131147 0.910256 Li
0.575903 0.624741 0.399398 Li
0.575909 0.623456 0.898827 Li
0.915334 0.125167 0.095828 P
0.912404 0.125336 0.595093 P
0.911437 0.624789 0.095259 P
0.911701 0.625199 0.595413 P
0.409348 0.121597 0.154470 P
0.411708 0.124646 0.654901 P
0.412103 0.624830 0.153861 P
0.410702 0.626653 0.654845 P
0.087349 0.375426 0.404700 P
0.088443 0.375062 0.904644 P
0.087725 0.874314 0.405205 P
0.088360 0.874206 0.904650 P
0.587304 0.377222 0.348657 P
0.587668 0.374356 0.839571 P
0.589361 0.875281 0.345254 P
0.589394 0.875776 0.845526 P
0.844544 0.021571 0.147222 O
0.842058 0.021897 0.646311 O
0.840990 0.522136 0.146652 O
0.841931 0.522359 0.647678 O
0.338828 0.223863 0.100528 O
0.340010 0.227354 0.603993 O
0.342436 0.729161 0.103622 O
0.340940 0.730477 0.603942 O
0.156976 0.272276 0.352512 O
0.158454 0.271966 0.852820 O
0.157853 0.771041 0.353579 O
0.158377 0.770821 0.853219 O
0.657885 0.480568 0.402987 O
0.657776 0.477083 0.895097 O
0.658960 0.978802 0.396723 O
0.660242 0.978043 0.897716 O
0.158092 0.478631 0.353530 O
0.158667 0.478346 0.852955 O
0.157915 0.977405 0.354605 O
0.158976 0.977054 0.853302 O
0.657935 0.274418 0.401618 O
0.657918 0.269848 0.878544 O
0.659240 0.772121 0.397898 O
0.658683 0.771403 0.895686 O
0.852717 0.228627 0.149657 O
0.843384 0.228363 0.647225 O
0.841952 0.728508 0.146437 O
0.841767 0.728651 0.646678 O
0.337066 0.017447 0.106150 O
0.341407 0.020941 0.603337 O
0.340648 0.522884 0.101773 O
0.339784 0.524373 0.602005 O
0.545714 0.117572 0.103204 O
0.548982 0.125278 0.600367 O
0.550259 0.625144 0.101153 O
0.549032 0.627792 0.603065 O
0.055664 0.120551 0.144580 O
0.051078 0.124195 0.647559 O
0.050092 0.624690 0.147498 O
0.050320 0.625385 0.647565 O
0.449057 0.375821 0.403752 O
0.449445 0.373918 0.892257 O
0.450748 0.874912 0.397044 O
0.450909 0.875220 0.897515 O
0.948707 0.376587 0.353921 O
0.950080 0.375378 0.852071 O
0.949304 0.874349 0.352732 O
0.950020 0.874552 0.851675 O
0.585901 0.381373 0.194724 O
0.585401 0.381352 0.682874 O
0.590997 0.874310 0.188647 O
0.589722 0.876227 0.688506 O
0.089027 0.375254 0.061266 O
0.089340 0.375183 0.561731 O
0.088337 0.873121 0.061305 O
0.088188 0.874101 0.562031 O
0.407373 0.124583 0.311868 O
0.412043 0.124025 0.811546 O
0.411565 0.625200 0.310906 O
0.410031 0.625534 0.811619 O
0.911681 0.125330 0.438301 O
0.913113 0.124125 0.938494 O
0.910784 0.625082 0.438612 O
0.910937 0.624876 0.938317 O
