Na47 P16 S64
1.0
14.009333 -0.007269 -0.000063
-0.007337 14.019919 -0.000011
-0.000039 -0.000050 14.410116
Na P S
47 16 64
direct
0.587024 0.747322 0.729947 Na
0.999888 0.250816 0.203971 Na
0.999398 0.250107 0.703327 Na
0.999095 0.750737 0.209474 Na
0.980947 0.752791 0.715239 Na
0.500119 0.249179 0.204997 Na
0.500609 0.249895 0.704540 Na
0.500905 0.749266 0.210396 Na
0.248802 0.999403 0.293515 Na
0.248829 0.998608 0.792901 Na
0.251740 0.500407 0.296935 Na
0.250351 0.502674 0.796141 Na
0.748340 0.998810 0.293221 Na
0.746963 0.978871 0.787367 Na
0.751113 0.501391 0.289802 Na
0.753858 0.519839 0.784140 Na
0.253255 0.999248 0.042985 Na
0.243412 0.998783 0.543894 Na
0.247139 0.500130 0.046890 Na
0.255869 0.503428 0.548057 Na
0.753069 1.000044 0.041702 Na
0.743588 0.998085 0.541881 Na
0.746545 0.500576 0.037803 Na
0.757124 0.499715 0.537717 Na
0.999732 0.248153 0.453651 Na
0.998190 0.253618 0.952338 Na
0.999907 0.747948 0.461486 Na
0.999696 0.754154 0.960438 Na
0.500269 0.251846 0.454835 Na
0.501809 0.246380 0.953064 Na
0.500088 0.752054 0.468921 Na
0.500305 0.745843 0.957558 Na
0.991484 0.996772 0.501547 Na
0.003598 0.009231 0.000684 Na
0.011611 0.496367 0.499000 Na
0.996381 0.502114 0.998136 Na
0.490621 0.002598 0.499367 Na
0.506548 0.996096 0.998939 Na
0.506262 0.504263 0.501920 Na
0.493475 0.492555 0.001492 Na
0.249384 0.250996 0.249866 Na
0.249322 0.252089 0.750063 Na
0.250688 0.748704 0.250549 Na
0.275782 0.749882 0.749505 Na
0.750620 0.249012 0.249245 Na
0.750688 0.247903 0.750866 Na
0.749315 0.751303 0.249927 Na
-0.000519 0.001261 0.249827 P
0.999054 0.002968 0.751809 P
0.001516 0.499597 0.249604 P
0.002687 0.498999 0.747989 P
0.498938 0.000245 0.250149 P
0.497775 1.000033 0.748430 P
0.500057 0.498895 0.250374 P
0.500482 0.497992 0.752250 P
0.249842 0.250378 0.000094 P
0.249805 0.250709 0.499642 P
0.250224 0.749324 0.001340 P
0.249331 0.750916 0.498969 P
0.750161 0.249619 0.000042 P
0.750198 0.249295 0.498849 P
0.749773 0.750672 0.003357 P
0.750661 0.749085 0.496106 P
0.155178 0.174291 0.081957 S
0.154636 0.175480 0.581262 S
0.153798 0.675853 0.083408 S
0.155406 0.675693 0.581414 S
0.655551 0.173802 0.082611 S
0.654205 0.175470 0.580667 S
0.655657 0.674100 0.085659 S
0.656832 0.669651 0.574896 S
0.345055 0.325334 0.082377 S
0.345392 0.325311 0.581314 S
0.345712 0.823885 0.083447 S
0.343347 0.828005 0.579590 S
0.844222 0.326571 0.082187 S
0.845782 0.323753 0.580606 S
0.844838 0.826161 0.085617 S
0.844408 0.826657 0.576721 S
0.174504 0.346087 0.418096 S
0.174511 0.346053 0.919288 S
0.172511 0.843517 0.415262 S
0.176977 0.843685 0.917898 S
0.676488 0.344879 0.416271 S
0.675531 0.343775 0.917485 S
0.672821 0.843398 0.414992 S
0.671717 0.846780 0.925367 S
0.324536 0.155821 0.417138 S
0.324591 0.155860 0.917716 S
0.327045 0.656536 0.417841 S
0.325288 0.652263 0.921556 S
0.824473 0.153219 0.417233 S
0.825370 0.154305 0.919058 S
0.827616 0.656549 0.412420 S
0.826019 0.657268 0.921712 S
0.096436 0.423823 0.168057 S
0.101349 0.422325 0.671123 S
0.094019 0.926423 0.167075 S
0.090216 0.924254 0.669298 S
0.594299 0.423816 0.167396 S
0.596454 0.425617 0.669014 S
0.594345 0.925257 0.168892 S
0.588104 0.925392 0.661936 S
0.404740 0.075246 0.167114 S
0.400726 0.076883 0.669928 S
0.404505 0.574166 0.169027 S
0.409075 0.578088 0.671160 S
0.904529 0.077115 0.168342 S
0.901465 0.075183 0.670207 S
0.907134 0.574155 0.166937 S
0.912598 0.572270 0.660082 S
0.075176 0.095557 0.332276 S
0.077370 0.100484 0.828699 S
0.076810 0.594674 0.331468 S
0.073572 0.594914 0.832111 S
0.573760 0.095468 0.332431 S
0.577837 0.093051 0.828563 S
0.575209 0.593474 0.332190 S
0.574699 0.586521 0.841279 S
0.425230 0.403807 0.332724 S
0.422380 0.400271 0.829202 S
0.423420 0.905615 0.332064 S
0.424538 0.906805 0.833606 S
0.925831 0.405161 0.331978 S
0.922416 0.406187 0.828060 S
0.924556 0.906234 0.331588 S
0.927193 0.911757 0.839775 S
