Mg15 Mn32 O64                           
   1.00000000000000     
    11.4994259999999997   -0.0000120000000000    0.0001430000000000
    -0.0000220000000000   11.5154379999999996    0.0000000000000000
     0.0001100000000000    0.0000010000000000    9.1707630000000009
   Mg   Mn   O 
    15    32    64
Direct
  0.5019365070736638  0.6342828057069142  0.6336118733477150
  0.4999368411637619  0.2588352020756863  0.7588754982393091
  0.9990858785752531  0.2568484687926488  0.7548253701421606
  0.9993029258559644  0.7572601646505370  0.7581640811692646
  0.5010833975083258  0.0054256156689456  0.5036363932083120
  0.0003673716854778  0.0065151649033399  0.5088876880959546
  0.9997664410654217  0.5062929861535571  0.5071242549406223
  0.2494715660863336  0.0084056440082840  0.2605693793397520
  0.2504106034838756  0.5075290762363083  0.2551858853164244
  0.7531551254160638  0.0092666201339385  0.2594891855174606
  0.7455957612676991  0.5071668675310659  0.2589877584366950
  0.2503406140715951  0.2555553779953596  0.0067958176222061
  0.2505628395126912  0.7581565236909628  0.0056462150332069
  0.7540396756810768  0.2538943287227051  0.0055887484403766
  0.7483342935430939  0.7572700839524206  0.0048949736259808
  0.1260452870084632  0.2579392520584721  0.3835241170454290
  0.1230947469911401  0.7559870083969717  0.3822135026333721
  0.6247717219977921  0.2582191723511347  0.3768100649403988
  0.6256849614602389  0.7599420099195301  0.3783425237651604
  0.3772739482658719  0.2596369903162224  0.3809896056529067
  0.3727151465918697  0.7585472986806935  0.3777745193389325
  0.8753445620911628  0.2575727347765574  0.3838706765333261
  0.8746905189394568  0.7575752727402976  0.3816909748063565
  0.1265542538815411  0.0074148781029057  0.8817310823153781
  0.1223323091698864  0.5057990931589258  0.8827023372468432
  0.6266099589351467  0.0051364691692627  0.8847850452414068
  0.6240789428830525  0.5050149239648941  0.8836336604987682
  0.3773622548159419  0.0056365310915239  0.8840926450608405
  0.3719725811376899  0.5086095189061863  0.8875253834335813
  0.8769473838589344  0.0062971902213832  0.8798566988379517
  0.8726796320621711  0.5056887815707121  0.8825014211469591
  0.0018498387740459  0.1323966419380716  0.1326368309046358
  0.9982296927315646  0.6321820047531064  0.1320032187834932
  0.5035530213363855  0.1321626158624043  0.1331377597083750
  0.4974738207456056  0.6360229203220874  0.1260133099497599
  0.9997812804464307  0.3827600769773865  0.1328678302837102
  0.0001822483693668  0.8829168393155696  0.1321888215351019
  0.4995422111641627  0.3807245316946103  0.1320366534622978
  0.5003068523580994  0.8860018836030497  0.1326958275466519
  0.2526647331676442  0.3823576219904117  0.6338513006302645
  0.2532313003843675  0.8795366807528100  0.6327388217931795
  0.7454486316889822  0.3837096007641023  0.6301237539254256
  0.7474815450719015  0.8797655878009981  0.6323880251311365
  0.2524807086930109  0.1309293641729716  0.6319318733255032
  0.2472552925111405  0.6319635208212803  0.6325786606586036
  0.7476622461603283  0.1315144764281946  0.6318397388588105
  0.7528663500341054  0.6315889923051142  0.6315570033595759
  0.1388742969845079  0.2567285241762782  0.6290250190893166
  0.1364244031906599  0.7581196230294599  0.6289473846139129
  0.6349348496112728  0.2576005168294700  0.6280398538489523
  0.6365199721687604  0.7517962512093148  0.6154117373451410
  0.3636171153048086  0.2584197481031275  0.6293784239198505
  0.3630400259042375  0.7493562822582966  0.6160747908646060
  0.8602307101048589  0.2576330771800558  0.6285418150583785
  0.8637852867475486  0.7582967380147658  0.6278282017076267
  0.1381815677498809  0.5048393182703693  0.6368977420814219
  0.1399478388173163  0.0058915712098527  0.6359805458075286
  0.6357765056113083  0.5135687417355241  0.6473644008735538
  0.6350346942039143  0.0045841448295900  0.6378644292472457
  0.3657799583211384  0.5114300091049732  0.6746017603138911
  0.3658808110776692  0.0042972659084256  0.6367032759284961
  0.8630861376981973  0.5043455360468662  0.6370239137951478
  0.8614734267249182  0.0061387153607638  0.6360155999671715
  0.5019903918042041  0.1183598320783134  0.8856202619605641
  0.4970295922437544  0.6131163497900022  0.8762854320042781
  0.0018086474758113  0.1201094299910239  0.8849121106745241
  0.9990260333907867  0.6188290952377048  0.8851405947616929
  0.4928352278351343  0.3924317269674273  0.8988070079972079
  0.5010795015244096  0.8959382141557519  0.9263061736781785
  0.9984758493208971  0.3927264593727317  0.8863410795815911
  0.0018238913075986  0.8941612109437205  0.8863694998293500
  0.5004413289065887  0.3671838002553524  0.3504205942047047
  0.4992780717653171  0.8783181968858494  0.3508060646913259
  0.0011317981864912  0.3699275883006867  0.3785580939173039
 -0.0003045495265155  0.8704392263089316  0.3777058102587570
  0.5001854396924135  0.1440902589227389  0.3780431715828869
  0.4986826176580189  0.6536279409368645  0.3863736470463882
  0.0009728683975758  0.1442063288309333  0.3798401718353745
 -0.0007689976939009  0.6436881108292528  0.3786150726871729
  0.3771640370838077  0.5177014705209525  0.1014730919867558
  0.3891003568815966  0.0077943089091404  0.1336547420164645
  0.8851718044665002  0.5068264608125167  0.1290974714649104
  0.8881022083819630  0.0083026225878277  0.1275017229379700
  0.1146441457684906  0.0075196568099604  0.1280348945565525
  0.1116506061116485  0.5073831531309628  0.1278582161148603
  0.6140390408226676  0.0039261286269407  0.1335352668262344
  0.6071079608427321  0.5089037672213252  0.1279503704569344
  0.3893262166373618  0.2571715015923393  0.1316049871698504
  0.3879535906567378  0.7627215457447162  0.1353350778450815
  0.8890824379935275  0.2566000659683608  0.1369134601443899
  0.8863238779893933  0.7582956577976318  0.1348689130458046
  0.1146850592149276  0.2577735320961524  0.1373659582108715
  0.1125419608082057  0.7568498732639419  0.1351801838356821
  0.6200993978619783  0.2476516914663974  0.1336999836770398
  0.6102572433603632  0.7602636075820026  0.1351591238088296
  0.2514191291315462  0.3728153160135305  0.3888351028745516
  0.2483377901521941  0.8694332280549477  0.3848757531466862
  0.7508667996325954  0.3704298896464172  0.3864064506480558
  0.7500058902921570  0.8711613446544493  0.3846077701016040
  0.2513461509343531  0.1458385938627642  0.3880803673481835
  0.2468616793644746  0.6417943498114439  0.3863100051926541
  0.7505390619955211  0.1445819479268808  0.3893977584565790
  0.7521687217467488  0.6448355306709180  0.3830982255052696
  0.2526544600819367  0.1196314614752709  0.8767928752390995
  0.2486609886796794  0.6187508111764833  0.8811685631950452
  0.7517198559132131  0.1181964878116929  0.8757202344773344
  0.7508792646244973  0.6192574760482431  0.8810951890634071
  0.2499268538477619  0.3954842201067438  0.8825821813399940
  0.2513962377969258  0.8944320760845298  0.8777154720394386
  0.7471631615933566  0.3927475049513051  0.8806146747750045
  0.7512761143460815  0.8936303457853390  0.8775146769283640
 
             NaN             NaN             NaN
             NaN             NaN             NaN
             NaN             NaN             NaN
             NaN             NaN             NaN
             NaN             NaN             NaN
             NaN             NaN             NaN
             NaN             NaN             NaN
             NaN             NaN             NaN
             NaN             NaN             NaN
             NaN             NaN             NaN
             NaN             NaN             NaN
             NaN             NaN             NaN
             NaN             NaN             NaN
             NaN             NaN             NaN
             NaN             NaN             NaN
             NaN             NaN             NaN
             NaN             NaN             NaN
             NaN             NaN             NaN
             NaN             NaN             NaN
             NaN             NaN             NaN
             NaN             NaN             NaN
             NaN             NaN             NaN
             NaN             NaN             NaN
             NaN             NaN             NaN
             NaN             NaN             NaN
             NaN             NaN             NaN
             NaN             NaN             NaN
             NaN             NaN             NaN
             NaN             NaN             NaN
             NaN             NaN             NaN
             NaN             NaN             NaN
             NaN             NaN             NaN
             NaN             NaN             NaN
             NaN             NaN             NaN
             NaN             NaN             NaN
             NaN             NaN             NaN
             NaN             NaN             NaN
             NaN             NaN             NaN
             NaN             NaN             NaN
             NaN             NaN             NaN
             NaN             NaN             NaN
             NaN             NaN             NaN
             NaN             NaN             NaN
             NaN             NaN             NaN
             NaN             NaN             NaN
             NaN             NaN             NaN
             NaN             NaN             NaN
             NaN             NaN             NaN
             NaN             NaN             NaN
             NaN             NaN             NaN
             NaN             NaN             NaN
             NaN             NaN             NaN
             NaN             NaN             NaN
             NaN             NaN             NaN
             NaN             NaN             NaN
             NaN             NaN             NaN
             NaN             NaN             NaN
             NaN             NaN             NaN
             NaN             NaN             NaN
             NaN             NaN             NaN
             NaN             NaN             NaN
             NaN             NaN             NaN
             NaN             NaN             NaN
             NaN             NaN             NaN
             NaN             NaN             NaN
             NaN             NaN             NaN
             NaN             NaN             NaN
             NaN             NaN             NaN
             NaN             NaN             NaN
             NaN             NaN             NaN
             NaN             NaN             NaN
             NaN             NaN             NaN
             NaN             NaN             NaN
             NaN             NaN             NaN
             NaN             NaN             NaN
             NaN             NaN             NaN
             NaN             NaN             NaN
             NaN             NaN             NaN
             NaN             NaN             NaN
             NaN             NaN             NaN
             NaN             NaN             NaN
             NaN             NaN             NaN
             NaN             NaN             NaN
             NaN             NaN             NaN
             NaN             NaN             NaN
             NaN             NaN             NaN
             NaN             NaN             NaN
             NaN             NaN             NaN
             NaN             NaN             NaN
             NaN             NaN             NaN
             NaN             NaN             NaN
             NaN             NaN             NaN
             NaN             NaN             NaN
             NaN             NaN             NaN
             NaN             NaN             NaN
             NaN             NaN             NaN
             NaN             NaN             NaN
             NaN             NaN             NaN
             NaN             NaN             NaN
             NaN             NaN             NaN
             NaN             NaN             NaN
             NaN             NaN             NaN
             NaN             NaN             NaN
             NaN             NaN             NaN
             NaN             NaN             NaN
             NaN             NaN             NaN
             NaN             NaN             NaN
             NaN             NaN             NaN
             NaN             NaN             NaN
             NaN             NaN             NaN
             NaN             NaN             NaN
