Mg15 Mn32 O64
1.0
11.499426 -0.000012 0.000143
-0.000022 11.515438 -0.000000
0.000110 0.000001 9.170763
Mg Mn O
15 32 64
direct
0.499918 0.594318 0.594801 Mg
0.500212 0.250708 0.748428 Mg
1.000154 0.249918 0.751366 Mg
0.999668 0.750077 0.748868 Mg
0.500011 -0.001273 0.502740 Mg
0.000089 0.000160 0.499404 Mg
0.999883 0.499839 0.501144 Mg
0.249672 1.001540 0.250643 Mg
0.251086 0.498461 0.249253 Mg
0.750934 0.001606 0.250071 Mg
0.748494 0.498393 0.249243 Mg
0.250228 0.249039 -0.001295 Mg
0.252354 0.750964 0.000923 Mg
0.750704 0.248984 -0.000407 Mg
0.746871 0.751013 0.000399 Mg
0.126487 0.250730 0.375239 Mn
0.124320 0.749271 0.373403 Mn
0.625293 0.250200 0.375576 Mn
0.624259 0.749800 0.375146 Mn
0.376689 0.250609 0.376106 Mn
0.374506 0.749394 0.374687 Mn
0.876199 0.250661 0.375190 Mn
0.874020 0.749339 0.372848 Mn
0.125737 -0.001195 0.874660 Mn
0.124492 0.501195 0.875755 Mn
0.623954 -0.000281 0.874717 Mn
0.623371 0.500280 0.874937 Mn
0.376303 -0.001041 0.875005 Mn
0.374938 0.501049 0.875806 Mn
0.874710 -0.000357 0.874934 Mn
0.873382 0.500353 0.876369 Mn
0.001265 0.124990 0.124854 Mn
0.999511 0.625123 0.124082 Mn
0.500191 0.125238 0.125335 Mn
0.499804 0.624443 0.125046 Mn
1.000680 0.375222 0.125503 Mn
0.000092 0.874657 0.123420 Mn
0.500072 0.373151 0.123856 Mn
0.499924 0.877171 0.126524 Mn
0.250085 0.375240 0.626639 Mn
0.250676 0.874625 0.623609 Mn
0.750173 0.375180 0.625984 Mn
0.749258 0.874696 0.623781 Mn
0.248892 0.125006 0.625630 Mn
0.251870 0.625130 0.624616 Mn
0.751618 0.125015 0.625131 Mn
0.747814 0.625108 0.624635 Mn
0.136536 0.250552 0.621440 O
0.137794 0.749447 0.619707 O
0.638358 0.249871 0.621481 O
0.638024 0.750129 0.595655 O
0.362084 0.249995 0.621923 O
0.361603 0.750007 0.595606 O
0.864043 0.250583 0.621111 O
0.861664 0.749417 0.619686 O
0.137585 0.500817 0.629865 O
0.136714 0.999183 0.628853 O
0.637983 0.499801 0.644073 O
0.638193 0.000199 0.628483 O
0.361763 0.500043 0.644315 O
0.361979 -0.000042 0.628611 O
0.862115 0.500836 0.629840 O
0.863529 -0.000835 0.628906 O
0.499969 0.114235 0.878904 O
0.499422 0.608868 0.889737 O
0.000512 0.112419 0.879520 O
0.998834 0.613228 0.878813 O
0.499166 0.387101 0.879081 O
0.500218 0.889804 0.889560 O
0.999399 0.387822 0.879487 O
-0.000054 0.886526 0.878841 O
0.500838 0.361426 0.365618 O
0.499390 0.861656 0.371827 O
1.001070 0.363589 0.370906 O
0.999355 0.862289 0.370581 O
0.500712 0.136057 0.372345 O
0.499515 0.640865 0.365100 O
1.001258 0.137340 0.370550 O
0.999166 0.636779 0.370937 O
0.386258 0.499208 0.114645 O
0.386910 1.000792 0.123545 O
0.886762 0.499969 0.121319 O
0.887698 1.000028 0.120799 O
0.113496 -0.000563 0.120715 O
0.113010 0.500559 0.121141 O
0.613316 1.000767 0.123543 O
0.613325 0.499235 0.114573 O
0.386951 0.249464 0.127995 O
0.385808 0.750536 0.142386 O
0.887925 0.250052 0.129014 O
0.886254 0.749944 0.128045 O
0.113948 0.250313 0.129094 O
0.112933 0.749685 0.128216 O
0.613608 0.249460 0.128046 O
0.613662 0.750542 0.142370 O
0.250835 0.363920 0.380836 O
0.250530 0.861428 0.374734 O
0.750941 0.363602 0.380490 O
0.748334 0.861674 0.374609 O
0.250451 0.137568 0.380177 O
0.250913 0.637087 0.375393 O
0.751710 0.137499 0.379838 O
0.747562 0.637225 0.375260 O
0.249769 0.112039 0.870335 O
0.250372 0.613953 0.872410 O
0.750686 0.112671 0.870261 O
0.747818 0.613348 0.872503 O
0.249847 0.388522 0.873557 O
0.250294 0.885492 0.869188 O
0.748656 0.387794 0.873428 O
0.749844 0.886181 0.869333 O
