Li16 Co18 O36                           
   1.00000000000000     
     8.0702990000000003    0.0488920000000000    2.3439880000000000
     3.6529379999999998    7.1946599999999998    2.3440949999999998
     0.0559620000000000    0.0095960000000000    9.8867930000000008
   Li   Co   O 
    16    18    36
Direct
  0.7349422000221185  0.5413873868486251  0.4850125305205416
  0.3334923557349893  0.3321230465605124 -0.0004864373422679
  0.3333395125590896  0.3332346221641039  0.4991202083008422
  0.3330614991033897  0.6667458644250932  0.0003779127682659
  0.3455370152737929  0.6578805928276398  0.5007249133412491
  0.3335475742784195 -0.0003662812734503  0.9991112587280410
  0.3309694186049199  0.0016863555038270  0.4985538857418918
  0.6667475457088589  0.3327576057195453 -0.0002491902147966
  0.6650444144454587  0.6677347360132999 -0.0008088465581284
  0.6663806496929333 -0.0007952697885997  0.9987971595060475
  0.6672745546966256  0.0018610133100996  0.4981394895447857
  0.0012796407478940  0.3311359540660123 -0.0006537687149385
  0.9999576343078919  0.6671215432174531 -0.0004886719248067
  0.9954670963651862  0.6574728363986608  0.5001296690340845
  0.0004958591007778 -0.0009397925698433  0.0001382824320677
  0.9829068598441535  0.0333790019412191  0.4993478965870786
  0.1665089013907983  0.1697610005973417  0.2491588807336426
  0.1660323653209627  0.1647771499649333  0.7485557114921351
  0.1670996536671602  0.5005726246042228  0.2476282974397142
  0.1661505331877432  0.4977060715138646  0.7548655228499035
  0.1659595330420307  0.8347346628686437  0.2498116181989141
  0.1670404938211766  0.8296295577743455  0.7524679369398390
  0.5012498714496004  0.1695822468767895  0.2446299693441935
  0.5010195807004014  0.1645856258638919  0.7488835648575046
  0.5006992650136766  0.5008716982214848  0.2488194421319328
  0.4995820480289395  0.4962767132524797  0.7529811278742178
  0.5005148145603110  0.8365425406138156  0.2485105506326767
  0.5011382015444962  0.8295389120469230  0.7483348802712187
  0.8327418524187279  0.1692868542361710  0.2482784792202714
  0.8347702583088725  0.1619083790820656  0.7521852541969252
  0.8344338786044566  0.5014999040628912  0.2438921125007302
  0.8348975305809694  0.4964230975475264  0.7530999418766131
  0.8324023238212270  0.8362416907039006  0.2466963310678641
  0.8339430700035372  0.8291060992669772  0.7513317084894960
  0.2592716870132533  0.2546808500527838  0.3521550518797911
  0.2542631256211493  0.2490759254646046  0.8597206306254095
  0.2533873070123829  0.5873956429066064  0.3576867547306748
  0.2534661320506254  0.5841387529891419  0.8639104602092946
  0.2531909452864751  0.9230703508438284  0.3577782339954522
  0.2545791983452376  0.9183438706279703  0.8590303910485019
  0.5860606500599603  0.2542436065464730  0.3521784649943427
  0.5864044696812668  0.2489351882039893  0.8613085742488936
  0.5876167117973511  0.5913305122691426  0.3516880495157383
  0.5863196770794447  0.5853074639256345  0.8611363794378519
  0.5863271845678671  0.9273811456326491  0.3526522003792400
  0.5860458890189226  0.9177789315331508  0.8582165781311533
  0.9211890789958179  0.2582096916151181  0.3495520476033424
  0.9221733539220968  0.2490454096139097  0.8615821140284344
  0.9208457341284613  0.5913536425839113  0.3504229370185220
  0.9188461923573510  0.5841800031555872  0.8636924860534381
  0.9186723869235587  0.9227903935943401  0.3569397522159449
  0.9199623720952708  0.9164230932598013  0.8617419680782875
  0.0805941101088776  0.0806295797669159  0.1399521933169647
  0.0803139623187114  0.0722081125249869  0.6456790329331612
  0.0819407343632435  0.4139986291479790  0.1368386210172414
  0.0803667119040203  0.4125337924476143  0.6468373353571110
  0.0805372597015062  0.7481835905967187  0.1389795419481830
  0.0805492203705769  0.7415929128530390  0.6451368992878254
  0.4129541125794994  0.0815900357133260  0.1370799624965331
  0.4137332942055613  0.0773655027010846  0.6395928664698299
  0.4133806713512300  0.4167104009576533  0.1373100003318211
  0.4087592601019191  0.4121029249619376  0.6470097705930230
  0.4126020637976803  0.7484311404078094  0.1401350340144711
  0.4116402309254637  0.7414002343442933  0.6442807323640628
  0.7486721763187241  0.0817286545275771  0.1361465269451470
  0.7487547267624275  0.0724426500233721  0.6458278318702547
  0.7461285286236556  0.4143410488427952  0.1370201201776951
  0.7452277444106583  0.4044569544512006  0.6572291655700297
  0.7459858020296177  0.7498622296668328  0.1365916939073531
  0.7490448880051491  0.7411433624998132  0.6437731822032330
 
             NaN             NaN             NaN
             NaN             NaN             NaN
             NaN             NaN             NaN
             NaN             NaN             NaN
             NaN             NaN             NaN
             NaN             NaN             NaN
             NaN             NaN             NaN
             NaN             NaN             NaN
             NaN             NaN             NaN
             NaN             NaN             NaN
             NaN             NaN             NaN
             NaN             NaN             NaN
             NaN             NaN             NaN
             NaN             NaN             NaN
             NaN             NaN             NaN
             NaN             NaN             NaN
             NaN             NaN             NaN
             NaN             NaN             NaN
             NaN             NaN             NaN
             NaN             NaN             NaN
             NaN             NaN             NaN
             NaN             NaN             NaN
             NaN             NaN             NaN
             NaN             NaN             NaN
             NaN             NaN             NaN
             NaN             NaN             NaN
             NaN             NaN             NaN
             NaN             NaN             NaN
             NaN             NaN             NaN
             NaN             NaN             NaN
             NaN             NaN             NaN
             NaN             NaN             NaN
             NaN             NaN             NaN
             NaN             NaN             NaN
             NaN             NaN             NaN
             NaN             NaN             NaN
             NaN             NaN             NaN
             NaN             NaN             NaN
             NaN             NaN             NaN
             NaN             NaN             NaN
             NaN             NaN             NaN
             NaN             NaN             NaN
             NaN             NaN             NaN
             NaN             NaN             NaN
             NaN             NaN             NaN
             NaN             NaN             NaN
             NaN             NaN             NaN
             NaN             NaN             NaN
             NaN             NaN             NaN
             NaN             NaN             NaN
             NaN             NaN             NaN
             NaN             NaN             NaN
             NaN             NaN             NaN
             NaN             NaN             NaN
             NaN             NaN             NaN
             NaN             NaN             NaN
             NaN             NaN             NaN
             NaN             NaN             NaN
             NaN             NaN             NaN
             NaN             NaN             NaN
             NaN             NaN             NaN
             NaN             NaN             NaN
             NaN             NaN             NaN
             NaN             NaN             NaN
             NaN             NaN             NaN
             NaN             NaN             NaN
             NaN             NaN             NaN
             NaN             NaN             NaN
             NaN             NaN             NaN
             NaN             NaN             NaN
