Li16 Co18 O36
1.0
8.070299 0.048892 2.343988
3.652938 7.194660 2.344095
0.055962 0.009596 9.886793
Li Co O
16 18 36
direct
0.739226 0.545467 0.465157 Li
0.333817 0.333477 0.000061 Li
0.329067 0.334155 0.499715 Li
0.333708 0.667131 0.000553 Li
0.342520 0.662025 0.501380 Li
0.334078 0.000360 -0.000191 Li
0.328985 0.005413 0.499579 Li
0.667309 0.333844 0.000061 Li
0.666688 0.667495 0.000389 Li
0.667078 0.000401 0.999409 Li
0.667887 1.000701 0.498568 Li
0.000465 0.333730 0.000517 Li
0.999966 0.667005 0.000556 Li
0.992594 0.654214 0.500508 Li
0.000252 0.000498 0.000164 Li
0.991410 0.022545 0.500611 Li
0.166190 0.168616 0.250814 Co
0.165823 0.165507 0.749137 Co
0.166458 0.500415 0.249261 Co
0.166082 0.498282 0.752963 Co
0.165828 0.834442 0.250255 Co
0.165948 0.830705 0.752797 Co
0.500940 0.168468 0.246069 Co
0.500708 0.165326 0.748850 Co
0.499902 0.500864 0.249783 Co
0.499422 0.498740 0.751149 Co
0.499584 0.835074 0.250555 Co
0.500310 0.831419 0.747992 Co
0.833152 0.168174 0.249028 Co
0.833981 0.165697 0.749966 Co
0.832766 0.500552 0.252193 Co
0.833761 0.498860 0.749272 Co
0.832490 0.834868 0.248118 Co
0.833622 0.830818 0.750619 Co
0.258756 0.254257 0.353709 O
0.254080 0.250700 0.859771 O
0.252881 0.587493 0.358425 O
0.253088 0.584596 0.863329 O
0.252617 0.922338 0.359263 O
0.254076 0.919165 0.859732 O
0.586366 0.254200 0.354668 O
0.586518 0.251656 0.859702 O
0.585410 0.589908 0.355800 O
0.586573 0.586793 0.859623 O
0.586434 0.925512 0.354744 O
0.586106 0.918893 0.858349 O
0.920726 0.254531 0.353022 O
0.920433 0.252577 0.859915 O
0.921142 0.592047 0.352092 O
0.918667 0.585270 0.861680 O
0.918852 0.921984 0.357441 O
0.918631 0.918945 0.861480 O
0.080691 0.080493 0.140563 O
0.080636 0.073227 0.645662 O
0.079376 0.413986 0.140478 O
0.080788 0.412737 0.645605 O
0.080408 0.747615 0.139833 O
0.080350 0.743390 0.644174 O
0.412754 0.080818 0.138622 O
0.413067 0.078700 0.639858 O
0.413392 0.415695 0.138072 O
0.410688 0.412734 0.644458 O
0.412708 0.747921 0.141017 O
0.410341 0.744201 0.643908 O
0.748330 0.081307 0.136890 O
0.748134 0.076106 0.643208 O
0.746600 0.414806 0.140404 O
0.743511 0.410129 0.650976 O
0.745829 0.746982 0.140224 O
0.747783 0.744501 0.642344 O
