Mg15 Mn32 O64                           
   1.00000000000000     
    11.4336280000000006   -0.0006170000000000    0.0031150000000000
    -0.0003770000000000   11.4176690000000001    0.0002020000000000
    -0.0008100000000000    0.0000430000000000    9.2395259999999997
   Mg   Mn   O 
    15    32    64
Direct
  0.4999650977653965  0.6447791834255432  0.6760886265446310
 -0.0000911550745646  0.2547725055291351  0.7506474946084221
  0.9998487836924029  0.7537052669832535  0.7524272533056412
  0.5000293428178979  0.2591724970019699  0.7581764612095743
  0.9999122971920029  0.5027127261339982  0.5059813600692494
  1.0000554331172418  0.0022165747969078  0.5059765643949294
  0.4999903315485951  0.0004327037075406  0.5012835165461198
  0.2497197651819097  0.0041541119938000  0.2537031967989664
  0.2519674026710523  0.5027477073952031  0.2574563771064199
  0.7501739559862054  0.0043440208533475  0.2538501464007311
  0.7480633947862134  0.5027676294048766  0.2571638646431195
  0.2473838756818274  0.2505860621219074  0.0030423672195105
  0.2489574163457711  0.7557313211181884  0.0002856506003172
  0.7527217952984113  0.2506277454222637  0.0030485321661807
  0.7511951008557479  0.7558042818529758 -0.0000963711913481
  0.1250423214461251  0.2500839456060348  0.3817371423315257
  0.1250263522433967  0.7535299883780455  0.3800687355440448
  0.6252322918893464  0.2546233238795645  0.3748295499479060
  0.6250317898800674  0.7535940638834887  0.3705298189211435
  0.3750837910108711  0.2544186910712629  0.3744876758140811
  0.3743734917126773  0.7535854137809842  0.3710648316433373
  0.8750748949432186  0.2546335647935063  0.3812793368840922
  0.8746307605285067  0.7537814889102021  0.3779572879161527
  0.1255617891516236  0.0037355015784768  0.8744623744045564
  0.1239983927306164  0.5030491680110810  0.8814751191697205
  0.6235044587966332  0.0032584785362497  0.8752361734519820
  0.6294310434458119  0.5010662646055358  0.8939899530087586
  0.3771740689116219  0.0024700656644824  0.8751842455748675
  0.3712943245866948  0.5009563539110047  0.8942198156239828
  0.8750742424988752  0.0033122725604914  0.8740622861052321
  0.8761419808264107  0.5031263974876585  0.8814934686064921
  0.0004138035921565  0.1280979576257445  0.1277777846929903
  0.9986384906046401  0.6294476515846131  0.1312418145633219
  0.4996741242651822  0.1339035901101852  0.1249053717601837
  0.5002787732469002  0.6292705559025947  0.1290237935871584
  0.0012891636572288  0.3792903823258954  0.1319457910655022
  1.0009820941974561  0.8788572956591587  0.1262837378254363
  0.4984127214826536  0.3760743336049296  0.1288688299421619
  0.5014607691743448  0.8771230474888502  0.1197712471536693
  0.2559744348714340  0.3829758910351984  0.6291946728518184
  0.2545161448237107  0.8773146260393644  0.6285210008751106
  0.7434971932586105  0.3827989378893671  0.6288880127638418
  0.7454692268199189  0.8775494891091851  0.6279829567482905
  0.2527307811945693  0.1308908104102467  0.6287204389336758
  0.2497608541488739  0.6287464636621849  0.6303649381812819
  0.7476195655691756  0.1302502288290321  0.6284543076362004
  0.7505379808740682  0.6287874473758059  0.6297357610478767
  0.1409177014655291  0.2564664884797546  0.6256848612758826
  0.1383281575837469  0.7555823329132045  0.6252100992548641
  0.6336823602893553  0.2570825174298382  0.6240816514895094
  0.6341750947884970  0.7478514802725033  0.6140205403783924
  0.3662428142721749  0.2570044945643683  0.6241797479428124
  0.3658520679780278  0.7477441236974945  0.6143485109011083
  0.8591315038743759  0.2565105177234844  0.6256042882278005
  0.8615407847131294  0.7555979140251091  0.6248821300283237
  0.1398284677484471  0.0037618211175628  0.6306106885158592
  0.1389764853912739  0.5023221443297010  0.6325541692996227
  0.6358515860815266  0.0044176002277948  0.6306484970281888
  0.6324157174532794  0.5128939383646921  0.6560338133202532
  0.3643305109372595  0.0044454464255582  0.6307212078131667
  0.3675847577521030  0.5127624148727788  0.6559742531006393
  0.8599664516543309  0.0040413041784780  0.6305744139811256
  0.8609760288105530  0.5025743661781511  0.6325596165498882
  1.0000018891547879  0.1167543000953490  0.8796959558905473
  0.0000038867256342  0.6161892221860606  0.8817195739137736
  0.5001927584545648  0.1198284724535388  0.8827636454697833
  0.4999330585374446  0.6119398316171170  0.9046266223582290
 -0.0000380874796681  0.3899874016248399  0.8829061227967205
  0.9998623175410041  0.8905086025829378  0.8808496394119886
  0.4999744283642948  0.3850420913605617  0.9110838281783726
  0.4999798896339991  0.8964491125442742  0.8936308398293140
 -0.0002611944137831  0.3661153339095754  0.3777628202983428
  1.0000368604410788  0.8659112307082537  0.3754207346633045
  0.4996563326267622  0.3631438134736298  0.3331847038868136
  0.5000159309692184  0.8661983084582574  0.3663424135574221
  0.0001674387275500  0.1411407391135092  0.3781644206148845
  1.0000480678662793  0.6403345823048118  0.3770961275353131
  0.4998519384453387  0.1406045167837731  0.3734391636294802
  0.5000836087959371  0.6436340216991938  0.3324606933831368
  0.3839881526654855  0.0036368303192646  0.1266911757609013
  0.3905170648721958  0.5032228967295302  0.1277659065796113
  0.8870815304682385  0.0034196867784273  0.1236943017965060
  0.8869792905223760  0.5027552065768077  0.1286556042677863
  0.1128382917078954  0.0033253538758942  0.1237692777319026
  0.1131544061751159  0.5023226314797026  0.1287323804255054
  0.6154274474236003  0.0036104406767048  0.1264918098323539
  0.6097164462557670  0.5032567758037110  0.1278185357618465
  0.3878657802852514  0.2542105385578621  0.1251722900520895
  0.3887693381105800  0.7516406437111022  0.1231262744059903
  0.8865006429680324  0.2525439348234363  0.1337185369304463
  0.8869391856350627  0.7532632081320694  0.1313951012761294
  0.1128980552875423  0.2528258578019428  0.1338726963416422
  0.1132036892515903  0.7536490788836043  0.1314027269818716
  0.6126746271788950  0.2545443792382573  0.1251214543871032
  0.6101941521580059  0.7518211706618571  0.1234464535470301
  0.2509977515356103  0.3666754669159173  0.3840986318881829
  0.2509023166976584  0.8662418541872360  0.3803553440296423
  0.7489758227624675  0.3658898692614954  0.3842277426400388
  0.7493122858341011  0.8661694890448424  0.3798023308816853
  0.2513246151078025  0.1418373436232954  0.3827558582863916
  0.2489411973158532  0.6413288865710353  0.3799441908425337
  0.7479938627326844  0.1416798896904704  0.3825503166922366
  0.7510452613978500  0.6414643182625830  0.3793557149427830
  0.2495984216994829  0.1165520014259039  0.8722490028073842
  0.2475437139621804  0.6150618716436768  0.8818481693729376
  0.7503251797863665  0.1163897619912481  0.8721725481913387
  0.7523556919797929  0.6150508920607299  0.8818518058235144
  0.2494590225042832  0.3898444368395972  0.8799220304074625
  0.2493708090689651  0.8910983756149793  0.8711288795171793
  0.7502738972227808  0.3898711470020689  0.8801348610814332
  0.7506643028008789  0.8908052183430094  0.8711115532097323
 
             NaN             NaN             NaN
             NaN             NaN             NaN
             NaN             NaN             NaN
             NaN             NaN             NaN
             NaN             NaN             NaN
             NaN             NaN             NaN
             NaN             NaN             NaN
             NaN             NaN             NaN
             NaN             NaN             NaN
             NaN             NaN             NaN
             NaN             NaN             NaN
             NaN             NaN             NaN
             NaN             NaN             NaN
             NaN             NaN             NaN
             NaN             NaN             NaN
             NaN             NaN             NaN
             NaN             NaN             NaN
             NaN             NaN             NaN
             NaN             NaN             NaN
             NaN             NaN             NaN
             NaN             NaN             NaN
             NaN             NaN             NaN
             NaN             NaN             NaN
             NaN             NaN             NaN
             NaN             NaN             NaN
             NaN             NaN             NaN
             NaN             NaN             NaN
             NaN             NaN             NaN
             NaN             NaN             NaN
             NaN             NaN             NaN
             NaN             NaN             NaN
             NaN             NaN             NaN
             NaN             NaN             NaN
             NaN             NaN             NaN
             NaN             NaN             NaN
             NaN             NaN             NaN
             NaN             NaN             NaN
             NaN             NaN             NaN
             NaN             NaN             NaN
             NaN             NaN             NaN
             NaN             NaN             NaN
             NaN             NaN             NaN
             NaN             NaN             NaN
             NaN             NaN             NaN
             NaN             NaN             NaN
             NaN             NaN             NaN
             NaN             NaN             NaN
             NaN             NaN             NaN
             NaN             NaN             NaN
             NaN             NaN             NaN
             NaN             NaN             NaN
             NaN             NaN             NaN
             NaN             NaN             NaN
             NaN             NaN             NaN
             NaN             NaN             NaN
             NaN             NaN             NaN
             NaN             NaN             NaN
             NaN             NaN             NaN
             NaN             NaN             NaN
             NaN             NaN             NaN
             NaN             NaN             NaN
             NaN             NaN             NaN
             NaN             NaN             NaN
             NaN             NaN             NaN
             NaN             NaN             NaN
             NaN             NaN             NaN
             NaN             NaN             NaN
             NaN             NaN             NaN
             NaN             NaN             NaN
             NaN             NaN             NaN
             NaN             NaN             NaN
             NaN             NaN             NaN
             NaN             NaN             NaN
             NaN             NaN             NaN
             NaN             NaN             NaN
             NaN             NaN             NaN
             NaN             NaN             NaN
             NaN             NaN             NaN
             NaN             NaN             NaN
             NaN             NaN             NaN
             NaN             NaN             NaN
             NaN             NaN             NaN
             NaN             NaN             NaN
             NaN             NaN             NaN
             NaN             NaN             NaN
             NaN             NaN             NaN
             NaN             NaN             NaN
             NaN             NaN             NaN
             NaN             NaN             NaN
             NaN             NaN             NaN
             NaN             NaN             NaN
             NaN             NaN             NaN
             NaN             NaN             NaN
             NaN             NaN             NaN
             NaN             NaN             NaN
             NaN             NaN             NaN
             NaN             NaN             NaN
             NaN             NaN             NaN
             NaN             NaN             NaN
             NaN             NaN             NaN
             NaN             NaN             NaN
             NaN             NaN             NaN
             NaN             NaN             NaN
             NaN             NaN             NaN
             NaN             NaN             NaN
             NaN             NaN             NaN
             NaN             NaN             NaN
             NaN             NaN             NaN
             NaN             NaN             NaN
             NaN             NaN             NaN
             NaN             NaN             NaN
