Mg15 Mn32 O64                           
   1.00000000000000     
    11.4336280000000006   -0.0006170000000000    0.0031150000000000
    -0.0003770000000000   11.4176690000000001    0.0002020000000000
    -0.0008100000000000    0.0000430000000000    9.2395259999999997
   Mg   Mn   O 
    15    32    64
Direct
  0.4992299098278947  0.7115895175625491  0.7295174202158651
  1.0005156119455145  0.2567721530149999  0.7515854019907381
  0.9993055127047050  0.7559669195090724  0.7542269689469054
  0.5003911827236471  0.2599255491790316  0.7587570036403979
  0.9997293742373190  0.5056898620810144  0.5068786263238928
 -0.0000539841988120  0.0056790364295373  0.5069523775412351
  0.4997821019478507  1.0041039553641367  0.5038693828927764
  0.2493043292809465  0.0056862367646952  0.2556865708592845
  0.2516071441548802  0.5050592145837205  0.2593481318203420
  0.7498890401265083  0.0066916702746161  0.2553591094025189
  0.7486096830309471  0.5061109796784568  0.2595007708594504
  0.2475761686194010  0.2521569113132476  1.0048501552059677
  0.2470660820556283  0.7569753226009021  1.0024513431723510
  0.7531713496353618  0.2525816160490892  1.0047708200952270
  0.7517264814739014  0.7575015009195594  1.0026278625984710
  0.1269586879968587  0.2556859521690604  0.3827522959714663
  0.1230068578790103  0.7561338918295097  0.3817786457123646
  0.6256916535568771  0.2573439157815370  0.3762001494055502
  0.6240117364873201  0.7547836040295685  0.3755218148334634
  0.3771925590370328  0.2565161207996014  0.3783755439109225
  0.3736027666787048  0.7540854457354057  0.3750831825999168
  0.8764554329100379  0.2559322793821792  0.3830316923440008
  0.8740363004048024  0.7574220168950773  0.3814241484621889
  0.1244585457267973  0.0064697422639811  0.8771082977627286
  0.1247403849396704  0.5047553270391137  0.8823625450656787
  0.6236836463000345  1.0030668088070280  0.8743262535876724
  0.6291908136072814  0.5028069671523638  0.8879829194917384
  0.3757521635834539  1.0023436434962993  0.8745394459040994
  0.3723705299137595  0.5022281140193381  0.8879919262850124
  0.8751140301006591  0.0073632890041338  0.8766608334268868
  0.8771834192440344  0.5051333368122782  0.8817265512118752
  0.0000619663730533  0.1283092520523746  0.1321312584043255
  0.9999440551886145  0.6286561340624941  0.1330289439826004
  0.4995797041149665  0.1279061809956718  0.1256428752356235
  0.4996555463058474  0.6305101554296122  0.1318998201658995
  1.0003072612130601  0.3782984952181663  0.1328614408820330
 -0.0006820719921489  0.8790651379951295  0.1284915811047664
  0.5005307822308224  0.3770187375176538  0.1318536964108142
  0.4995345540000622  0.8789173367696360  0.1215522793436014
  0.2550942067620401  0.3836975700020027  0.6315466559418408
  0.2508161391858375  0.8797818630732371  0.6292562962576480
  0.7454834130513653  0.3837505049079863  0.6314038464624117
  0.7481114059913631  0.8805408090932108  0.6297930837957125
  0.2523735041019924  0.1317813723599025  0.6306750220959567
  0.2496552411770316  0.6285618385334028  0.6312249093064264
  0.7481368030928953  0.1324211266799339  0.6302397755163155
  0.7490135530777514  0.6294371746168531  0.6314710054939696
  0.1407137329368726  0.2566816941112443  0.6268661041459354
  0.1370534272101003  0.7559103707948301  0.6265731411129800
  0.6344023413345533  0.2575796304361678  0.6255152810905876
  0.6355195032231467  0.7537497993636508  0.6178968102840398
  0.3665914666471145  0.2569782114600094  0.6256969594509982
  0.3628326134761639  0.7526313346083349  0.6176890734114218
  0.8605598612228875  0.2577543694123107  0.6265957658144127
  0.8612967026291670  0.7572340097004947  0.6266515775647946
  0.1386233555924717  0.0060099087565205  0.6330903078720062
  0.1375316541201927  0.5037834455776231  0.6346997274255280
  0.6365874548911954  1.0067171735302687  0.6320043355991894
  0.6374393277361163  0.5100510691238879  0.6579730171746087
  0.3630592651846159  1.0048886352671460  0.6319771778162034
  0.3621142676228266  0.5096345888802959  0.6574909537260960
  0.8610989124405446  0.0065730483352572  0.6330209640001937
  0.8620562180176412  0.5051869993913853  0.6344967951571371
 -0.0002024132606816  0.1199669470343774  0.8819498067280176
  1.0009489135187788  0.6178724329140197  0.8835897283853628
  0.4996632705998187  0.1174078477968902  0.8821674036371103
  0.5005869520048242  0.6145468362501429  0.9099710412533307
  1.0004304614192399  0.3916319213987322  0.8846361185295576
 -0.0005254664067829  0.8938129812051587  0.8822823159537598
  0.5006556443878193  0.3873518873579600  0.9138379895115827
  0.4997862734865965  0.8896692671768173  0.8801666834190426
  1.0017842601060682  0.3681302632659708  0.3785109168829272
 -0.0011112010633441  0.8693407264611165  0.3768259003135729
  0.5010805041149402  0.3660945135186755  0.3341331758466448
  0.4986554819409252  0.8664163667597718  0.3736366988710441
  1.0014536600484201  0.1431356711882014  0.3787946465300921
  0.9985772073457506  0.6435442504817229  0.3783602799265591
  0.5015365407510862  0.1436802917476361  0.3758552652692154
  0.4994220358168568  0.6444839199681712  0.3329817008108859
  0.3868046629898474  1.0040691840220271  0.1256834358412812
  0.3903728264200522  0.5037895924506774  0.1302468165107873
  0.8863788235271673  1.0045066725554093  0.1260631948011086
  0.8870489685461733  0.5035297148377378  0.1299488106167006
  0.1126655680523403  0.0041212079791291  0.1260199258040084
  0.1130821318065023  0.5035236629959207  0.1298383499977081
  0.6123187324451499  1.0038887314921647  0.1257531234375816
  0.6100282696195998  0.5042086497122228  0.1304338871400783
  0.3886093943531755  0.2553294885013242  0.1274287733126271
  0.3879239851493765  0.7521226023160756  0.1248273446304067
  0.8874864499259668  0.2533914379563090  0.1358607008872887
  0.8868890143763755  0.7542851793692836  0.1334860597400543
  0.1128541382899627  0.2532556579064600  0.1357917387867699
  0.1118238392716032  0.7545095023217883  0.1334666543238796
  0.6120503140721978  0.2552195011741124  0.1271595529318325
  0.6110407504219397  0.7526155001523313  0.1250488696062901
  0.2526240907862340  0.3678019028757830  0.3848910313803098
  0.2495391518072808  0.8681258642642588  0.3826592254264477
  0.7505019853119477  0.3684595283068580  0.3847456567315568
  0.7482362128634784  0.8697318281631016  0.3828234445124424
  0.2526590150046342  0.1431137940302576  0.3839581854442688
  0.2482921919333901  0.6436873598406454  0.3820779027960429
  0.7502194264941672  0.1439253769951378  0.3837128084363028
  0.7492929108193164  0.6449963658142414  0.3819801538876296
  0.2508028939994344  0.1173954279609752  0.8745798156379312
  0.2486324903502016  0.6169815061389071  0.8826635965638066
  0.7487627228854032  0.1180792654366108  0.8743365753128830
  0.7521959646951389  0.6174504178631227  0.8827367869269320
  0.2503406996153437  0.3912878883844487  0.8825866298325475
  0.2484604658519033  0.8923516905567243  0.8732666288652612
  0.7520210505479867  0.3917927746262221  0.8824150298115568
  0.7508396024256803  0.8927940210867540  0.8732178264104506
 
             NaN             NaN             NaN
             NaN             NaN             NaN
             NaN             NaN             NaN
             NaN             NaN             NaN
             NaN             NaN             NaN
             NaN             NaN             NaN
             NaN             NaN             NaN
             NaN             NaN             NaN
             NaN             NaN             NaN
             NaN             NaN             NaN
             NaN             NaN             NaN
             NaN             NaN             NaN
             NaN             NaN             NaN
             NaN             NaN             NaN
             NaN             NaN             NaN
             NaN             NaN             NaN
             NaN             NaN             NaN
             NaN             NaN             NaN
             NaN             NaN             NaN
             NaN             NaN             NaN
             NaN             NaN             NaN
             NaN             NaN             NaN
             NaN             NaN             NaN
             NaN             NaN             NaN
             NaN             NaN             NaN
             NaN             NaN             NaN
             NaN             NaN             NaN
             NaN             NaN             NaN
             NaN             NaN             NaN
             NaN             NaN             NaN
             NaN             NaN             NaN
             NaN             NaN             NaN
             NaN             NaN             NaN
             NaN             NaN             NaN
             NaN             NaN             NaN
             NaN             NaN             NaN
             NaN             NaN             NaN
             NaN             NaN             NaN
             NaN             NaN             NaN
             NaN             NaN             NaN
             NaN             NaN             NaN
             NaN             NaN             NaN
             NaN             NaN             NaN
             NaN             NaN             NaN
             NaN             NaN             NaN
             NaN             NaN             NaN
             NaN             NaN             NaN
             NaN             NaN             NaN
             NaN             NaN             NaN
             NaN             NaN             NaN
             NaN             NaN             NaN
             NaN             NaN             NaN
             NaN             NaN             NaN
             NaN             NaN             NaN
             NaN             NaN             NaN
             NaN             NaN             NaN
             NaN             NaN             NaN
             NaN             NaN             NaN
             NaN             NaN             NaN
             NaN             NaN             NaN
             NaN             NaN             NaN
             NaN             NaN             NaN
             NaN             NaN             NaN
             NaN             NaN             NaN
             NaN             NaN             NaN
             NaN             NaN             NaN
             NaN             NaN             NaN
             NaN             NaN             NaN
             NaN             NaN             NaN
             NaN             NaN             NaN
             NaN             NaN             NaN
             NaN             NaN             NaN
             NaN             NaN             NaN
             NaN             NaN             NaN
             NaN             NaN             NaN
             NaN             NaN             NaN
             NaN             NaN             NaN
             NaN             NaN             NaN
             NaN             NaN             NaN
             NaN             NaN             NaN
             NaN             NaN             NaN
             NaN             NaN             NaN
             NaN             NaN             NaN
             NaN             NaN             NaN
             NaN             NaN             NaN
             NaN             NaN             NaN
             NaN             NaN             NaN
             NaN             NaN             NaN
             NaN             NaN             NaN
             NaN             NaN             NaN
             NaN             NaN             NaN
             NaN             NaN             NaN
             NaN             NaN             NaN
             NaN             NaN             NaN
             NaN             NaN             NaN
             NaN             NaN             NaN
             NaN             NaN             NaN
             NaN             NaN             NaN
             NaN             NaN             NaN
             NaN             NaN             NaN
             NaN             NaN             NaN
             NaN             NaN             NaN
             NaN             NaN             NaN
             NaN             NaN             NaN
             NaN             NaN             NaN
             NaN             NaN             NaN
             NaN             NaN             NaN
             NaN             NaN             NaN
             NaN             NaN             NaN
             NaN             NaN             NaN
             NaN             NaN             NaN
