Mg15 Mn32 O64
1.0
11.498622 -0.000014 -0.000718
-0.000017 11.514934 -0.000000
-0.000109 0.000002 9.171710
Mg Mn O
15 32 64
direct
0.499899 0.686597 0.685165 Mg
0.500016 0.251414 0.746615 Mg
1.000003 0.249840 0.750425 Mg
0.999809 0.750158 0.749426 Mg
0.500084 -0.000509 0.501042 Mg
0.000147 0.000064 0.498313 Mg
0.999737 0.499936 0.501794 Mg
0.250577 1.000616 0.251802 Mg
0.253410 0.499384 0.249023 Mg
0.750520 0.000643 0.251240 Mg
0.745643 0.499357 0.249583 Mg
0.249194 0.248074 -0.000174 Mg
0.250045 0.751926 0.000712 Mg
0.751197 0.247972 0.000468 Mg
0.749664 0.752028 0.000790 Mg
0.125664 0.251459 0.375529 Mn
0.124797 0.748541 0.374795 Mn
0.623394 0.250400 0.374961 Mn
0.622980 0.749600 0.374789 Mn
0.376269 0.251218 0.374320 Mn
0.375396 0.748783 0.373752 Mn
0.874768 0.251321 0.375241 Mn
0.873897 0.748679 0.374304 Mn
0.126548 -0.000478 0.874995 Mn
0.124060 0.500478 0.877187 Mn
0.625886 -0.000112 0.874161 Mn
0.624722 0.500112 0.874601 Mn
0.376742 -0.000416 0.873268 Mn
0.374014 0.500418 0.874880 Mn
0.876450 -0.000143 0.874884 Mn
0.873800 0.500141 0.877753 Mn
0.001154 0.124961 0.126049 Mn
0.999527 0.624667 0.126799 Mn
0.500197 0.124318 0.124428 Mn
0.499853 0.626584 0.121944 Mn
0.999994 0.375471 0.127367 Mn
0.000685 0.874898 0.125475 Mn
0.499960 0.372453 0.121469 Mn
0.500090 0.876644 0.124903 Mn
0.251133 0.375404 0.626539 Mn
0.249460 0.874766 0.623712 Mn
0.748753 0.375354 0.626249 Mn
0.750697 0.874848 0.624001 Mn
0.248746 0.125087 0.624521 Mn
0.251848 0.624743 0.625732 Mn
0.751640 0.125037 0.624541 Mn
0.747809 0.624762 0.625709 Mn
0.136729 0.251105 0.621351 O
0.137233 0.748895 0.620658 O
0.638090 0.249743 0.621367 O
0.637956 0.750259 0.611038 O
0.361943 0.249989 0.621387 O
0.361751 0.750011 0.610861 O
0.863381 0.251166 0.621163 O
0.862430 0.748834 0.620593 O
0.138034 0.500327 0.630845 O
0.136292 0.999673 0.628818 O
0.638033 0.499920 0.659479 O
0.638451 0.000080 0.628300 O
0.361518 0.500016 0.659541 O
0.361949 -0.000017 0.628131 O
0.861418 0.500334 0.630814 O
0.864244 -0.000334 0.628946 O
0.500981 0.113676 0.876913 O
0.499485 0.609398 0.881532 O
0.001388 0.112987 0.879808 O
0.998940 0.612924 0.879476 O
0.499383 0.388989 0.877269 O
0.501080 0.887941 0.881175 O
0.999166 0.387497 0.879746 O
0.001161 0.886590 0.879536 O
0.499973 0.359493 0.356906 O
0.499193 0.863615 0.370154 O
1.000000 0.363879 0.371519 O
0.999616 0.861869 0.370818 O
0.499721 0.135471 0.370361 O
0.499444 0.641423 0.356699 O
1.000377 0.137983 0.370806 O
0.999238 0.636269 0.371531 O
0.385584 0.499682 0.103171 O
0.386885 1.000317 0.120970 O
0.885980 0.499988 0.122533 O
0.887848 1.000011 0.121491 O
0.114012 -0.000225 0.121447 O
0.113048 0.500224 0.122300 O
0.613806 1.000307 0.121141 O
0.613828 0.499694 0.103199 O
0.386926 0.248928 0.125218 O
0.386468 0.751072 0.130974 O
0.887664 0.250109 0.129674 O
0.886997 0.749889 0.129286 O
0.113319 0.250628 0.129765 O
0.112914 0.749373 0.129415 O
0.613195 0.248918 0.125370 O
0.613217 0.751083 0.131098 O
0.250315 0.364882 0.381032 O
0.249581 0.861505 0.377535 O
0.749327 0.364372 0.380975 O
0.749517 0.861839 0.377580 O
0.249549 0.138092 0.379713 O
0.250346 0.635520 0.378856 O
0.750868 0.137830 0.379672 O
0.747976 0.635959 0.378883 O
0.250580 0.112559 0.869853 O
0.250950 0.612431 0.875839 O
0.751773 0.112755 0.870070 O
0.747385 0.612277 0.876034 O
0.250738 0.388557 0.876298 O
0.250790 0.886454 0.869394 O
0.747720 0.388181 0.876404 O
0.751436 0.886787 0.869698 O
