Na15 V32 O64                            
   1.00000000000000     
     9.1027719999999999    0.0021270000000000   -0.0009080000000000
     0.0037460000000000   11.4398049999999998   -0.0002540000000000
     0.0003010000000000    0.0000540000000000   10.6095290000000002
   Na   V    O 
    15    32    64
Direct
  0.7413142337299732  0.3529596391255794  0.1607144724437859
  0.7421486224833274  0.0686894427233042  0.1523702633099120
  0.7422143352093045  0.7965457815108081  0.1533518377322025
  0.2427786142181318  0.0628529779601479  0.3479472532654952
  0.2419521656293853  0.3138416812617137  0.3469045619240632
  0.2432358922080056  0.5628441661634938  0.3464356798083799
  0.2421735804039571  0.8131862538472063  0.3474957326017147
  0.2577767052827440  0.1880116772164513  0.8497915623461125
  0.2592345286053330  0.4383734657221154  0.8483275998451560
  0.2580908205161165  0.6886264002406293  0.8495307003577608
  0.2576690303356557  0.9386665923497191  0.8496511916842735
  0.7580467869551555  0.1882752743998637  0.6505342060756334
  0.7573213867705135  0.4383398107788423  0.6505163451030711
  0.7581705675798673  0.6880689454728213  0.6503265441195225
  0.7572938148848323  0.9379499429906204  0.6495197993842012
  0.5852587878034896  0.0627293224265983  0.8965656411671077
  0.5863666367006388  0.3131577208151057  0.8963711421169833
  0.5896194625416911  0.5631109868908837  0.8992150645003179
  0.5844649609749197  0.8126790780971120  0.8964462702430822
  0.0848881332895033  0.0621497383691292  0.6028418314188642
  0.0870475595470879  0.3117061705907673  0.6028668860411912
  0.0880850999273690  0.5635878327331056  0.6031453186024223
  0.0856109645829122  0.8121606786308178  0.6026711849449455
  0.4165352958842519  0.1890442406054120  0.1044830896607962
  0.4108053185437868  0.4394505675343510  0.1042928176957076
  0.4136942532174857  0.6864727188654172  0.1046980455650655
  0.4175025327576876  0.9385566541803030  0.1048991175001461
  0.9147822126055871  0.1884100491057623  0.3955147887328891
  0.9151910930771123  0.4390214349360875  0.3968204259961183
  0.9145893033130648  0.6866742528721517  0.3947730507382445
  0.9128303893381755  0.9372994418430451  0.3946030753496856
  0.5616199198962804  0.0647867487396994  0.3879360409392874
  0.5605955651615915  0.3119752317024833  0.3876881244581156
  0.5649626436004382  0.5641173416944270  0.3821255112851887
  0.5603627077203086  0.8117160786940261  0.3875624961685276
  0.0610398238879171  0.0611736003322960  0.1135933924795935
  0.0613763318029825  0.3089922988605096  0.1122328548135130
  0.0553645021823002  0.5642509507541149  0.1127935296925529
  0.0624530844215911  0.8172803891160640  0.1126952854386971
  0.4373490433188252  0.1886688664947869  0.6169421519669456
  0.4392348885004793  0.4391425780484468  0.6143258443995521
  0.4392071996210163  0.6878296085517661  0.6155682688941511
  0.4368849129772272  0.9386553838379470  0.6162827406285842
  0.9378383811474791  0.1880285639951822  0.8831795753851921
  0.9403054954657932  0.4378773250333836  0.8823343557252343
  0.9385238208645887  0.6894293893236920  0.8833607541326955
  0.9367998038483378  0.9385465800017343  0.8834020302123946
  0.7909971454744849  0.0637019918699693  0.8493092697791269
  0.7927959658424157  0.3144223593681374  0.8493555719555204
  0.7943801024437676  0.5628429652054194  0.8493678354742258
  0.7912043560855722  0.8126594466815291  0.8494763203474278
  0.2913174183858445  0.0632848540361550  0.6500380922559046
  0.2929836448660126  0.3127361654649903  0.6497685837731879
  0.2940029645610736  0.5639633474438384  0.6496916873881986
  0.2922053272126632  0.8131820775378458  0.6492125135170639
  0.2073104012581624  0.1906311403885823  0.1492023909735352
  0.2050445763333144  0.4390435584501517  0.1473964827036482
  0.2056966689119548  0.6861365402704607  0.1472508895021392
  0.2085815886842965  0.9374082382297928  0.1501996182035583
  0.7072562265233771  0.1882808383470262  0.3545044456398330
  0.7069094042733468  0.4366115940076511  0.3599463304020887
  0.7081952239615106  0.6908994239560684  0.3567227494201006
  0.7061678287095248  0.9382039575599208  0.3543723925093758
  0.8868916281737285  0.0633161032618332  0.5193616996136257
  0.8887054188792831  0.3133572610101965  0.5203539039541880
  0.8887111061882038  0.5628156313552850  0.5208138595348117
  0.8878066582974924  0.8119706742869894  0.5194851639960163
  0.3870606968409831  0.0633729154343357  0.9813109385443113
  0.3859570033691639  0.3131207363043700  0.9806194406265334
  0.3854888314028528  0.5633181053377783  0.9795695508566240
  0.3863513450693219  0.8137058750144845  0.9813396226839899
  0.1139923002856236  0.1876016365065780  0.4785242300325692
  0.1150694865048578  0.4378790648387607  0.4798244013356268
  0.1144927552050419  0.6876650899128975  0.4785235161250370
  0.1127991691451626  0.9376167175901386  0.4784403594006932
  0.6133993714323580  0.1895409540156550  0.0198714188942901
  0.6086300818987169  0.4389800069724501  0.0169141914153528
  0.6102096482375572  0.6878277664614814  0.0179661296583262
  0.6141508075787812  0.9375045946491412  0.0207937490795018
  0.9783990871086345  0.0631907296675394  0.2812530467431174
  0.9769285294878856  0.3136915548179573  0.2825340286250650
  0.9800676498204908  0.5623916100210664  0.2847216895471263
  0.9790024505293644  0.8129634982104363  0.2815099203373990
  0.4795877902226096  0.0640792445674734  0.2188662415047844
  0.4797091981720527  0.3145570615857878  0.2179439699518610
  0.4745866583266718  0.5630222496537414  0.2192018417395190
  0.4793087181725255  0.8123999052099791  0.2178738111394551
  0.0205789333400048  0.1876673878992250  0.7162143828978671
  0.0228166673551442  0.4377155218253534  0.7150969272354146
  0.0214295757687637  0.6882093405312801  0.7161696743267640
  0.0192245190052063  0.9380054837832930  0.7157594062007462
  0.5187674126400026  0.1881520805565344  0.7844146649692760
  0.5219860308112345  0.4385613699450985  0.7823429433019271
  0.5208188152230093  0.6876221125145605  0.7837837105324326
  0.5180235384980634  0.9382605510446709  0.7840091165677023
  0.5780128668516298  0.0638182820260269  0.5736360221163963
  0.5788793988439025  0.3119730000692371  0.5730158594620534
  0.5795373113258577  0.5643854439342135  0.5701869276882618
  0.5782258015570392  0.8133321279651184  0.5734963270226245
  0.0783714091063317  0.0629657457948554  0.9280103833967672
  0.0795707097986025  0.3122273876642510  0.9257329991210455
  0.0782866919624965  0.5636056545491712  0.9253075372961277
  0.0793938010935094  0.8148336841007904  0.9267399579500264
  0.4192139123116618  0.1884772280623395  0.4306472581502092
  0.4226026295512852  0.4379105536342038  0.4294587709279796
  0.4207231087247578  0.6888215783424911  0.4296053394109478
  0.4219061460338196  0.9382222921298293  0.4301123021244493
  0.9210556814885535  0.1899504490429749  0.0693695121665385
  0.9295709523656868  0.4376227734187950  0.0683213539680736
  0.9270013366090097  0.6891744920896414  0.0687468662803496
  0.9182881957278610  0.9373792662981302  0.0694532235498144
 
  0.00000000E+00  0.00000000E+00  0.00000000E+00
  0.00000000E+00  0.00000000E+00  0.00000000E+00
  0.00000000E+00  0.00000000E+00  0.00000000E+00
  0.00000000E+00  0.00000000E+00  0.00000000E+00
  0.00000000E+00  0.00000000E+00  0.00000000E+00
  0.00000000E+00  0.00000000E+00  0.00000000E+00
  0.00000000E+00  0.00000000E+00  0.00000000E+00
  0.00000000E+00  0.00000000E+00  0.00000000E+00
  0.00000000E+00  0.00000000E+00  0.00000000E+00
  0.00000000E+00  0.00000000E+00  0.00000000E+00
  0.00000000E+00  0.00000000E+00  0.00000000E+00
  0.00000000E+00  0.00000000E+00  0.00000000E+00
  0.00000000E+00  0.00000000E+00  0.00000000E+00
  0.00000000E+00  0.00000000E+00  0.00000000E+00
  0.00000000E+00  0.00000000E+00  0.00000000E+00
  0.00000000E+00  0.00000000E+00  0.00000000E+00
  0.00000000E+00  0.00000000E+00  0.00000000E+00
  0.00000000E+00  0.00000000E+00  0.00000000E+00
  0.00000000E+00  0.00000000E+00  0.00000000E+00
  0.00000000E+00  0.00000000E+00  0.00000000E+00
  0.00000000E+00  0.00000000E+00  0.00000000E+00
  0.00000000E+00  0.00000000E+00  0.00000000E+00
  0.00000000E+00  0.00000000E+00  0.00000000E+00
  0.00000000E+00  0.00000000E+00  0.00000000E+00
  0.00000000E+00  0.00000000E+00  0.00000000E+00
  0.00000000E+00  0.00000000E+00  0.00000000E+00
  0.00000000E+00  0.00000000E+00  0.00000000E+00
  0.00000000E+00  0.00000000E+00  0.00000000E+00
  0.00000000E+00  0.00000000E+00  0.00000000E+00
  0.00000000E+00  0.00000000E+00  0.00000000E+00
  0.00000000E+00  0.00000000E+00  0.00000000E+00
  0.00000000E+00  0.00000000E+00  0.00000000E+00
  0.00000000E+00  0.00000000E+00  0.00000000E+00
  0.00000000E+00  0.00000000E+00  0.00000000E+00
  0.00000000E+00  0.00000000E+00  0.00000000E+00
  0.00000000E+00  0.00000000E+00  0.00000000E+00
  0.00000000E+00  0.00000000E+00  0.00000000E+00
  0.00000000E+00  0.00000000E+00  0.00000000E+00
  0.00000000E+00  0.00000000E+00  0.00000000E+00
  0.00000000E+00  0.00000000E+00  0.00000000E+00
  0.00000000E+00  0.00000000E+00  0.00000000E+00
  0.00000000E+00  0.00000000E+00  0.00000000E+00
  0.00000000E+00  0.00000000E+00  0.00000000E+00
  0.00000000E+00  0.00000000E+00  0.00000000E+00
  0.00000000E+00  0.00000000E+00  0.00000000E+00
  0.00000000E+00  0.00000000E+00  0.00000000E+00
  0.00000000E+00  0.00000000E+00  0.00000000E+00
  0.00000000E+00  0.00000000E+00  0.00000000E+00
  0.00000000E+00  0.00000000E+00  0.00000000E+00
  0.00000000E+00  0.00000000E+00  0.00000000E+00
  0.00000000E+00  0.00000000E+00  0.00000000E+00
  0.00000000E+00  0.00000000E+00  0.00000000E+00
  0.00000000E+00  0.00000000E+00  0.00000000E+00
  0.00000000E+00  0.00000000E+00  0.00000000E+00
  0.00000000E+00  0.00000000E+00  0.00000000E+00
  0.00000000E+00  0.00000000E+00  0.00000000E+00
  0.00000000E+00  0.00000000E+00  0.00000000E+00
  0.00000000E+00  0.00000000E+00  0.00000000E+00
  0.00000000E+00  0.00000000E+00  0.00000000E+00
  0.00000000E+00  0.00000000E+00  0.00000000E+00
  0.00000000E+00  0.00000000E+00  0.00000000E+00
  0.00000000E+00  0.00000000E+00  0.00000000E+00
  0.00000000E+00  0.00000000E+00  0.00000000E+00
  0.00000000E+00  0.00000000E+00  0.00000000E+00
  0.00000000E+00  0.00000000E+00  0.00000000E+00
  0.00000000E+00  0.00000000E+00  0.00000000E+00
  0.00000000E+00  0.00000000E+00  0.00000000E+00
  0.00000000E+00  0.00000000E+00  0.00000000E+00
  0.00000000E+00  0.00000000E+00  0.00000000E+00
  0.00000000E+00  0.00000000E+00  0.00000000E+00
  0.00000000E+00  0.00000000E+00  0.00000000E+00
  0.00000000E+00  0.00000000E+00  0.00000000E+00
  0.00000000E+00  0.00000000E+00  0.00000000E+00
  0.00000000E+00  0.00000000E+00  0.00000000E+00
  0.00000000E+00  0.00000000E+00  0.00000000E+00
  0.00000000E+00  0.00000000E+00  0.00000000E+00
  0.00000000E+00  0.00000000E+00  0.00000000E+00
  0.00000000E+00  0.00000000E+00  0.00000000E+00
  0.00000000E+00  0.00000000E+00  0.00000000E+00
  0.00000000E+00  0.00000000E+00  0.00000000E+00
  0.00000000E+00  0.00000000E+00  0.00000000E+00
  0.00000000E+00  0.00000000E+00  0.00000000E+00
  0.00000000E+00  0.00000000E+00  0.00000000E+00
  0.00000000E+00  0.00000000E+00  0.00000000E+00
  0.00000000E+00  0.00000000E+00  0.00000000E+00
  0.00000000E+00  0.00000000E+00  0.00000000E+00
  0.00000000E+00  0.00000000E+00  0.00000000E+00
  0.00000000E+00  0.00000000E+00  0.00000000E+00
  0.00000000E+00  0.00000000E+00  0.00000000E+00
  0.00000000E+00  0.00000000E+00  0.00000000E+00
  0.00000000E+00  0.00000000E+00  0.00000000E+00
  0.00000000E+00  0.00000000E+00  0.00000000E+00
  0.00000000E+00  0.00000000E+00  0.00000000E+00
  0.00000000E+00  0.00000000E+00  0.00000000E+00
  0.00000000E+00  0.00000000E+00  0.00000000E+00
  0.00000000E+00  0.00000000E+00  0.00000000E+00
  0.00000000E+00  0.00000000E+00  0.00000000E+00
  0.00000000E+00  0.00000000E+00  0.00000000E+00
  0.00000000E+00  0.00000000E+00  0.00000000E+00
  0.00000000E+00  0.00000000E+00  0.00000000E+00
  0.00000000E+00  0.00000000E+00  0.00000000E+00
  0.00000000E+00  0.00000000E+00  0.00000000E+00
  0.00000000E+00  0.00000000E+00  0.00000000E+00
  0.00000000E+00  0.00000000E+00  0.00000000E+00
  0.00000000E+00  0.00000000E+00  0.00000000E+00
  0.00000000E+00  0.00000000E+00  0.00000000E+00
  0.00000000E+00  0.00000000E+00  0.00000000E+00
  0.00000000E+00  0.00000000E+00  0.00000000E+00
  0.00000000E+00  0.00000000E+00  0.00000000E+00
  0.00000000E+00  0.00000000E+00  0.00000000E+00
  0.00000000E+00  0.00000000E+00  0.00000000E+00
