Na47 P16 S64                            
   1.00000000000000     
    14.0166319999999995   -0.0144530000000000   -0.0000510000000000
    -0.0145680000000000   14.0377960000000002    0.0000050000000000
    -0.0000280000000000   -0.0000330000000000   14.3834090000000003
   Na   P    S 
    47    16    64
Direct
  0.6434778614247617  0.7520739787718840  0.7479267234144914
  0.9999464746491413  0.2503783500637517  0.2040659511858587
  0.9997415019142378  0.2500811054526607  0.7033086015476114
  0.9994310974004134  0.7505008918615925  0.2093948865117911
  0.9916272848462342  0.7512301968080246  0.7126592808763647
  0.5000202278968428  0.2496364013229872  0.2059524329316899
  0.5003768565029231  0.2502541489035164  0.7055421633217147
  0.5003422678949379  0.7496299501023863  0.2116682856355259
  0.2488300751572831  0.9989195709192585  0.2910172506656539
  0.2475532086887811  0.9986904030743275  0.7895972097105266
  0.2522435058967866  0.5007454662144898  0.2976402312659515
  0.2503072303939353  0.5037868763457038  0.7957810993468543
  0.7478216940604410  0.9989738199375205  0.2960151232779119
  0.7492717015116812  0.9897647255347540  0.7922144100655694
  0.7510768649153563  0.5014102040272675  0.2892905220748181
  0.7540326755772268  0.5089633437142245  0.7862610826298405
  0.2534714281897366  0.9989792294571840  0.0398918919487621
  0.2422815838451955  0.0004604860295784  0.5400044450813832
  0.2469686035623519  0.4997291685334182  0.0475164900466725
  0.2562334465844116  0.5042659169286597  0.5483923376848339
  0.7525098072182003  0.0005575805243603  0.0451262950573615
  0.7442221039249581  0.9970143178597149  0.5449276013197660
  0.7463099865791428  0.5008218726267647  0.0377923531883538
  0.7584076011257936  0.4984962811918739  0.5370082864850948
  0.9999229824823844  0.2491495964703426  0.4536811034600210
  0.9991208415921595  0.2515928125238297  0.9526522380991891
  1.0002063823958163  0.7490194424897899  0.4610643949649156
  1.0000548275875938  0.7517516427207448  0.9585689594044063
  0.5000684147579123  0.2509107057979851  0.4557384962019180
  0.5007538392631635  0.2484488145804543  0.9539717847105829
  0.4999563330310802  0.7509941851615032  0.4762602332922348
  0.4982699543612215  0.7480700524389365  0.9556925910276444
  0.9895467019272874  0.9986754204507381  0.5007387703370210
  0.0018230033524920  0.0073336311791452  0.9997589374610943
  0.0121438593186704  0.4980839721582498  0.4997413262912044
  0.9979163327590361  0.4981560000959621  0.9986267604123468
  0.4916626791351568  1.0002042238373632  0.4999686594797933
  0.5069897092528325  0.9990964062306248  0.0002909506820664
  0.5058732901552192  0.5031291567138675  0.5015346560158959
  0.4918344795805725  0.4955859537732498  0.0020992139433540
  0.2487710662591207  0.2519257361970718  0.2497831881356512
  0.2486155913615472  0.2541011244910291  0.7500404006506910
  0.2511668924814414  0.7473659990716236  0.2501741205711508
  0.3020758268360493  0.7491523895043486  0.7499025904650501
  0.7512596273032033  0.2481222196755523  0.2494422034237548
  0.7515425953464929  0.2458308491065296  0.7504209475994866
  0.7485841315826639  0.7526529347869086  0.2492751248511364
  0.9988049438002208  0.0011014751796704  0.2492555289670023
  0.9984660092882630  0.0032414524489168  0.7507899029574306
  0.0015490360066377  0.4993600024248548  0.2494820098043072
  0.0025692334514117  0.4976012151049585  0.7488861355870846
  0.4993896532939716  0.0003020385065644  0.2502828311528017
  0.4977438788666108  0.0009054223121889  0.7500537026561769
  0.5003003424805457  0.4992162806785008  0.2505799408929679
  0.5000892371147287  0.4987171721381196  0.7514987459103994
  0.2497139741903781  0.2507038120402393  0.0001027364487842
  0.2496395265795265  0.2513479288480214  0.4993394350617781
  0.2503093711994476  0.7482868536741627  0.0014555682264553
  0.2487733620964636  0.7523147141592429  0.4979603484388851
  0.7501858215022417  0.2491726303483007 -0.0001508706423423
  0.7503010719158466  0.2485376981299435  0.4990837034680896
  0.7495343109165556  0.7499231156989625  0.0016679684322049
  0.7519027057858454  0.7483552655470904  0.4958294095523713
  0.1555342126334948  0.1739757735042410  0.0820589052831580
  0.1546034312738053  0.1761082985938607  0.5811236345208889
  0.1534682447815225  0.6755876590911951  0.0836863601518374
  0.1565249212141112  0.6772548981720194  0.5824469225113807
  0.6550531064793381  0.1743964571743127  0.0827014031897646
  0.6543436648478579  0.1749267771579761  0.5810621931071529
  0.6546403108953845  0.6749833451903686  0.0840895002817597
  0.6588796095934472  0.6675927793289730  0.5744791523595625
  0.3451051176977971  0.3252689965633968  0.0826954436416179
  0.3454471168153210  0.3255204592962430  0.5811836625909750
  0.3450435789097815  0.8239314069117684  0.0835995021841441
  0.3424930071871691  0.8317964190364296  0.5765792615646435
  0.8442869873367866  0.3262036612980045  0.0818630440581934
  0.8456356725998159  0.3233742517654091  0.5808990337253885
  0.8445757934298340  0.8257295297986409  0.0834830798615044
  0.8447862951589931  0.8247968381504597  0.5779553645812673
  0.1744775922545792  0.3469088843845362  0.4180038947107417
  0.1741457839664918  0.3466703836273031  0.9199226913178682
  0.1713014758959197  0.8426693081945849  0.4126268237103042
  0.1783052533623328  0.8407577011585740  0.9154452317208206
  0.6767195477901440  0.3435084805803919  0.4158593809187873
  0.6761479171946789  0.3428516954200652  0.9164392081325935
  0.6725701268905686  0.8425712352814312  0.4162510100891592
  0.6719138387876843  0.8472595547835650  0.9230781632894884
  0.3237911313487102  0.1565625057543768  0.4163125151181413
  0.3239947068827035  0.1568830893185378  0.9168099873912856
  0.3270773455787729  0.6572263458873369  0.4179480792751439
  0.3264220911350636  0.6496005590302258  0.9240415307215415
  0.8250698127930175  0.1525594324068824  0.4177909651385675
  0.8255715071085878  0.1530712599398593  0.9196562231083854
  0.8285804780595672  0.6574683973551968  0.4105211073386254
  0.8243559922823930  0.6567639846574970  0.9193052827112714
  0.0964143225887100  0.4231757652101060  0.1682698421691858
  0.1013955508217753  0.4223571778711727  0.6708227580855628
  0.0928363036062435  0.9267376727068939  0.1656466640970599
  0.0895840205674745  0.9270422837440505  0.6663881152639269
  0.5938917739897499  0.4243943593144183  0.1666683611253683
  0.5955596728757795  0.4256539866892853  0.6682201302118144
  0.5953117496361885  0.9251552421854290  0.1695119669411074
  0.5891231813589684  0.9255672548365936  0.6648658589741105
  0.4057665202490440  0.0749754265678792  0.1663016990650003
  0.4022002361940984  0.0766785607488290  0.6689558712149686
  0.4042677256566382  0.5744483863222160  0.1697549266154581
  0.4090258463267537  0.5782705240180411  0.6705502525137881
  0.9037533519201674  0.0773185907133746  0.1682897409363402
  0.8998876603517011  0.0764342291535743  0.6706358641838279
  0.9076473782500959  0.5736758865930032  0.1659563510400161
  0.9118645897235229  0.5714403063591676  0.6621779623210168
  0.0748533732131113  0.0948232993393346  0.3320930343048913
  0.0767855096427793  0.1000445903042533  0.8286706915272289
  0.0768265210310348  0.5945122783664538  0.3311894136616161
  0.0731710954857956  0.5925591187872359  0.8339883682775588
  0.5736895356804766  0.0957505132581626  0.3328175566548215
  0.5771712099834700  0.0952844913601224  0.8296134956940772
  0.5756737526440743  0.5935622839733145  0.3323127238251773
  0.5760709685071163  0.5850585907608689  0.8419131703755716
  0.4258527765058642  0.4038950832493142  0.3330822590193557
  0.4223073133347685  0.4015323203839792  0.8295120988234024
  0.4238022261475697  0.9059705463222482  0.3321688066681659
  0.4231443629405420  0.9106260322556835  0.8368771970751010
  0.9254842793950736  0.4054450971855783  0.3321214018707588
  0.9232522854751710  0.4029828303598535  0.8283272380909730
  0.9238928161143879  0.9057825154580025  0.3308433246200067
  0.9276324206697902  0.9102594436069854  0.8377011752355301
 
             NaN             NaN             NaN
             NaN             NaN             NaN
             NaN             NaN             NaN
             NaN             NaN             NaN
             NaN             NaN             NaN
             NaN             NaN             NaN
             NaN             NaN             NaN
             NaN             NaN             NaN
             NaN             NaN             NaN
             NaN             NaN             NaN
             NaN             NaN             NaN
             NaN             NaN             NaN
             NaN             NaN             NaN
             NaN             NaN             NaN
             NaN             NaN             NaN
             NaN             NaN             NaN
             NaN             NaN             NaN
             NaN             NaN             NaN
             NaN             NaN             NaN
             NaN             NaN             NaN
             NaN             NaN             NaN
             NaN             NaN             NaN
             NaN             NaN             NaN
             NaN             NaN             NaN
             NaN             NaN             NaN
             NaN             NaN             NaN
             NaN             NaN             NaN
             NaN             NaN             NaN
             NaN             NaN             NaN
             NaN             NaN             NaN
             NaN             NaN             NaN
             NaN             NaN             NaN
             NaN             NaN             NaN
             NaN             NaN             NaN
             NaN             NaN             NaN
             NaN             NaN             NaN
             NaN             NaN             NaN
             NaN             NaN             NaN
             NaN             NaN             NaN
             NaN             NaN             NaN
             NaN             NaN             NaN
             NaN             NaN             NaN
             NaN             NaN             NaN
             NaN             NaN             NaN
             NaN             NaN             NaN
             NaN             NaN             NaN
             NaN             NaN             NaN
             NaN             NaN             NaN
             NaN             NaN             NaN
             NaN             NaN             NaN
             NaN             NaN             NaN
             NaN             NaN             NaN
             NaN             NaN             NaN
             NaN             NaN             NaN
             NaN             NaN             NaN
             NaN             NaN             NaN
             NaN             NaN             NaN
             NaN             NaN             NaN
             NaN             NaN             NaN
             NaN             NaN             NaN
             NaN             NaN             NaN
             NaN             NaN             NaN
             NaN             NaN             NaN
             NaN             NaN             NaN
             NaN             NaN             NaN
             NaN             NaN             NaN
             NaN             NaN             NaN
             NaN             NaN             NaN
             NaN             NaN             NaN
             NaN             NaN             NaN
             NaN             NaN             NaN
             NaN             NaN             NaN
             NaN             NaN             NaN
             NaN             NaN             NaN
             NaN             NaN             NaN
             NaN             NaN             NaN
             NaN             NaN             NaN
             NaN             NaN             NaN
             NaN             NaN             NaN
             NaN             NaN             NaN
             NaN             NaN             NaN
             NaN             NaN             NaN
             NaN             NaN             NaN
             NaN             NaN             NaN
             NaN             NaN             NaN
             NaN             NaN             NaN
             NaN             NaN             NaN
             NaN             NaN             NaN
             NaN             NaN             NaN
             NaN             NaN             NaN
             NaN             NaN             NaN
             NaN             NaN             NaN
             NaN             NaN             NaN
             NaN             NaN             NaN
             NaN             NaN             NaN
             NaN             NaN             NaN
             NaN             NaN             NaN
             NaN             NaN             NaN
             NaN             NaN             NaN
             NaN             NaN             NaN
             NaN             NaN             NaN
             NaN             NaN             NaN
             NaN             NaN             NaN
             NaN             NaN             NaN
             NaN             NaN             NaN
             NaN             NaN             NaN
             NaN             NaN             NaN
             NaN             NaN             NaN
             NaN             NaN             NaN
             NaN             NaN             NaN
             NaN             NaN             NaN
             NaN             NaN             NaN
             NaN             NaN             NaN
             NaN             NaN             NaN
             NaN             NaN             NaN
             NaN             NaN             NaN
             NaN             NaN             NaN
             NaN             NaN             NaN
             NaN             NaN             NaN
             NaN             NaN             NaN
             NaN             NaN             NaN
             NaN             NaN             NaN
             NaN             NaN             NaN
             NaN             NaN             NaN
             NaN             NaN             NaN
             NaN             NaN             NaN
             NaN             NaN             NaN
