Li7 Mn16 O32                            
   1.00000000000000     
     8.1529360000000004    0.0000560000000000   -0.0000870000000000
     0.0000560000000000    8.1529100000000003   -0.0000940000000000
    -0.0000870000000000   -0.0000940000000000    8.1529100000000003
   Li   Mn   O 
     7    16    32
Direct
  0.2805974929175672  0.4694050561098815  0.7805958350023396
  0.8773319888137913  0.8726721099219328  0.8729840391655315
  0.1262086141507427  0.1268413643611435  0.1231579570371056
  0.8773316133239436  0.3770163347666970  0.3773283860452663
  0.3729873105508100  0.8726724257446968  0.3773283843919834
  0.6231547019723626  0.1268412947925907  0.6262118124365154
  0.6231542982497172  0.6237870204962787  0.1231579146049778
  0.5003269113105966  0.2496726972260289  0.2480618014181990
  0.2500300331823001  0.4999698409012781  0.2509033135523098
  0.2497845753566160  0.2492026551783299  0.4984020213689659
  0.5007968440530691  0.5002151383941030  0.4984016106429319
  0.5007968642610801  0.7515980940064618  0.7497846246844518
  0.7509048226128003  0.4999698211154602  0.7500305214998040
  0.7521487656008773  0.7500944260008098  0.4999075765324573
  0.2500297732559835  0.9990955464893632  0.7500305117966739
  0.2497843385939523  0.7515966016968558  1.0007969435526711
  0.5003264406877866  0.0019380839606678  0.0003274539244977
  0.7500476877574911 -0.0000483644705863  0.2500508795437929
  0.7480618114289096  0.2496735864252691  0.0003268685351824
 -0.0015976658438806  0.2492027363701763  0.7497850366289326
 -0.0015963705856625  0.5002150880332364  1.0007968278258998
 -0.0000924690167983  0.7500921892686188  0.2521483505304189
 -0.0000943317812593  0.9978516340757925  0.4999080459331285
  0.7375096770047171  0.0124899492224645  0.0128928682250344
  0.0125767790915608  0.7374233280153898  0.0138897550617183
  0.0130194977650411  0.0119021554435558  0.7366584023083854
  0.7380980172520101  0.7369820821979391  0.7366595978131674
  0.2632664588173523  0.9882525784039157  0.9872661346156670
  0.9859452228113093  0.2627028090050929  0.9872967562940971
  0.9870773360611573  0.9875054321322784  0.2624949452952278
  0.2632660472663906  0.2627329166697916  0.2617487500446640
  0.7380979343914371  0.5133392624699501  0.5130183833392753
  0.0125776627145389  0.2361114371096811  0.5125775610927112
  0.0130189083019688  0.5133404583153236  0.2380973799936345
  0.7375093781083356  0.2371067566325529  0.2375084808713124
  0.2659836197231435  0.4840168610358593  0.4877835314832617
  0.9850304220590171  0.7649693394155829  0.4850304425473159
  0.9877807486022536  0.4840154866353855  0.7659850013752026
  0.2659830714153856  0.7622166155129595  0.7659830310335684
  0.2366600246230058  0.0119012857604214  0.5130183932374267
  0.5138887756710441  0.7374226160734807  0.5125775097234665
  0.5128945918896689  0.0124914258223068  0.2375073654560234
  0.2366599063100169  0.7369824453642552  0.2380984602497097
  0.7624947219478205  0.9875058947031435  0.4870762059703104
  0.4872973450624706  0.2627025394712378  0.4859455410613059
  0.4872658317647127  0.9882511740414850  0.7632670989217234
  0.7617480199995170  0.2627327345691794  0.7632664377868985
  0.2344988293696441  0.5155007206454517  0.0121005425321716
  0.5146833467354642  0.2353169740038092  0.0146829404375384
  0.5121007447813440  0.5155008361297152  0.7344985669421115
  0.2345001715128046  0.2379008063112591  0.7345000696076408
  0.7617479262909722  0.4867337201033967  0.9872663582911767
  0.4872968478254947  0.7640538498346758  0.9872964374541662
  0.4872656772708278  0.4867335101782568  0.2617501557666944
  0.7624939878445475  0.7629212062481451  0.2624936654951036
 
             NaN             NaN             NaN
             NaN             NaN             NaN
             NaN             NaN             NaN
             NaN             NaN             NaN
             NaN             NaN             NaN
             NaN             NaN             NaN
             NaN             NaN             NaN
             NaN             NaN             NaN
             NaN             NaN             NaN
             NaN             NaN             NaN
             NaN             NaN             NaN
             NaN             NaN             NaN
             NaN             NaN             NaN
             NaN             NaN             NaN
             NaN             NaN             NaN
             NaN             NaN             NaN
             NaN             NaN             NaN
             NaN             NaN             NaN
             NaN             NaN             NaN
             NaN             NaN             NaN
             NaN             NaN             NaN
             NaN             NaN             NaN
             NaN             NaN             NaN
             NaN             NaN             NaN
             NaN             NaN             NaN
             NaN             NaN             NaN
             NaN             NaN             NaN
             NaN             NaN             NaN
             NaN             NaN             NaN
             NaN             NaN             NaN
             NaN             NaN             NaN
             NaN             NaN             NaN
             NaN             NaN             NaN
             NaN             NaN             NaN
             NaN             NaN             NaN
             NaN             NaN             NaN
             NaN             NaN             NaN
             NaN             NaN             NaN
             NaN             NaN             NaN
             NaN             NaN             NaN
             NaN             NaN             NaN
             NaN             NaN             NaN
             NaN             NaN             NaN
             NaN             NaN             NaN
             NaN             NaN             NaN
             NaN             NaN             NaN
             NaN             NaN             NaN
             NaN             NaN             NaN
             NaN             NaN             NaN
             NaN             NaN             NaN
             NaN             NaN             NaN
             NaN             NaN             NaN
             NaN             NaN             NaN
             NaN             NaN             NaN
             NaN             NaN             NaN
