Li7 Mn16 O32
1.0
8.152936 0.000056 -0.000087
0.000056 8.152910 -0.000094
-0.000087 -0.000094 8.152910
Li Mn O
7 16 32
direct
0.280591 0.469408 0.780592 Li
0.876670 0.873327 0.873331 Li
0.126015 0.126015 0.123986 Li
0.876670 0.376668 0.376673 Li
0.373329 0.873328 0.376673 Li
0.623989 0.126014 0.626012 Li
0.623988 0.623988 0.123986 Li
0.500041 0.249958 0.249286 Mn
0.249975 0.500025 0.250427 Mn
0.249975 0.251102 0.500699 Mn
0.498901 0.500025 0.500699 Mn
0.498901 0.749304 0.749976 Mn
0.750428 0.500025 0.749976 Mn
0.751109 0.749985 0.500015 Mn
0.249976 -0.000428 0.749976 Mn
0.249976 0.749301 0.998899 Mn
0.500040 0.000713 1.000041 Mn
0.749967 1.000032 0.249969 Mn
0.749284 0.249958 1.000042 Mn
0.000698 0.251102 0.749975 Mn
0.000699 0.500024 0.998899 Mn
1.000016 0.749984 0.251109 Mn
1.000014 0.998890 0.500014 Mn
0.737314 0.012685 0.012901 O
0.013054 0.736947 0.013006 O
0.013053 0.012790 0.736734 O
0.737209 0.736946 0.736731 O
0.263219 0.987295 0.987135 O
0.986944 0.262863 0.987134 O
0.987004 0.987357 0.262641 O
0.263217 0.262863 0.262706 O
0.737210 0.513268 0.513054 O
0.013053 0.236996 0.513054 O
0.013053 0.513267 0.237210 O
0.737312 0.237101 0.237313 O
0.264529 0.485472 0.485633 O
0.985692 0.764306 0.485692 O
0.985632 0.485473 0.764528 O
0.264530 0.764369 0.764529 O
0.236733 0.012790 0.513055 O
0.513005 0.736947 0.513054 O
0.512901 0.012686 0.237313 O
0.236731 0.736946 0.237208 O
0.762641 0.987357 0.487003 O
0.487135 0.262863 0.486942 O
0.487136 0.987297 0.763218 O
0.762705 0.262863 0.763216 O
0.235945 0.514054 0.013791 O
0.513688 0.236312 0.013689 O
0.513791 0.514055 0.735946 O
0.235944 0.236209 0.735945 O
0.762704 0.486784 0.987135 O
0.487135 0.763058 0.987134 O
0.487136 0.486783 0.262703 O
0.762643 0.762996 0.262644 O
