Li46 P16 O64
1.0
10.580726 0.007712 -0.000984
0.008998 12.335979 0.001257
-0.000956 0.000991 9.996648
Li P O
46 16 64
direct
0.535791 0.253686 0.111200 Li
0.665669 0.248560 0.600771 Li
0.664045 0.749932 0.099260 Li
0.664038 0.751261 0.598855 Li
0.166691 0.491869 0.153123 Li
0.164424 0.501388 0.651478 Li
0.163526 0.997896 0.151509 Li
0.163763 0.999301 0.651670 Li
0.336422 0.001067 0.401591 Li
0.336122 0.000938 0.899792 Li
0.338334 0.499632 0.398240 Li
0.336999 0.497470 0.907410 Li
0.837019 0.247968 0.349717 Li
0.835241 0.248791 0.850233 Li
0.837113 0.748882 0.349360 Li
0.836900 0.748941 0.849271 Li
0.337897 0.251871 0.393529 Li
0.335038 0.253608 0.905544 Li
0.336542 0.749554 0.400385 Li
0.336492 0.749461 0.901718 Li
0.837280 0.001161 0.349761 Li
0.837055 0.000861 0.848420 Li
0.836636 0.501274 0.348083 Li
0.834329 0.501754 0.849814 Li
0.656951 0.495541 0.097608 Li
0.666116 0.502433 0.598119 Li
0.665429 0.996436 0.096397 Li
0.664461 0.998730 0.599388 Li
0.163178 0.250895 0.646867 Li
0.163057 0.750085 0.151494 Li
0.164169 0.751756 0.651237 Li
0.925817 0.372016 0.150678 Li
0.921365 0.376122 0.649202 Li
0.925280 0.873947 0.149207 Li
0.926216 0.875232 0.648957 Li
0.425131 0.375449 0.607436 Li
0.428968 0.875191 0.100668 Li
0.425812 0.875186 0.600745 Li
0.077157 0.128236 0.345326 Li
0.075358 0.126127 0.855001 Li
0.075311 0.623688 0.350736 Li
0.074991 0.625005 0.852115 Li
0.575553 0.125242 0.399948 Li
0.573978 0.126256 0.897922 Li
0.574353 0.625014 0.399076 Li
0.572381 0.624651 0.898640 Li
0.910023 0.123137 0.097367 P
0.912702 0.124329 0.597197 P
0.910588 0.623778 0.097537 P
0.912015 0.626431 0.597023 P
0.412225 0.121001 0.152813 P
0.410979 0.125176 0.653658 P
0.409529 0.629317 0.152598 P
0.410922 0.625719 0.653359 P
0.088083 0.374900 0.407595 P
0.085286 0.376539 0.901286 P
0.089127 0.874908 0.403331 P
0.088711 0.874709 0.904115 P
0.592195 0.375225 0.350338 P
0.587944 0.375196 0.839676 P
0.589742 0.875146 0.347068 P
0.589179 0.874836 0.845793 P
0.838346 0.019966 0.147347 O
0.842171 0.021121 0.648114 O
0.838843 0.521329 0.148007 O
0.841522 0.524167 0.649839 O
0.344158 0.221248 0.094027 O
0.342201 0.228654 0.601121 O
0.343751 0.736726 0.106298 O
0.341352 0.729332 0.601645 O
0.158334 0.269259 0.368587 O
0.155660 0.272732 0.852202 O
0.158322 0.770963 0.352541 O
0.159195 0.771583 0.852730 O
0.660945 0.478944 0.402902 O
0.655003 0.477489 0.897103 O
0.659548 0.978314 0.398846 O
0.659234 0.978121 0.896866 O
0.159716 0.476147 0.353621 O
0.156929 0.478579 0.848891 O
0.159689 0.977611 0.351688 O
0.158737 0.978125 0.853416 O
0.660693 0.271233 0.403097 O
0.655006 0.271001 0.891804 O
0.659331 0.771545 0.398388 O
0.658857 0.771484 0.897670 O
0.842962 0.226746 0.150652 O
0.842154 0.227340 0.648726 O
0.841257 0.727952 0.148409 O
0.841766 0.730123 0.647182 O
0.342155 0.017313 0.103761 O
0.341221 0.021918 0.601642 O
0.331458 0.534492 0.095856 O
0.341727 0.522756 0.600278 O
0.549973 0.120513 0.099319 O
0.550060 0.124398 0.602495 O
0.547763 0.626203 0.099516 O
0.549896 0.626167 0.602079 O
0.047153 0.118139 0.150330 O
0.050643 0.124618 0.650839 O
0.048846 0.623252 0.150508 O
0.050444 0.627008 0.649101 O
0.453494 0.375403 0.401620 O
0.445404 0.374552 0.872888 O
0.451015 0.875396 0.398558 O
0.450647 0.875476 0.897787 O
0.950485 0.374231 0.352789 O
0.947093 0.375450 0.847233 O
0.950503 0.875240 0.351143 O
0.950364 0.874763 0.851357 O
0.597555 0.374393 0.196224 O
0.598617 0.376686 0.683655 O
0.591285 0.875057 0.190806 O
0.589819 0.874846 0.689699 O
0.082047 0.379899 0.055919 O
0.085329 0.379530 0.563811 O
0.088538 0.874044 0.060202 O
0.089720 0.875479 0.559561 O
0.412055 0.124104 0.308324 O
0.409088 0.125069 0.809624 O
0.410927 0.625504 0.308842 O
0.409151 0.625267 0.809396 O
0.912607 0.124413 0.441166 O
0.908983 0.124667 0.941136 O
0.911444 0.624968 0.440801 O
0.910563 0.624588 0.941134 O
