Li15 Fe16 P16 O64                       
   1.00000000000000     
    10.2414889999999996    0.0020130000000000    0.0235030000000000
     0.0015220000000000   11.9648420000000009   -0.0051380000000000
     0.0117770000000000   -0.0065300000000000    9.3725649999999998
   Li   Fe   P    O 
    15    16    16    64
Direct
  0.5170364749951570  0.4684865596502270  0.7324346569647370
  0.5016756117299661  0.0002857032712472  0.2516358418013809
  0.4994709310217306  0.0095408052697619  0.7536072747275602
  0.4996900828427221  0.5005398719092565  0.2514295622985079
  0.9984825683261178  0.2491688175305133  0.4960677129110665
  0.9966327609374560  0.2464611156222111  0.0012205840880475
  0.9995436275085768  0.7491241004738844  0.5008453381904134
  0.9995262303093793  0.7514915999882575  0.0022241715280129
  0.5007942121333836  0.2468920478457014  0.2525974228936718
  0.5003610135537443  0.7505578100820662  0.2484529239804746
  0.4995170507050795  0.7453526458610563  0.7517006989770422
  0.9988864567834778  0.4997610072548401  0.4963732517310547
  0.9971154388796679  0.5023840021622008  0.0010148833434710
  0.9988923178734188  0.0010175934135224  0.5006575659015894
  0.9987422191739315  0.9993759321573271  0.0021042004675263
  0.7783348888105758  0.1237117956271300  0.2668976013086187
  0.7777931941088417  0.1251441059540394  0.7614278296559340
  0.7808899379028077  0.6251755453096591  0.2641713548150089
  0.7811522560340216  0.6250935150370086  0.7638979082734204
  0.2818960163598301  0.1245982777903148  0.4856036897502793
  0.2816034905150145  0.1244838704295445  0.9855097964801370
  0.2815871485395717  0.6249017780730769  0.4853894662124744
  0.2816081102867135  0.6251220331409744  0.9853734355187304
  0.2167259041098741  0.3748710990215041  0.2313957234936559
  0.2245435400027917  0.3738164972367561  0.7461355594656630
  0.2190579679740635  0.8749681910450795  0.2361849137413626
  0.2192782790039511  0.8749870160985418  0.7359415569158716
  0.7197108050444180  0.3740752933757353  0.0123891645497024
  0.7203822937537286  0.3707378917788369  0.5116189175520540
  0.7185887529560201  0.8750976096312110  0.0144815618691179
  0.7174996726343134  0.8749186822042441  0.5172553405455258
  0.5956180824967224  0.1227562930424496  0.0422140158509203
  0.5917671482395732  0.1264293497510001  0.5427893889795334
  0.5953530572016770  0.6242590773056512  0.0417645551174476
  0.5932910134129589  0.6217477860879022  0.5426720503691932
  0.0927193682415328  0.1242159149542604  0.2087545045079634
  0.0940310731441342  0.1276452406233690  0.7107670741922752
  0.0934892496567356  0.6253882808271123  0.2073223397829128
  0.0942995234093324  0.6218187540192038  0.7103744660673699
  0.3974301803545088  0.3753729631067044  0.4566150050320970
  0.4064203583723298  0.3737063571408312  0.9596104867668344
  0.4057243289269055  0.8739410228349432  0.4572491102148059
  0.4071681073245228  0.8743449786692398  0.9568874019006043
  0.9068977750110306  0.3749914754446178  0.2883167007749067
  0.9101646968408496  0.3748586646758730  0.7881561190221998
  0.9064321462123115  0.8746265714521358  0.2942077727261267
  0.9076186917034780  0.8752145701913618  0.7932204226770742
  0.5941498917024678  0.1261552833998815  0.3792670733493640
  0.6017933851736369  0.1166129188583510  0.8822327068830289
  0.5955479661548292  0.6217863051838769  0.3804777507255129
  0.5994987759888798  0.6255234368795850  0.8802556287783336
  0.0947797166877093  0.1254471987949021  0.3710235893069573
  0.0941393830422145  0.1262131022629396  0.8725574275871462
  0.0950841833578626  0.6238814186282886  0.3694892179064719
  0.0942628672089206  0.6235855974263853  0.8721293627036362
  0.4026576181203182  0.3747159538004472  0.1215140475289930
  0.3837816846107264  0.3791723325515008  0.6185679026281773
  0.4049448871985193  0.8741257239170472  0.1189416618432007
  0.4019781713001743  0.8730331361429864  0.6190249861585178
  0.9069335770165042  0.3754814684707511  0.1261025406101836
  0.9083571041214836  0.3747097702759605  0.6265907570214265
  0.9050415319688111  0.8744200101807416  0.1320191123223333
  0.9063840457769794  0.8744786421457738  0.6311388959191291
  0.9542397602497891  0.1238473343463622  0.1465426237548024
  0.9574422371711768  0.1270887450884335  0.6446904296695302
  0.9549975457693100  0.6254707633048450  0.1449692104185258
  0.9573709133403399  0.6225148407226422  0.6445980177103272
  0.4558378627928263  0.1258947646241111  0.1033639588817839
  0.4530740106745971  0.1242917937905648  0.6006104084096051
  0.4559567125825536  0.6228716737238849  0.1032989206295881
  0.4548262334233039  0.6207609697740504  0.6047581921609436
  0.0447221329754307  0.3755794090478154  0.3522409923660205
  0.0517595504114691  0.3755150232139695  0.8485870703146471
  0.0448951951089934  0.8741264854936667  0.3570115017299708
  0.0462887660788701  0.8745934304506791  0.8556950611899368
  0.5386276294315765  0.3745425888356332  0.4032742225457695
  0.5439704334009489  0.3763082642244447  0.9003353666254990
  0.5446296318493139  0.8737940854722452  0.3950677710316361
  0.5453166872992576  0.8735615040488107  0.8937205532582466
  0.6637839779841853  0.0208256657360444  0.1147715313007303
  0.6627558090265339  0.0225717359237368  0.6076827557145120
  0.6672852545539778  0.5223913118788471  0.1080344089270855
  0.6656941672549594  0.5191658862479126  0.6080226703984734
  0.1637009103169682  0.2259279781446796  0.1407437130090407
  0.1652431938715115  0.2331922303717978  0.6485296668032318
  0.1647627627924009  0.7275619392078010  0.1418166668530171
  0.1684900728484770  0.7219716715539196  0.6432642587960998
  0.3286728650375805  0.2730131225929309  0.3897446567615623
  0.3235511588808025  0.2770263721470677  0.8944902920380289
  0.3348311433723765  0.7717627281917878  0.3898322587357949
  0.3348806865619496  0.7722150853268275  0.8909724845680415
  0.8342696562267330  0.4761699210888895  0.3557482436759101
  0.8409458827319397  0.4769934087709367  0.8564879850332172
  0.8356252507258137  0.9767465807010494  0.3611043848244515
  0.8370836659938988  0.9777781520115197  0.8590542830868326
  0.3302749674118591  0.4777875847107934  0.3864244728621314
  0.3294903959559947  0.4736693776585349  0.8896360344005383
  0.3339046473803080  0.9755949642229895  0.3904261026656899
  0.3350097595991112  0.9764647415884098  0.8915376772574979
  0.8360941631944766  0.2727622448707239  0.3543443324581071
  0.8415092572440673  0.2734011348168481  0.8573915680491053
  0.8346803607073613  0.7725836096850773  0.3606161997605189
  0.8360159392066550  0.7730941815809697  0.8594224005578208
  0.6673446472471203  0.2255353119481416  0.1072065343961994
  0.6723004624372777  0.2248738692592071  0.6034158657974759
  0.6646712269961538  0.7266833690241234  0.1104945641562690
  0.6653718829214988  0.7236110832027558  0.6086045915608339
  0.1645586054209352  0.0223130292617382  0.1426111602834050
  0.1684303031318488  0.0274582086275421  0.6437838208223523
  0.1647556728167590  0.5238478106473567  0.1387058188934971
  0.1652724117447791  0.5163720299302085  0.6480193910879223
 
             NaN             NaN             NaN
             NaN             NaN             NaN
             NaN             NaN             NaN
             NaN             NaN             NaN
             NaN             NaN             NaN
             NaN             NaN             NaN
             NaN             NaN             NaN
             NaN             NaN             NaN
             NaN             NaN             NaN
             NaN             NaN             NaN
             NaN             NaN             NaN
             NaN             NaN             NaN
             NaN             NaN             NaN
             NaN             NaN             NaN
             NaN             NaN             NaN
             NaN             NaN             NaN
             NaN             NaN             NaN
             NaN             NaN             NaN
             NaN             NaN             NaN
             NaN             NaN             NaN
             NaN             NaN             NaN
             NaN             NaN             NaN
             NaN             NaN             NaN
             NaN             NaN             NaN
             NaN             NaN             NaN
             NaN             NaN             NaN
             NaN             NaN             NaN
             NaN             NaN             NaN
             NaN             NaN             NaN
             NaN             NaN             NaN
             NaN             NaN             NaN
             NaN             NaN             NaN
             NaN             NaN             NaN
             NaN             NaN             NaN
             NaN             NaN             NaN
             NaN             NaN             NaN
             NaN             NaN             NaN
             NaN             NaN             NaN
             NaN             NaN             NaN
             NaN             NaN             NaN
             NaN             NaN             NaN
             NaN             NaN             NaN
             NaN             NaN             NaN
             NaN             NaN             NaN
             NaN             NaN             NaN
             NaN             NaN             NaN
             NaN             NaN             NaN
             NaN             NaN             NaN
             NaN             NaN             NaN
             NaN             NaN             NaN
             NaN             NaN             NaN
             NaN             NaN             NaN
             NaN             NaN             NaN
             NaN             NaN             NaN
             NaN             NaN             NaN
             NaN             NaN             NaN
             NaN             NaN             NaN
             NaN             NaN             NaN
             NaN             NaN             NaN
             NaN             NaN             NaN
             NaN             NaN             NaN
             NaN             NaN             NaN
             NaN             NaN             NaN
             NaN             NaN             NaN
             NaN             NaN             NaN
             NaN             NaN             NaN
             NaN             NaN             NaN
             NaN             NaN             NaN
             NaN             NaN             NaN
             NaN             NaN             NaN
             NaN             NaN             NaN
             NaN             NaN             NaN
             NaN             NaN             NaN
             NaN             NaN             NaN
             NaN             NaN             NaN
             NaN             NaN             NaN
             NaN             NaN             NaN
             NaN             NaN             NaN
             NaN             NaN             NaN
             NaN             NaN             NaN
             NaN             NaN             NaN
             NaN             NaN             NaN
             NaN             NaN             NaN
             NaN             NaN             NaN
             NaN             NaN             NaN
             NaN             NaN             NaN
             NaN             NaN             NaN
             NaN             NaN             NaN
             NaN             NaN             NaN
             NaN             NaN             NaN
             NaN             NaN             NaN
             NaN             NaN             NaN
             NaN             NaN             NaN
             NaN             NaN             NaN
             NaN             NaN             NaN
             NaN             NaN             NaN
             NaN             NaN             NaN
             NaN             NaN             NaN
             NaN             NaN             NaN
             NaN             NaN             NaN
             NaN             NaN             NaN
             NaN             NaN             NaN
             NaN             NaN             NaN
             NaN             NaN             NaN
             NaN             NaN             NaN
             NaN             NaN             NaN
             NaN             NaN             NaN
             NaN             NaN             NaN
             NaN             NaN             NaN
             NaN             NaN             NaN
             NaN             NaN             NaN
