Li15 Fe16 P16 O64                       
   1.00000000000000     
    10.2414889999999996    0.0020130000000000    0.0235030000000000
     0.0015220000000000   11.9648420000000009   -0.0051380000000000
     0.0117770000000000   -0.0065300000000000    9.3725649999999998
   Li   Fe   P    O 
    15    16    16    64
Direct
  0.5170449485880507  0.4684897450979615  0.7324341685151960
  0.5016761087766437  0.0002857496462982  0.2516361270333985
  0.4994729421543382  0.0095408288238063  0.7536062024339397
  0.4996918497212740  0.5005420919450357  0.2514295010376384
  0.9984777029879771  0.2491673137769410  0.4960616864382258
  0.9966297015427608  0.2464568135457534  0.0012268931922474
  0.9995422766216174  0.7491261049070338  0.5008430046999518
  0.9995255366082363  0.7514933401233086  0.0022258795924748
  0.5007965931317082  0.2468888356663073  0.2525973923465102
  0.5003611009614601  0.7505592055594059  0.2484532316246330
  0.4995179751169727  0.7453545544722013  0.7517007090238399
  0.9988822747769014  0.4997616724655516  0.4963671902302524
  0.9971125159145320  0.5023877054164285  0.0010216687615947
  0.9988909027127062  0.0010167197044661  0.5006552554681691
  0.9987411147126830  0.9993752226385438  0.0021055602206654
  0.7783320975334080  0.1237100085998898  0.2668956442330866
  0.7777880762530213  0.1251407697571472  0.7614260104623547
  0.7808876472982798  0.6251773480585632  0.2641678929835032
  0.7811463701364955  0.6250975684134470  0.7638936055808861
  0.2818955034470356  0.1245911683621996  0.4855981248079502
  0.2815977320654977  0.1244696781147696  0.9855216027108490
  0.2815867506589991  0.6249085191019472  0.4853847763603095
  0.2816019754054729  0.6251352651601374  0.9853856066926147
  0.2167234060526820  0.3748698818962309  0.2313996490258728
  0.2245568503406067  0.3738143713542825  0.7461544673883365
  0.2190620270919258  0.8749686445272172  0.2361895052408497
  0.2192831449321556  0.8749878399896935  0.7359465136370722
  0.7197165385237169  0.3740738216341660  0.0123925476683102
  0.7203882822555854  0.3707377276729952  0.5116114854792929
  0.7185928124357503  0.8750999913947698  0.0144782533377221
  0.7175033821372135  0.8749194986414114  0.5172505452706718
  0.5956223330160723  0.1227523375552052  0.0422160163036820
  0.5917718755513790  0.1264265346726251  0.5427952205611957
  0.5953567152329181  0.6242626602043692  0.0417729670788441
  0.5932943341990440  0.6217532433765953  0.5426746578074040
  0.0927155476078515  0.1242098343733321  0.2087485447941879
  0.0940074249444499  0.1276138093025584  0.7107731157829937
  0.0934863758409258  0.6253943664448185  0.2073151113675931
  0.0942794251096181  0.6218475655403095  0.7103809872672968
  0.3974344808574095  0.3753689399252911  0.4565548262801195
  0.4064595632913235  0.3737047117389510  0.9596385818373178
  0.4057259391036018  0.8739438422576933  0.4572398507264476
  0.4071729412551464  0.8743471453374236  0.9568855742241075
  0.9068961132214026  0.3749888151846565  0.2883256290549978
  0.9101171726004869  0.3748551732933502  0.7881489713937264
  0.9064320771695619  0.8746291540539971  0.2942140318240729
  0.9076155267964165  0.8752185870139136  0.7932279564038628
  0.5941458108987028  0.1261568743013393  0.3792700520050848
  0.6017867803947631  0.1166144525408681  0.8822398546074933
  0.5955448942565958  0.6217844340824145  0.3804824611853201
  0.5994954289760298  0.6255214633241346  0.8802578120236013
  0.0947790558202599  0.1254495611317234  0.3710235593615478
  0.0941416998230008  0.1262202417462596  0.8725479925396539
  0.0950842446506010  0.6238793057075983  0.3694900702187116
  0.0942645383694375  0.6235789661596637  0.8721201859912204
  0.4026560847412101  0.3747165448728597  0.1214945241891305
  0.3837494070689626  0.3791710094425397  0.6186082954821484
  0.4049457787277955  0.8741252045995266  0.1189370384231636
  0.4019778358790899  0.8730324324956594  0.6190240737358762
  0.9069369569644176  0.3754823356488874  0.1261013725185679
  0.9083687596258571  0.3747110733651990  0.6266022453782039
  0.9050427216167722  0.8744191915320862  0.1320208406903901
  0.9063863426979210  0.8744775782133265  0.6311409301584046
  0.9542463347576255  0.1238489739240314  0.1465393982667127
  0.9574615377812953  0.1270951772062355  0.6446878463836641
  0.9550036342779065  0.6254691979018027  0.1449662537717308
  0.9573859094005456  0.6225094030244355  0.6445963351390237
  0.4558385110227943  0.1258976091912780  0.1033651547432831
  0.4530777229804900  0.1242950212957859  0.6006151859307544
  0.4559580041569129  0.6228692383112108  0.1032990887329243
  0.4548269374431498  0.6207569294458577  0.6047627014183733
  0.0447188677360488  0.3755802609855906  0.3522463302854902
  0.0518084452087244  0.3755151686119713  0.8485752698936233
  0.0448917167811786  0.8741257372913314  0.3570146092085489
  0.0462873160518048  0.8745925542287817  0.8556959684002585
  0.5386144894619086  0.3745442086110071  0.4032838755106699
  0.5439476706457774  0.3763091577329023  0.9003291549194631
  0.5446257534580926  0.8737931477309168  0.3950663465754077
  0.5453107141573634  0.8735608402241567  0.8937182375058890
  0.6637786593537995  0.0208310144442028  0.1147710566476701
  0.6627506591243778  0.0225770190170303  0.6076813180118720
  0.6672804744253694  0.5223953250704311  0.1080332852468963
  0.6656894281201473  0.5191692701695827  0.6080260054552102
  0.1636996833002332  0.2259247518964804  0.1407382266824869
  0.1652574404967865  0.2332300515870813  0.6485409258019887
  0.1647580599434270  0.7275532325909525  0.1418165413352925
  0.1684859487756541  0.7219553874975847  0.6432654387622921
  0.3286791392751585  0.2730250423489640  0.3897552391801957
  0.3235324859473315  0.2770505709252468  0.8944567088556761
  0.3348342043168942  0.7717670408080046  0.3898323216505982
  0.3348823137478789  0.7722175275338217  0.8909701192184458
  0.8342738909499736  0.4761646781397652  0.3557496430118097
  0.8409610696714661  0.4769825289094010  0.8564870828611089
  0.8356302638239623  0.9767390919257235  0.3611052724715328
  0.8370898484751819  0.9777693701159005  0.8590546745972452
  0.3302804643439380  0.4777796978414651  0.3864353350752711
  0.3294697965323683  0.4736480851064446  0.8896020562497771
  0.3339085239828402  0.9755879900503981  0.3904266183486382
  0.3350118547934562  0.9764606064054352  0.8915361723965237
  0.8360998631903043  0.2727716286163362  0.3543445169747247
  0.8415266194126474  0.2734161380161788  0.8573901182287609
  0.8346839011183624  0.7725879425874067  0.3606178476251268
  0.8360202645942798  0.7730970634644321  0.8594223005617486
  0.6673402043467606  0.2255332755986210  0.1072055791595272
  0.6722944096368790  0.2248714266211619  0.6034136370183203
  0.6646662255133269  0.7266760683703610  0.1104938942940748
  0.6653667236624166  0.7236036835652118  0.6086042115727892
  0.1645537344040037  0.0223207428649432  0.1426113649511536
  0.1684259429579997  0.0274734507138627  0.6437861932768358
  0.1647543136928961  0.5238519889690422  0.1387003279739940
  0.1652850043428709  0.5163397494086704  0.6480292384388407
 
             NaN             NaN             NaN
             NaN             NaN             NaN
             NaN             NaN             NaN
             NaN             NaN             NaN
             NaN             NaN             NaN
             NaN             NaN             NaN
             NaN             NaN             NaN
             NaN             NaN             NaN
             NaN             NaN             NaN
             NaN             NaN             NaN
             NaN             NaN             NaN
             NaN             NaN             NaN
             NaN             NaN             NaN
             NaN             NaN             NaN
             NaN             NaN             NaN
             NaN             NaN             NaN
             NaN             NaN             NaN
             NaN             NaN             NaN
             NaN             NaN             NaN
             NaN             NaN             NaN
             NaN             NaN             NaN
             NaN             NaN             NaN
             NaN             NaN             NaN
             NaN             NaN             NaN
             NaN             NaN             NaN
             NaN             NaN             NaN
             NaN             NaN             NaN
             NaN             NaN             NaN
             NaN             NaN             NaN
             NaN             NaN             NaN
             NaN             NaN             NaN
             NaN             NaN             NaN
             NaN             NaN             NaN
             NaN             NaN             NaN
             NaN             NaN             NaN
             NaN             NaN             NaN
             NaN             NaN             NaN
             NaN             NaN             NaN
             NaN             NaN             NaN
             NaN             NaN             NaN
             NaN             NaN             NaN
             NaN             NaN             NaN
             NaN             NaN             NaN
             NaN             NaN             NaN
             NaN             NaN             NaN
             NaN             NaN             NaN
             NaN             NaN             NaN
             NaN             NaN             NaN
             NaN             NaN             NaN
             NaN             NaN             NaN
             NaN             NaN             NaN
             NaN             NaN             NaN
             NaN             NaN             NaN
             NaN             NaN             NaN
             NaN             NaN             NaN
             NaN             NaN             NaN
             NaN             NaN             NaN
             NaN             NaN             NaN
             NaN             NaN             NaN
             NaN             NaN             NaN
             NaN             NaN             NaN
             NaN             NaN             NaN
             NaN             NaN             NaN
             NaN             NaN             NaN
             NaN             NaN             NaN
             NaN             NaN             NaN
             NaN             NaN             NaN
             NaN             NaN             NaN
             NaN             NaN             NaN
             NaN             NaN             NaN
             NaN             NaN             NaN
             NaN             NaN             NaN
             NaN             NaN             NaN
             NaN             NaN             NaN
             NaN             NaN             NaN
             NaN             NaN             NaN
             NaN             NaN             NaN
             NaN             NaN             NaN
             NaN             NaN             NaN
             NaN             NaN             NaN
             NaN             NaN             NaN
             NaN             NaN             NaN
             NaN             NaN             NaN
             NaN             NaN             NaN
             NaN             NaN             NaN
             NaN             NaN             NaN
             NaN             NaN             NaN
             NaN             NaN             NaN
             NaN             NaN             NaN
             NaN             NaN             NaN
             NaN             NaN             NaN
             NaN             NaN             NaN
             NaN             NaN             NaN
             NaN             NaN             NaN
             NaN             NaN             NaN
             NaN             NaN             NaN
             NaN             NaN             NaN
             NaN             NaN             NaN
             NaN             NaN             NaN
             NaN             NaN             NaN
             NaN             NaN             NaN
             NaN             NaN             NaN
             NaN             NaN             NaN
             NaN             NaN             NaN
             NaN             NaN             NaN
             NaN             NaN             NaN
             NaN             NaN             NaN
             NaN             NaN             NaN
             NaN             NaN             NaN
             NaN             NaN             NaN
             NaN             NaN             NaN
