Li47 P16 O64                            
   1.00000000000000     
    10.6142679999999991   -0.0020730000000000    0.0003730000000000
    -0.0023990000000000   12.3618900000000007    0.0031530000000000
     0.0003190000000000    0.0025270000000000   10.0280570000000004
   Li   P    O 
    47    16    64
Direct
  0.3138886419323583  0.3620372136433758  0.1381460585372665
  0.6578811841765244  0.2512951111214292  0.0987967722765788
  0.6660084174958030  0.2492649752753024  0.5986148717633810
  0.6594289425341060  0.7476710427393556  0.0983781476963017
  0.6633397628818329  0.7502109617201000  0.5989949133924810
  0.1523050281016509  0.5084613947298351  0.1525534460633367
  0.1637924683709997  0.5012836276982213  0.6504727363357432
  0.1642992038571265  0.0028579704547909  0.1485086067768009
  0.1636838679543828  0.0011444789303141  0.6509882713388961
  0.3371554223211035  0.0010528004897097  0.3982999049672884
  0.3369831823771889  0.0000441492062961  0.9032127512798738
  0.3376239233033473  0.4997931931656936  0.4028473710798153
  0.3372916195114684  0.4984880727492893  0.9004107324900659
  0.8363111144186348  0.2488772442124940  0.3478866469789637
  0.8352559788365070  0.2496299521711265  0.8529002686193223
  0.8360568908986323  0.7490282613046730  0.3489231454186168
  0.8360751279426921  0.7495661533866880  0.8490044735301794
  0.3388990796586242  0.2460215627769884  0.4035654627323950
  0.3382473840912894  0.2483607170327460  0.9009102566831828
  0.3366958280961327  0.7483886688189898  0.4006760546477963
  0.3353521696297790  0.7479722839885596  0.9015091061966984
  0.8384148650766150  0.0023570669400996  0.3476537554343366
  0.8363138033068793  0.0012235543295276  0.8481628198040880
  0.8362076291993574  0.4980120193837649  0.3464043702770496
  0.8351403659110943  0.5002712591433749  0.8538957131994920
  0.6576223035959856  0.4932178211593268  0.0969188428900623
  0.6657591411705184  0.4988397206604276  0.5986271178317750
  0.6619322323411723  0.9952128733919281  0.0981628384074895
  0.6646340382300551  0.9981308971553631  0.5986781082059736
  0.1638265612901719  0.2532280968321174  0.6485239969110737
  0.1621145270169109  0.7532371545703782  0.1527556548530384
  0.1638366906430804  0.7527548198569463  0.6502557131724913
  0.9392144891704319  0.3647790947070177  0.1484121315955349
  0.9259445257172985  0.3758674283483501  0.6542445714686593
  0.9243816767860835  0.8763460361904123  0.1483952922493472
  0.9265904971979282  0.8762267311950396  0.6484668638071795
  0.4283471254473881  0.3738065320417547  0.6053771876766376
  0.4250998711259157  0.8730153073706006  0.1019911405599956
  0.4257527459152115  0.8749930397474657  0.5999193404663714
  0.0789559867017999  0.1347606307555225  0.3376188465747347
  0.0752186916349800  0.1292559916487264  0.8577204777527854
  0.0730802922956855  0.6263355593595392  0.3547816699369193
  0.0733754079983626  0.6255770537337284  0.8494527955008451
  0.5751363975524200  0.1248271447144162  0.3969415980310984
  0.5739743652479206  0.1242790420241491  0.9013279584078546
  0.5741166750201430  0.6223554023731950  0.3994119562550935
  0.5720599069739762  0.6220591793826244  0.8980529161792319
  0.9081030524754183  0.1213863742793748  0.0967920947573404
  0.9132727118428861  0.1257035981292134  0.5971320417174439
  0.9076492086385457  0.6263704899657654  0.0976632132768032
  0.9108804191970918  0.6259517429354347  0.5972757886355069
  0.4134815380057759  0.1218317717897364  0.1511478510267352
  0.4125452036777446  0.1230148680663845  0.6533933299404424
  0.4070236822846738  0.6226784911025049  0.1533653327567492
  0.4111141802576341  0.6251915896958025  0.6530524141888279
  0.0905688501847379  0.3757248888058911  0.4058558411870905
  0.0921619409996239  0.3782887959768786  0.9035525319274527
  0.0896578477764223  0.8763015011463509  0.4028840711476036
  0.0887507273678665  0.8754162173405788  0.9029490660279933
  0.5904881103323163  0.3738442109817726  0.3476367479529827
  0.5861066563969288  0.3742533959114951  0.8414812370628368
  0.5890499835925311  0.8731413564200992  0.3469912668860147
  0.5882041651664522  0.8729605637820654  0.8458582045800398
  0.8345083507384317  0.0186299692651488  0.1457146573312826
  0.8423940157701040  0.0220658709634733  0.6468736773571067
  0.8401304144490354  0.5220102668320976  0.1470464600282213
  0.8423529523332505  0.5235515850821741  0.6519300093729967
  0.3470158768036242  0.2214624056178991  0.0933995586191116
  0.3436736945378343  0.2267548422954633  0.6033421766617266
  0.3387949768598091  0.7271767540162415  0.1029587715169740
  0.3413182754568851  0.7283465313700148  0.6014346703995272
  0.1650124099999388  0.2737847758602783  0.3652118664016442
  0.1597888295592043  0.2754690144959966  0.8488336070397295
  0.1591780877376294  0.7720768942042397  0.3537026406892068
  0.1586874830868510  0.7723516966903432  0.8512390112869639
  0.6589573979176677  0.4774792168040918  0.4020711592415225
  0.6551680941518470  0.4771154127499386  0.8962724224961391
  0.6596823511952152  0.9760760420406598  0.3973356023444126
  0.6586742594883432  0.9756164692606788  0.8965487216362149
  0.1591651702522938  0.4796826105125476  0.3523004392097846
  0.1584564308136152  0.4815746261642602  0.8458767261898643
  0.1602085487096545  0.9782223009583859  0.3510302533043159
  0.1590354270057546  0.9784937997739576  0.8525644969120023
  0.6592172138944719  0.2708180194720953  0.4027135365574779
  0.6541859370661385  0.2714225273186557  0.8969733265537840
  0.6585422147269071  0.7700199958388865  0.3989349975559477
  0.6576287598921695  0.7694137962073739  0.8968132003613221
  0.8393240997740961  0.2253640896254225  0.1479700628802405
  0.8431090747653229  0.2282047024439251  0.6498870857473236
  0.8358704838312931  0.7289293821202563  0.1477082833458709
  0.8410321258310915  0.7295286491559878  0.6474102315348418
  0.3444532007329144  0.0164389033780949  0.1035585998709934
  0.3417535013964539  0.0206855419004199  0.6006949623026969
  0.3316694633703605  0.5217698886470359  0.1047046763451789
  0.3420479032386368  0.5222879569163581  0.6006520165036946
  0.5531306571879995  0.1187478721077966  0.1021352856451898
  0.5506155726434869  0.1224871326894217  0.6009045679946112
  0.5439709273682851  0.6213286310849142  0.0982152345754770
  0.5496133497540825  0.6253641884138972  0.6021209749433822
  0.0436876063181231  0.1168807992099161  0.1490493951095715
  0.0505813715896579  0.1255823693105000  0.6512150892891739
  0.0448393569233687  0.6302784887975861  0.1527048447165242
  0.0497013713647831  0.6280483138018411  0.6470996199791372
  0.4508865596148581  0.3739980664255853  0.3977919086976485
  0.4449165851188894  0.3752254210469133  0.8777594545214598
  0.4510220277037220  0.8738562270779440  0.3995287473191880
  0.4502457683872763  0.8727741712249966  0.8983651741852370
  0.9537425499418859  0.3734001657796284  0.3490564026947212
  0.9511736358940581  0.3761685776268280  0.8576982946058820
  0.9514373571021935  0.8750136227799601  0.3504271644854811
  0.9507841829594526  0.8751332667769134  0.8499700763502176
  0.5967278552587771  0.3734439414285262  0.1942767676980139
  0.5974701811326710  0.3741924083916075  0.6856333811507227
  0.5883493153962860  0.8713653900626639  0.1913335302735675
  0.5887668679724243  0.8734353942257442  0.6899734338894987
  0.1007550551613505  0.3831803767933479  0.0579236686405125
  0.0854645227564959  0.3809419456740741  0.5619130837201851
  0.0885004980209914  0.8747169022887462  0.0585543857295647
  0.0894505652501252  0.8766640524385920  0.5589005550310304
  0.4121775880188920  0.1240615705190109  0.3075733251348964
  0.4118731876987027  0.1214443983688867  0.8089435872014334
  0.4100514697809956  0.6238407322984116  0.3092282287726604
  0.4092062723250081  0.6252962685217369  0.8087251472044059
  0.9133251216896454  0.1262484042594139  0.4413849573475375
  0.9071882087704424  0.1235223565868537  0.9403084499390388
  0.9085454825286945  0.6241050869550335  0.4414272931936978
  0.9102447302764602  0.6267682370983749  0.9417040623502899
 
             NaN             NaN             NaN
             NaN             NaN             NaN
             NaN             NaN             NaN
             NaN             NaN             NaN
             NaN             NaN             NaN
             NaN             NaN             NaN
             NaN             NaN             NaN
             NaN             NaN             NaN
             NaN             NaN             NaN
             NaN             NaN             NaN
             NaN             NaN             NaN
             NaN             NaN             NaN
             NaN             NaN             NaN
             NaN             NaN             NaN
             NaN             NaN             NaN
             NaN             NaN             NaN
             NaN             NaN             NaN
             NaN             NaN             NaN
             NaN             NaN             NaN
             NaN             NaN             NaN
             NaN             NaN             NaN
             NaN             NaN             NaN
             NaN             NaN             NaN
             NaN             NaN             NaN
             NaN             NaN             NaN
             NaN             NaN             NaN
             NaN             NaN             NaN
             NaN             NaN             NaN
             NaN             NaN             NaN
             NaN             NaN             NaN
             NaN             NaN             NaN
             NaN             NaN             NaN
             NaN             NaN             NaN
             NaN             NaN             NaN
             NaN             NaN             NaN
             NaN             NaN             NaN
             NaN             NaN             NaN
             NaN             NaN             NaN
             NaN             NaN             NaN
             NaN             NaN             NaN
             NaN             NaN             NaN
             NaN             NaN             NaN
             NaN             NaN             NaN
             NaN             NaN             NaN
             NaN             NaN             NaN
             NaN             NaN             NaN
             NaN             NaN             NaN
             NaN             NaN             NaN
             NaN             NaN             NaN
             NaN             NaN             NaN
             NaN             NaN             NaN
             NaN             NaN             NaN
             NaN             NaN             NaN
             NaN             NaN             NaN
             NaN             NaN             NaN
             NaN             NaN             NaN
             NaN             NaN             NaN
             NaN             NaN             NaN
             NaN             NaN             NaN
             NaN             NaN             NaN
             NaN             NaN             NaN
             NaN             NaN             NaN
             NaN             NaN             NaN
             NaN             NaN             NaN
             NaN             NaN             NaN
             NaN             NaN             NaN
             NaN             NaN             NaN
             NaN             NaN             NaN
             NaN             NaN             NaN
             NaN             NaN             NaN
             NaN             NaN             NaN
             NaN             NaN             NaN
             NaN             NaN             NaN
             NaN             NaN             NaN
             NaN             NaN             NaN
             NaN             NaN             NaN
             NaN             NaN             NaN
             NaN             NaN             NaN
             NaN             NaN             NaN
             NaN             NaN             NaN
             NaN             NaN             NaN
             NaN             NaN             NaN
             NaN             NaN             NaN
             NaN             NaN             NaN
             NaN             NaN             NaN
             NaN             NaN             NaN
             NaN             NaN             NaN
             NaN             NaN             NaN
             NaN             NaN             NaN
             NaN             NaN             NaN
             NaN             NaN             NaN
             NaN             NaN             NaN
             NaN             NaN             NaN
             NaN             NaN             NaN
             NaN             NaN             NaN
             NaN             NaN             NaN
             NaN             NaN             NaN
             NaN             NaN             NaN
             NaN             NaN             NaN
             NaN             NaN             NaN
             NaN             NaN             NaN
             NaN             NaN             NaN
             NaN             NaN             NaN
             NaN             NaN             NaN
             NaN             NaN             NaN
             NaN             NaN             NaN
             NaN             NaN             NaN
             NaN             NaN             NaN
             NaN             NaN             NaN
             NaN             NaN             NaN
             NaN             NaN             NaN
             NaN             NaN             NaN
             NaN             NaN             NaN
             NaN             NaN             NaN
             NaN             NaN             NaN
             NaN             NaN             NaN
             NaN             NaN             NaN
             NaN             NaN             NaN
             NaN             NaN             NaN
             NaN             NaN             NaN
             NaN             NaN             NaN
             NaN             NaN             NaN
             NaN             NaN             NaN
             NaN             NaN             NaN
             NaN             NaN             NaN
             NaN             NaN             NaN
             NaN             NaN             NaN
