Li15 Fe16 P16 O64                       
   1.00000000000000     
    10.4265139999999992    0.0003540000000000    0.0055880000000000
     0.0004180000000000   12.1423220000000001   -0.0002970000000000
     0.0035190000000000   -0.0002740000000000    9.5214479999999995
   Li   Fe   P    O 
    15    16    16    64
Direct
  0.5442783759625394  0.4071802177868597  0.7186514433120426
  0.4963864888777151  0.4982212518916440  0.2454243136290622
  0.4980716758334752  0.0041491358076561  0.2488730941884529
  0.4957353534914125  0.0118758350812910  0.7598908283777204
  0.0018963161939901  0.2515068689736609  0.5030624945628739
  0.0021540182094055  0.2506513559030061  0.0003239694843548
  0.0059531856285066  0.7449998057557375  0.4968721086885786
  0.0006955466032950  0.7472689472169043  0.9953220432663202
  0.4965253086635079  0.2508896085433240  0.2455675361425196
  0.4976395840468176  0.7462559463031375  0.2481037215745770
  0.4954139153167618  0.7392457829354286  0.7598924537144708
  0.0005604705112641  0.0031054958134236  0.9950697434397826
  0.0058859835352390  0.0051540225247192  0.4966230166458632
  0.0021333348448931  0.4991102704564118  0.0006222578668301
  0.0017510892937468  0.4979728509930063  0.5033015893577300
  0.7793024224109554  0.1259593382036762  0.2632680268490575
  0.7784522325295775  0.1265190498368858  0.7631862242776469
  0.7794809720180266  0.6233490701964468  0.2636450090285931
  0.7797005478745390  0.6239896327074880  0.7642734892497571
  0.2838341047524362  0.1256654214543104  0.4888069145407650
  0.2824043648302842  0.1262761720597706  0.9859238548417422
  0.2828666520398162  0.6239027735868137  0.4878169690714483
  0.2824140539953051  0.6232685303381018  0.9857847221362638
  0.2180892533064253  0.3749787673209360  0.2346432268983861
  0.2221719632282870  0.3745909194081687  0.7403615898737417
  0.2209688360976318  0.8750418226659262  0.2364832994957128
  0.2194937318180308  0.8749191462571384  0.7360413147033426
  0.7172150762143421  0.3744250927617005  0.0143130662876221
  0.7219441991445891  0.3724604035908526  0.5050186227603971
  0.7151489962008341  0.8749918244944159  0.0167982440728051
  0.7195260699653705  0.8746544016345887  0.5099837644266351
  0.5962034327532664  0.1225964218385274  0.0423353566193229
  0.5940842062908326  0.1237291102020947  0.5394935646175952
  0.5961365442250084  0.6267082609805837  0.0426960810984800
  0.5929825816699587  0.6245937559237995  0.5407983813578147
  0.0932255231309353  0.1231388171718108  0.2090361920297511
  0.0931030941056444  0.1240960730934481  0.7078913767209850
  0.0931452733116001  0.6268700670972961  0.2087408765139998
  0.0930888988617119  0.6256634942638778  0.7077894966717574
  0.4031616524115016  0.3748240412858563  0.4546098912879857
  0.4020110310222647  0.3744709091383868  0.9624757782966584
  0.4083171581837467  0.8744982798737714  0.4606137436518778
  0.4055160309986640  0.8747788567583089  0.9584447203962211
  0.9087905304617988  0.3749689271828179  0.2906908890262881
  0.9059253918480283  0.3749221531265975  0.7921181285820448
  0.9045327279976928  0.8747333902775372  0.2943326862961687
  0.8991391612392949  0.8750690184835660  0.7926260719259562
  0.5970800322632821  0.1246960305866649  0.3775329330082121
  0.6028974670708716  0.1155183195746603  0.8829491870883186
  0.5977568551371240  0.6231184815957664  0.3792442796088808
  0.6025354590337411  0.6328720372532186  0.8828986984768699
  0.0963858951930211  0.1220761552446506  0.3706651846188457
  0.0950032863143836  0.1227767799563600  0.8693609432244467
  0.0962415610681928  0.6277415649639974  0.3703818371602213
  0.0950364354814279  0.6271011385361359  0.8692327326564402
  0.4014999389209443  0.3746228474611008  0.1252345823330384
  0.3962855678992799  0.3758697353546890  0.6145218939392258
  0.4033800221194661  0.8746971518060069  0.1202116608101006
  0.4020928250683896  0.8744456574240278  0.6206963339595596
  0.9061579045115580  0.3753576924076070  0.1296020174798057
  0.9037972981375724  0.3747959160305450  0.6302993479038489
  0.9011121200764599  0.8747247208301224  0.1341840592654861
  0.8862688003826054  0.8744610036844626  0.6300873942206168
  0.9548994313123284  0.1211691351226221  0.1478644221267643
  0.9552802032416987  0.1227200415131207  0.6453607949098963
  0.9547320186769281  0.6284449844026014  0.1478086863598280
  0.9550765783148171  0.6268184376236543  0.6453986031280886
  0.4575688223230748  0.1243145889917982  0.1031792292165413
  0.4577667559296955  0.1171469193593981  0.5993804162047518
  0.4575222768420673  0.6252874121208383  0.1034875440750026
  0.4565065028928482  0.6323537884007814  0.6003318016106958
  0.0454412115685591  0.3753235274469830  0.3552172773673763
  0.0431780555268238  0.3753694950644093  0.8551453888111562
  0.0414977818891976  0.8748122403418281  0.3571533335018538
  0.0396215096608804  0.8749154111002607  0.8450137942053969
  0.5427701775971040  0.3744775091390606  0.3961395917029616
  0.5414090589357169  0.3751930634692043  0.9076832032527097
  0.5511229794744719  0.8739055290476356  0.4044271189819840
  0.5432049771985250  0.8746012803262212  0.8971128695769295
  0.6648473273265633  0.0216908168954520  0.1164999651106709
  0.6683465272347892  0.0184549951867874  0.6012298948914607
  0.6668843718618267  0.5243499926471763  0.1078669579822560
  0.6635525538684569  0.5220401648182825  0.6074104195979164
  0.1611739176894834  0.2258339877226466  0.1428238772515907
  0.1629967443667909  0.2262823927303295  0.6418156052989917
  0.1648666439887169  0.7280074380009354  0.1416119491520988
  0.1641962436875184  0.7271771758909218  0.6397330667913390
  0.3337336041305564  0.2725928916637012  0.3877073998445916
  0.3261846703760654  0.2748177359274448  0.9001345636557037
  0.3410070141284193  0.7732269696503506  0.3891454078144661
  0.3340162252214390  0.7731727697270333  0.8920232405209247
  0.8368001270644920  0.4761829563131182  0.3579413554067342
  0.8338683827020026  0.4764696678078512  0.8578269173765298
  0.8293129001665798  0.9738145176295758  0.3650145351332690
  0.8323087628699515  0.9772966788622293  0.8608243203437355
  0.3342141033879985  0.4771935195596430  0.3867541099613636
  0.3276589539319192  0.4749862362817228  0.8991179315619366
  0.3413332437352390  0.9759510251450322  0.3893194110147203
  0.3340778280770497  0.9763581213640067  0.8920814642841236
  0.8380314828408596  0.2727988713144450  0.3567438734610637
  0.8345356363973578  0.2736015867990306  0.8586336365703988
  0.8293724159221406  0.7755285401062164  0.3649564357725839
  0.8320994276011551  0.7730581112995561  0.8614002550951321
  0.6669040533089515  0.2250024529916278  0.1075549097400688
  0.6703557887448992  0.2231855876976218  0.6030275030004834
  0.6647951366914538  0.7277188320348461  0.1162370652880312
  0.6696046764684960  0.7281320536278345  0.6022830433802768
  0.1653267600499006  0.0221758482751057  0.1417880888696452
  0.1645573873014788  0.0226287589884930  0.6399843699962982
  0.1614888119196352  0.5243791294036177  0.1423678018923981
  0.1629617797717910  0.5234643148501320  0.6416846816707541
 
             NaN             NaN             NaN
             NaN             NaN             NaN
             NaN             NaN             NaN
             NaN             NaN             NaN
             NaN             NaN             NaN
             NaN             NaN             NaN
             NaN             NaN             NaN
             NaN             NaN             NaN
             NaN             NaN             NaN
             NaN             NaN             NaN
             NaN             NaN             NaN
             NaN             NaN             NaN
             NaN             NaN             NaN
             NaN             NaN             NaN
             NaN             NaN             NaN
             NaN             NaN             NaN
             NaN             NaN             NaN
             NaN             NaN             NaN
             NaN             NaN             NaN
             NaN             NaN             NaN
             NaN             NaN             NaN
             NaN             NaN             NaN
             NaN             NaN             NaN
             NaN             NaN             NaN
             NaN             NaN             NaN
             NaN             NaN             NaN
             NaN             NaN             NaN
             NaN             NaN             NaN
             NaN             NaN             NaN
             NaN             NaN             NaN
             NaN             NaN             NaN
             NaN             NaN             NaN
             NaN             NaN             NaN
             NaN             NaN             NaN
             NaN             NaN             NaN
             NaN             NaN             NaN
             NaN             NaN             NaN
             NaN             NaN             NaN
             NaN             NaN             NaN
             NaN             NaN             NaN
             NaN             NaN             NaN
             NaN             NaN             NaN
             NaN             NaN             NaN
             NaN             NaN             NaN
             NaN             NaN             NaN
             NaN             NaN             NaN
             NaN             NaN             NaN
             NaN             NaN             NaN
             NaN             NaN             NaN
             NaN             NaN             NaN
             NaN             NaN             NaN
             NaN             NaN             NaN
             NaN             NaN             NaN
             NaN             NaN             NaN
             NaN             NaN             NaN
             NaN             NaN             NaN
             NaN             NaN             NaN
             NaN             NaN             NaN
             NaN             NaN             NaN
             NaN             NaN             NaN
             NaN             NaN             NaN
             NaN             NaN             NaN
             NaN             NaN             NaN
             NaN             NaN             NaN
             NaN             NaN             NaN
             NaN             NaN             NaN
             NaN             NaN             NaN
             NaN             NaN             NaN
             NaN             NaN             NaN
             NaN             NaN             NaN
             NaN             NaN             NaN
             NaN             NaN             NaN
             NaN             NaN             NaN
             NaN             NaN             NaN
             NaN             NaN             NaN
             NaN             NaN             NaN
             NaN             NaN             NaN
             NaN             NaN             NaN
             NaN             NaN             NaN
             NaN             NaN             NaN
             NaN             NaN             NaN
             NaN             NaN             NaN
             NaN             NaN             NaN
             NaN             NaN             NaN
             NaN             NaN             NaN
             NaN             NaN             NaN
             NaN             NaN             NaN
             NaN             NaN             NaN
             NaN             NaN             NaN
             NaN             NaN             NaN
             NaN             NaN             NaN
             NaN             NaN             NaN
             NaN             NaN             NaN
             NaN             NaN             NaN
             NaN             NaN             NaN
             NaN             NaN             NaN
             NaN             NaN             NaN
             NaN             NaN             NaN
             NaN             NaN             NaN
             NaN             NaN             NaN
             NaN             NaN             NaN
             NaN             NaN             NaN
             NaN             NaN             NaN
             NaN             NaN             NaN
             NaN             NaN             NaN
             NaN             NaN             NaN
             NaN             NaN             NaN
             NaN             NaN             NaN
             NaN             NaN             NaN
             NaN             NaN             NaN
             NaN             NaN             NaN
