Li15 Fe16 P16 O64                       
   1.00000000000000     
    10.4265139999999992    0.0003540000000000    0.0055880000000000
     0.0004180000000000   12.1423220000000001   -0.0002970000000000
     0.0035190000000000   -0.0002740000000000    9.5214479999999995
   Li   Fe   P    O 
    15    16    16    64
Direct
  0.5442747761926804  0.4071792795927703  0.7186546931599267
  0.4963852382644996  0.4982196863910961  0.2454222528065129
  0.4980698136608832  0.0041536591397999  0.2488658134998928
  0.4957318946625773  0.0118771704172550  0.7598965968610985
  1.0018974881183114  0.2515079800266071  0.5030630324834613
  0.0021542097152098  0.2506522307191345  0.0003235244620192
  0.0059599028559501  0.7449946877452129  0.4968736376771162
  0.0006974453335088  0.7472663810484559  0.9953217292875592
  0.4965242150968873  0.2508910354701013  0.2455655080571671
  0.4976376145795918  0.7462516636287031  0.2480963900294756
  0.4954103913084104  0.7392447247548513  0.7598982126251500
  0.0005622791666643  0.0031082198896677  0.9950694582958888
  0.0058926845208194  0.0051593273205711  0.4966246994340530
  0.0021336081863458  0.4991092476840109  0.0006218675572489
  1.0017524222840057  0.4979715954480978  0.5033020350731565
  0.7792994987601891  0.1259704284719012  0.2632574829180591
  0.7784565168805079  0.1265256915534251  0.7631932472556711
  0.7794780995049742  0.6233381511758562  0.2636344002025817
  0.7797039158498075  0.6239821934464127  0.7642796619699818
  0.2838245992441022  0.1256702414039139  0.4888074242983638
  0.2824017633725586  0.1262768374408599  0.9859261616776894
  0.2828577902428294  0.6238978976805611  0.4878180699326388
  0.2824115889190338  0.6232674839651513  0.9857869316924763
  0.2180912932932690  0.3749785376892557  0.2346439641019387
  0.2221732586526091  0.3745908675563727  0.7403660961911673
  0.2209724873724262  0.8750420959305378  0.2364807294222318
  0.2194983075077153  0.8749193945328324  0.7360480623033436
  0.7172195041994656  0.3744248182121032  0.0143118300131732
  0.7219502645262684  0.3724615495600553  0.5050130329603510
  0.7151472356541397  0.8749922386307523  0.0167944537311259
  0.7195352743349831  0.8746562100624552  0.5099704784326827
  0.5961997670403454  0.1226035765102710  0.0423386002473964
  0.5940590633637263  0.1237613976813317  0.5394858139195747
  0.5961325689241108  0.6267013155197151  0.0427007570990736
  0.5929565103963533  0.6245648615881056  0.5407904137021029
  0.0932278647476020  0.1231448140424211  0.2090256126694413
  0.0931060381321625  0.1241028268769071  0.7078865533687896
  0.0931477087714156  0.6268640984211122  0.2087303667592255
  0.0930922138666806  0.6256568466494847  0.7077849323161099
  0.4031571730610698  0.3748237692767470  0.4546066124410046
  0.4020080219708879  0.3744704037066206  0.9624671714828504
  0.4082722865825058  0.8744988259605314  0.4606239533008318
  0.4055155156246620  0.8747792482407790  0.9584339764868823
  0.9087970338851673  0.3749681418309190  0.2906935863389126
  0.9059294012156884  0.3749210242920267  0.7921310099913803
  0.9045647765123469  0.8747332134455718  0.2943078333692147
  0.8991442570345208  0.8750697789798884  0.7926845852616257
  0.5970799423665818  0.1246895663479772  0.3775442445491611
  0.6028941127738457  0.1155154143482497  0.8829529484697722
  0.5977575559077630  0.6231247000715610  0.3792558548392177
  0.6025331236038770  0.6328748152789500  0.8829010903221498
  0.0963826541291518  0.1220730370325017  0.3706641846037898
  0.0950005527618971  0.1227742494299137  0.8693574797415580
  0.0962380585397321  0.6277446557527011  0.3703807878271026
  0.0950336942678367  0.6271035851647774  0.8692292470650542
  0.4015032163878273  0.3746227791484893  0.1252335480745393
  0.3962913874261117  0.3758697106660217  0.6145153979510397
  0.4033833054957245  0.8746970654543523  0.1202124125208199
  0.4021058551797475  0.8744456376522994  0.6206808985106975
  0.9061575450197387  0.3753579135979196  0.1296069290927414
  0.9037956629177832  0.3747962465646403  0.6302985602481255
  0.9011113241684809  0.8747246843928458  0.1342029191777265
  0.8862403009020929  0.8744606528856476  0.6300512493835619
  0.9549026985642129  0.1211664144186776  0.1478643220318765
  0.9552824271523782  0.1227160345658807  0.6453562034239957
  0.9547350519687904  0.6284478015799614  0.1478086378659635
  0.9550781096332807  0.6268225249509866  0.6453939690817970
  0.4575757173256517  0.1243123367599741  0.1031832255943923
  0.4577886249793778  0.1171408994078291  0.5993845522478652
  0.4575292575648852  0.6252897160278101  0.1034911325263904
  0.4565273560251844  0.6323592605197291  0.6003354696958537
  0.0454330322506063  0.3753237477193032  0.3552196310267663
  0.0431707206388261  0.3753696172483000  0.8551464674325311
  0.0414798975478256  0.8748122132880585  0.3571576755386998
  0.0396075280311894  0.8749151782145866  0.8450043152925900
  0.5427699190478378  0.3744776555545476  0.3961391722176064
  0.5414041253192545  0.3751933956927847  0.9076794781119587
  0.5511701399435130  0.8739052799558324  0.4044378948394545
  0.5432001323450184  0.8746012205250328  0.8971079344563972
  0.6648453373847244  0.0216939433461010  0.1165054960261882
  0.6683589227870033  0.0184175331014215  0.6012195439643139
  0.6668786284145476  0.5243589948121891  0.1078660586209728
  0.6635482489543487  0.5220558230993938  0.6074082828772543
  0.1611663381292095  0.2258236781046249  0.1428259950918578
  0.1629897058800005  0.2262724450888869  0.6418157044306596
  0.1648612901105519  0.7280031457345955  0.1416127493905152
  0.1641907002455559  0.7271739602405908  0.6397309037435748
  0.3337397312102396  0.2725984518164275  0.3877072018612522
  0.3261912491671373  0.2748263617977897  0.9001358248734985
  0.3410231836678909  0.7732398709600031  0.3891471560099529
  0.3340212376542926  0.7731808423713630  0.8920230139722172
  0.8368033132374356  0.4761783781389382  0.3579436881977272
  0.8338723220513303  0.4764631039082463  0.8578264090300625
  0.8292952826980574  0.9737935640609906  0.3650427766946268
  0.8323160129373763  0.9772847279152885  0.8608137946482392
  0.3342200209668184  0.4771883162811785  0.3867546569160522
  0.3276656247647491  0.4749784101510556  0.8991190942732652
  0.3413491728658229  0.9759381386954987  0.3893213209628578
  0.3340831627650415  0.9763496951550695  0.8920811467484598
  0.8380353287235327  0.2728042255100394  0.3567451980643778
  0.8345403008977328  0.2736093759046713  0.8586330777495647
  0.8293550874142459  0.7755489372466361  0.3649841082433207
  0.8321064497964329  0.7730693288530104  0.8613896000152912
  0.6668981479856178  0.2249935064563008  0.1075541145508294
  0.6703487294266549  0.2231679155511240  0.6030242552665637
  0.6647931055268367  0.7277154948714436  0.1162420468883297
  0.6696162088819771  0.7281673519494355  0.6022727067231978
  0.1653213779376866  0.0221801094864219  0.1417890968868162
  0.1645521202403310  0.0226317415992007  0.6399824900435815
  0.1614811353644279  0.5243894314796121  0.1423699170533848
  0.1629545830934799  0.5234742746761768  0.6416848857413661
 
             NaN             NaN             NaN
             NaN             NaN             NaN
             NaN             NaN             NaN
             NaN             NaN             NaN
             NaN             NaN             NaN
             NaN             NaN             NaN
             NaN             NaN             NaN
             NaN             NaN             NaN
             NaN             NaN             NaN
             NaN             NaN             NaN
             NaN             NaN             NaN
             NaN             NaN             NaN
             NaN             NaN             NaN
             NaN             NaN             NaN
             NaN             NaN             NaN
             NaN             NaN             NaN
             NaN             NaN             NaN
             NaN             NaN             NaN
             NaN             NaN             NaN
             NaN             NaN             NaN
             NaN             NaN             NaN
             NaN             NaN             NaN
             NaN             NaN             NaN
             NaN             NaN             NaN
             NaN             NaN             NaN
             NaN             NaN             NaN
             NaN             NaN             NaN
             NaN             NaN             NaN
             NaN             NaN             NaN
             NaN             NaN             NaN
             NaN             NaN             NaN
             NaN             NaN             NaN
             NaN             NaN             NaN
             NaN             NaN             NaN
             NaN             NaN             NaN
             NaN             NaN             NaN
             NaN             NaN             NaN
             NaN             NaN             NaN
             NaN             NaN             NaN
             NaN             NaN             NaN
             NaN             NaN             NaN
             NaN             NaN             NaN
             NaN             NaN             NaN
             NaN             NaN             NaN
             NaN             NaN             NaN
             NaN             NaN             NaN
             NaN             NaN             NaN
             NaN             NaN             NaN
             NaN             NaN             NaN
             NaN             NaN             NaN
             NaN             NaN             NaN
             NaN             NaN             NaN
             NaN             NaN             NaN
             NaN             NaN             NaN
             NaN             NaN             NaN
             NaN             NaN             NaN
             NaN             NaN             NaN
             NaN             NaN             NaN
             NaN             NaN             NaN
             NaN             NaN             NaN
             NaN             NaN             NaN
             NaN             NaN             NaN
             NaN             NaN             NaN
             NaN             NaN             NaN
             NaN             NaN             NaN
             NaN             NaN             NaN
             NaN             NaN             NaN
             NaN             NaN             NaN
             NaN             NaN             NaN
             NaN             NaN             NaN
             NaN             NaN             NaN
             NaN             NaN             NaN
             NaN             NaN             NaN
             NaN             NaN             NaN
             NaN             NaN             NaN
             NaN             NaN             NaN
             NaN             NaN             NaN
             NaN             NaN             NaN
             NaN             NaN             NaN
             NaN             NaN             NaN
             NaN             NaN             NaN
             NaN             NaN             NaN
             NaN             NaN             NaN
             NaN             NaN             NaN
             NaN             NaN             NaN
             NaN             NaN             NaN
             NaN             NaN             NaN
             NaN             NaN             NaN
             NaN             NaN             NaN
             NaN             NaN             NaN
             NaN             NaN             NaN
             NaN             NaN             NaN
             NaN             NaN             NaN
             NaN             NaN             NaN
             NaN             NaN             NaN
             NaN             NaN             NaN
             NaN             NaN             NaN
             NaN             NaN             NaN
             NaN             NaN             NaN
             NaN             NaN             NaN
             NaN             NaN             NaN
             NaN             NaN             NaN
             NaN             NaN             NaN
             NaN             NaN             NaN
             NaN             NaN             NaN
             NaN             NaN             NaN
             NaN             NaN             NaN
             NaN             NaN             NaN
             NaN             NaN             NaN
             NaN             NaN             NaN
             NaN             NaN             NaN
