Li15 Fe16 P16 O64
1.0
10.425927 -0.001954 0.005323
-0.002258 12.142274 0.001780
0.003189 0.001647 9.521207
Li Fe P O
15 16 16 64
direct
0.499257 0.289296 0.746006 Li
0.498275 0.497741 0.246765 Li
0.496815 0.003522 0.247322 Li
0.497643 0.002367 0.754999 Li
0.999778 0.252524 0.503078 Li
0.000424 0.251769 0.001773 Li
0.006477 0.744883 0.496581 Li
0.001203 0.746441 0.995176 Li
0.496201 0.253171 0.243962 Li
0.498137 0.745428 0.249481 Li
0.495671 0.737336 0.760084 Li
0.000904 0.002527 0.995573 Li
0.006206 0.005243 0.496416 Li
0.000985 0.498646 0.001479 Li
0.999926 0.498609 0.502791 Li
0.779469 0.127704 0.262520 Fe
0.781426 0.125960 0.764367 Fe
0.779440 0.622882 0.263172 Fe
0.778983 0.623137 0.763397 Fe
0.283292 0.126291 0.487294 Fe
0.281754 0.126221 0.985837 Fe
0.284785 0.623201 0.489320 Fe
0.282598 0.622331 0.985648 Fe
0.219437 0.374853 0.236271 Fe
0.222844 0.376016 0.738705 Fe
0.220593 0.874880 0.236572 Fe
0.219396 0.875195 0.736046 Fe
0.716752 0.375908 0.010662 Fe
0.717531 0.376917 0.516065 Fe
0.715262 0.874506 0.016016 Fe
0.719714 0.874432 0.507748 Fe
0.595146 0.124504 0.041365 P
0.595381 0.121809 0.539810 P
0.595774 0.627118 0.042225 P
0.595294 0.628514 0.538499 P
0.093584 0.123680 0.208267 P
0.094025 0.124571 0.707577 P
0.094023 0.626492 0.209307 P
0.093882 0.626233 0.708001 P
0.405511 0.372520 0.458109 P
0.405997 0.374736 0.959002 P
0.408394 0.875426 0.459942 P
0.405027 0.874791 0.958687 P
0.906842 0.374904 0.292028 P
0.907297 0.374839 0.792936 P
0.904725 0.875364 0.293291 P
0.899188 0.874816 0.791784 P
0.596832 0.122703 0.378640 O
0.599181 0.121358 0.880395 O
0.596388 0.627656 0.376597 O
0.602433 0.634081 0.882636 O
0.096692 0.122760 0.369860 O
0.095787 0.122915 0.868998 O
0.097260 0.627704 0.370915 O
0.096000 0.627102 0.869512 O
0.402933 0.374241 0.121949 O
0.398708 0.367225 0.617420 O
0.403090 0.875198 0.120378 O
0.403389 0.876429 0.620297 O
0.904826 0.374527 0.130636 O
0.903673 0.375046 0.631208 O
0.901464 0.875092 0.133132 O
0.887318 0.875294 0.629198 O
0.955214 0.122231 0.147190 O
0.956083 0.122611 0.645140 O
0.955693 0.627747 0.148041 O
0.956083 0.627688 0.645683 O
0.456946 0.124306 0.103053 O
0.459068 0.121149 0.603847 O
0.457146 0.625567 0.103030 O
0.459203 0.631569 0.599982 O
0.044304 0.374513 0.355486 O
0.044985 0.374626 0.854895 O
0.041529 0.875554 0.356496 O
0.039378 0.875486 0.845151 O
0.544466 0.374366 0.397846 O
0.543708 0.372167 0.901380 O
0.550375 0.875651 0.401517 O
0.542777 0.875668 0.897080 O
0.665552 0.023333 0.111475 O
0.666006 0.016027 0.602550 O
0.666031 0.524550 0.107150 O
0.676362 0.532321 0.600745 O
0.162599 0.225954 0.141705 O
0.163410 0.226958 0.641641 O
0.165329 0.727767 0.141798 O
0.165261 0.727871 0.640326 O
0.336654 0.271172 0.385835 O
0.334511 0.272197 0.893332 O
0.340383 0.773928 0.390430 O
0.334359 0.772876 0.892349 O
0.836527 0.476964 0.358195 O
0.836503 0.476275 0.859820 O
0.829203 0.974602 0.363293 O
0.831341 0.976750 0.860176 O
0.335129 0.475067 0.392147 O
0.327759 0.473605 0.897892 O
0.340787 0.976958 0.389529 O
0.333236 0.976078 0.891911 O
0.835228 0.273521 0.359041 O
0.836507 0.272847 0.859050 O
0.829679 0.776091 0.363943 O
0.832370 0.772551 0.860128 O
0.665588 0.226476 0.107393 O
0.670698 0.220688 0.606100 O
0.664943 0.727972 0.115776 O
0.666009 0.735294 0.600888 O
0.164876 0.022205 0.141272 O
0.165879 0.023418 0.639403 O
0.163034 0.524024 0.143576 O
0.164055 0.524425 0.641587 O
