Mg7 Sc16 Se32                           
   1.00000000000000     
    11.3332259999999998    0.0000000000000000    0.0000000000000000
     0.0000000000000000   11.3332219999999992    0.0000000000000000
     0.0000000000000000    0.0000000000000000   11.3332189999999997
   Mg   Sc   Se
     7    16    32
Direct
  0.4082960136371050  0.4082959517743116  0.4082960502720372
  0.6247143186061576  0.1253847364135274  0.1253847307545029
  0.1253848883324581  0.6247141760163339  0.1253848874210064
  0.1253848540986926  0.1253847643200968  0.6247142906454477
  0.3769668824013018  0.8727637493049416  0.8727637397354111
  0.8727636071375494  0.3769669235273315  0.8727638136433038
  0.8727636878287669  0.8727637099572542  0.3769669456634572
  0.9938320069635114  0.7503957151937561  0.7503959892263987
  0.7503959773910676  0.9938316073526443  0.7503957519653818
  0.7503959497439715  0.7503957917007996  0.9938316620812586
  0.0001261512757406  0.0001260615143908  0.0001260885910155
  0.0036332338694305  0.2493545232864778  0.2493544558819076
  0.2493545604548818  0.0036331672321837  0.2493545655006537
  0.2493545656722565  0.2493545364903090  0.0036332358094387
  0.7513851207287952  0.4998778448895013  0.2557231865820068
  0.7513854569677111  0.2557230341180166  0.4998778004050950
  0.9928979766852788  0.4994657435512380  0.4994655484216584
  0.2557230572020885  0.4998778040984604  0.7513852395901943
  0.2557230355347359  0.7513852045131232  0.4998777076141011
  0.4998778986531918  0.7513852322415203  0.2557229741088443
  0.4994656013995429  0.9928980765159522  0.4994656154488802
  0.4998778037884641  0.2557229864117627  0.7513850910628241
  0.4994657426690846  0.4994657391652287  0.9928981930617329
  0.7585399800602669  0.9931481275355888  0.9931481466207834
  0.9931483085999840  0.7585400762832772  0.9931483462481463
  0.9931484190262273  0.9931480208672976  0.7585399968842761
  0.7598161913593894  0.7598157875426044  0.7598158696442738
  0.2423151062975071  0.0071000857649862  0.0071000802337968
  0.0071000948826114  0.2423151080215774  0.0071000474179495
  0.0071001075893682  0.0071000979384169  0.2423151444607614
  0.2426958844761653  0.2426959233573038  0.2426959615104546
  0.7594279710179713  0.4903561151279264  0.4903561380888259
  0.9926772809057667  0.2571645711365402  0.4915916491697024
  0.9926771397602813  0.4915916029399978  0.2571645729892174
  0.7585542857091717  0.2571050206853768  0.2571050369479394
  0.2383624488976192  0.5097199504184601  0.5097199660533873
  0.0096421830362947  0.7418973743848573  0.5078864700545713
  0.0096421797761154  0.5078864245621141  0.7418974320085585
  0.2404390702904830  0.7422431297266388  0.7422431829847508
  0.2571645904084982  0.9926771319541225  0.4915916194690728
  0.4903559853452125  0.7594278670900712  0.4903560554198336
  0.4915915930061959  0.9926771363385746  0.2571645222139837
  0.2571051133024381  0.7585542357975381  0.2571050441623473
  0.7418973894770489  0.0096421097020753  0.5078864421355613
  0.5097202089321728  0.2383624935422278  0.5097199572572489
  0.5078865088052027  0.0096421124158761  0.7418974022721145
  0.7422432031436421  0.2404389363180123  0.7422432350203810
  0.2571646106778847  0.4915916216195992  0.9926771268727298
  0.4915916042530936  0.2571645374471370  0.9926771512259904
  0.4903560720559441  0.4903560442030750  0.7594278205248540
  0.2571050787716872  0.2571050954732300  0.7585541963123158
  0.7418975126767976  0.5078863358768266  0.0096424581857411
  0.5078865161702676  0.7418974100000718  0.0096420995843544
  0.5097199796455986  0.5097200048532429  0.2383625334270153
  0.7422431312640759  0.7422432317823646  0.2404390038842921
 
             NaN             NaN             NaN
             NaN             NaN             NaN
             NaN             NaN             NaN
             NaN             NaN             NaN
             NaN             NaN             NaN
             NaN             NaN             NaN
             NaN             NaN             NaN
             NaN             NaN             NaN
             NaN             NaN             NaN
             NaN             NaN             NaN
             NaN             NaN             NaN
             NaN             NaN             NaN
             NaN             NaN             NaN
             NaN             NaN             NaN
             NaN             NaN             NaN
             NaN             NaN             NaN
             NaN             NaN             NaN
             NaN             NaN             NaN
             NaN             NaN             NaN
             NaN             NaN             NaN
             NaN             NaN             NaN
             NaN             NaN             NaN
             NaN             NaN             NaN
             NaN             NaN             NaN
             NaN             NaN             NaN
             NaN             NaN             NaN
             NaN             NaN             NaN
             NaN             NaN             NaN
             NaN             NaN             NaN
             NaN             NaN             NaN
             NaN             NaN             NaN
             NaN             NaN             NaN
             NaN             NaN             NaN
             NaN             NaN             NaN
             NaN             NaN             NaN
             NaN             NaN             NaN
             NaN             NaN             NaN
             NaN             NaN             NaN
             NaN             NaN             NaN
             NaN             NaN             NaN
             NaN             NaN             NaN
             NaN             NaN             NaN
             NaN             NaN             NaN
             NaN             NaN             NaN
             NaN             NaN             NaN
             NaN             NaN             NaN
             NaN             NaN             NaN
             NaN             NaN             NaN
             NaN             NaN             NaN
             NaN             NaN             NaN
             NaN             NaN             NaN
             NaN             NaN             NaN
             NaN             NaN             NaN
             NaN             NaN             NaN
             NaN             NaN             NaN
