Li7 Mn16 O32                            
   1.00000000000000     
     8.7308160000000008   -0.0003390000000000   -0.0009510000000000
    -0.0003920000000000    8.2138510000000000   -0.0340970000000000
     0.0015930000000000   -0.0306600000000000    8.2138130000000000
   Li   Mn   O 
     7    16    32
Direct
  0.2651233447505715  0.4870962046343851  0.7629078750827212
  0.3612370159222733  0.8699739258219529  0.3800272193386628
  0.8670233814587821  0.8732201561184928  0.8723347204041837
  0.1371151831135056  0.1281516647418811  0.1218496855006645
  0.8670202849160501  0.3776660359337961  0.3767802886358028
  0.6336171069103788  0.1236536834418253  0.6243089332224513
  0.6336190453565992  0.6256922845608568  0.1263430757545963
  0.5027720405191518  0.2512160549815480  0.2499572938341204
  0.2498496963047177  0.4998658001448464  0.2494226958682197
  0.2497429544610867  0.2499599115467055  0.4991964358352274
  0.5029067684935574  0.4999063071411540  0.4990632667637569
  0.5029056894902167  0.7509361094356639  0.7500954659414525
  0.7474440558230887  0.4995108680464878  0.7504916132629323
  0.7544484001582690  0.7487586066885400  0.5012394628868249
  0.2498501158705985  0.0005785678316936  0.7501347626618575
  0.2497455553035337  0.7508031716094021  0.0000437379145232
  0.5027678115408990  0.0000462264867389  0.9987835439520906
  0.7514829716717151  0.9990167107180588  0.2509818862560052
  0.7473336126457603  0.2493433328950079  0.0006542455410830
  0.9934359016474887  0.2480553975586682  0.7479147821544865
  0.9934362231634450  0.5020838279524803  0.0019471439260982
  0.0004817356740470  0.7510907933349463  0.2511141506940524
  0.0004840208526439  0.9988807159541806  0.4989103222621537
  0.7282470208821945  0.0137217855412605  0.0116895462042434
  0.9949820420529319  0.7345758904791376  0.0143278488552111
  0.9976091974130320  0.0136950722232180  0.7344899459076903
  0.7276479693371070  0.7370973442283956  0.7387470189215913
  0.2782261332089400  0.9919206875366329  0.9861134703543508
  0.9775241365383276  0.2600291197783043  0.9899706035700460
  0.0038229893533927  0.9868489806268059  0.2631496729892487
  0.2782293742773857  0.2638848103575168  0.2580824695251701
  0.7276506987037049  0.5112572936884285  0.5129057639859049
  0.9949764081417113  0.2356661410611495  0.5154207694025328
  0.9975982536484955  0.5155126793497498  0.2363063839388346
  0.7282507553637383  0.2383037796949390  0.2362807918482194
  0.2823016837257105  0.4834179241435955  0.4921032536764686
  0.0018431297094454  0.7691789881708256  0.4808178498616718
  0.9946641326591263  0.4804246455485729  0.7695750033874313
  0.2823012645129926  0.7578881948396076  0.7665875359719686
  0.2251490572591957  0.0132919743343668  0.5136220286989084
  0.5018099151170263  0.7353260462717630  0.5146759233638140
  0.4985224425262819  0.0160438454868934  0.2339576274857212
  0.2251470192205531  0.7363802396521967  0.2367085769712006
  0.7762616951670859  0.9881419548564671  0.4875273687985979
  0.5045928515483623  0.2630176850760415  0.4822072650361663
  0.5027272487412509  0.9859609090597508  0.7644864607429873
  0.7670450006080457  0.2599466112798086  0.7654709693294792
  0.2145544272215829  0.5124544557467552  0.0071806002044487
  0.5217975856693829  0.2369496713690917  0.0130535693744314
  0.4996015773191333  0.5169353062896147  0.7330666306972344
  0.2145540233755693  0.2428349377804540  0.7375390866834424
  0.7670445460803170  0.4845270860987119  0.9900502726336589
  0.5045898111989856  0.7677963076132958  0.9869858881872952
  0.5027385770444210  0.4855124163313058  0.2640399942134257
  0.7762618833019391  0.7624749953911945  0.2618510395133167
 
             NaN             NaN             NaN
             NaN             NaN             NaN
             NaN             NaN             NaN
             NaN             NaN             NaN
             NaN             NaN             NaN
             NaN             NaN             NaN
             NaN             NaN             NaN
             NaN             NaN             NaN
             NaN             NaN             NaN
             NaN             NaN             NaN
             NaN             NaN             NaN
             NaN             NaN             NaN
             NaN             NaN             NaN
             NaN             NaN             NaN
             NaN             NaN             NaN
             NaN             NaN             NaN
             NaN             NaN             NaN
             NaN             NaN             NaN
             NaN             NaN             NaN
             NaN             NaN             NaN
             NaN             NaN             NaN
             NaN             NaN             NaN
             NaN             NaN             NaN
             NaN             NaN             NaN
             NaN             NaN             NaN
             NaN             NaN             NaN
             NaN             NaN             NaN
             NaN             NaN             NaN
             NaN             NaN             NaN
             NaN             NaN             NaN
             NaN             NaN             NaN
             NaN             NaN             NaN
             NaN             NaN             NaN
             NaN             NaN             NaN
             NaN             NaN             NaN
             NaN             NaN             NaN
             NaN             NaN             NaN
             NaN             NaN             NaN
             NaN             NaN             NaN
             NaN             NaN             NaN
             NaN             NaN             NaN
             NaN             NaN             NaN
             NaN             NaN             NaN
             NaN             NaN             NaN
             NaN             NaN             NaN
             NaN             NaN             NaN
             NaN             NaN             NaN
             NaN             NaN             NaN
             NaN             NaN             NaN
             NaN             NaN             NaN
             NaN             NaN             NaN
             NaN             NaN             NaN
             NaN             NaN             NaN
             NaN             NaN             NaN
             NaN             NaN             NaN
