Li7 Mn16 O32                            
   1.00000000000000     
     8.7308160000000008   -0.0003390000000000   -0.0009510000000000
    -0.0003920000000000    8.2138510000000000   -0.0340970000000000
     0.0015930000000000   -0.0306600000000000    8.2138130000000000
   Li   Mn   O 
     7    16    32
Direct
  0.2644538159137031  0.4875343030412455  0.7624681747119320
  0.3613698989638626  0.8701757576104076  0.3798255822227325
  0.8669863705238198  0.8730538944814142  0.8722831445607228
  0.1372024390041706  0.1280622113377345  0.1219398961631008
  0.8669852405083147  0.3777185415974454  0.3769484285483410
  0.6336996024820486  0.1237769442815046  0.6243637881412917
  0.6337022120637563  0.6256336694019637  0.1262175996509475
  0.5029712216579042  0.2511865845325058  0.2498978935691670
  0.2499078718714774  0.4998552689483857  0.2492866055619732
  0.2497332418183521  0.2499554737217875  0.4990976563181245
  0.5030722380593005  0.4997256659906565  0.4992328665678988
  0.5030720538051644  0.7507662142344710  0.7502804207104092
  0.7473755224777832  0.4994915397907789  0.7505095730682375
  0.7543957962020367  0.7486181334492064  0.5013781721526451
  0.2499068663109297  0.0007141752918452  0.7501460795806839
  0.2497380843114881  0.7509006537830630  1.0000463666588495
  0.5029698144594897  1.0001088114246373  0.9988153081444363
  0.7515760589646425  0.9989695305816572  0.2510264784844937
  0.7474208651990116  0.2493589152728654  0.0006440570361124
  0.9932875359102423  0.2481035274313289  0.7477698745714596
  0.9932887271884322  0.5022251082340942  0.0018995014963079
  0.0004243098101723  0.7510429431745612  0.2511215335801379
  0.0004244063855247  0.9988731020213419  0.4989589705239507
  0.7283818625614179  0.0136944190054355  0.0117136187361804
  0.9949032579357328  0.7346701974838535  0.0144509229130792
  0.9975450225969681  0.0138556347163335  0.7346040190157713
  0.7277657972308812  0.7370311303703929  0.7389730058976116
  0.2783791959941671  0.9919950419691189  0.9861476149743865
  0.9774891689417138  0.2602638122177771  0.9897329020292253
  0.0038752107896976  0.9866507183085277  0.2633498050276622
  0.2783814398672228  0.2638507641383244  0.2580107647187870
  0.7277646033512981  0.5110382087897499  0.5129581057489171
  0.9948993624621808  0.2355450402648559  0.5153237507462348
  0.9975421837592435  0.5153985746077583  0.2361458913630531
  0.7283829903939754  0.2382732821407219  0.2363201537819883
  0.2824598048846299  0.4833563685745982  0.4922108284799207
  0.0016599904446265  0.7689989370781952  0.4809967551312844
  0.9940287978055875  0.4806851027298343  0.7693141752634071
  0.2824587023794553  0.7577847533600480  0.7666479485648183
  0.2251394992510858  0.0132147914055186  0.5137102425270901
  0.5020028276283892  0.7351672406655989  0.5148351684090834
  0.4985989630917800  0.0160729010943328  0.2339274697802903
  0.2251405491559754  0.7362914543048552  0.2367857629797526
  0.7762135321311047  0.9880175002640135  0.4876627733209886
  0.5046258024989932  0.2629214416874056  0.4822424703476239
  0.5028955497730846  0.9858268818536262  0.7644558638329517
  0.7668255211451566  0.2600436781263237  0.7652967705928150
  0.2143302430976348  0.5125646340714418  0.0069203300697030
  0.5218497844599019  0.2369475350016776  0.0130567854076668
  0.5000049802924933  0.5167537380219862  0.7332459715834169
  0.2143268619364334  0.2430860383717039  0.7374273669032980
  0.7668308899452783  0.4846927406528832  0.9899723935596030
  0.5046257999602936  0.7677643425707866  0.9870848036510663
  0.5029011593098450  0.4855436646150595  0.2641735981812894
  0.7762158413189484  0.7623452514206155  0.2619649629753634
 
             NaN             NaN             NaN
             NaN             NaN             NaN
             NaN             NaN             NaN
             NaN             NaN             NaN
             NaN             NaN             NaN
             NaN             NaN             NaN
             NaN             NaN             NaN
             NaN             NaN             NaN
             NaN             NaN             NaN
             NaN             NaN             NaN
             NaN             NaN             NaN
             NaN             NaN             NaN
             NaN             NaN             NaN
             NaN             NaN             NaN
             NaN             NaN             NaN
             NaN             NaN             NaN
             NaN             NaN             NaN
             NaN             NaN             NaN
             NaN             NaN             NaN
             NaN             NaN             NaN
             NaN             NaN             NaN
             NaN             NaN             NaN
             NaN             NaN             NaN
             NaN             NaN             NaN
             NaN             NaN             NaN
             NaN             NaN             NaN
             NaN             NaN             NaN
             NaN             NaN             NaN
             NaN             NaN             NaN
             NaN             NaN             NaN
             NaN             NaN             NaN
             NaN             NaN             NaN
             NaN             NaN             NaN
             NaN             NaN             NaN
             NaN             NaN             NaN
             NaN             NaN             NaN
             NaN             NaN             NaN
             NaN             NaN             NaN
             NaN             NaN             NaN
             NaN             NaN             NaN
             NaN             NaN             NaN
             NaN             NaN             NaN
             NaN             NaN             NaN
             NaN             NaN             NaN
             NaN             NaN             NaN
             NaN             NaN             NaN
             NaN             NaN             NaN
             NaN             NaN             NaN
             NaN             NaN             NaN
             NaN             NaN             NaN
             NaN             NaN             NaN
             NaN             NaN             NaN
             NaN             NaN             NaN
             NaN             NaN             NaN
             NaN             NaN             NaN
