Na47 P16 S64
1.0
13.932561 -0.002573 0.000009
-0.002599 13.936190 0.000175
0.000034 0.000142 14.303095
Na P S
47 16 64
direct
0.550401 0.746652 0.724167 Na
0.999796 0.251036 0.206538 Na
0.998850 0.250413 0.705854 Na
0.998943 0.751001 0.211931 Na
0.973351 0.753482 0.719898 Na
0.500206 0.248963 0.206806 Na
0.501157 0.249580 0.706201 Na
0.501057 0.749001 0.211738 Na
0.248936 0.999682 0.292684 Na
0.249237 0.998649 0.792983 Na
0.251279 0.500314 0.293875 Na
0.250475 0.501686 0.794135 Na
0.748758 0.998831 0.289152 Na
0.746460 0.972814 0.781297 Na
0.751029 0.501176 0.287967 Na
0.753828 0.526849 0.780156 Na
0.252898 0.999477 0.042942 Na
0.244008 0.998135 0.544149 Na
0.247201 0.500167 0.044388 Na
0.255754 0.502686 0.545501 Na
0.753031 1.000051 0.036576 Na
0.743583 0.999417 0.537243 Na
0.746852 0.500324 0.035145 Na
0.756655 0.499752 0.535899 Na
0.999718 0.247544 0.455923 Na
0.997833 0.255148 0.954808 Na
0.999916 0.747301 0.464853 Na
0.999933 0.755810 0.963669 Na
0.500298 0.252458 0.456288 Na
0.502170 0.244849 0.954957 Na
0.500083 0.752699 0.466811 Na
0.500055 0.744189 0.961809 Na
0.993730 0.996365 0.502043 Na
0.005315 0.010861 0.001487 Na
0.011246 0.494442 0.498473 Na
0.996075 0.504513 0.997921 Na
0.489269 0.004995 0.498543 Na
0.504900 0.994649 0.998063 Na
0.505736 0.504198 0.502112 Na
0.493703 0.489959 0.001633 Na
0.249735 0.250305 0.249961 Na
0.249799 0.250569 0.750009 Na
0.250290 0.749700 0.250846 Na
0.257496 0.749868 0.749475 Na
0.750277 0.249696 0.249086 Na
0.750208 0.249438 0.750575 Na
0.749709 0.750298 0.249979 Na
0.999699 0.001051 0.250158 P
0.999391 0.002871 0.752741 P
0.001091 0.500111 0.249760 P
0.002765 0.500051 0.747241 P
0.499039 0.999809 0.249867 P
0.497329 0.999611 0.747288 P
0.500174 0.499033 0.250263 P
0.500520 0.497468 0.752789 P
0.249960 0.250058 0.000276 P
0.249921 0.250243 0.499631 P
0.250106 0.749646 0.001350 P
0.249899 0.750401 0.500022 P
0.750045 0.249953 0.999790 P
0.750127 0.249752 0.498622 P
0.749869 0.750374 0.002911 P
0.750103 0.749596 0.496973 P
0.154465 0.174175 0.082792 S
0.154177 0.174800 0.581800 S
0.153587 0.675560 0.084110 S
0.155478 0.674855 0.582907 S
0.655600 0.172933 0.082873 S
0.653892 0.175314 0.581021 S
0.655862 0.672914 0.085989 S
0.656055 0.669997 0.576573 S
0.345593 0.325563 0.082961 S
0.345757 0.325456 0.581842 S
0.346329 0.824329 0.083908 S
0.344575 0.826674 0.581920 S
0.844337 0.327345 0.082711 S
0.846227 0.324419 0.580975 S
0.844192 0.827223 0.086199 S
0.843885 0.828475 0.577567 S
0.174290 0.345956 0.417219 S
0.174505 0.345945 0.918358 S
0.172440 0.844102 0.416585 S
0.175874 0.845227 0.918284 S
0.675791 0.345964 0.415785 S
0.674573 0.344592 0.917123 S
0.672514 0.843736 0.414099 S
0.670792 0.845175 0.923514 S
0.325374 0.154722 0.416874 S
0.325239 0.154556 0.917850 S
0.327365 0.655940 0.417363 S
0.324912 0.652968 0.919718 S
0.824581 0.153344 0.416130 S
0.825673 0.154922 0.917623 S
0.827672 0.656212 0.413321 S
0.828394 0.656646 0.922085 S
0.095969 0.424295 0.166870 S
0.101577 0.421827 0.670617 S
0.094961 0.925523 0.167260 S
0.090701 0.921930 0.670719 S
0.594968 0.423119 0.167241 S
0.597383 0.425296 0.669048 S
0.594567 0.924266 0.167823 S
0.587238 0.925906 0.658140 S
0.404452 0.075373 0.166439 S
0.399063 0.077971 0.670161 S
0.404462 0.574610 0.167900 S
0.409105 0.578791 0.671236 S
0.904610 0.077211 0.167670 S
0.901970 0.074894 0.669503 S
0.906000 0.575592 0.167184 S
0.912947 0.573364 0.657621 S
0.075555 0.095750 0.333261 S
0.078118 0.101353 0.829351 S
0.077080 0.595174 0.332454 S
0.074410 0.596964 0.831230 S
0.574439 0.095356 0.332641 S
0.578629 0.091503 0.828625 S
0.575829 0.594273 0.332496 S
0.574196 0.586753 0.842712 S
0.424707 0.404113 0.333462 S
0.421866 0.398924 0.829449 S
0.422916 0.904808 0.332442 S
0.424864 0.903579 0.831556 S
0.925308 0.404778 0.332430 S
0.921385 0.408211 0.828522 S
0.924172 0.905740 0.332498 S
0.926525 0.912691 0.842379 S
