Mg7 Sc16 Se32                           
   1.00000000000000     
    11.2461430000000000    0.0000120000000000   -0.0000160000000000
     0.0000120000000000   11.2462780000000002    0.0000440000000000
    -0.0000160000000000    0.0000120000000000   11.2460120000000003
   Mg   Sc   Se
     7    16    32
Direct
  0.5609221209063107  0.5609333708765021  0.5609337376732532
  0.6229433332609402  0.1273604146415462  0.1273640991224873
  0.1273583375654785  0.6229389888686723  0.1273612103200042
  0.1273601216507545  0.1273651453822708  0.6229411411996013
  0.3742660748741002  0.8731438603711712  0.8731432259956454
  0.8731371428834862  0.3742623761699899  0.8731414913912033
  0.8731354637400239  0.8731435754541986  0.3742650552273783
  0.9945949541738733  0.7517862688690327  0.7517876094638328
  0.7517916172340466  0.9945522646895303  0.7517885360789497
  0.7517902558133858  0.7517854952851061  0.9945738901331861
  0.0007546265153570  0.0007540530731774  0.0007517612572902
  0.0059910213791979  0.2493187614699801  0.2493138340056551
  0.2493158894097447  0.0059899622056754  0.2493151273259761
  0.2493302893604162  0.2493275105683838  0.0059621509711904
  0.7463313876475273  0.4996283423884403  0.2477887606012013
  0.7463314728135897  0.2477899294183329  0.4996289347003250
  0.0091004867339037  0.5006744306878338  0.5006792268795138
  0.2477936499406794  0.4996276148532044  0.7463349079408580
  0.2477899880018476  0.7463333345393928  0.4996218274160159
  0.4996176966629860  0.7463266110475064  0.2477784736378301
  0.5006684349111263  0.0091090645752396  0.5006721019687688
  0.4996354069254003  0.2477831333212533  0.7463301489300160
  0.5006793073805929  0.5006714599278815  0.0091030152780455
  0.7578523567894835  0.9940866568521467  0.9940986028471990
  0.9940908213552889  0.7578594951448184  0.9941023692350709
  0.9940949745272841  0.9940872974865586  0.7578461180666159
  0.7581714375777859  0.7581529687886345  0.7581623219560520
  0.2423626509890892  0.0062876256749240  0.0062727590123642
  0.0062810460025704  0.2423653421061643  0.0062752368333287
  0.0062792940261368  0.0062869655299657  0.2423747014415620
  0.2408650192790072  0.2408637415073089  0.2408467111369934
  0.7606741916915279  0.4900142645764601  0.4900266745616421
  0.9918513559966420  0.2580189773999017  0.4925406791812028
  0.9918522701070455  0.4925303620652858  0.2580095839954056
  0.7596537513032900  0.2565991906273697  0.2565988332173447
  0.2449120757963428  0.5093200933809552  0.5093209098032561
  0.0057950836295499  0.7429511925116604  0.5081488546794756
  0.0057980688557581  0.5081531309442131  0.7429606801570745
  0.2399150598445967  0.7429770243783878  0.7429872593021053
  0.2580073952259621  0.9918538228610516  0.4925367753117391
  0.4900100474510379  0.7606846814305712  0.4900222251148749
  0.4925266870468599  0.9918522395396825  0.2580036988690729
  0.2565912736545525  0.7596564452039001  0.2565949401907771
  0.7429478798610353  0.0058008236098530  0.5081478619929177
  0.5093177806867760  0.2449100418333591  0.5093217291682769
  0.5081532661274140  0.0057966785631038  0.7429536414725352
  0.7429783551063106  0.2398995468827484  0.7429903133868602
  0.2580106424526944  0.4925351510001925  0.9918510495533635
  0.4925364541135003  0.2580120868324970  0.9918540660901318
  0.4900156038942763  0.4900115363804589  0.7606870541824297
  0.2566004979335876  0.2565995120245760  0.7596523276523938
  0.7429445113577017  0.5081522298169768  0.0057907482752628
  0.5081495150456277  0.7429419985829829  0.0057879511018233
  0.5093158801350161  0.5093207585650146  0.2449075571540587
  0.7429770015800827  0.7429805167325872  0.2399108789938707
 
             NaN             NaN             NaN
             NaN             NaN             NaN
             NaN             NaN             NaN
             NaN             NaN             NaN
             NaN             NaN             NaN
             NaN             NaN             NaN
             NaN             NaN             NaN
             NaN             NaN             NaN
             NaN             NaN             NaN
             NaN             NaN             NaN
             NaN             NaN             NaN
             NaN             NaN             NaN
             NaN             NaN             NaN
             NaN             NaN             NaN
             NaN             NaN             NaN
             NaN             NaN             NaN
             NaN             NaN             NaN
             NaN             NaN             NaN
             NaN             NaN             NaN
             NaN             NaN             NaN
             NaN             NaN             NaN
             NaN             NaN             NaN
             NaN             NaN             NaN
             NaN             NaN             NaN
             NaN             NaN             NaN
             NaN             NaN             NaN
             NaN             NaN             NaN
             NaN             NaN             NaN
             NaN             NaN             NaN
             NaN             NaN             NaN
             NaN             NaN             NaN
             NaN             NaN             NaN
             NaN             NaN             NaN
             NaN             NaN             NaN
             NaN             NaN             NaN
             NaN             NaN             NaN
             NaN             NaN             NaN
             NaN             NaN             NaN
             NaN             NaN             NaN
             NaN             NaN             NaN
             NaN             NaN             NaN
             NaN             NaN             NaN
             NaN             NaN             NaN
             NaN             NaN             NaN
             NaN             NaN             NaN
             NaN             NaN             NaN
             NaN             NaN             NaN
             NaN             NaN             NaN
             NaN             NaN             NaN
             NaN             NaN             NaN
             NaN             NaN             NaN
             NaN             NaN             NaN
             NaN             NaN             NaN
             NaN             NaN             NaN
             NaN             NaN             NaN
