Mg7 Sc16 Se32
1.0
11.246143 0.000012 -0.000016
0.000012 11.246278 0.000044
-0.000016 0.000012 11.246012
Mg Sc Se
7 16 32
direct
0.561271 0.561299 0.561298 Mg
0.623274 0.126718 0.126728 Mg
0.126718 0.623282 0.126724 Mg
0.126717 0.126720 0.623274 Mg
0.375507 0.874483 0.874477 Mg
0.874475 0.375512 0.874473 Mg
0.874476 0.874492 0.375526 Mg
-0.001158 0.749396 0.749403 Sc
0.749406 -0.001210 0.749413 Sc
0.749414 0.749409 -0.001152 Sc
0.000266 0.000265 0.000266 Sc
0.004925 0.250749 0.250734 Sc
0.250750 0.004911 0.250737 Sc
0.250749 0.250750 0.004897 Sc
0.744788 0.499583 0.252157 Sc
0.744762 0.252226 0.499577 Sc
0.003474 0.499591 0.499593 Sc
0.252212 0.499575 0.744796 Sc
0.252212 0.744756 0.499569 Sc
0.499583 0.744740 0.252135 Sc
0.499589 0.003518 0.499575 Sc
0.499592 0.252175 0.744783 Sc
0.499581 0.499561 0.003517 Sc
0.757430 0.992795 0.992806 Se
0.992798 0.757437 0.992805 Se
0.992795 0.992792 0.757431 Se
0.757584 0.757569 0.757596 Se
0.242250 0.007097 0.007081 Se
0.007088 0.242251 0.007080 Se
0.007087 0.007099 0.242261 Se
0.242036 0.242033 0.242016 Se
0.759128 0.492552 0.492519 Se
0.991242 0.257095 0.492686 Se
0.991255 0.492675 0.257079 Se
0.758984 0.257090 0.257078 Se
0.241559 0.507900 0.507926 Se
0.007558 0.742980 0.507678 Se
0.007558 0.507674 0.742980 Se
0.241793 0.742962 0.742975 Se
0.257085 0.991251 0.492677 Se
0.492532 0.759141 0.492509 Se
0.492667 0.991252 0.257072 Se
0.257082 0.758987 0.257073 Se
0.742968 0.007572 0.507676 Se
0.507903 0.241586 0.507921 Se
0.507677 0.007558 0.742978 Se
0.742972 0.241779 0.742975 Se
0.257080 0.492678 0.991260 Se
0.492672 0.257078 0.991261 Se
0.492539 0.492524 0.759159 Se
0.257086 0.257083 0.758985 Se
0.742965 0.507677 0.007551 Se
0.507671 0.742960 0.007545 Se
0.507907 0.507897 0.241565 Se
0.742970 0.742976 0.241794 Se
