Mg7 Mn16 O32                            
   1.00000000000000     
     8.1740300000000001    0.0000280000000000   -0.0002100000000000
     0.0000390000000000    9.3578910000000004    0.0000090000000000
    -0.0001990000000000   -0.0000380000000000    8.1742059999999999
   Mg   Mn   O 
     7    16    32
Direct
  0.5237563626744675  0.7146654198774450  0.2262482541373635
  0.3785486998758653  0.3782854737040711  0.8790775951262384
  0.8709448688069570  0.3782844773649106  0.3714146821489207
  0.8735061983970759  0.8775562950694136  0.8765088753064448
  0.6215372836574345  0.1215525900993770  0.6195200076181102
  0.1291597698930089  0.6222507813369912  0.6208536600392980
  0.1304715094903546  0.1215131072373489  0.1284483738146978
  0.9985581230620781  0.2506246562389581  0.7514142410366715
  0.0047000298938725  0.7499382937884835  0.2496428558820303
  0.4999801120150575  0.2469618588023049  0.2500394834149397
  0.5003785597024615  0.7499107407662345  0.7453499272676753
  0.2510175465093594  0.0038267513979258  0.7471192736116564
  0.2466390503861182  0.4960596696404663  0.2491064928246731
  0.7518347857656382  0.0005152509332917  0.2488006917645396
  0.7504556185194043  0.4986569909799717  0.7528026434809432
  0.2456732685904063  0.2523349101684678  0.5043215390078450
  0.2475495440052061  0.7491899904085069 -0.0060561991907112
  0.7514945144529382  0.2517484582815501  0.9984865986253695
  0.7560992751348197  0.7491683386035616  0.5025025718733389
  0.0027934843496497  0.0038891519827161  0.4989530317599599
  0.9971920308999533  0.4986519205795301  0.9995596584646582
  0.5011654977385809  0.0005568834033562 -0.0019353098335373
  0.5009446888498206  0.4960394961238493  0.5033931402647798
  0.2352917560752900  0.0466629380148520  0.5146833656891815
  0.2333079207807535  0.4991154833464040  0.0095872933405826
  0.7425879391033378  0.0214972535165137  0.0073669753439546
  0.7404472333249377  0.4990716287933496  0.5167133957668929
  0.0104071326801823  0.2552938667165183  0.5143772554870716
  0.0103091236292225  0.7486109093285995  0.0131054975647034
  0.5143307507582343  0.2466606217114809  0.0125328982845337
  0.5216701508776850  0.7211988299872713  0.5044262960010099
  0.0144173046512943  0.0009034412847044  0.7355562387122702
  0.0120997116077107  0.5002427628457656  0.2366105139129888
  0.5204411839460881  0.0011580791984615  0.2294988101078475
  0.5134123437374600  0.5002099463854239  0.7379188133974763
  0.2356257894824987  0.2553011044579910  0.7395556580152165
  0.2456418111582449  0.7213862548971220  0.2283285766555540
  0.7374975511707649  0.2466426199646854  0.2356659271155619
  0.7369395573611668  0.7485935554654348  0.7397043489798473
  0.7657798910910778  0.9968928553905704  0.4884430193047778
  0.7649033327787722  0.4655132178298829  0.9850924042461326
  0.2615404555704256  0.9969135571684418  0.9841318574662715
  0.2571134832826015  0.4723006181851656  0.4929036643247540
  0.9947622917700162  0.7532447017237014  0.4859771862107107
  0.9873032059941255  0.2462093518120805  0.9879176701056624
  0.4835196868712269  0.7621001829013105  0.9874009531498897
  0.4853978941156789  0.2594220092890204  0.4885943039405915
  0.9904491846435215  0.9972911086405474  0.2632464638307082
  0.9869708245530902  0.5011297700503302  0.7630291614690780
  0.4867286650028675  0.9972886860838343  0.7594743664566794
  0.4811507256877545  0.5016160896954819  0.2689150766899803
  0.7625856730002823  0.7620942408177266  0.2665439621254771
  0.7620527308947251  0.2462090294584620  0.7626796369000302
  0.2640208812334049  0.7532430137947175  0.7552670781042095
  0.2614354865875793  0.2592660630565889  0.2646527680362339
 
             NaN             NaN             NaN
             NaN             NaN             NaN
             NaN             NaN             NaN
             NaN             NaN             NaN
             NaN             NaN             NaN
             NaN             NaN             NaN
             NaN             NaN             NaN
             NaN             NaN             NaN
             NaN             NaN             NaN
             NaN             NaN             NaN
             NaN             NaN             NaN
             NaN             NaN             NaN
             NaN             NaN             NaN
             NaN             NaN             NaN
             NaN             NaN             NaN
             NaN             NaN             NaN
             NaN             NaN             NaN
             NaN             NaN             NaN
             NaN             NaN             NaN
             NaN             NaN             NaN
             NaN             NaN             NaN
             NaN             NaN             NaN
             NaN             NaN             NaN
             NaN             NaN             NaN
             NaN             NaN             NaN
             NaN             NaN             NaN
             NaN             NaN             NaN
             NaN             NaN             NaN
             NaN             NaN             NaN
             NaN             NaN             NaN
             NaN             NaN             NaN
             NaN             NaN             NaN
             NaN             NaN             NaN
             NaN             NaN             NaN
             NaN             NaN             NaN
             NaN             NaN             NaN
             NaN             NaN             NaN
             NaN             NaN             NaN
             NaN             NaN             NaN
             NaN             NaN             NaN
             NaN             NaN             NaN
             NaN             NaN             NaN
             NaN             NaN             NaN
             NaN             NaN             NaN
             NaN             NaN             NaN
             NaN             NaN             NaN
             NaN             NaN             NaN
             NaN             NaN             NaN
             NaN             NaN             NaN
             NaN             NaN             NaN
             NaN             NaN             NaN
             NaN             NaN             NaN
             NaN             NaN             NaN
             NaN             NaN             NaN
             NaN             NaN             NaN
