Mg7 Mn16 O32
1.0
8.174030 0.000028 -0.000210
0.000039 9.357891 0.000009
-0.000199 -0.000038 8.174206
Mg Mn O
7 16 32
direct
0.530116 0.719310 0.219884 Mg
0.376740 0.375746 0.876744 Mg
0.873263 0.375741 0.373246 Mg
0.873315 0.874156 0.876684 Mg
0.622104 0.123676 0.622110 Mg
0.127813 0.626397 0.622182 Mg
0.127895 0.123663 0.127895 Mg
-0.000295 0.249778 0.750298 Mn
1.000506 0.749851 0.250085 Mn
0.500585 0.249907 0.249408 Mn
0.499904 0.749828 0.749498 Mn
0.249801 1.000117 0.748291 Mn
0.249295 0.500016 0.248387 Mn
0.749614 1.000304 0.251138 Mn
0.750592 0.500257 0.751483 Mn
0.248037 0.250174 0.501957 Mn
0.251031 0.749846 0.001448 Mn
0.751667 0.249515 0.998334 Mn
0.748550 0.749834 0.498963 Mn
0.001703 1.000122 0.500199 Mn
0.998526 0.500266 -0.000577 Mn
0.498864 1.000300 1.000376 Mn
0.501634 0.499975 0.500723 Mn
0.235568 1.022493 0.514434 O
0.236828 0.499856 0.012287 O
0.737137 0.006521 0.012864 O
0.737715 0.499846 0.513173 O
0.011896 0.251885 0.513247 O
0.012729 0.747822 0.012976 O
0.513490 0.245501 0.012156 O
0.514712 0.725509 0.514472 O
0.012617 1.000347 0.737379 O
0.011986 0.499850 0.236517 O
0.514652 0.028699 0.235344 O
0.513498 0.499837 0.738016 O
0.236763 0.251892 0.738083 O
0.235517 0.725664 0.235267 O
0.737839 0.245495 0.236514 O
0.737011 0.747836 0.737252 O
0.762702 -0.001505 0.487498 O
0.763463 0.487057 0.986536 O
0.262506 -0.001497 0.987276 O
0.262773 0.489950 0.487245 O
0.987488 0.752851 0.487050 O
0.988084 0.248405 0.987245 O
0.486056 0.766293 0.986489 O
0.486843 0.258953 0.487667 O
0.988005 -0.001489 0.263246 O
0.987624 0.500265 0.762378 O
0.486767 -0.001495 0.761980 O
0.486174 0.476701 0.263844 O
0.763494 0.766308 0.263957 O
0.762750 0.248407 0.761921 O
0.262953 0.752839 0.762500 O
0.262355 0.258871 0.263183 O
