Mg1 Ti16 S32                            
   1.00000000000000     
     9.8252290000000002   -0.0006110000000000    0.0004960000000000
    -0.0001040000000000    9.8251530000000002   -0.0004630000000000
     0.0003880000000000   -0.0004390000000000    9.8254719999999995
   Mg   Ti   S 
     1    16    32
Direct
  0.3119113063474670  0.4381294674153888  0.8091735566772701
  0.2505597664632455  0.7597165684130504  0.0092301182346531
  0.5013402290970174  0.9997001310651988  0.0002929052970489
  0.7502629270275946  0.2484058779836741  0.0005060632734672
  0.9902557786051013  0.4993677571558626  0.0091845879134390
  0.5024954648849669  0.2474538622971153  0.2496674955565750
  0.2472999301213760  0.5026235125176393  0.2683261076036985
  0.2500637242209826  0.2380386918195701  0.4882153469974223
  0.5120805234443143  0.4999069246687708  0.4881067578500952
  0.5115434099114967  0.7604900121040906  0.7475951656960073
  0.7699926497394569  0.5028853715939879  0.7447870236017201
  0.7521431947506311  0.7527708711667480  0.4946003660942567
  0.2470841971299426  0.9799803605170816  0.7447190148107509
  0.7509817637124933  0.9989676540364679  0.2472802399510635
  0.9894849756500506  0.2384729697184130  0.7476006021253766
  0.9975832433615213  0.7524146886055090  0.2492634190715510
  0.9972253052947818  0.9978042036373199  0.4945568694131128
  0.7462325486545642  0.0037414563530613 -0.0010497827520906
  0.0040662426745385  0.7459536846931675  0.0031516262731475
  0.0004147957786909 -0.0047228143439605  0.7436687108046340
  0.7547398981090334  0.7496030592849792  0.7436636548010240
  0.2513612943347058  0.9981510406693100  0.9928627315577517
  0.9953415958549598  0.2514192412638235  0.9958288657735629
  0.9964298258681894  0.9979451123975667  0.2488590995510667
  0.2519845232072491  0.2545877557426300  0.2499620776282923
  0.7548484292340921  0.5035140364407312  0.4983854870781489
  0.0036407254672706  0.2441468567606145  0.5010579779839456
  0.0010343676065586  0.5031815627928761  0.2522509602773932
  0.7469849457931418  0.2477793703261929  0.2444904190762070
  0.2592878817924409  0.4907845931410557  0.5075535238787326
  0.9976313809048624  0.7523870107183004  0.4947287142928068
  1.0097441758415977  0.4907570554207593  0.7566773144276853
  0.2592594828017967  0.7402590021810950  0.7566634648545131
  0.2465172709966599 -0.0047717876095177  0.4983800389099715
  0.5058846960298847  0.7463821009136528  0.5010571346970353
  0.5022121487923535  0.0030232604427201  0.2444634728686463
  0.2468139388323319  0.7489559793721117  0.2522459905009209
  0.7519200302673126  0.9981133201933879  0.4930499240153705
  0.4985071848205830  0.2515301772779925  0.4939473489806058
  0.4947711283948102  0.9987091589048622  0.7494299793941106
  0.7513128755871111  0.2552368168976147  0.7494558184436071
  0.2421259141705844  0.5078967570641560  0.0216851262714978
  0.5015181649390072  0.2485180756791260  0.0001748267988890
  0.5242427867532903  0.5087445814093489  0.7398467806251260
  0.2412637475430595  0.2257903855722515  0.7398856724048465
  0.7518948414857141  0.4986262281712859  0.9928830820329483
  0.4985814546139890  0.7546955285032458  0.9958192915886761
  0.4954076663428161  0.4980188000045721  0.2499310838949840
  0.7520568075060676  0.7535671380040252  0.2488454835083142
 
             NaN             NaN             NaN
             NaN             NaN             NaN
             NaN             NaN             NaN
             NaN             NaN             NaN
             NaN             NaN             NaN
             NaN             NaN             NaN
             NaN             NaN             NaN
             NaN             NaN             NaN
             NaN             NaN             NaN
             NaN             NaN             NaN
             NaN             NaN             NaN
             NaN             NaN             NaN
             NaN             NaN             NaN
             NaN             NaN             NaN
             NaN             NaN             NaN
             NaN             NaN             NaN
             NaN             NaN             NaN
             NaN             NaN             NaN
             NaN             NaN             NaN
             NaN             NaN             NaN
             NaN             NaN             NaN
             NaN             NaN             NaN
             NaN             NaN             NaN
             NaN             NaN             NaN
             NaN             NaN             NaN
             NaN             NaN             NaN
             NaN             NaN             NaN
             NaN             NaN             NaN
             NaN             NaN             NaN
             NaN             NaN             NaN
             NaN             NaN             NaN
             NaN             NaN             NaN
             NaN             NaN             NaN
             NaN             NaN             NaN
             NaN             NaN             NaN
             NaN             NaN             NaN
             NaN             NaN             NaN
             NaN             NaN             NaN
             NaN             NaN             NaN
             NaN             NaN             NaN
             NaN             NaN             NaN
             NaN             NaN             NaN
             NaN             NaN             NaN
             NaN             NaN             NaN
             NaN             NaN             NaN
             NaN             NaN             NaN
             NaN             NaN             NaN
             NaN             NaN             NaN
             NaN             NaN             NaN
