Mg1 Ti16 S32
1.0
9.825229 -0.000611 0.000496
-0.000104 9.825153 -0.000463
0.000388 -0.000439 9.825472
Mg Ti S
1 16 32
direct
0.312477 0.437526 0.749831 Mg
0.249300 0.756771 0.007584 Ti
0.501852 -0.001978 0.004461 Ti
0.751951 0.248124 0.004483 Ti
0.993212 0.500664 0.007562 Ti
0.501967 0.248029 0.249876 Ti
0.249313 0.500679 0.249957 Ti
0.247599 0.243002 0.490832 Ti
0.506953 0.502344 0.490819 Ti
0.506852 0.756910 0.750072 Ti
0.752277 0.502261 0.750040 Ti
0.750909 0.752263 0.497543 Ti
0.247739 -0.002280 0.750043 Ti
0.750647 -0.000653 0.250101 Ti
0.993084 0.243146 0.750075 Ti
0.997917 0.752067 0.250250 Ti
0.997687 0.999040 0.497535 Ti
0.747531 0.002483 0.003387 S
0.002730 0.747286 0.004059 S
0.002104 1.000690 0.747580 S
0.749319 0.747901 0.747566 S
0.252595 -0.000986 0.997109 S
0.996718 0.252901 0.997134 S
0.997174 0.997692 0.252317 S
0.252621 0.252860 0.249895 S
0.749406 0.503184 0.502967 S
0.002137 0.246055 0.503007 S
0.002745 0.502711 0.249562 S
0.747571 0.247265 0.248496 S
0.254498 0.495508 0.495478 S
0.997036 0.752973 0.496988 S
0.996611 0.495546 0.754392 S
0.254460 0.753394 0.754386 S
0.246822 1.000600 0.502965 S
0.503961 0.747876 0.503008 S
0.502744 0.002438 0.248504 S
0.247290 0.747266 0.249557 S
0.752271 0.997740 0.497153 S
0.496536 0.253471 0.495599 S
0.496504 -0.001005 0.753272 S
0.751020 0.253501 0.753263 S
0.245459 0.504559 0.004148 S
0.503612 0.246414 0.003580 S
0.504596 0.504878 0.745042 S
0.245129 0.245410 0.745027 S
0.751013 0.497421 0.997110 S
0.497115 0.753303 0.997133 S
0.497149 0.497393 0.249908 S
0.752312 0.752823 0.252302 S
