Mg8 Sc16 Se32                           
   1.00000000000000     
    11.3332289149808698   -0.0000001876780235    0.0000001342351739
    -0.0000002731656526   11.3332253382818582   -0.0000005690413676
     0.0000000064072152   -0.0000004547357124   11.3332264007106431
   Mg   Sc   Se
     7    16    32
Direct
  0.3775819428627472  0.3775819301259133  0.3775819274477570
  0.6250000266252940  0.1250000084647525  0.1250000058088361
  0.1250000349155158  0.6249999191395688  0.1249999458443796
  0.1249999481877850  0.1250000131419853  0.6250000670006273
  0.3775819684703663  0.8724180324739521  0.8724180599446854
  0.8724180540365580  0.3775819322736211  0.8724180349005550
  0.8724180082017625  0.8724180691881358  0.3775820118794257
  0.9937391694606603  0.7500679144644309  0.7500681034540904
  0.7500681057579541  0.9937389936661063  0.7500680022790220
  0.7500680250244471  0.7500680565411173  0.9937390892500559
  0.0000444490998817  0.0000444569887890  0.0000444456386077
  0.0000444266994108  0.2499554668485970  0.2499555488918190
  0.2499554721137400  0.0000445016325941  0.2499555463216439
  0.2499554640144339  0.2499555010891754  0.0000444923207539
  0.7500680805569928  0.4999319599344432  0.2562610444751385
  0.7500682538423717  0.2562609358990144  0.4999318814346836
  0.9937391195823153  0.4999320070591367  0.4999317959413503
  0.2562609262836304  0.4999320211889611  0.7500680417901719
  0.2562608950384941  0.7500680791230252  0.4999318133586570
  0.4999319254615315  0.7500680359972236  0.2562609684937769
  0.4999318047494015  0.9937390942749431  0.4999318924642893
  0.4999318579423573  0.2562609411724139  0.7500680597004461
  0.4999320669334537  0.4999318624070810  0.9937390269749855
  0.7587625650140879  0.9931373985405259  0.9931373755107558
  0.9931374438073775  0.7587626074375748  0.9931374752396849
  0.9931374645863187  0.9931373715384879  0.7587626244121921
  0.7596662718137281  0.7596662411645383  0.7596662979009352
  0.2423712897642005  0.0076286867600004  0.0076287322285253
  0.0076286930614486  0.2423712706021277  0.0076287357584377
  0.0076286678249176  0.0076286863211905  0.2423712784675445
  0.2423712777737137  0.2423712803721827  0.2423712708375021
  0.7596663153918399  0.4903338461080082  0.4903338383917628
  0.9931375044988684  0.2568625900156647  0.4912373634410869
  0.9931374603776177  0.4912373629329210  0.2568625297924996
  0.7587625759176078  0.2568625972208949  0.2568626382525565
  0.2403025916787769  0.5077933803030277  0.5077933829554055
  0.0096974337084461  0.7422066576549042  0.5077934664852535
  0.0096974792362445  0.5077933719727454  0.7422065541270086
  0.2403025523673534  0.7422066230324091  0.7422065489459584
  0.2568624743689440  0.9931374220043878  0.4912373712900049
  0.4903337173851625  0.7596662943511703  0.4903337003189279
  0.4912373883921717  0.9931374388187848  0.2568625638748188
  0.2568625270186757  0.7587626131293774  0.2568625440496817
  0.7422065768884849  0.0096975209817742  0.5077933656500448
  0.5077933896788238  0.2403025618145520  0.5077934024234736
  0.5077933794431146  0.0096974780256858  0.7422065632554009
  0.7422065703122414  0.2403024982455193  0.7422066209878082
  0.2568626084975349  0.4912373431484411  0.9931374211578543
  0.4912373824813727  0.2568625159261870  0.9931373897665097
  0.4903338138066644  0.4903337376108041  0.7596663216149722
  0.2568625296436835  0.2568625910085274  0.7587626533423517
  0.7422066926633235  0.5077933690454586  0.0096975570337392
  0.5077933826891581  0.7422065640761488  0.0096975016499314
  0.5077933680955411  0.5077934025779456  0.2403025400984262
  0.7422065945296907  0.7422066756515378  0.2403025267793240
 
  0.00000000E+00  0.00000000E+00  0.00000000E+00
  0.00000000E+00  0.00000000E+00  0.00000000E+00
  0.00000000E+00  0.00000000E+00  0.00000000E+00
  0.00000000E+00  0.00000000E+00  0.00000000E+00
  0.00000000E+00  0.00000000E+00  0.00000000E+00
  0.00000000E+00  0.00000000E+00  0.00000000E+00
  0.00000000E+00  0.00000000E+00  0.00000000E+00
  0.00000000E+00  0.00000000E+00  0.00000000E+00
  0.00000000E+00  0.00000000E+00  0.00000000E+00
  0.00000000E+00  0.00000000E+00  0.00000000E+00
  0.00000000E+00  0.00000000E+00  0.00000000E+00
  0.00000000E+00  0.00000000E+00  0.00000000E+00
  0.00000000E+00  0.00000000E+00  0.00000000E+00
  0.00000000E+00  0.00000000E+00  0.00000000E+00
  0.00000000E+00  0.00000000E+00  0.00000000E+00
  0.00000000E+00  0.00000000E+00  0.00000000E+00
  0.00000000E+00  0.00000000E+00  0.00000000E+00
  0.00000000E+00  0.00000000E+00  0.00000000E+00
  0.00000000E+00  0.00000000E+00  0.00000000E+00
  0.00000000E+00  0.00000000E+00  0.00000000E+00
  0.00000000E+00  0.00000000E+00  0.00000000E+00
  0.00000000E+00  0.00000000E+00  0.00000000E+00
  0.00000000E+00  0.00000000E+00  0.00000000E+00
  0.00000000E+00  0.00000000E+00  0.00000000E+00
  0.00000000E+00  0.00000000E+00  0.00000000E+00
  0.00000000E+00  0.00000000E+00  0.00000000E+00
  0.00000000E+00  0.00000000E+00  0.00000000E+00
  0.00000000E+00  0.00000000E+00  0.00000000E+00
  0.00000000E+00  0.00000000E+00  0.00000000E+00
  0.00000000E+00  0.00000000E+00  0.00000000E+00
  0.00000000E+00  0.00000000E+00  0.00000000E+00
  0.00000000E+00  0.00000000E+00  0.00000000E+00
  0.00000000E+00  0.00000000E+00  0.00000000E+00
  0.00000000E+00  0.00000000E+00  0.00000000E+00
  0.00000000E+00  0.00000000E+00  0.00000000E+00
  0.00000000E+00  0.00000000E+00  0.00000000E+00
  0.00000000E+00  0.00000000E+00  0.00000000E+00
  0.00000000E+00  0.00000000E+00  0.00000000E+00
  0.00000000E+00  0.00000000E+00  0.00000000E+00
  0.00000000E+00  0.00000000E+00  0.00000000E+00
  0.00000000E+00  0.00000000E+00  0.00000000E+00
  0.00000000E+00  0.00000000E+00  0.00000000E+00
  0.00000000E+00  0.00000000E+00  0.00000000E+00
  0.00000000E+00  0.00000000E+00  0.00000000E+00
  0.00000000E+00  0.00000000E+00  0.00000000E+00
  0.00000000E+00  0.00000000E+00  0.00000000E+00
  0.00000000E+00  0.00000000E+00  0.00000000E+00
  0.00000000E+00  0.00000000E+00  0.00000000E+00
  0.00000000E+00  0.00000000E+00  0.00000000E+00
  0.00000000E+00  0.00000000E+00  0.00000000E+00
  0.00000000E+00  0.00000000E+00  0.00000000E+00
  0.00000000E+00  0.00000000E+00  0.00000000E+00
  0.00000000E+00  0.00000000E+00  0.00000000E+00
  0.00000000E+00  0.00000000E+00  0.00000000E+00
  0.00000000E+00  0.00000000E+00  0.00000000E+00
