Na15 V32 O64                            
   1.00000000000000     
     9.1042059999999996    0.0011030000000000   -0.0024870000000000
     0.0022580000000000   11.4414040000000004   -0.0000160000000000
     0.0000610000000000    0.0008340000000000   10.6062539999999998
   Na   V    O 
    15    32    64
Direct
  0.7383252697815752  0.4367599620053970  0.1705302207988726
  0.7425205058448842  0.0755386819467677  0.1521284874363120
  0.7425091289923994  0.7998896551615892  0.1527193976892442
  0.2428863679521200  0.0622533907507243  0.3470070518449780
  0.2419395820099264  0.3134207083350399  0.3462054274227844
  0.2433706586267887  0.5614214076527887  0.3473103151998067
  0.2421077380252690  0.8125463877901715  0.3463984612683099
  0.2580405749761003  0.1874223148871466  0.8494342525134627
  0.2596432285355392  0.4377237278306011  0.8487693333400793
  0.2579032492981246  0.6883421371403426  0.8502396099144384
  0.2580808302382537  0.9375728256637186  0.8483856650665957
  0.7582001481549187  0.1865670616340109  0.6497689339460809
  0.7563548829987363  0.4374953663050369  0.6506449999943217
  0.7583072059266798  0.6871210530659541  0.6499483863511482
  0.7567713724883962  0.9376608467597346  0.6488471232043598
  0.5845790500055872  0.0611386979768408  0.8957530487805232
  0.5891316138780476  0.3110831076109938  0.8970610765269305
  0.5885790437076696  0.5652279489444387  0.8966681899938581
  0.5849767160618278  0.8137123744128393  0.8967039445398464
  0.0866262010350024  0.0615495811409885  0.6017456052914711
  0.0867014821977957  0.3107206225002258  0.6030601838468072
  0.0890717276465810  0.5643366757472795  0.6042107003985455
  0.0840181635623217  0.8124080717539799  0.6011344833400770
  0.4161952197916541  0.1890866741531586  0.1041767961281956
  0.4095262489993751  0.4384698825251457  0.1037931492689758
  0.4155773794547626  0.6857952272797574  0.1052187180882508
  0.4178802447933238  0.9383573663636379  0.1046751406198902
  0.9145777139590654  0.1865852363814701  0.3944066099397082
  0.9166386416845433  0.4375362958894155  0.4012867615338442
  0.9147970305971157  0.6866150761596985  0.3943851974000666
  0.9110282590068713  0.9379324608713974  0.3936579215509037
  0.5607832710219682  0.0656292030507943  0.3878211557243404
  0.5617710567286931  0.3106694625560694  0.3867421454321370
  0.5627162740725072  0.5646201496999540  0.3879255139240919
  0.5611334700508438  0.8101971298847364  0.3869512500796078
  0.0626901927442881  0.0586634846172714  0.1121234035145060
  0.0575577558232361  0.3083098693193219  0.1129892478604840
  0.0577778752800990  0.5658434004990530  0.1136554870750525
  0.0616749817610957  0.8164921508959597  0.1127878224060214
  0.4376251447137075  0.1892052973700579  0.6168522679769457
  0.4386424918636326  0.4351461440562808  0.6167941844830159
  0.4374236201620639  0.6893250437771675  0.6166489579183476
  0.4364167155652445  0.9351753377273577  0.6134610346144539
  0.9384985968590968  0.1865390599488977  0.8824166280839912
  0.9421596574026884  0.4376439020926459  0.8816080253266209
  0.9382810857956790  0.6888090719865732  0.8832680026317964
  0.9364596429274480  0.9378910256822797  0.8826958886235586
  0.7907804887506307  0.0626779368674585  0.8484377615138081
  0.7949180194681315  0.3134924696939372  0.8486229375947271
  0.7944858514917986  0.5620178809409192  0.8487959956389015
  0.7908666563032272  0.8122355458086411  0.8492236712836830
  0.2929563503061106  0.0622589560626677  0.6481006297496904
  0.2919884596425845  0.3110644341432484  0.6515756375905046
  0.2944956987590284  0.5629954795850397  0.6497088651617008
  0.2899564077898462  0.8120276874549696  0.6495909736537878
  0.2065510982223940  0.1905156112221532  0.1484520318228248
  0.2053271923895907  0.4379918495908662  0.1480826487439131
  0.2065635377462744  0.6848044380901734  0.1489824868344344
  0.2089349362384854  0.9373301360442676  0.1503386335636584
  0.7077856729439731  0.1859323099145124  0.3569095624532409
  0.7055923155588159  0.4373280015507539  0.3696401527065624
  0.7081376462168633  0.6893101560310853  0.3568876545497911
  0.7052714314363799  0.9377675093815017  0.3542388910659356
  0.8873275790364931  0.0623394975354259  0.5193799176887011
  0.8891321431912941  0.3119962021149295  0.5215636259626923
  0.8897486179498787  0.5624482934352099  0.5220864475730616
  0.8869599248428833  0.8121739439536594  0.5185793729837003
  0.3866154365396712  0.0624148672980801  0.9808892196085384
  0.3858192351347129  0.3122953868963330  0.9805184352007439
  0.3854697372947561  0.5634602477495582  0.9799372325185838
  0.3869881905926855  0.8133014110816045  0.9817811170506182
  0.1140805816327487  0.1866933372593703  0.4777621313899693
  0.1158824601064630  0.4374219409711893  0.4808325135435776
  0.1142628829695192  0.6875735524363786  0.4775780635328185
  0.1126359701176316  0.9373031630173490  0.4770421836877901
  0.6116180355260468  0.1874425763138892  0.0172714160579387
  0.6058482059969177  0.4382016420430160  0.0120541223787638
  0.6114613641335854  0.6877660856031864  0.0182556447885171
  0.6147261476600751  0.9378105273896340  0.0210883626760850
  0.9785586198235470  0.0624424007282719  0.2800040043753490
  0.9759463739634288  0.3146031377770104  0.2843292468771043
  0.9756635386640979  0.5600298572289973  0.2838234199767652
  0.9782870814522603  0.8121699880647935  0.2808108258854495
  0.4795056088226214  0.0642146343975428  0.2185831779527502
  0.4803872517442185  0.3145740524390058  0.2177257773261868
  0.4798364537875840  0.5604958446047585  0.2194782973831931
  0.4804901589714323  0.8115569136226499  0.2176694770701819
  0.0215971701005710  0.1863021648458189  0.7157029483348694
  0.0238952923326488  0.4376170563294510  0.7148927763380921
  0.0210861943054787  0.6880460858328105  0.7161151760668929
  0.0192612493120126  0.9374685989250212  0.7146215309653449
  0.5193794206720044  0.1881881134135512  0.7840286481323985
  0.5219547049832512  0.4369264532464026  0.7819353216661374
  0.5193059374625183  0.6877526104197229  0.7839479283129869
  0.5173134476063808  0.9367813929339195  0.7825220892736521
  0.5759570596112992  0.0628776049315840  0.5734223280251970
  0.5802246692046996  0.3098758454635069  0.5725409787002607
  0.5768215125354172  0.5643739456352371  0.5733704101827253
  0.5799482972567330  0.8117800167058111  0.5725338622814592
  0.0793806439517419  0.0613880651731766  0.9265016368110823
  0.0793764061719950  0.3114131248249248  0.9250810410836052
  0.0792088203483936  0.5636891876695644  0.9253107581298156
  0.0790460153403907  0.8139288438302325  0.9267440659846741
  0.4183140175470622  0.1883369783862554  0.4303006876946860
  0.4226887772735793  0.4366727225130274  0.4311869202407467
  0.4188387921354270  0.6886142102836509  0.4303599323939968
  0.4221730192973108  0.9368396728193236  0.4284672572014230
  0.9247651569292916  0.1872331874577038  0.0679621999971451
  0.9332012859445835  0.4374955545813026  0.0663814890415562
  0.9252128714979918  0.6878993081845576  0.0685370156404655
  0.9179605125016467  0.9375310755489060  0.0686001328178412
 
             NaN             NaN             NaN
             NaN             NaN             NaN
             NaN             NaN             NaN
             NaN             NaN             NaN
             NaN             NaN             NaN
             NaN             NaN             NaN
             NaN             NaN             NaN
             NaN             NaN             NaN
             NaN             NaN             NaN
             NaN             NaN             NaN
             NaN             NaN             NaN
             NaN             NaN             NaN
             NaN             NaN             NaN
             NaN             NaN             NaN
             NaN             NaN             NaN
             NaN             NaN             NaN
             NaN             NaN             NaN
             NaN             NaN             NaN
             NaN             NaN             NaN
             NaN             NaN             NaN
             NaN             NaN             NaN
             NaN             NaN             NaN
             NaN             NaN             NaN
             NaN             NaN             NaN
             NaN             NaN             NaN
             NaN             NaN             NaN
             NaN             NaN             NaN
             NaN             NaN             NaN
             NaN             NaN             NaN
             NaN             NaN             NaN
             NaN             NaN             NaN
             NaN             NaN             NaN
             NaN             NaN             NaN
             NaN             NaN             NaN
             NaN             NaN             NaN
             NaN             NaN             NaN
             NaN             NaN             NaN
             NaN             NaN             NaN
             NaN             NaN             NaN
             NaN             NaN             NaN
             NaN             NaN             NaN
             NaN             NaN             NaN
             NaN             NaN             NaN
             NaN             NaN             NaN
             NaN             NaN             NaN
             NaN             NaN             NaN
             NaN             NaN             NaN
             NaN             NaN             NaN
             NaN             NaN             NaN
             NaN             NaN             NaN
             NaN             NaN             NaN
             NaN             NaN             NaN
             NaN             NaN             NaN
             NaN             NaN             NaN
             NaN             NaN             NaN
             NaN             NaN             NaN
             NaN             NaN             NaN
             NaN             NaN             NaN
             NaN             NaN             NaN
             NaN             NaN             NaN
             NaN             NaN             NaN
             NaN             NaN             NaN
             NaN             NaN             NaN
             NaN             NaN             NaN
             NaN             NaN             NaN
             NaN             NaN             NaN
             NaN             NaN             NaN
             NaN             NaN             NaN
             NaN             NaN             NaN
             NaN             NaN             NaN
             NaN             NaN             NaN
             NaN             NaN             NaN
             NaN             NaN             NaN
             NaN             NaN             NaN
             NaN             NaN             NaN
             NaN             NaN             NaN
             NaN             NaN             NaN
             NaN             NaN             NaN
             NaN             NaN             NaN
             NaN             NaN             NaN
             NaN             NaN             NaN
             NaN             NaN             NaN
             NaN             NaN             NaN
             NaN             NaN             NaN
             NaN             NaN             NaN
             NaN             NaN             NaN
             NaN             NaN             NaN
             NaN             NaN             NaN
             NaN             NaN             NaN
             NaN             NaN             NaN
             NaN             NaN             NaN
             NaN             NaN             NaN
             NaN             NaN             NaN
             NaN             NaN             NaN
             NaN             NaN             NaN
             NaN             NaN             NaN
             NaN             NaN             NaN
             NaN             NaN             NaN
             NaN             NaN             NaN
             NaN             NaN             NaN
             NaN             NaN             NaN
             NaN             NaN             NaN
             NaN             NaN             NaN
             NaN             NaN             NaN
             NaN             NaN             NaN
             NaN             NaN             NaN
             NaN             NaN             NaN
             NaN             NaN             NaN
             NaN             NaN             NaN
             NaN             NaN             NaN
             NaN             NaN             NaN
