Na15 V32 O64
1.0
9.104206 0.001103 -0.002487
0.002258 11.441404 -0.000016
0.000061 0.000834 10.606254
Na V O
15 32 64
direct
0.742402 0.437559 0.153728 Na
0.742325 0.072708 0.152874 Na
0.742242 0.803911 0.152706 Na
0.242802 0.062736 0.347779 Na
0.242948 0.312809 0.347387 Na
0.243244 0.562226 0.348084 Na
0.242422 0.812462 0.347737 Na
0.257583 0.187696 0.848927 Na
0.258127 0.437711 0.848729 Na
0.257803 0.687781 0.849151 Na
0.257264 0.937442 0.849206 Na
0.757492 0.187056 0.650647 Na
0.757537 0.437587 0.650732 Na
0.757608 0.687021 0.650404 Na
0.757349 0.937632 0.649973 Na
0.584615 0.062229 0.896150 V
0.587240 0.311929 0.898689 V
0.586930 0.561910 0.897605 V
0.584531 0.811769 0.896627 V
0.086557 0.061816 0.603268 V
0.085337 0.311796 0.603442 V
0.086480 0.562072 0.603396 V
0.084715 0.811815 0.603284 V
0.413712 0.188456 0.104587 V
0.413931 0.437667 0.104319 V
0.415493 0.686182 0.104909 V
0.416343 0.938325 0.104408 V
0.915193 0.188411 0.395632 V
0.914516 0.437162 0.395455 V
0.914416 0.686885 0.395180 V
0.914753 0.937350 0.395157 V
0.561773 0.062513 0.387367 V
0.563972 0.311947 0.384430 V
0.563231 0.562160 0.384936 V
0.561466 0.811884 0.386882 V
0.061455 0.060407 0.112893 V
0.059121 0.312443 0.113068 V
0.059193 0.564750 0.114501 V
0.062084 0.813115 0.113082 V
0.438086 0.189135 0.615561 V
0.439003 0.436196 0.614840 V
0.438052 0.688284 0.615132 V
0.437236 0.936446 0.615886 V
0.938054 0.187877 0.884097 V
0.938784 0.439034 0.884564 V
0.937730 0.688303 0.884675 V
0.936705 0.938313 0.883679 V
0.791087 0.063279 0.849853 O
0.793185 0.312753 0.850596 O
0.792505 0.562314 0.849576 O
0.791441 0.812801 0.850182 O
0.292891 0.062313 0.649061 O
0.292163 0.312359 0.649704 O
0.293570 0.562480 0.648543 O
0.291086 0.812241 0.649898 O
0.206401 0.188415 0.148016 O
0.206102 0.437236 0.147505 O
0.207514 0.686366 0.148925 O
0.207908 0.938675 0.149217 O
0.707757 0.186444 0.354944 O
0.707970 0.437396 0.357072 O
0.707701 0.688793 0.355038 O
0.706990 0.937098 0.353385 O
0.887871 0.062787 0.519356 O
0.887619 0.312189 0.520314 O
0.887936 0.561985 0.520002 O
0.887228 0.812358 0.519612 O
0.386221 0.062585 0.980371 O
0.385798 0.312356 0.980148 O
0.386144 0.562413 0.979989 O
0.386472 0.812581 0.981326 O
0.114191 0.187393 0.479329 O
0.113894 0.437027 0.479544 O
0.113618 0.687246 0.479147 O
0.113646 0.937171 0.478966 O
0.611443 0.187855 0.019468 O
0.610200 0.437173 0.017929 O
0.611968 0.686666 0.019208 O
0.613551 0.937493 0.020436 O
0.978655 0.062580 0.282064 O
0.980246 0.312669 0.283345 O
0.980652 0.562465 0.283688 O
0.979382 0.812457 0.281354 O
0.479234 0.063120 0.218474 O
0.477058 0.312814 0.218107 O
0.476969 0.562175 0.218968 O
0.479744 0.812316 0.217601 O
0.020719 0.186940 0.716320 O
0.021287 0.437494 0.716316 O
0.020252 0.687279 0.716607 O
0.019590 0.937552 0.716169 O
0.519976 0.187736 0.783383 O
0.521185 0.436822 0.783173 O
0.519767 0.687480 0.783443 O
0.518538 0.936814 0.783638 O
0.577457 0.062239 0.573044 O
0.580311 0.312031 0.571339 O
0.577884 0.562789 0.571893 O
0.579406 0.812470 0.572615 O
0.078695 0.062342 0.927013 O
0.078393 0.312712 0.926386 O
0.079135 0.563674 0.927311 O
0.078449 0.813436 0.927427 O
0.421610 0.187711 0.429641 O
0.422506 0.436773 0.429354 O
0.421323 0.688076 0.429376 O
0.421192 0.936873 0.429733 O
0.924518 0.187716 0.069733 O
0.926717 0.438169 0.069385 O
0.922541 0.687406 0.069660 O
0.919935 0.938209 0.069731 O
