Li47 P16 O64                            
   1.00000000000000     
    10.6253639999999994   -0.0029670000000000   -0.0090900000000000
    -0.0034300000000000   12.3452219999999997   -0.0044270000000000
    -0.0085360000000000   -0.0035390000000000   10.0312739999999998
   Li   P    O 
    47    16    64
Direct
  0.4549006838776464  0.3453610287207596  0.0906928540892338
  0.6628979547437552  0.2528202561023463  0.6028929649195405
  0.6634797398131695  0.7509005999451901  0.0985510877806988
  0.6635066837094072  0.7521303532887202  0.5997387278225546
  0.1652826855436800  0.4977839035221336  0.1505820854937951
  0.1640235959317877  0.4991964729315086  0.6508474574811345
  0.1629933041468448  0.9952731390045315  0.1522287145209589
  0.1638051170910231  0.9988279246354352  0.6509562799120090
  0.3365345819747603  0.0007004224646678  0.4013649489905049
  0.3376226607474635  0.0006101075703882  0.9026409612436908
  0.3381385562843846  0.5002066186001670  0.3973861950680089
  0.3387289002961396  0.4980982062219397  0.9053866896024871
  0.8324294965217902  0.2490094141445454  0.3436813995058330
  0.8355849044599992  0.2486554997617176  0.8556438238133453
  0.8364469526941036  0.7488383343526195  0.3492439620890693
  0.8365386393508061  0.7490002498716208  0.8493910862754674
  0.3372843124009535  0.2497243684171693  0.3995836693616894
  0.3352059492420167  0.2474910036064131  0.8977498541520319
  0.3372641707184840  0.7491087291679008  0.4001120015739090
  0.3372919463608923  0.7493366504786820  0.9022085901803507
  0.8370329068175622  0.0021286017680495  0.3482995073663773
  0.8372323080815676  0.0022403068540413  0.8502771323823310
  0.8345405705617992  0.5004736569509731  0.3502382277889424
  0.8359002670841207  0.5000032554700056  0.8499379505063658
  0.6627453566944368  0.4946912127754217  0.0974344817307440
  0.6629554587916928  0.5019742196681420  0.5997775883267309
  0.6661300955588416  0.0037614398970192  0.1015649429066983
  0.6632974814568158  0.0012546523992540  0.5993866058077373
  0.1642061706938804  0.2496685256124067  0.1491495282196453
  0.1629984679926153  0.2504516060244839  0.6502904581432389
  0.1645762992892799  0.7503812246855190  0.1508372461307701
  0.1635750509630327  0.7509851587518810  0.6516555047876125
  0.9228026555934434  0.3732174348571178  0.1478397037691295
  0.9254808326278052  0.3740703218408896  0.6488497022189890
  0.9255766994006720  0.8758027825313590  0.1490562023194002
  0.9254184046145539  0.8757527843204969  0.6493070525955673
  0.4243298154771225  0.3762490131563894  0.5986623613690796
  0.4280568072391020  0.8756212354047079  0.1015484927247527
  0.4268711845163935  0.8756819471672657  0.6013930213805665
  0.0738554181519220  0.1254191535635059  0.3481385031080748
  0.0741971735085158  0.1245602152337426  0.8524190558346305
  0.0738579259964780  0.6239721322124936  0.3506278036478747
  0.0747345455477628  0.6241087193805654  0.8517677100701562
  0.5744813800878603  0.1292345400979471  0.3942567629319100
  0.5779036564622757  0.1312708370272304  0.9092689070871174
  0.5740091363108775  0.6246923860339280  0.3996671196429205
  0.5735793758796319  0.6236366711245509  0.8988320881908578
  0.9161248820377921  0.1250848565025748  0.0983825696462404
  0.9119102806441362  0.1252487810502103  0.5966174544106977
  0.9112204194332350  0.6250759223693478  0.0971945678292130
  0.9115702051550088  0.6252986706660977  0.5974427719743574
  0.4085286026704011  0.1190945959947456  0.1525148463864383
  0.4111736327781159  0.1245298361973752  0.6532714848102970
  0.4111639768758621  0.6261945115965730  0.1518623236174292
  0.4101559475636023  0.6263606267892996  0.6535575350356737
  0.0883111947787967  0.3755483378879063  0.4032418448707276
  0.0887514404523060  0.3750528478515420  0.9028711740868118
  0.0884073432470203  0.8741841330906652  0.4044001093744498
  0.0888304375876245  0.8740740443489727  0.9030692890693430
  0.5891675085970860  0.3777174212571666  0.3503422849442401
  0.5894780271366642  0.3738759025914362  0.8401663649354134
  0.5900824858238920  0.8754546010149582  0.3472394537839421
  0.5903037901225545  0.8756958210209049  0.8471326550255256
  0.8449403327284202  0.0217103635595137  0.1493649289816332
  0.8417078405493825  0.0219776147825641  0.6478281866730455
  0.8409482244464854  0.5224288728385744  0.1482563407271655
  0.8419884218536779  0.5224081467361259  0.6492326307876226
  0.3389628889470728  0.2219333687011513  0.0981591322851258
  0.3398595193758922  0.2273464807964061  0.6026953093471974
  0.3428591749278240  0.7317045837099840  0.1035319186332089
  0.3405523338864214  0.7301673491678855  0.6031664943050572
  0.1578151616973287  0.2723835765483429  0.3513350223008089
  0.1579551070384682  0.2717133523140731  0.8509804581816027
  0.1583868219477935  0.7710313171303014  0.3530059774024465
  0.1589123516075404  0.7708471921916384  0.8520992626504125
  0.6589378850625849  0.4808189464933577  0.4051416980584506
  0.6585029135670553  0.4768931560164376  0.8953409406535329
  0.6594602421310469  0.9789625186026640  0.3983862631276267
  0.6611987619464159  0.9778218901709437  0.8988348879496044
  0.1589176417692855  0.4786272050881095  0.3523226806467079
  0.1592938563688762  0.4779556501186306  0.8514914505577735
  0.1583940586276000  0.9772715918808998  0.3541515872559913
  0.1592621632087088  0.9770046932191576  0.8522426044692324
  0.6589155934934467  0.2745817828673438  0.4025791430465091
  0.6598075448402483  0.2694446054870809  0.8780050998477620
  0.6598996768697489  0.7723180930922950  0.3992604340232049
  0.6592919127723462  0.7713785083929920  0.8970082847334524
  0.8551431175575743  0.2286409948396724  0.1525408282807916
  0.8432065073077197  0.2283852550068843  0.6482000668348320
  0.8416974011448488  0.7286985129178589  0.1479511543256109
  0.8415527219886840  0.7286091032533193  0.6482350647685777
  0.3359929053313309  0.0154227709690247  0.1053957364176910
  0.3411165818836324  0.0209156640672603  0.6020660293476254
  0.3384762390016505  0.5258489989096518  0.0994787924634437
  0.3399681769251046  0.5241113240569177  0.6002799309299647
  0.5438348303425400  0.1166275466670470  0.0999897659069831
  0.5481873501286216  0.1253000985818602  0.5992128705741351
  0.5489740721555876  0.6259490996718640  0.0989242865760716
  0.5482107333429056  0.6278955757303706  0.6021341629119732
  0.0563463385902239  0.1196896865155495  0.1460855200767952
  0.0501173207298180  0.1240809418653370  0.6490606581546388
  0.0493670057943874  0.6249847974152871  0.1493229975788282
  0.0496580673444029  0.6254913770590136  0.6495960114302903
  0.4508780614227135  0.3756471684384977  0.4039174674537449
  0.4523167518726439  0.3717413462691397  0.8965244282956775
  0.4519729065559162  0.8749112941186041  0.3991828345067105
  0.4522156170785792  0.8752540194715195  0.8988735331100486
  0.9500938395266232  0.3767738997469436  0.3528650236414137
  0.9507730196378077  0.3755727110038336  0.8506718234669890
  0.9504751219100669  0.8742316757696287  0.3519494997844390
  0.9510491292101477  0.8744899905309751  0.8499829465195390
  0.5891399031536224  0.3826374620110116  0.1975033350992419
  0.5846405156341703  0.3814287264646694  0.6846388468286193
  0.5914723603653798  0.8748854081063016  0.1916689749670653
  0.5902618746832786  0.8761471920525992  0.6911285644115068
  0.0893619126689345  0.3749953219614639  0.0584039551233388
  0.0900709788145377  0.3751975333138589  0.5592647669499726
  0.0881260180456778  0.8728519702218165  0.0586500717359542
  0.0885787301815171  0.8739987469863379  0.5601982771796301
  0.4072882763213954  0.1236266039524097  0.3087657239185191
  0.4113649614135397  0.1237871924051959  0.8088846317166158
  0.4118128147235183  0.6257064806425063  0.3080466144974849
  0.4093670313523958  0.6248192113679778  0.8093229221590832
  0.9115117329643780  0.1250769131385638  0.4409000739135607
  0.9132155904179768  0.1240457069469230  0.9420048142216260
  0.9110698321047863  0.6251897912867008  0.4416744494022851
  0.9109745341400810  0.6250687490351012  0.9412508352914273
 
             NaN             NaN             NaN
             NaN             NaN             NaN
             NaN             NaN             NaN
             NaN             NaN             NaN
             NaN             NaN             NaN
             NaN             NaN             NaN
             NaN             NaN             NaN
             NaN             NaN             NaN
             NaN             NaN             NaN
             NaN             NaN             NaN
             NaN             NaN             NaN
             NaN             NaN             NaN
             NaN             NaN             NaN
             NaN             NaN             NaN
             NaN             NaN             NaN
             NaN             NaN             NaN
             NaN             NaN             NaN
             NaN             NaN             NaN
             NaN             NaN             NaN
             NaN             NaN             NaN
             NaN             NaN             NaN
             NaN             NaN             NaN
             NaN             NaN             NaN
             NaN             NaN             NaN
             NaN             NaN             NaN
             NaN             NaN             NaN
             NaN             NaN             NaN
             NaN             NaN             NaN
             NaN             NaN             NaN
             NaN             NaN             NaN
             NaN             NaN             NaN
             NaN             NaN             NaN
             NaN             NaN             NaN
             NaN             NaN             NaN
             NaN             NaN             NaN
             NaN             NaN             NaN
             NaN             NaN             NaN
             NaN             NaN             NaN
             NaN             NaN             NaN
             NaN             NaN             NaN
             NaN             NaN             NaN
             NaN             NaN             NaN
             NaN             NaN             NaN
             NaN             NaN             NaN
             NaN             NaN             NaN
             NaN             NaN             NaN
             NaN             NaN             NaN
             NaN             NaN             NaN
             NaN             NaN             NaN
             NaN             NaN             NaN
             NaN             NaN             NaN
             NaN             NaN             NaN
             NaN             NaN             NaN
             NaN             NaN             NaN
             NaN             NaN             NaN
             NaN             NaN             NaN
             NaN             NaN             NaN
             NaN             NaN             NaN
             NaN             NaN             NaN
             NaN             NaN             NaN
             NaN             NaN             NaN
             NaN             NaN             NaN
             NaN             NaN             NaN
             NaN             NaN             NaN
             NaN             NaN             NaN
             NaN             NaN             NaN
             NaN             NaN             NaN
             NaN             NaN             NaN
             NaN             NaN             NaN
             NaN             NaN             NaN
             NaN             NaN             NaN
             NaN             NaN             NaN
             NaN             NaN             NaN
             NaN             NaN             NaN
             NaN             NaN             NaN
             NaN             NaN             NaN
             NaN             NaN             NaN
             NaN             NaN             NaN
             NaN             NaN             NaN
             NaN             NaN             NaN
             NaN             NaN             NaN
             NaN             NaN             NaN
             NaN             NaN             NaN
             NaN             NaN             NaN
             NaN             NaN             NaN
             NaN             NaN             NaN
             NaN             NaN             NaN
             NaN             NaN             NaN
             NaN             NaN             NaN
             NaN             NaN             NaN
             NaN             NaN             NaN
             NaN             NaN             NaN
             NaN             NaN             NaN
             NaN             NaN             NaN
             NaN             NaN             NaN
             NaN             NaN             NaN
             NaN             NaN             NaN
             NaN             NaN             NaN
             NaN             NaN             NaN
             NaN             NaN             NaN
             NaN             NaN             NaN
             NaN             NaN             NaN
             NaN             NaN             NaN
             NaN             NaN             NaN
             NaN             NaN             NaN
             NaN             NaN             NaN
             NaN             NaN             NaN
             NaN             NaN             NaN
             NaN             NaN             NaN
             NaN             NaN             NaN
             NaN             NaN             NaN
             NaN             NaN             NaN
             NaN             NaN             NaN
             NaN             NaN             NaN
             NaN             NaN             NaN
             NaN             NaN             NaN
             NaN             NaN             NaN
             NaN             NaN             NaN
             NaN             NaN             NaN
             NaN             NaN             NaN
             NaN             NaN             NaN
             NaN             NaN             NaN
             NaN             NaN             NaN
             NaN             NaN             NaN
             NaN             NaN             NaN
             NaN             NaN             NaN
             NaN             NaN             NaN
