Li47 P16 O64
1.0
10.631439 -0.003391 -0.008583
-0.003920 12.335884 -0.005059
-0.008049 -0.004045 10.033123
Li P O
47 16 64
direct
0.435038 0.366694 0.097443 Li
0.661717 0.253328 0.602838 Li
0.663387 0.750496 0.098528 Li
0.663137 0.752024 0.599626 Li
0.164677 0.497965 0.150932 Li
0.163276 0.499437 0.650960 Li
0.163127 0.995821 0.152087 Li
0.163753 0.998952 0.650672 Li
0.336814 0.001148 0.400981 Li
0.337717 0.001458 0.903163 Li
0.337048 0.500643 0.399834 Li
0.338093 0.499353 0.901377 Li
0.831320 0.249215 0.343308 Li
0.834741 0.248819 0.855485 Li
0.836258 0.748979 0.349006 Li
0.836270 0.749095 0.849404 Li
0.336600 0.249619 0.400398 Li
0.337541 0.248007 0.900447 Li
0.337111 0.749116 0.400506 Li
0.337446 0.749562 0.901700 Li
0.836688 0.002115 0.348064 Li
0.836995 0.002420 0.850317 Li
0.833598 0.500257 0.350004 Li
0.835555 0.499641 0.849634 Li
0.663343 0.492279 0.096627 Li
0.662208 0.501434 0.598382 Li
0.665539 1.003772 0.101558 Li
0.662772 1.001570 0.599455 Li
0.163741 0.249063 0.149323 Li
0.163161 0.250423 0.650720 Li
0.164076 0.750060 0.150797 Li
0.163297 0.750865 0.651587 Li
0.923981 0.373114 0.148029 Li
0.925517 0.373999 0.648765 Li
0.925948 0.876068 0.148884 Li
0.925322 0.875915 0.649429 Li
0.423321 0.376024 0.599613 Li
0.427365 0.876394 0.101481 Li
0.426777 0.876144 0.601391 Li
0.073403 0.125304 0.348283 Li
0.074502 0.124798 0.852345 Li
0.073106 0.624002 0.350673 Li
0.073873 0.624264 0.851407 Li
0.574031 0.129574 0.392936 Li
0.577186 0.132775 0.911174 Li
0.573862 0.624539 0.398945 Li
0.574287 0.623198 0.899082 Li
0.915865 0.125239 0.098240 P
0.911436 0.125473 0.596363 P
0.910959 0.624722 0.096987 P
0.910850 0.625171 0.597230 P
0.408618 0.121411 0.152678 P
0.411000 0.124670 0.653311 P
0.411637 0.624466 0.151976 P
0.410172 0.626752 0.653416 P
0.087995 0.375548 0.403393 P
0.089417 0.375069 0.902883 P
0.088449 0.874178 0.404219 P
0.089021 0.874127 0.902886 P
0.586799 0.377852 0.349278 P
0.588459 0.374303 0.840775 P
0.589783 0.875249 0.346965 P
0.590133 0.875679 0.847631 P
0.844552 0.021849 0.149157 O
0.841364 0.022103 0.647749 O
0.841006 0.521849 0.148029 O
0.841298 0.522108 0.648711 O
0.339399 0.224898 0.099625 O
0.339365 0.227334 0.602711 O
0.341650 0.728462 0.101888 O
0.340509 0.730596 0.603158 O
0.157275 0.272305 0.351384 O
0.159129 0.271919 0.851255 O
0.158320 0.770851 0.352755 O
0.158824 0.770710 0.851774 O
0.657843 0.480681 0.403767 O
0.658781 0.476829 0.895956 O
0.659190 0.978779 0.398050 O
0.661254 0.977717 0.899180 O
0.158540 0.478762 0.352292 O
0.159337 0.478489 0.851602 O
0.158606 0.977260 0.354121 O
0.159363 0.977079 0.851929 O
0.657356 0.274788 0.400825 O
0.658879 0.269533 0.876894 O
0.659570 0.772014 0.398942 O
0.658969 0.771107 0.897289 O
0.855187 0.229037 0.152274 O
0.842656 0.228752 0.647620 O
0.841701 0.728439 0.147978 O
0.841094 0.728598 0.648255 O
0.335129 0.017950 0.104835 O
0.341049 0.020866 0.602187 O
0.341044 0.521745 0.100630 O
0.339104 0.524528 0.601177 O
0.543727 0.116439 0.100587 O
0.547724 0.125530 0.598716 O
0.549213 0.624998 0.099348 O
0.547749 0.627804 0.601138 O
0.055904 0.119607 0.146202 O
0.049587 0.124366 0.648843 O
0.049151 0.624626 0.148964 O
0.048865 0.625318 0.649447 O
0.449258 0.376039 0.405129 O
0.451408 0.373624 0.896877 O
0.451753 0.874788 0.398988 O
0.452191 0.875383 0.899853 O
0.949834 0.376891 0.353169 O
0.951564 0.375362 0.850648 O
0.950658 0.874306 0.351595 O
0.951206 0.874531 0.850133 O
0.583339 0.383362 0.196607 O
0.583381 0.382315 0.685109 O
0.590812 0.874419 0.191427 O
0.589766 0.876060 0.691625 O
0.090230 0.375119 0.058448 O
0.090134 0.375307 0.559358 O
0.088685 0.872863 0.058477 O
0.088426 0.873866 0.559978 O
0.407019 0.124586 0.309034 O
0.411474 0.124136 0.808859 O
0.411165 0.625078 0.307954 O
0.410170 0.625526 0.809151 O
0.911005 0.125115 0.440662 O
0.913282 0.124291 0.941902 O
0.910400 0.625230 0.441490 O
0.910554 0.624876 0.941103 O
