Li17 Co18 O36                           
   1.00000000000000     
     8.0557280000000002   -0.0035030000000000    2.3736009999999998
     3.6800970000000000    7.1672200000000004    2.3705020000000001
    -0.0129210000000000   -0.0041040000000000    9.8886179999999992
   Li   Co   O 
    17    18    36
Direct
  0.3042229288308744  0.5882421599045883  0.5114314908657347
  0.3349293344806720  0.3335658906928918  0.9976683630274226
  0.3331059706045902  0.6687445261298711  0.9976175444090957
  0.3317366274893416  0.9990619508127475  0.5062123907864008
  0.3332545418897000  0.9980011683469454  0.9965824402717095
  0.6603763857103364  0.3339153012861283  0.5063674899318749
  0.6674935455045291  0.3353006223907802  0.9971213742810401
  0.6510569580284354  0.6640080961787629  0.5052118558392864
  0.6662683597879159  0.6671372724404188 -0.0010524479832963
  0.6515049651395413  0.0127814573862389  0.5064462758316650
  0.6691000122362645  0.9975450175879912  0.9961886553176003
  0.0080530267382907  0.3339802830479386  0.5045250450056742
  0.9991676647794902  0.3322881930264647  0.9984508008080734
  0.9799858058262920  0.6714734586245209  0.5018522291913694
  0.9978768890875686  0.6696715085825858  0.9984497531277317
  0.0060698951908403  0.9911778604398392  0.5020569043455105
  0.0025630035037279  0.9998675049347677  0.9951569018746237
  0.1643548265490245  0.1668707723581624  0.2474430104682679
  0.1687567188261384  0.1654291434576042  0.7507601877545285
  0.1641594966499165  0.5016116908297756  0.2477618609505512
  0.1673170314149339  0.4960070268828660  0.7556606576595694
  0.1630691134469172  0.8364983814997400  0.2452900538964165
  0.1681921387118138  0.8313048370855360  0.7500709508453568
  0.4966455751857364  0.1681874834884493  0.2532945335478703
  0.5009916945599827  0.1627155738567190  0.7529994323836295
  0.4978380671248679  0.5020611978255487  0.2489114367076026
  0.5009176959137920  0.4987420604484961  0.7549408916596853
  0.4963991138323365  0.8323787261263947  0.2510298447850221
  0.4994237551894832  0.8312354539189087  0.7542792423387488
  0.8322829564263815  0.1677868902342710  0.2494586597669316
  0.8346170363805997  0.1647507813471576  0.7505414669397477
  0.8314357746324366  0.4993220064916204  0.2490761163241045
  0.8333172048188034  0.4984024235159543  0.7531524828754820
  0.8298785747857730  0.8332125757764980  0.2508391364306144
  0.8334413678424181  0.8303741810040588  0.7509742121668300
  0.2558534490279371  0.2502545313635495  0.3551278526688173
  0.2550239535402586  0.2483074749547967  0.8646449565845900
  0.2475034546179458  0.5933320969400410  0.3494029317757095
  0.2532397423516773  0.5863824061074808  0.8641883956781248
  0.2489203690627493  0.9237010654770875  0.3553828500844251
  0.2518805433236239  0.9188856682374773  0.8621345670741720
  0.5856973462698096  0.2543000725163171  0.3566746310795468
  0.5893993445853648  0.2497205372704018  0.8636423897310515
  0.5853238112110771  0.5857525302841504  0.3590920686114464
  0.5871501891120650  0.5846331164314758  0.8655791788379881
  0.5825294275130656  0.9215552489514128  0.3615322168823134
  0.5885710754708292  0.9171315153033645  0.8636009728254944
  0.9202905916077017  0.2527108046151618  0.3581710822178966
  0.9209017662191458  0.2509500031136772  0.8615092921159578
  0.9183401244359044  0.5859303247427486  0.3593473337181616
  0.9187574393024167  0.5857929877203381  0.8635486739094312
  0.9182753120038291  0.9214668656727983  0.3588402360868490
  0.9207315253187227  0.9184008894496555  0.8599904857870903
  0.0759991438004965  0.0834646228283607  0.1367059458674695
  0.0813022681142631  0.0788887174849769  0.6399566828145515
  0.0786556273363341  0.4132715107736197  0.1385015126551176
  0.0769590616055637  0.4142446006571279  0.6449880167509595
  0.0741401376858607  0.7504234541824302  0.1365508079412314
  0.0806425575764607  0.7418754464051923  0.6411069273243774
  0.4146661390093167  0.0811387180771733  0.1414453681588854
  0.4151715662363520  0.0730265003204969  0.6456185062301610
  0.4136384782055045  0.4115053337428962  0.1397900218049048
  0.4178214885319506  0.4069415055222955  0.6505186330261915
  0.4120282826664595  0.7481108359642034  0.1377387600396127
  0.4144241750529593  0.7448629348257571  0.6451237355846630
  0.7376902439991950  0.0823841850469473  0.1422171656001678
  0.7470738593936486  0.0777449480706315  0.6408980018067780
  0.7450805477451784  0.4131661132939450  0.1395972102371043
  0.7466310423578434  0.4120678561118356  0.6424745626557070
  0.7432712814424018  0.7464814723851958  0.1405443100780628
  0.7445902213643071  0.7448812437277494  0.6425419199140386
 
             NaN             NaN             NaN
             NaN             NaN             NaN
             NaN             NaN             NaN
             NaN             NaN             NaN
             NaN             NaN             NaN
             NaN             NaN             NaN
             NaN             NaN             NaN
             NaN             NaN             NaN
             NaN             NaN             NaN
             NaN             NaN             NaN
             NaN             NaN             NaN
             NaN             NaN             NaN
             NaN             NaN             NaN
             NaN             NaN             NaN
             NaN             NaN             NaN
             NaN             NaN             NaN
             NaN             NaN             NaN
             NaN             NaN             NaN
             NaN             NaN             NaN
             NaN             NaN             NaN
             NaN             NaN             NaN
             NaN             NaN             NaN
             NaN             NaN             NaN
             NaN             NaN             NaN
             NaN             NaN             NaN
             NaN             NaN             NaN
             NaN             NaN             NaN
             NaN             NaN             NaN
             NaN             NaN             NaN
             NaN             NaN             NaN
             NaN             NaN             NaN
             NaN             NaN             NaN
             NaN             NaN             NaN
             NaN             NaN             NaN
             NaN             NaN             NaN
             NaN             NaN             NaN
             NaN             NaN             NaN
             NaN             NaN             NaN
             NaN             NaN             NaN
             NaN             NaN             NaN
             NaN             NaN             NaN
             NaN             NaN             NaN
             NaN             NaN             NaN
             NaN             NaN             NaN
             NaN             NaN             NaN
             NaN             NaN             NaN
             NaN             NaN             NaN
             NaN             NaN             NaN
             NaN             NaN             NaN
             NaN             NaN             NaN
             NaN             NaN             NaN
             NaN             NaN             NaN
             NaN             NaN             NaN
             NaN             NaN             NaN
             NaN             NaN             NaN
             NaN             NaN             NaN
             NaN             NaN             NaN
             NaN             NaN             NaN
             NaN             NaN             NaN
             NaN             NaN             NaN
             NaN             NaN             NaN
             NaN             NaN             NaN
             NaN             NaN             NaN
             NaN             NaN             NaN
             NaN             NaN             NaN
             NaN             NaN             NaN
             NaN             NaN             NaN
             NaN             NaN             NaN
             NaN             NaN             NaN
             NaN             NaN             NaN
             NaN             NaN             NaN
