Li17 Co18 O36                           
   1.00000000000000     
     8.0557280000000002   -0.0035030000000000    2.3736009999999998
     3.6800970000000000    7.1672200000000004    2.3705020000000001
    -0.0129210000000000   -0.0041040000000000    9.8886179999999992
   Li   Co   O 
    17    18    36
Direct
  0.3128934041278490  0.6002045752991525  0.5105144663811864
  0.3328157755110578  0.3343205833968070  0.9974552824949023
  0.3322907013446795  0.6687189792599584  0.9975131599310109
  0.3319398589660615  0.9958113793295675  0.5070361182728820
  0.3333120183377392  0.9970173696093737  0.9972679944031660
  0.6627659772033392  0.3331579593635330  0.5056173158369712
  0.6686126617284494  0.3352630237562532  0.9965138112195194
  0.6530469430410268  0.6624145511867180  0.5054261107119177
  0.6655782830596586  0.6664193907766669  0.9999786041444855
  0.6504110149450412  0.0127538460231632  0.5059981495393850
  0.6687499339397998  0.9971828750582861  0.9969265929058525
  0.0070924004246204  0.3343680494428902  0.5049911195657973
  0.9987140750190171  0.3329648050605919  0.9991392910795811
  0.9839260277395399  0.6684030739649834  0.5009841973262014
  0.9976068644810951  0.6673081665632150  0.9992217147364105
  0.0068744329569288  0.9916144120132563  0.5016127670793711
  0.0039532263160267  0.9988461277758199  0.9950028931779085
  0.1625608584579233  0.1676428309984167  0.2482731893530662
  0.1689957164175610  0.1650965493483836  0.7510253376323711
  0.1623232301481775  0.5005414795601140  0.2475347026085255
  0.1681392098525904  0.4955428597921404  0.7548990957588479
  0.1617013922118890  0.8362517608932475  0.2469076251778769
  0.1687112802568956  0.8296716029008085  0.7509722365095957
  0.4954639749781902  0.1678658998805406  0.2521499175080001
  0.5021817413944840  0.1631240537563545  0.7538072497259553
  0.4946081598712848  0.5010859078872949  0.2484516521334027
  0.5016000430404051  0.4981527099420307  0.7549215772836408
  0.4946703199520511  0.8322476345238885  0.2521923065274171
  0.4999041235719877  0.8308967435271654  0.7543962054292271
  0.8304513604163091  0.1674144859427271  0.2490344195303810
  0.8356356871850199  0.1642093095777081  0.7506453088392435
  0.8287145894198621  0.5002956866564942  0.2496962650316504
  0.8339941415391767  0.4981068692150975  0.7529459218928430
  0.8287689360067972  0.8341538077255832  0.2507444349284196
  0.8343208838361414  0.8298437928995153  0.7508312314425563
  0.2543886756332120  0.2531553894256490  0.3542341508410681
  0.2550528325798759  0.2491655315756062  0.8644971502256492
  0.2461580693925239  0.5940420918804921  0.3507964699311535
  0.2541668276439936  0.5849920232141667  0.8640979799943850
  0.2479165226545827  0.9240981350146230  0.3561160229946722
  0.2526280577398333  0.9180236316622574  0.8625853035737621
  0.5833780390963197  0.2529075680356444  0.3549572564484414
  0.5904563537685502  0.2496627805470806  0.8636906844387436
  0.5826603876781264  0.5850880674078233  0.3594907640864333
  0.5873888530372861  0.5840197966452900  0.8656690252007773
  0.5810459686637111  0.9229185645627517  0.3610855629281062
  0.5891846160782653  0.9165875130166425  0.8639874724500731
  0.9176155570831183  0.2532878685433344  0.3587342633674298
  0.9212061318212624  0.2501248476328884  0.8615821749967641
  0.9172229850257334  0.5867537351817275  0.3591466270092167
  0.9201671835038918  0.5850218660840418  0.8629572392572644
  0.9165358986448393  0.9208799127600188  0.3586027477244707
  0.9211656000948178  0.9177753313715092  0.8600704669570426
  0.0750867390099039  0.0835166354122620  0.1371963791508054
  0.0822896355288805  0.0774451371345690  0.6401062025824750
  0.0760853110569084  0.4148336443167019  0.1386717201647473
  0.0770549124008809  0.4132345071929167  0.6454481600908047
  0.0739397037272838  0.7485507084621075  0.1382275916692680
  0.0818569260034336  0.7408102046083749  0.6416162915127680
  0.4145417318841533  0.0811273721652943  0.1420484956975262
  0.4159407109390660  0.0728097782623977  0.6464983600288574
  0.4107289506537380  0.4109119964778205  0.1399003794405857
  0.4179346527218775  0.4071150962490684  0.6496967890889093
  0.4101506515070392  0.7480473066414627  0.1379767206723667
  0.4149782087748379  0.7439293912342334  0.6448604111461211
  0.7364434322367474  0.0815653944207844  0.1425481526188656
  0.7473101407351616  0.0772671209521764  0.6405374508378319
  0.7431190849789788  0.4130622290764542  0.1395486807953139
  0.7472991445323441  0.4116128139606858  0.6419172182128549
  0.7417439574924071  0.7468190303096045  0.1414677734468925
  0.7454447349744584  0.7439983492325661  0.6422307444010328
 
             NaN             NaN             NaN
             NaN             NaN             NaN
             NaN             NaN             NaN
             NaN             NaN             NaN
             NaN             NaN             NaN
             NaN             NaN             NaN
             NaN             NaN             NaN
             NaN             NaN             NaN
             NaN             NaN             NaN
             NaN             NaN             NaN
             NaN             NaN             NaN
             NaN             NaN             NaN
             NaN             NaN             NaN
             NaN             NaN             NaN
             NaN             NaN             NaN
             NaN             NaN             NaN
             NaN             NaN             NaN
             NaN             NaN             NaN
             NaN             NaN             NaN
             NaN             NaN             NaN
             NaN             NaN             NaN
             NaN             NaN             NaN
             NaN             NaN             NaN
             NaN             NaN             NaN
             NaN             NaN             NaN
             NaN             NaN             NaN
             NaN             NaN             NaN
             NaN             NaN             NaN
             NaN             NaN             NaN
             NaN             NaN             NaN
             NaN             NaN             NaN
             NaN             NaN             NaN
             NaN             NaN             NaN
             NaN             NaN             NaN
             NaN             NaN             NaN
             NaN             NaN             NaN
             NaN             NaN             NaN
             NaN             NaN             NaN
             NaN             NaN             NaN
             NaN             NaN             NaN
             NaN             NaN             NaN
             NaN             NaN             NaN
             NaN             NaN             NaN
             NaN             NaN             NaN
             NaN             NaN             NaN
             NaN             NaN             NaN
             NaN             NaN             NaN
             NaN             NaN             NaN
             NaN             NaN             NaN
             NaN             NaN             NaN
             NaN             NaN             NaN
             NaN             NaN             NaN
             NaN             NaN             NaN
             NaN             NaN             NaN
             NaN             NaN             NaN
             NaN             NaN             NaN
             NaN             NaN             NaN
             NaN             NaN             NaN
             NaN             NaN             NaN
             NaN             NaN             NaN
             NaN             NaN             NaN
             NaN             NaN             NaN
             NaN             NaN             NaN
             NaN             NaN             NaN
             NaN             NaN             NaN
             NaN             NaN             NaN
             NaN             NaN             NaN
             NaN             NaN             NaN
             NaN             NaN             NaN
             NaN             NaN             NaN
             NaN             NaN             NaN
