Li17 Co18 O36                           
   1.00000000000000     
     8.0557280000000002   -0.0035030000000000    2.3736009999999998
     3.6800970000000000    7.1672200000000004    2.3705020000000001
    -0.0129210000000000   -0.0041040000000000    9.8886179999999992
   Li   Co   O 
    17    18    36
Direct
  0.3036713956116878  0.5925169741298473  0.5124363630752575
  0.3354698271189810  0.3333687481411989  0.9964484562723770
  0.3318256148104326  0.6704001547884546  0.9971374103070386
  0.3317514005934409 -0.0039714486412421  0.5060437104514558
  0.3327083658016745 -0.0029850968343468  0.9971006963951273
  0.6636348012961043  0.3324424055428006  0.5067096054527414
  0.6677542155748779  0.3352440139607994  0.9966832783695960
  0.6515614322307867  0.6620913973949725  0.5046025546831737
  0.6661604261242144  0.6657148538025276  1.0000817078115292
  0.6496199882981281  0.0127982423219432  0.5071544278302716
  0.6702177035018422 -0.0035901371250406  0.9962473594109240
  0.0085311580695327  0.3333577846962530  0.5063566643134136
  0.9984258389965430  0.3335476074267347  0.9998396087671511
  0.9759664295346060  0.6732278580327243  0.5027682048356723
  0.9976878572227357  0.6700138170266988  0.9989486236235336
  0.0081617595620558  0.9904194754555229  0.5023011512006155
  1.0043396410558196 -0.0003889705023004  0.9949147848737553
  0.1645500643805615  0.1657855937227670  0.2482416495025795
  0.1686039979783111  0.1650401280703357  0.7511897008506488
  0.1610405274035093  0.5011217858383031  0.2498363440858179
  0.1663813917124151  0.4957537037687803  0.7564420096129230
  0.1605874853546473  0.8373845956055179  0.2458923720701296
  0.1687616680080708  0.8293544118303108  0.7513024133500078
  0.4973701395408769  0.1652669644668670  0.2520098605096686
  0.5000569184611028  0.1617104322571633  0.7528732798280957
  0.4959487949078092  0.4998462412904188  0.2474584456860640
  0.5002430459716138  0.4955764123168672  0.7546527592167415
  0.4950890313026341  0.8312384987388605  0.2514922353292049
  0.4997802167252717  0.8292992703670681  0.7551792869802956
  0.8313331546628465  0.1677011571273902  0.2496468567811725
  0.8347838356047185  0.1640538148920709  0.7507097487572242
  0.8288989246501903  0.5000317457461813  0.2500031530998733
  0.8326875140825271  0.4979717987823736  0.7537387901017015
  0.8273843953251908  0.8349642821907853  0.2509230806721834
  0.8331314816183868  0.8298370714872073  0.7516733919852719
  0.2603058378347542  0.2408010938517817  0.3581838980453135
  0.2539431647471390  0.2487285390241421  0.8651783545345174
  0.2446918391197934  0.5945009045973249  0.3519804401459837
  0.2533805856591297  0.5847909853069618  0.8649150269761078
  0.2479690997150542  0.9227911029302575  0.3558771560408433
  0.2521640282281969  0.9182885657445323  0.8625515697284050
  0.5836480308757475  0.2517189407803540  0.3550965513781205
  0.5895495059372284  0.2478918834267767  0.8631700762507489
  0.5826115317235030  0.5833889128216536  0.3584776090719017
  0.5865567389108113  0.5824979125454545  0.8655129185075795
  0.5813959483164302  0.9213778323219047  0.3612188215106593
  0.5882882063051407  0.9162416421578145  0.8643339769319148
  0.9189642709702573  0.2531567163866439  0.3586489998415679
  0.9207412167605845  0.2503773267083381  0.8619456200561775
  0.9070535813244380  0.5911890162272475  0.3641355165191572
  0.9185111847860626  0.5853051691236736  0.8642789121663051
  0.9157217775576151  0.9222484028003523  0.3590275769255523
  0.9208652639211761  0.9178026193088695  0.8602726562554411
  0.0755035545260176  0.0837118599820435  0.1378127905801224
  0.0818941856812932  0.0773770896798103  0.6406019793041938
  0.0768059335346798  0.4133479216890051  0.1368393912511223
  0.0764897418454375  0.4141218713216391  0.6461097856015227
  0.0681280224771638  0.7590042162664625  0.1337944460342596
  0.0806839852835926  0.7403535550572758  0.6427536515779021
  0.4164247529676195  0.0791948525740621  0.1417220362400202
  0.4149237805060895  0.0715154371554173  0.6464583768359187
  0.4192942477161610  0.4048024036323953  0.1360702511815531
  0.4154793673800391  0.4057627028628314  0.6502648852731274
  0.4098842923085956  0.7474561905522128  0.1381568151332807
  0.4147269964825859  0.7426702330729338  0.6455763547543996
  0.7370250195524761  0.0814446926007688  0.1426264346189373
  0.7468106131060478  0.0769250527717368  0.6411281958340437
  0.7439999816979709  0.4127498263088387  0.1399157529902355
  0.7465260403132171  0.4108750359653596  0.6424821421925569
  0.7418607604153972  0.7466097346490170  0.1415730580033192
  0.7442686055704539  0.7442299320100491  0.6435806325062648
 
             NaN             NaN             NaN
             NaN             NaN             NaN
             NaN             NaN             NaN
             NaN             NaN             NaN
             NaN             NaN             NaN
             NaN             NaN             NaN
             NaN             NaN             NaN
             NaN             NaN             NaN
             NaN             NaN             NaN
             NaN             NaN             NaN
             NaN             NaN             NaN
             NaN             NaN             NaN
             NaN             NaN             NaN
             NaN             NaN             NaN
             NaN             NaN             NaN
             NaN             NaN             NaN
             NaN             NaN             NaN
             NaN             NaN             NaN
             NaN             NaN             NaN
             NaN             NaN             NaN
             NaN             NaN             NaN
             NaN             NaN             NaN
             NaN             NaN             NaN
             NaN             NaN             NaN
             NaN             NaN             NaN
             NaN             NaN             NaN
             NaN             NaN             NaN
             NaN             NaN             NaN
             NaN             NaN             NaN
             NaN             NaN             NaN
             NaN             NaN             NaN
             NaN             NaN             NaN
             NaN             NaN             NaN
             NaN             NaN             NaN
             NaN             NaN             NaN
             NaN             NaN             NaN
             NaN             NaN             NaN
             NaN             NaN             NaN
             NaN             NaN             NaN
             NaN             NaN             NaN
             NaN             NaN             NaN
             NaN             NaN             NaN
             NaN             NaN             NaN
             NaN             NaN             NaN
             NaN             NaN             NaN
             NaN             NaN             NaN
             NaN             NaN             NaN
             NaN             NaN             NaN
             NaN             NaN             NaN
             NaN             NaN             NaN
             NaN             NaN             NaN
             NaN             NaN             NaN
             NaN             NaN             NaN
             NaN             NaN             NaN
             NaN             NaN             NaN
             NaN             NaN             NaN
             NaN             NaN             NaN
             NaN             NaN             NaN
             NaN             NaN             NaN
             NaN             NaN             NaN
             NaN             NaN             NaN
             NaN             NaN             NaN
             NaN             NaN             NaN
             NaN             NaN             NaN
             NaN             NaN             NaN
             NaN             NaN             NaN
             NaN             NaN             NaN
             NaN             NaN             NaN
             NaN             NaN             NaN
             NaN             NaN             NaN
             NaN             NaN             NaN
