Li17 Co18 O36                           
   1.00000000000000     
     8.0557280000000002   -0.0035030000000000    2.3736009999999998
     3.6800970000000000    7.1672200000000004    2.3705020000000001
    -0.0129210000000000   -0.0041040000000000    9.8886179999999992
   Li   Co   O 
    17    18    36
Direct
  0.3068986834552311  0.5932870820202490  0.5105995820790588
  0.3342124463779840  0.3341725471190886  0.9977505448489179
  0.3331876522788209  0.6679874588471725  0.9979476227683146
  0.3320532146611672  0.9983797164153908  0.5057518599092834
  0.3332432044347861  0.9977414279591748  0.9969161196482608
  0.6617471439489145  0.3329443412180576  0.5057309107769729
  0.6672540974753884  0.3348214434497452  0.9972436979188808
  0.6518835002226167  0.6640271692877717  0.5045562619927952
  0.6658645668272118  0.6666973238319103  0.9994277610790021
  0.6491099620153635  0.0137620943490109  0.5052106004845125
  0.6689584905996219  0.9972150978718954  0.9968760257562895
  0.0074574687525814  0.3339316001903985  0.5044222434688557
  0.9976532712172448  0.3326193069508556  0.9990677247869610
  0.9807223676914552  0.6700277197228096  0.5011622611049653
  0.9983899710003513  0.6681711953548914  0.9990747887580849
  0.0063163506366547  0.9911125140230397  0.5018231207278527
  0.0020788850102795  0.9986439805024445  0.9953342094647024
  0.1636302209318444  0.1677640993603781  0.2474472905713644
  0.1687488182857246  0.1650274660777375  0.7510066506782013
  0.1637162352310556  0.5015163554752281  0.2483756697324917
  0.1673576693698740  0.4954592419753405  0.7557110063823100
  0.1624292311913479  0.8365097854746506  0.2461730340179381
  0.1687789923317939  0.8296913631681446  0.7509659557624733
  0.4961554115998207  0.1683335717889698  0.2516677757955763
  0.5014913212741613  0.1632206418072890  0.7541760178348562
  0.4970722488350506  0.5018567919298644  0.2491913277099148
  0.5014338957868301  0.4984060069973700  0.7549791856719863
  0.4960332484308163  0.8329980137115803  0.2507363370564264
  0.4995522310076746  0.8309424813801523  0.7544566461178300
  0.8317322551560324  0.1678417855655667  0.2492815297345168
  0.8350990868413393  0.1642262238585845  0.7504672944628709
  0.8307223208242110  0.4997801360710707  0.2492097786067728
  0.8332247059882806  0.4980051197982578  0.7533390789439439
  0.8295759496077830  0.8337267999837725  0.2505001734998192
  0.8336307585056464  0.8297501558817656  0.7512130520102791
  0.2551748124352994  0.2518759183619553  0.3536720667293709
  0.2544898567623209  0.2485524310412731  0.8651020992083233
  0.2470980499897694  0.5931498569046687  0.3504931144881710
  0.2540989436057731  0.5853328972466132  0.8648236972526107
  0.2489919956514329  0.9245142915372573  0.3556493154106719
  0.2520291024656908  0.9182830622927194  0.8626105528738948
  0.5845960225203927  0.2531366261655568  0.3551192888069082
  0.5901170663891322  0.2496878916962786  0.8639341411998327
  0.5839665559171149  0.5862253568441215  0.3592171140365858
  0.5871571758154572  0.5841884348095114  0.8656995901382323
  0.5820969207057538  0.9233575520189252  0.3601274819975070
  0.5888102764527543  0.9168543180481969  0.8640000075947898
  0.9188784219678818  0.2534320185478577  0.3584646653867644
  0.9208205190642224  0.2502634995523482  0.8617319931843788
  0.9174753890985858  0.5872467617177246  0.3587906023962185
  0.9188792130347052  0.5849594290890558  0.8639334691408541
  0.9172279378354141  0.9214581273442300  0.3583476005645267
  0.9210688438223252  0.9175642411729535  0.8603294945309935
  0.0759857432964017  0.0835370028915589  0.1373557374853946
  0.0819828616933485  0.0773976465663401  0.6401566748903491
  0.0772142732036807  0.4139751966380369  0.1385440919739087
  0.0765550501217769  0.4133353881104054  0.6451047129699153
  0.0743272385110163  0.7487295865264011  0.1379674939199079
  0.0813086599503682  0.7406369087004532  0.6416584746433301
  0.4150855406839123  0.0814261217526206  0.1411089814809408
  0.4154513931567542  0.0731330460331730  0.6464871763696662
  0.4124330270742909  0.4111657066529088  0.1399700117442349
  0.4176392409219341  0.4070456758049334  0.6502581470590149
  0.4113149610128050  0.7481353683227793  0.1385062604006446
  0.4147653340673492  0.7442918837929725  0.6450457328363427
  0.7380868363494579  0.0817662085639610  0.1420043698410749
  0.7471388091126189  0.0771406522801065  0.6412332428469540
  0.7440962952239943  0.4134325634571828  0.1397078038052063
  0.7469928052186704  0.4115239265839957  0.6421943796816124
  0.7429580533804271  0.7471905636182602  0.1409771066735572
  0.7447539366023701  0.7444020989856358  0.6426212041794039
 
             NaN             NaN             NaN
             NaN             NaN             NaN
             NaN             NaN             NaN
             NaN             NaN             NaN
             NaN             NaN             NaN
             NaN             NaN             NaN
             NaN             NaN             NaN
             NaN             NaN             NaN
             NaN             NaN             NaN
             NaN             NaN             NaN
             NaN             NaN             NaN
             NaN             NaN             NaN
             NaN             NaN             NaN
             NaN             NaN             NaN
             NaN             NaN             NaN
             NaN             NaN             NaN
             NaN             NaN             NaN
             NaN             NaN             NaN
             NaN             NaN             NaN
             NaN             NaN             NaN
             NaN             NaN             NaN
             NaN             NaN             NaN
             NaN             NaN             NaN
             NaN             NaN             NaN
             NaN             NaN             NaN
             NaN             NaN             NaN
             NaN             NaN             NaN
             NaN             NaN             NaN
             NaN             NaN             NaN
             NaN             NaN             NaN
             NaN             NaN             NaN
             NaN             NaN             NaN
             NaN             NaN             NaN
             NaN             NaN             NaN
             NaN             NaN             NaN
             NaN             NaN             NaN
             NaN             NaN             NaN
             NaN             NaN             NaN
             NaN             NaN             NaN
             NaN             NaN             NaN
             NaN             NaN             NaN
             NaN             NaN             NaN
             NaN             NaN             NaN
             NaN             NaN             NaN
             NaN             NaN             NaN
             NaN             NaN             NaN
             NaN             NaN             NaN
             NaN             NaN             NaN
             NaN             NaN             NaN
             NaN             NaN             NaN
             NaN             NaN             NaN
             NaN             NaN             NaN
             NaN             NaN             NaN
             NaN             NaN             NaN
             NaN             NaN             NaN
             NaN             NaN             NaN
             NaN             NaN             NaN
             NaN             NaN             NaN
             NaN             NaN             NaN
             NaN             NaN             NaN
             NaN             NaN             NaN
             NaN             NaN             NaN
             NaN             NaN             NaN
             NaN             NaN             NaN
             NaN             NaN             NaN
             NaN             NaN             NaN
             NaN             NaN             NaN
             NaN             NaN             NaN
             NaN             NaN             NaN
             NaN             NaN             NaN
             NaN             NaN             NaN
