Li17 Co18 O36                           
   1.00000000000000     
     8.0557280000000002   -0.0035030000000000    2.3736009999999998
     3.6800970000000000    7.1672200000000004    2.3705020000000001
    -0.0129210000000000   -0.0041040000000000    9.8886179999999992
   Li   Co   O 
    17    18    36
Direct
  0.2940598599199270  0.5908519394378664  0.5187996974782713
  0.3356146534931047  0.3312434588386596 -0.0051615774712860
  0.3339242457621778  0.6696718701214759 -0.0055548076437421
  0.3295182336647766  0.0033030642684235  0.5075790267894006
  0.3324583619232188  1.0023578112924514  0.9955257022563004
  0.6594241740929362  0.3314986881643522  0.5075879713300822
  0.6709897343140047  0.3320928806083789 -0.0058225952580042
  0.6579923933095929  0.6651471198826864  0.5085648254748286
  0.6680614918180985  0.6671459711091950 -0.0042951545114556
  0.6567187051688906  0.0068852651285069  0.5079706918147203
  0.6690963796480638  0.0010943444712542  0.9954703293140270
  0.0070225774087165  0.3302908942767288  0.5051773183471091
  0.9999511910955017  0.3313724756477777  0.9980371246726072
 -0.0244630091455550  0.6720352717481141  0.5026558103013650
 -0.0030840769694475  0.6710892862515901  0.9977218322456046
  1.0034690043312073  0.9962980493806888  0.5024910997390145
  0.9999661083951594  1.0011990709558198  0.9960045156451796
  0.1648022988357467  0.1686187401510445  0.2461747379999160
  0.1675569601121708  0.1677749971238554  0.7497071399471522
  0.1633023955653534  0.4985440723676030  0.2507910839749090
  0.1652159189252367  0.4973841400220466  0.7568645956331173
  0.1648247699413155  0.8360354572304435  0.2466318436028765
  0.1675308240188758  0.8320819823240994  0.7499648883107670
  0.4994844973997045  0.1629569960410969  0.2547936749260790
  0.4999526645182001  0.1626070851451421  0.7521814476086508
  0.5013708408124598  0.4983127604334358  0.2492632057438372
  0.5000119965462829  0.4981283644664976  0.7529876262612377
  0.4954101621562207  0.8357771241286154  0.2530039307879229
  0.4986082989069285  0.8318482521708358  0.7537847731424008
  0.8358912335586095  0.1659430693444153  0.2479794297715566
  0.8343116754800342  0.1660568868833132  0.7494944825432734
  0.8317335430667353  0.4989230524633282  0.2493376608749867
  0.8327347774276966  0.5002207060755984  0.7519641320227238
  0.8321940780761301  0.8344653998609101  0.2503546998440827
  0.8329140785748437  0.8319405573586809  0.7506470401172550
  0.2446062621973913  0.2502796786868875  0.3619562292881059
  0.2532690677427646  0.2501814818840770  0.8636214063617756
  0.2473162185584191  0.5953750207694106  0.3556802932538454
  0.2531917232428670  0.5866476544885854  0.8637612205866928
  0.2480467159851565  0.9248765232217221  0.3588787264956526
  0.2513419787500847  0.9206107392988295  0.8610356530789548
  0.5961317609796311  0.2527103920664541  0.3599060660853012
  0.5887221138905541  0.2507820095555210  0.8617918929390305
  0.5860453882867671  0.5755090332445667  0.3629301918609517
  0.5867695022781834  0.5847417773859228  0.8633176121604079
  0.5902485796632491  0.9182133614943581  0.3692293658312996
  0.5881124391588440  0.9174946109428809  0.8628360652358432
  0.9213462388850284  0.2531965849399723  0.3572510270479315
  0.9205670456317223  0.2530412784405732  0.8599380201993825
  0.9088351470365162  0.5892369255436977  0.3635909426613578
  0.9177848057611193  0.5872768365841580  0.8632088341907482
  0.9206728966445578  0.9207672989600612  0.3588766688855174
  0.9203514317706930  0.9196005950079471  0.8591110512380358
  0.0801378775867207  0.0804117235391951  0.1365501134331290
  0.0805429174177163  0.0796300048380056  0.6398085783889444
  0.0743524957720097  0.4156914337937647  0.1344050985814572
  0.0763375821462302  0.4162475531118588  0.6449654077594893
  0.0752751979623004  0.7520156844564009  0.1353604220116971
  0.0797110400552010  0.7423657123262815  0.6424247975750759
  0.4109931628141564  0.0873902465859169  0.1325621064134589
  0.4143560720510804  0.0741101595843147  0.6451578381334490
  0.4228270057508675  0.4148522073286707  0.1340388112376909
  0.4148701010648265  0.4070360063455380  0.6503529835027272
  0.4122588736806848  0.7451743872028067  0.1342901466517863
  0.4136993668690973  0.7452549788078544  0.6437817127283180
  0.7534315356994438  0.0767622431434025  0.1370850876449572
  0.7465927980245323  0.0783926902943517  0.6406516246067644
  0.7535580626137859  0.4100317591937927  0.1348649565371953
  0.7463892563914867  0.4131193032839807  0.6410156972560613
  0.7454300947549035  0.7472703200019506  0.1398176474704659
  0.7440951088822779  0.7464302192653351  0.6423849366306474
 
             NaN             NaN             NaN
             NaN             NaN             NaN
             NaN             NaN             NaN
             NaN             NaN             NaN
             NaN             NaN             NaN
             NaN             NaN             NaN
             NaN             NaN             NaN
             NaN             NaN             NaN
             NaN             NaN             NaN
             NaN             NaN             NaN
             NaN             NaN             NaN
             NaN             NaN             NaN
             NaN             NaN             NaN
             NaN             NaN             NaN
             NaN             NaN             NaN
             NaN             NaN             NaN
             NaN             NaN             NaN
             NaN             NaN             NaN
             NaN             NaN             NaN
             NaN             NaN             NaN
             NaN             NaN             NaN
             NaN             NaN             NaN
             NaN             NaN             NaN
             NaN             NaN             NaN
             NaN             NaN             NaN
             NaN             NaN             NaN
             NaN             NaN             NaN
             NaN             NaN             NaN
             NaN             NaN             NaN
             NaN             NaN             NaN
             NaN             NaN             NaN
             NaN             NaN             NaN
             NaN             NaN             NaN
             NaN             NaN             NaN
             NaN             NaN             NaN
             NaN             NaN             NaN
             NaN             NaN             NaN
             NaN             NaN             NaN
             NaN             NaN             NaN
             NaN             NaN             NaN
             NaN             NaN             NaN
             NaN             NaN             NaN
             NaN             NaN             NaN
             NaN             NaN             NaN
             NaN             NaN             NaN
             NaN             NaN             NaN
             NaN             NaN             NaN
             NaN             NaN             NaN
             NaN             NaN             NaN
             NaN             NaN             NaN
             NaN             NaN             NaN
             NaN             NaN             NaN
             NaN             NaN             NaN
             NaN             NaN             NaN
             NaN             NaN             NaN
             NaN             NaN             NaN
             NaN             NaN             NaN
             NaN             NaN             NaN
             NaN             NaN             NaN
             NaN             NaN             NaN
             NaN             NaN             NaN
             NaN             NaN             NaN
             NaN             NaN             NaN
             NaN             NaN             NaN
             NaN             NaN             NaN
             NaN             NaN             NaN
             NaN             NaN             NaN
             NaN             NaN             NaN
             NaN             NaN             NaN
             NaN             NaN             NaN
             NaN             NaN             NaN
