Mg15 Mn32 O64                           
   1.00000000000000     
    11.6285600000000002    0.0000000000000000    0.0000030000000000
     0.0000000000000000   11.6368510000000001    0.0000000000000000
     0.0000020000000000    0.0000000000000000    9.3722089999999998
   Mg   Mn   O 
    15    32    64
Direct
  0.4999997750677985  0.7043714966084077  0.7097640288014375
  0.4999999735951900  0.2510689464151774  0.7462834698858321
  0.0000000035424777  0.2495384155679408  0.7490609110043843
 -0.0000001622533311  0.7509743533014200  0.7505158672450938
 -0.0000000745134330  0.4998749880764000  0.5008246621302088
 -0.0000000949313657  0.9995758460357251  0.4975047168275515
  0.4999999867117891  0.9987565655071436  0.4984310983606303
  0.2503079928204409  0.0005787219566192  0.2519343200134688
  0.2536341368392337  0.4995642570081944  0.2490022104719835
  0.7496918561882827  0.0005785865039596  0.2519345124731508
  0.7463658699874810  0.4995641768838868  0.2490022515001350
  0.2485345050282233  0.2451667553265582  0.0006498671278289
  0.2498127591290197  0.7534389536743714 -0.0002468943628983
  0.7514655099523109  0.2451666601687177  0.0006500476535092
  0.7501872376390989  0.7534389278125836 -0.0002467028440758
  0.1257966815754543  0.2514956969194288  0.3763209927419049
  0.1254193673247249  0.7489547714608945  0.3740189016242729
  0.6229959768009086  0.2516459921634329  0.3730387139723792
  0.6238416768440211  0.7488321645578890  0.3701794725800912
  0.3770040067762854  0.2516459219093322  0.3730382811402471
  0.3761581278838868  0.7488323567738366  0.3701789923927185
  0.8742032371519588  0.2514957394745539  0.3763210094874339
  0.8745803251581709  0.7489545781887533  0.3740189539293660
  0.1245770861443252  0.4992847868158956  0.8789365307574447
  0.1250247405047261 -0.0000478696212804  0.8735620123186855
  0.6275296874768543  0.4983242916703129  0.8785835474620506
  0.6236032569994848  0.9981688610555653  0.8709449910902129
  0.3724703589205208  0.4983244053813854  0.8785836219746854
  0.3763967328178821  0.9981688659156694  0.8709448014209134
  0.8754228928577988  0.4992847302277020  0.8789369218462988
  0.8749752351611906 -0.0000478872132760  0.8735618790789079
  0.5000000136999260  0.1231967921491073  0.1233865826140960
  0.4999999214090312  0.6271784158218517  0.1205416460612347
 -0.0000000205913885  0.1247328156460910  0.1265537372587297
  0.0000000087250070  0.6248486205605188  0.1269948404715763
  0.4999999011271303  0.3710899462749511  0.1201104435531691
  0.4999999802207494  0.8757112977867475  0.1205134986119190
  0.0000000191915241  0.3748552584585566  0.1281981468911614
  0.0000000189854837  0.8752816095867064  0.1253296907317382
  0.2523030827741407  0.3756417199492620  0.6281203496834724
  0.2496074220401883  0.8750016171090044  0.6226299800762700
  0.7476969898783266  0.3756414259360596  0.6281206034740073
  0.7503924917078505  0.8750014643189195  0.6226303256513102
  0.2499899435325182  0.1251494011487168  0.6232699997533054
  0.2476866344521040  0.6245310619865198  0.6262718281104722
  0.7500099680111821  0.1251491308202831  0.6232700221823180
  0.7523131957494027  0.6245308350446482  0.6262721567875550
  0.1378715824066275  0.2518139325492794  0.6220033291589360
  0.1357797199586651  0.7495562386358680  0.6210073673506923
  0.6373751916952048  0.2509782245796767  0.6218932952100045
  0.6404398422155941  0.7470540706204286  0.6150604111000008
  0.3626248308797410  0.2509784559545648  0.6218932961100302
  0.3595598250023692  0.7470543423161284  0.6150602171516534
  0.8621284542668288  0.2518136869690743  0.6220034484389443
  0.8642199724489800  0.7495559908158588  0.6210076160561320
  0.1373569333795647  0.4988323833852225  0.6317110957245987
  0.1366533211134928  0.0000029832037438  0.6268622851235216
  0.6378433867069594  0.5038551919654211  0.6739693049227304
  0.6377880547517681  0.9998338526110614  0.6259412355358910
  0.3621566161837260  0.5038555958544416  0.6739691958353610
  0.3622116970079553  0.9998340065061889  0.6259412108415825
  0.8626430348489424  0.4988321856371926  0.6317114603661563
  0.8633465924490219  0.0000026918836632  0.6268624482646541
  0.4999999142443927  0.1133997753852015  0.8752212883814438
  0.4999999565295444  0.6064488758935731  0.8799683879950880
  0.0000000563936662  0.1134499519321378  0.8783590113691128
  0.0000001199286491  0.6125080487378549  0.8785780443118838
  0.4999999153771887  0.3890539516019638  0.8772083401380083
  0.4999998887438790  0.8865473894944320  0.8773722370736370
  0.0000001400408976  0.3865379120546024  0.8792330739873654
  0.0000000660631842  0.8870154093401118  0.8789425503290976
  0.0000000471044379  0.3639593264391299  0.3719352577678839
 -0.0000001078535134  0.8622115402719238  0.3699589440938049
  0.4999998631160594  0.3588117570652313  0.3505750106808099
  0.4999998959109444  0.8640159082147869  0.3683600500569068
  0.0000000179184181  0.1383347713596480  0.3721455951420874
 -0.0000000283735479  0.6360811660180873  0.3712440876842314
  0.4999999339017489  0.1358284906323060  0.3702658822337692
  0.4999997444155491  0.6413313254507012  0.3541767027827492
  0.3862182569240275  0.9997973714353104  0.1204904631816407
  0.3845370527802954  0.4989199881244148  0.0975909357561884
  0.8866589208150943  0.0002252459554660  0.1217447900830011
  0.8865964211066488  0.4996296427376072  0.1220994205052377
  0.1133411160359518  0.0002252942689499  0.1217447189791062
  0.1134040102248908  0.4996296314340160  0.1220994142444320
  0.6137817293090263  0.9997973373858757  0.1204905504541804
  0.6154629005037726  0.4989200012281432  0.0975909967287981
  0.3867642572813093  0.2481166428853159  0.1231321259833807
  0.3869667009405051  0.7502447602674027  0.1240200635900682
  0.8870266521842474  0.2500048978213706  0.1297521248906513
  0.8870939438420571  0.7498236179062917  0.1279106544121211
  0.1129734986658847  0.2500048191167780  0.1297520890551329
  0.1129063035772913  0.7498236917668786  0.1279106361301600
  0.6132357327269257  0.2481166844203341  0.1231321220525065
  0.6130331926018709  0.7502447529894890  0.1240201656312621
  0.2507151109103350  0.3655184896687713  0.3812700987109427
  0.2491760289591917  0.8621996605233667  0.3776364545929008
  0.7492848276816667  0.3655183770387834  0.3812702356694979
  0.7508236729441495  0.8621995105776811  0.3776366819254791
  0.2496591579021988  0.1383672162113250  0.3793201781137459
  0.2494068708349155  0.6346771270586082  0.3788026884071046
  0.7503407325792907  0.1383672180372955  0.3793202784613129
  0.7505929148240421  0.6346770904696221  0.3788028302905760
  0.2497560194317290  0.1122194332528347  0.8684474068839931
  0.2515005320485731  0.6104096834790941  0.8811199401946691
  0.7502439373886767  0.1122193008685884  0.8684474669596728
  0.7484996333294857  0.6104095676946836  0.8811200882030035
  0.2515701322148304  0.3872038913186761  0.8790510487551439
  0.2487183723550973  0.8862330532895383  0.8677100245806226
  0.7484300466025003  0.3872038764018702  0.8790513786271531
  0.7512815665730609  0.8862330337770314  0.8677101503308255
 
             NaN             NaN             NaN
             NaN             NaN             NaN
             NaN             NaN             NaN
             NaN             NaN             NaN
             NaN             NaN             NaN
             NaN             NaN             NaN
             NaN             NaN             NaN
             NaN             NaN             NaN
             NaN             NaN             NaN
             NaN             NaN             NaN
             NaN             NaN             NaN
             NaN             NaN             NaN
             NaN             NaN             NaN
             NaN             NaN             NaN
             NaN             NaN             NaN
             NaN             NaN             NaN
             NaN             NaN             NaN
             NaN             NaN             NaN
             NaN             NaN             NaN
             NaN             NaN             NaN
             NaN             NaN             NaN
             NaN             NaN             NaN
             NaN             NaN             NaN
             NaN             NaN             NaN
             NaN             NaN             NaN
             NaN             NaN             NaN
             NaN             NaN             NaN
             NaN             NaN             NaN
             NaN             NaN             NaN
             NaN             NaN             NaN
             NaN             NaN             NaN
             NaN             NaN             NaN
             NaN             NaN             NaN
             NaN             NaN             NaN
             NaN             NaN             NaN
             NaN             NaN             NaN
             NaN             NaN             NaN
             NaN             NaN             NaN
             NaN             NaN             NaN
             NaN             NaN             NaN
             NaN             NaN             NaN
             NaN             NaN             NaN
             NaN             NaN             NaN
             NaN             NaN             NaN
             NaN             NaN             NaN
             NaN             NaN             NaN
             NaN             NaN             NaN
             NaN             NaN             NaN
             NaN             NaN             NaN
             NaN             NaN             NaN
             NaN             NaN             NaN
             NaN             NaN             NaN
             NaN             NaN             NaN
             NaN             NaN             NaN
             NaN             NaN             NaN
             NaN             NaN             NaN
             NaN             NaN             NaN
             NaN             NaN             NaN
             NaN             NaN             NaN
             NaN             NaN             NaN
             NaN             NaN             NaN
             NaN             NaN             NaN
             NaN             NaN             NaN
             NaN             NaN             NaN
             NaN             NaN             NaN
             NaN             NaN             NaN
             NaN             NaN             NaN
             NaN             NaN             NaN
             NaN             NaN             NaN
             NaN             NaN             NaN
             NaN             NaN             NaN
             NaN             NaN             NaN
             NaN             NaN             NaN
             NaN             NaN             NaN
             NaN             NaN             NaN
             NaN             NaN             NaN
             NaN             NaN             NaN
             NaN             NaN             NaN
             NaN             NaN             NaN
             NaN             NaN             NaN
             NaN             NaN             NaN
             NaN             NaN             NaN
             NaN             NaN             NaN
             NaN             NaN             NaN
             NaN             NaN             NaN
             NaN             NaN             NaN
             NaN             NaN             NaN
             NaN             NaN             NaN
             NaN             NaN             NaN
             NaN             NaN             NaN
             NaN             NaN             NaN
             NaN             NaN             NaN
             NaN             NaN             NaN
             NaN             NaN             NaN
             NaN             NaN             NaN
             NaN             NaN             NaN
             NaN             NaN             NaN
             NaN             NaN             NaN
             NaN             NaN             NaN
             NaN             NaN             NaN
             NaN             NaN             NaN
             NaN             NaN             NaN
             NaN             NaN             NaN
             NaN             NaN             NaN
             NaN             NaN             NaN
             NaN             NaN             NaN
             NaN             NaN             NaN
             NaN             NaN             NaN
             NaN             NaN             NaN
             NaN             NaN             NaN
             NaN             NaN             NaN
