Mg15 Mn32 O64
1.0
11.628560 -0.000000 0.000003
-0.000000 11.636851 0.000000
0.000002 -0.000000 9.372209
Mg Mn O
15 32 64
direct
0.500000 0.717141 0.714874 Mg
0.500000 0.252174 0.746323 Mg
1.000000 0.249800 0.749505 Mg
1.000000 0.750199 0.749489 Mg
1.000000 0.500055 0.501717 Mg
0.000000 -0.000055 0.498731 Mg
0.500000 0.999434 0.498362 Mg
0.250044 0.000203 0.251639 Mg
0.253582 0.499798 0.250035 Mg
0.749957 1.000203 0.251640 Mg
0.746418 0.499797 0.250035 Mg
0.248492 0.247290 0.000677 Mg
0.248820 0.752709 0.000162 Mg
0.751508 0.247290 0.000677 Mg
0.751180 0.752710 0.000163 Mg
0.125569 0.250969 0.376200 Mn
0.125476 0.749032 0.375763 Mn
0.623388 0.251397 0.373663 Mn
0.623746 0.748603 0.372693 Mn
0.376613 0.251397 0.373663 Mn
0.376253 0.748603 0.372693 Mn
0.874431 0.250969 0.376200 Mn
0.874524 0.749032 0.375762 Mn
0.124505 0.499970 0.878378 Mn
0.124782 1.000029 0.873902 Mn
0.626497 0.500122 0.875952 Mn
0.624766 0.999878 0.872458 Mn
0.373502 0.500122 0.875952 Mn
0.375234 0.999877 0.872458 Mn
0.875494 0.499971 0.878379 Mn
0.875219 1.000029 0.873901 Mn
0.500001 0.124240 0.123924 Mn
0.499999 0.627118 0.121556 Mn
-0.000000 0.124828 0.126521 Mn
0.000000 0.624834 0.127964 Mn
0.499999 0.372596 0.122009 Mn
0.500000 0.876047 0.123470 Mn
0.000000 0.375163 0.128249 Mn
1.000000 0.875175 0.126236 Mn
0.250987 0.375447 0.627872 Mn
0.249983 0.874683 0.622920 Mn
0.749013 0.375447 0.627872 Mn
0.750018 0.874682 0.622920 Mn
0.249924 0.125002 0.623309 Mn
0.251046 0.624868 0.627484 Mn
0.750077 0.125002 0.623309 Mn
0.748953 0.624868 0.627484 Mn
0.137094 0.250825 0.621456 O
0.136843 0.749175 0.621169 O
0.637605 0.250449 0.621640 O
0.638211 0.749552 0.618854 O
0.362396 0.250449 0.621640 O
0.361789 0.749551 0.618854 O
0.862906 0.250825 0.621456 O
0.863156 0.749175 0.621169 O
0.137697 0.499973 0.631302 O
0.136754 0.000027 0.627809 O
0.639008 0.500077 0.665448 O
0.637013 -0.000077 0.627254 O
0.360991 0.500077 0.665448 O
0.362987 -0.000077 0.627254 O
0.862303 0.499973 0.631303 O
0.863246 0.000027 0.627808 O
0.500001 0.113335 0.875430 O
0.500000 0.610174 0.882903 O
0.000001 0.113355 0.878799 O
1.000000 0.613023 0.879562 O
0.500000 0.389595 0.878049 O
0.500000 0.886895 0.880285 O
1.000000 0.386895 0.879656 O
0.000001 0.886726 0.878704 O
0.000000 0.363606 0.372546 O
1.000000 0.862338 0.371207 O
0.500000 0.359376 0.352995 O
0.500000 0.864152 0.366517 O
0.000000 0.137695 0.371499 O
0.000000 0.636363 0.372259 O
0.500001 0.135987 0.369779 O
0.500000 0.640485 0.349734 O
0.386661 -0.000101 0.120791 O
0.385659 0.500104 0.101681 O
0.886726 0.000061 0.121631 O
0.886542 0.499938 0.123367 O
0.113273 0.000061 0.121632 O
0.113457 0.499938 0.123367 O
0.613340 0.999896 0.120791 O
0.614339 0.500103 0.101682 O
0.386911 0.248858 0.123640 O
0.387280 0.751143 0.123333 O
0.887090 0.250093 0.129947 O
0.887075 0.749907 0.129406 O
0.112910 0.250093 0.129947 O
0.112925 0.749907 0.129406 O
0.613089 0.248857 0.123640 O
0.612719 0.751143 0.123333 O
0.250554 0.364769 0.380639 O
0.249646 0.862192 0.378158 O
0.749446 0.364769 0.380639 O
0.750354 0.862191 0.378158 O
0.249821 0.137839 0.379050 O
0.250377 0.635202 0.379745 O
0.750179 0.137839 0.379050 O
0.749621 0.635201 0.379746 O
0.249689 0.112872 0.869718 O
0.250745 0.612006 0.878041 O
0.750312 0.112871 0.869718 O
0.749255 0.612006 0.878041 O
0.250801 0.387894 0.878040 O
0.249632 0.887228 0.869719 O
0.749199 0.387894 0.878040 O
0.750369 0.887228 0.869718 O
