Mg1 Ti16 S32                            
   1.00000000000000     
    10.0331360000000007   -0.0220940000000000    0.0158290000000000
    -0.0220970000000000   10.0345659999999999   -0.0157300000000000
     0.0158340000000000   -0.0155770000000000   10.0576150000000002
   Mg   Ti   S 
     1    16    32
Direct
  0.2753117528620545  0.4746550521615982  0.7738949809724844
  0.2522918905918540  0.7547095437191765  0.0083468452905105
  0.5015116648113507  1.0003411213153439 -0.0008095165463762
  0.7496659920109477  0.2484769764349596 -0.0008187161103503
  0.9953074961424072  0.4977050989433394  0.0083517928865117
  0.5016430233952702  0.2483694429956040  0.2474537249898437
  0.2497407408872793  0.5002598897639535  0.2609484944475605
  0.2522646407969594  0.2393586795425944  0.4930212352633127
  0.5106393277947974  0.4977372504324076  0.4930331423428934
  0.5109927311268507  0.7549260787990555  0.7497731081737479
  0.7632078037648095  0.5003664903734647  0.7472758175655122
  0.7522284911547947  0.7513233900726072  0.4959836922398476
  0.2496186121703751  0.9868045618212667  0.7472794795734602
  0.7501618451439694  0.9998485487756663  0.2475007468488780
  0.9950597855207336  0.2390117638431804  0.7497701081806988
  0.9986463376511164  0.7513539615617324  0.2497032770189451
  0.9986765011861356  0.9977675923558469  0.4959716994533961
  0.7462496968221723  0.0037806864562045  0.0010853516942555
  0.0063091066730717  0.7436469567505728  0.0048475022852734
  0.0036802323822078 -0.0035037274915153  0.7439167994386527
  0.7535264768641160  0.7462831041371174  0.7439251675179808
  0.2530339568507883  0.9951922692268059  0.9926704200554384
  0.9952034324042720  0.2514540624918878  0.9956661507099013
  0.9964269118167596  0.9963813429937110  0.2514141853198749
  0.2531075588670343  0.2543957750269360  0.2529029691957869
  0.7531790881994553  0.5030638140359837  0.5018863217506188
  0.0062694662230735  0.2429199526914332  0.5042547886283733
  1.0037861634623211  0.5030416301807271  0.2504724026490827
  0.7463939331130078  0.2467369247821546  0.2434892892951352
  0.2592621624629704  0.4907064200629619  0.5056273650824984
  0.9972149671637088  0.7528089283398981  0.4941404409058137
  1.0083340253330582  0.4905362773516460  0.7573282774996144
  0.2594334072634110  0.7417066560950647  0.7573199801881398
  0.2469574809634296 -0.0031614855971566  0.5018778005162949
  0.5070472272335793  0.7437054806609347  0.5042604421097316
  0.5032386152202704  0.0036368407270651  0.2435059414337822
  0.2469764183552325  0.7461951684902406  0.2504619988411421
  0.7536883221997625  0.9962850497744350  0.4932340866898883
  0.4985787292477895  0.2514310948720232  0.4926228601743504
  0.4954906977278518  0.9954132354605613  0.7510911412608160
  0.7545660021736512  0.2545411644392430  0.7510963869997668
  0.2463827781055227  0.5036560373074837  1.0140750253452955
  0.5035473351254688  0.2464407953785109  0.0018093533690969
  0.5159247476724490  0.5038158550930470  0.7436521719553797
  0.2462104989477952  0.2340496254054443  0.7436544919007372
  0.7547784950526639  0.4969107004404090  0.9926533933748661
  0.4985548531064707  0.7548320618439660  0.9956559936537903
  0.4956382708935788  0.4968901453377757  0.2529068662360303
  0.7535777528774773  0.7536031422613064  0.2514149783221539
 
             NaN             NaN             NaN
             NaN             NaN             NaN
             NaN             NaN             NaN
             NaN             NaN             NaN
             NaN             NaN             NaN
             NaN             NaN             NaN
             NaN             NaN             NaN
             NaN             NaN             NaN
             NaN             NaN             NaN
             NaN             NaN             NaN
             NaN             NaN             NaN
             NaN             NaN             NaN
             NaN             NaN             NaN
             NaN             NaN             NaN
             NaN             NaN             NaN
             NaN             NaN             NaN
             NaN             NaN             NaN
             NaN             NaN             NaN
             NaN             NaN             NaN
             NaN             NaN             NaN
             NaN             NaN             NaN
             NaN             NaN             NaN
             NaN             NaN             NaN
             NaN             NaN             NaN
             NaN             NaN             NaN
             NaN             NaN             NaN
             NaN             NaN             NaN
             NaN             NaN             NaN
             NaN             NaN             NaN
             NaN             NaN             NaN
             NaN             NaN             NaN
             NaN             NaN             NaN
             NaN             NaN             NaN
             NaN             NaN             NaN
             NaN             NaN             NaN
             NaN             NaN             NaN
             NaN             NaN             NaN
             NaN             NaN             NaN
             NaN             NaN             NaN
             NaN             NaN             NaN
             NaN             NaN             NaN
             NaN             NaN             NaN
             NaN             NaN             NaN
             NaN             NaN             NaN
             NaN             NaN             NaN
             NaN             NaN             NaN
             NaN             NaN             NaN
             NaN             NaN             NaN
             NaN             NaN             NaN
