Mg1 Ti16 S32
1.0
10.033136 -0.022094 0.015829
-0.022097 10.034566 -0.015730
0.015834 -0.015577 10.057615
Mg Ti S
1 16 32
direct
0.280980 0.469019 0.749750 Mg
0.248729 0.755411 0.006769 Ti
0.501544 -0.000063 0.002310 Ti
0.750093 0.248448 0.002283 Ti
0.994571 0.501254 0.006731 Ti
0.501591 0.248424 0.250715 Ti
0.249773 0.500213 0.249888 Ti
0.250119 0.244917 0.492443 Ti
0.505086 0.499897 0.492483 Ti
0.505620 0.755858 0.749997 Ti
0.750545 0.500743 0.750049 Ti
0.750791 0.751457 0.498717 Ti
0.249255 -0.000545 0.750053 Ti
0.750195 -0.000192 0.250183 Ti
0.994147 0.244372 0.749984 Ti
0.998373 0.751614 0.249488 Ti
0.998547 0.999174 0.498695 Ti
0.746673 0.003319 0.003924 S
0.002731 0.747225 0.004343 S
0.003542 0.001937 0.746425 S
0.748061 0.746464 0.746448 S
0.253606 0.998582 0.994664 S
0.995136 0.254551 0.995324 S
0.995919 0.997216 0.254209 S
0.255050 0.249642 0.253723 S
0.748371 0.503703 0.505440 S
0.004107 0.244934 0.504645 S
0.999165 0.505705 0.246221 S
0.747957 0.245565 0.246091 S
0.256628 0.493365 0.500930 S
0.996038 0.753940 0.495460 S
0.995730 0.495044 0.754642 S
0.254939 0.754278 0.754614 S
0.246326 0.001614 0.505435 S
0.505039 0.745914 0.504653 S
0.504429 0.002137 0.246114 S
0.244222 0.750771 0.246182 S
0.753475 0.996531 0.496482 S
0.496565 0.253476 0.496506 S
0.496105 0.998255 0.753877 S
0.751740 0.253887 0.753852 S
0.242922 0.507073 0.998778 S
0.504418 0.245603 0.004070 S
0.504252 0.505218 0.745195 S
0.244799 0.245734 0.745225 S
0.751423 0.496367 0.994652 S
0.495427 0.754885 0.995334 S
0.500403 0.495022 0.253691 S
0.752696 0.754091 0.254221 S
