Li48 P16 O64                            
   1.00000000000000     
    10.6534581713605849   -0.0072336848431700   -0.0232904563753913
    -0.0084388230402622   12.4511206279250324   -0.0137820620237989
    -0.0219216558075973   -0.0111405807215747   10.0784216896135561
   Li   P    O 
    46    16    64
Direct
  0.1643558601247563  0.2492279360794031  0.1473283482833428
  0.6642691535747964  0.2528143128860155  0.6007162725022289
  0.6621315196121272  0.7489017928306920  0.0981795800830317
  0.6635802647630022  0.7517167636506137  0.6001734600617237
  0.1640065868291929  0.4973818773908614  0.1496807775005443
  0.1650044454332553  0.4989420845148324  0.6511658793983700
  0.1634390559189197  0.9938600924912721  0.1529384462499787
  0.1651662733884368  0.9987391536821664  0.6516518053383811
  0.3380018161804427  0.0008917757693252  0.3997113203861175
  0.3393138361529718  0.0018244876981021  0.9064664429564865
  0.3408149391028596  0.4984557109352923  0.3945908785716777
  0.3400426471902062  0.4954184429700499  0.9083142847875461
  0.8310106312398046  0.2496975542288457  0.3441835434135513
  0.8321340473339037  0.2488405183103267  0.8563750952179792
  0.8367272429812791  0.7480512235175825  0.3496183233881478
  0.8368616618133943  0.7486139045577206  0.8494208928747714
  0.3404267292089061  0.2521767925285093  0.3942300711417790
  0.3416909417018658  0.2535005736880727  0.9100715371210399
  0.3382978899121023  0.7497508048847881  0.3991214385045352
  0.3383769231683825  0.7506059273861134  0.9039930179310414
  0.8376338283263963  0.0024663732045658  0.3488296986978480
  0.8380394700455004  0.0025399222636710  0.8504522725091016
  0.8318744847191749  0.5001038575013521  0.3487020074233372
  0.8328586452017018  0.4994706982263078  0.8511627274224934
  0.6503395926639094  0.4877435706177558  0.0927782474321593
  0.6648032875630028  0.5029906387334220  0.5973721178137188
  0.6646580108227532  0.0032073125684907  0.1007575753116063
  0.6631728093092251  0.0022392535235501  0.5999339785849607
  0.1653630819746704  0.2510849036108428  0.6514681575113282
  0.1644100242652164  0.7508300880615483  0.1508963399686509
  0.1643889731487499  0.7512111853186196  0.6521482613681535
  0.9203626694048059  0.3728432409834292  0.1476909589253920
  0.9250773604807198  0.3740366090569667  0.6495086614633372
  0.9243684290130032  0.8753408395776267  0.1496781760419961
  0.9257568858315000  0.8757662987475858  0.6497103200986390
  0.4285079370487995  0.3761896384357279  0.6028593945371182
  0.4315303524425514  0.8761082768062456  0.1032259714127252
  0.4282671278212454  0.8765040371672171  0.6013278991575989
  0.0750296134315606  0.1260150683560743  0.3481119596674960
  0.0760973522875950  0.1260535666168865  0.8544447445816086
  0.0739040822072750  0.6231508210693015  0.3504286490572676
  0.0747960194093464  0.6232523780248036  0.8526894235815542
  0.5727816575568696  0.1321595776890056  0.3929969475537927
  0.5730633907715441  0.1380164828193416  0.9140889075956581
  0.5732032030709066  0.6223725895276814  0.3990661981658213
  0.5711638701591027  0.6221309805921672  0.8981854979965869
  0.9162548798199796  0.1240625492453918  0.0994391494313443
  0.9135943039418425  0.1248169715113094  0.5974303562242235
  0.9095313394590404  0.6246874270333349  0.0975380138970541
  0.9127457472572945  0.6256664300246122  0.5978819543791654
  0.4046165866680875  0.1151193922341661  0.1517357633701973
  0.4109373046343205  0.1243239309628127  0.6531975228677886
  0.4076610167593814  0.6304751709853040  0.1505399189687922
  0.4096453928014178  0.6278443548588128  0.6529255800681567
  0.0880239446615332  0.3757253236921014  0.4028597636742475
  0.0868804542140465  0.3751571945109183  0.9023664111132954
  0.0881930906601257  0.8739653811817418  0.4050884898490183
  0.0887273968597072  0.8739392955884872  0.9034747038633222
  0.5906972179823288  0.3776454425807861  0.3502109381559205
  0.5868363032330737  0.3749858523312030  0.8334422231265647
  0.5921136647548125  0.8749302315509966  0.3484593208441550
  0.5918682150152539  0.8754168801635946  0.8469876197374473
  0.8443202793057695  0.0216603384159342  0.1494949851316227
  0.8433450100818259  0.0222105078318340  0.6479358659428849
  0.8392167970993160  0.5228784305138027  0.1468038385922418
  0.8439348004105748  0.5239211983514449  0.6502145599671697
  0.3275480403062705  0.2084829354003923  0.0933475585752041
  0.3401302169544052  0.2254060731183901  0.6002950564126724
  0.3442507379576867  0.7388997536911219  0.1072135285124253
  0.3409930398051170  0.7313043434784402  0.6020434896121469
  0.1566550065551154  0.2732999737216378  0.3508286342409259
  0.1563959548497551  0.2730879838783481  0.8509971602571241
  0.1576064714618652  0.7715736076926457  0.3537104446307389
  0.1587324381090518  0.7714782516323291  0.8530133058832073
  0.6597060897656160  0.4809056769470247  0.4080227818737688
  0.6544483198197757  0.4770660354235682  0.8929640495831621
  0.6610314882148649  0.9778671465445709  0.3996363916133464
  0.6636375704603158  0.9759743921408717  0.8991211142795782
  0.1584287479288507  0.4780533114151015  0.3523837604125664
  0.1561851994124334  0.4776539892425858  0.8510601447751251
  0.1576209760532130  0.9763639209180982  0.3556730808719442
  0.1593832713932461  0.9760818859537953  0.8539044991497251
  0.6598662280344688  0.2749617244998523  0.4059229501734753
  0.6557974767028869  0.2715442829713161  0.8760632298878672
  0.6609986705153205  0.7724216852325173  0.4010316624172210
  0.6595119456669460  0.7710580424281606  0.8961340382679228
  0.8567214485998861  0.2270303059138303  0.1539884952553147
  0.8452573015108777  0.2269150253527255  0.6490309190215435
  0.8404927875790289  0.7278397081137732  0.1481762048409571
  0.8429179560170424  0.7283813989429124  0.6481985719253088
  0.3367410035126442  0.0068387356333184  0.1119794705539429
  0.3418334855795299  0.0204739197425957  0.6020618283164427
  0.3280196932377644  0.5375832093581594  0.0949462575089405
  0.3397732532943911  0.5266776980394313  0.5988651762658626
  0.5394603643198684  0.1109462382355635  0.0985225356805620
  0.5478960041254625  0.1245542563774696  0.5996207779088077
  0.5446411797791310  0.6270734119818561  0.0963653841144580
  0.5476702747004049  0.6291570561142726  0.6024368940930601
  0.0558074718530504  0.1174316301734753  0.1474813505256473
  0.0515699118111041  0.1234253704443999  0.6500357150464217
  0.0472416877752246  0.6253324517091631  0.1506628262138315
  0.0508000715678533  0.6264235751942752  0.6497094314661725
  0.4532092277789796  0.3762330075358530  0.4068333013535493
  0.4461928616500500  0.3749717263658912  0.8698275705000851
  0.4542147136219779  0.8748078314624579  0.3996474809945122
  0.4541496434331698  0.8756939212815330  0.8980847433691646
  0.9498124856134456  0.3773881663735720  0.3527295051858968
  0.9486522156831956  0.3752556096666323  0.8504373125400874
  0.9503497080167048  0.8738704966373553  0.3524837283388536
  0.9515309177032177  0.8743695575850304  0.8489796143761945
  0.5943339145345549  0.3810739422745831  0.2005380616353859
  0.5957398338482378  0.3818122162527168  0.6781446784564268
  0.5949145184841852  0.8734877500580035  0.1936198593418730
  0.5921090840716834  0.8761323271451613  0.6914153542235394
  0.0868941739000056  0.3752557121071343  0.0573488898469941
  0.0900623177382854  0.3752867190607099  0.5584587638685853
  0.0860788221544693  0.8723047223924403  0.0583616391196674
  0.0884552126522771  0.8736598370327353  0.5603655702869631
  0.4066667169805883  0.1232827816406079  0.3079042669023932
  0.4101338808761199  0.1240959487573349  0.8080322113153936
  0.4109144750334868  0.6268064213710962  0.3063731174969203
  0.4077556459707596  0.6271477906490798  0.8079174266437040
  0.9129988772983663  0.1246919476555934  0.4422475572797508
  0.9132062937785147  0.1239104126504368  0.9435038718269787
  0.9116518834742460  0.6251550611860816  0.4426638025631249
  0.9103524202455587  0.6254148425306090  0.9420094635696881
 
  0.00000000E+00  0.00000000E+00  0.00000000E+00
  0.00000000E+00  0.00000000E+00  0.00000000E+00
  0.00000000E+00  0.00000000E+00  0.00000000E+00
  0.00000000E+00  0.00000000E+00  0.00000000E+00
  0.00000000E+00  0.00000000E+00  0.00000000E+00
  0.00000000E+00  0.00000000E+00  0.00000000E+00
  0.00000000E+00  0.00000000E+00  0.00000000E+00
  0.00000000E+00  0.00000000E+00  0.00000000E+00
  0.00000000E+00  0.00000000E+00  0.00000000E+00
  0.00000000E+00  0.00000000E+00  0.00000000E+00
  0.00000000E+00  0.00000000E+00  0.00000000E+00
  0.00000000E+00  0.00000000E+00  0.00000000E+00
  0.00000000E+00  0.00000000E+00  0.00000000E+00
  0.00000000E+00  0.00000000E+00  0.00000000E+00
  0.00000000E+00  0.00000000E+00  0.00000000E+00
  0.00000000E+00  0.00000000E+00  0.00000000E+00
  0.00000000E+00  0.00000000E+00  0.00000000E+00
  0.00000000E+00  0.00000000E+00  0.00000000E+00
  0.00000000E+00  0.00000000E+00  0.00000000E+00
  0.00000000E+00  0.00000000E+00  0.00000000E+00
  0.00000000E+00  0.00000000E+00  0.00000000E+00
  0.00000000E+00  0.00000000E+00  0.00000000E+00
  0.00000000E+00  0.00000000E+00  0.00000000E+00
  0.00000000E+00  0.00000000E+00  0.00000000E+00
  0.00000000E+00  0.00000000E+00  0.00000000E+00
  0.00000000E+00  0.00000000E+00  0.00000000E+00
  0.00000000E+00  0.00000000E+00  0.00000000E+00
  0.00000000E+00  0.00000000E+00  0.00000000E+00
  0.00000000E+00  0.00000000E+00  0.00000000E+00
  0.00000000E+00  0.00000000E+00  0.00000000E+00
  0.00000000E+00  0.00000000E+00  0.00000000E+00
  0.00000000E+00  0.00000000E+00  0.00000000E+00
  0.00000000E+00  0.00000000E+00  0.00000000E+00
  0.00000000E+00  0.00000000E+00  0.00000000E+00
  0.00000000E+00  0.00000000E+00  0.00000000E+00
  0.00000000E+00  0.00000000E+00  0.00000000E+00
  0.00000000E+00  0.00000000E+00  0.00000000E+00
  0.00000000E+00  0.00000000E+00  0.00000000E+00
  0.00000000E+00  0.00000000E+00  0.00000000E+00
  0.00000000E+00  0.00000000E+00  0.00000000E+00
  0.00000000E+00  0.00000000E+00  0.00000000E+00
  0.00000000E+00  0.00000000E+00  0.00000000E+00
  0.00000000E+00  0.00000000E+00  0.00000000E+00
  0.00000000E+00  0.00000000E+00  0.00000000E+00
  0.00000000E+00  0.00000000E+00  0.00000000E+00
  0.00000000E+00  0.00000000E+00  0.00000000E+00
  0.00000000E+00  0.00000000E+00  0.00000000E+00
  0.00000000E+00  0.00000000E+00  0.00000000E+00
  0.00000000E+00  0.00000000E+00  0.00000000E+00
  0.00000000E+00  0.00000000E+00  0.00000000E+00
  0.00000000E+00  0.00000000E+00  0.00000000E+00
  0.00000000E+00  0.00000000E+00  0.00000000E+00
  0.00000000E+00  0.00000000E+00  0.00000000E+00
  0.00000000E+00  0.00000000E+00  0.00000000E+00
  0.00000000E+00  0.00000000E+00  0.00000000E+00
  0.00000000E+00  0.00000000E+00  0.00000000E+00
  0.00000000E+00  0.00000000E+00  0.00000000E+00
  0.00000000E+00  0.00000000E+00  0.00000000E+00
  0.00000000E+00  0.00000000E+00  0.00000000E+00
  0.00000000E+00  0.00000000E+00  0.00000000E+00
  0.00000000E+00  0.00000000E+00  0.00000000E+00
  0.00000000E+00  0.00000000E+00  0.00000000E+00
  0.00000000E+00  0.00000000E+00  0.00000000E+00
  0.00000000E+00  0.00000000E+00  0.00000000E+00
  0.00000000E+00  0.00000000E+00  0.00000000E+00
  0.00000000E+00  0.00000000E+00  0.00000000E+00
  0.00000000E+00  0.00000000E+00  0.00000000E+00
  0.00000000E+00  0.00000000E+00  0.00000000E+00
  0.00000000E+00  0.00000000E+00  0.00000000E+00
  0.00000000E+00  0.00000000E+00  0.00000000E+00
  0.00000000E+00  0.00000000E+00  0.00000000E+00
  0.00000000E+00  0.00000000E+00  0.00000000E+00
  0.00000000E+00  0.00000000E+00  0.00000000E+00
  0.00000000E+00  0.00000000E+00  0.00000000E+00
  0.00000000E+00  0.00000000E+00  0.00000000E+00
  0.00000000E+00  0.00000000E+00  0.00000000E+00
  0.00000000E+00  0.00000000E+00  0.00000000E+00
  0.00000000E+00  0.00000000E+00  0.00000000E+00
  0.00000000E+00  0.00000000E+00  0.00000000E+00
  0.00000000E+00  0.00000000E+00  0.00000000E+00
  0.00000000E+00  0.00000000E+00  0.00000000E+00
  0.00000000E+00  0.00000000E+00  0.00000000E+00
  0.00000000E+00  0.00000000E+00  0.00000000E+00
  0.00000000E+00  0.00000000E+00  0.00000000E+00
  0.00000000E+00  0.00000000E+00  0.00000000E+00
  0.00000000E+00  0.00000000E+00  0.00000000E+00
  0.00000000E+00  0.00000000E+00  0.00000000E+00
  0.00000000E+00  0.00000000E+00  0.00000000E+00
  0.00000000E+00  0.00000000E+00  0.00000000E+00
  0.00000000E+00  0.00000000E+00  0.00000000E+00
  0.00000000E+00  0.00000000E+00  0.00000000E+00
  0.00000000E+00  0.00000000E+00  0.00000000E+00
  0.00000000E+00  0.00000000E+00  0.00000000E+00
  0.00000000E+00  0.00000000E+00  0.00000000E+00
  0.00000000E+00  0.00000000E+00  0.00000000E+00
  0.00000000E+00  0.00000000E+00  0.00000000E+00
  0.00000000E+00  0.00000000E+00  0.00000000E+00
  0.00000000E+00  0.00000000E+00  0.00000000E+00
  0.00000000E+00  0.00000000E+00  0.00000000E+00
  0.00000000E+00  0.00000000E+00  0.00000000E+00
  0.00000000E+00  0.00000000E+00  0.00000000E+00
  0.00000000E+00  0.00000000E+00  0.00000000E+00
  0.00000000E+00  0.00000000E+00  0.00000000E+00
  0.00000000E+00  0.00000000E+00  0.00000000E+00
  0.00000000E+00  0.00000000E+00  0.00000000E+00
  0.00000000E+00  0.00000000E+00  0.00000000E+00
  0.00000000E+00  0.00000000E+00  0.00000000E+00
  0.00000000E+00  0.00000000E+00  0.00000000E+00
  0.00000000E+00  0.00000000E+00  0.00000000E+00
  0.00000000E+00  0.00000000E+00  0.00000000E+00
  0.00000000E+00  0.00000000E+00  0.00000000E+00
  0.00000000E+00  0.00000000E+00  0.00000000E+00
  0.00000000E+00  0.00000000E+00  0.00000000E+00
  0.00000000E+00  0.00000000E+00  0.00000000E+00
  0.00000000E+00  0.00000000E+00  0.00000000E+00
  0.00000000E+00  0.00000000E+00  0.00000000E+00
  0.00000000E+00  0.00000000E+00  0.00000000E+00
  0.00000000E+00  0.00000000E+00  0.00000000E+00
  0.00000000E+00  0.00000000E+00  0.00000000E+00
  0.00000000E+00  0.00000000E+00  0.00000000E+00
  0.00000000E+00  0.00000000E+00  0.00000000E+00
  0.00000000E+00  0.00000000E+00  0.00000000E+00
  0.00000000E+00  0.00000000E+00  0.00000000E+00
  0.00000000E+00  0.00000000E+00  0.00000000E+00
  0.00000000E+00  0.00000000E+00  0.00000000E+00
  0.00000000E+00  0.00000000E+00  0.00000000E+00
