Na47 P16 S64
1.0
13.944932 -0.016263 0.000012
-0.016320 13.966574 0.000061
0.000037 0.000025 14.257942
Na P S
47 16 64
direct
0.650137 0.749827 0.742851 Na
0.999937 0.250296 0.206997 Na
0.999666 0.250120 0.706289 Na
0.999695 0.750287 0.212402 Na
0.992386 0.750995 0.717242 Na
0.500056 0.249705 0.208613 Na
0.500330 0.249880 0.708355 Na
0.500299 0.749716 0.211234 Na
0.249528 0.999230 0.288323 Na
0.247802 0.998453 0.786736 Na
0.251749 0.500723 0.295462 Na
0.250464 0.503514 0.793628 Na
0.748262 0.999033 0.294111 Na
0.748662 0.989198 0.789958 Na
0.750460 0.501016 0.286975 Na
0.753076 0.508830 0.783066 Na
0.253371 0.998455 0.036861 Na
0.243470 1.001189 0.537736 Na
0.247292 0.499289 0.045478 Na
0.255114 0.503720 0.545829 Na
0.752778 1.000774 0.043240 Na
0.744698 0.996879 0.543468 Na
0.746560 0.501487 0.034630 Na
0.756723 0.498207 0.535370 Na
0.999921 0.249294 0.456367 Na
0.999383 0.251471 0.956028 Na
0.999977 0.749227 0.465347 Na
0.999980 0.751658 0.962029 Na
0.500083 0.250703 0.458548 Na
0.500621 0.248527 0.956897 Na
0.500021 0.750771 0.477094 Na
0.500012 0.748337 0.950862 Na
0.992114 1.000466 0.500719 Na
0.001632 0.007003 0.000074 Na
0.009314 0.496903 0.499702 Na
0.998773 0.497389 0.999056 Na
0.493813 -0.000277 0.500109 Na
0.507119 0.997644 0.999919 Na
0.504757 0.502902 0.501132 Na
0.492486 0.497961 0.000937 Na
0.248390 0.251805 0.249764 Na
0.248780 0.253372 0.750039 Na
0.251754 0.748193 0.250111 Na
0.294981 0.749176 0.750081 Na
0.751608 0.248192 0.249513 Na
0.751211 0.246628 0.750201 Na
0.748235 0.751808 0.249862 Na
0.999249 0.000719 0.249795 P
0.998538 0.002732 0.750715 P
0.000977 0.499612 0.249684 P
0.002082 0.498106 0.749145 P
0.499787 0.999902 0.250322 P
0.498468 0.999883 0.749441 P
0.499988 0.499769 0.250435 P
0.500919 0.499281 0.751012 P
0.249744 0.250302 0.000049 P
0.249449 0.251452 0.499358 P
0.250754 0.747761 0.000727 P
0.249380 0.752407 0.498937 P
0.750259 0.249702 0.999910 P
0.750564 0.248545 0.499069 P
0.749236 0.752244 0.001173 P
0.750621 0.747595 0.498065 P
0.155114 0.173026 0.082495 S
0.154074 0.175566 0.581847 S
0.153855 0.674779 0.084160 S
0.157018 0.676923 0.584339 S
0.655087 0.174244 0.083462 S
0.654453 0.174251 0.581868 S
0.654847 0.674790 0.083492 S
0.656875 0.666808 0.576871 S
0.345253 0.325328 0.083488 S
0.345448 0.325964 0.582104 S
0.345775 0.824421 0.082901 S
0.343305 0.832243 0.578401 S
0.844545 0.327408 0.082472 S
0.846040 0.324213 0.581606 S
0.845506 0.826015 0.084759 S
0.842801 0.824030 0.582812 S
0.173728 0.347436 0.417587 S
0.173787 0.346596 0.919090 S
0.171292 0.843144 0.413299 S
0.177631 0.840103 0.913987 S
0.676128 0.343556 0.415219 S
0.675248 0.343415 0.915861 S
0.672399 0.842785 0.417038 S
0.671588 0.850536 0.923648 S
0.324202 0.156637 0.415530 S
0.324698 0.156343 0.916068 S
0.327565 0.657126 0.417970 S
0.327181 0.648932 0.922565 S
0.825950 0.152363 0.417275 S
0.826265 0.153654 0.918878 S
0.828740 0.656949 0.412365 S
0.823588 0.660433 0.915072 S
0.096292 0.423047 0.167947 S
0.100621 0.422340 0.670017 S
0.093286 0.925485 0.165563 S
0.090019 0.925794 0.665884 S
0.593605 0.424617 0.165594 S
0.595754 0.424460 0.666963 S
0.596439 0.924360 0.169375 S
0.590110 0.922792 0.665261 S
0.406231 0.074955 0.165364 S
0.403234 0.076472 0.667279 S
0.403286 0.575320 0.169395 S
0.408847 0.578549 0.669003 S
0.903873 0.077380 0.168171 S
0.900394 0.076722 0.669697 S
0.906988 0.574831 0.165544 S
0.911027 0.572863 0.662143 S
0.076031 0.094961 0.332843 S
0.077330 0.099262 0.829791 S
0.076584 0.594839 0.332573 S
0.073771 0.593242 0.834703 S
0.574243 0.095634 0.333836 S
0.577566 0.094858 0.830175 S
0.576233 0.594666 0.332538 S
0.577844 0.587170 0.839871 S
0.425512 0.404216 0.334070 S
0.422576 0.402408 0.830410 S
0.423407 0.905073 0.332521 S
0.421890 0.910067 0.836686 S
0.924217 0.405190 0.332612 S
0.922530 0.403477 0.829557 S
0.923776 0.905426 0.332587 S
0.926504 0.909520 0.837889 S
