Na47 P16 S64                            
   1.00000000000000     
    13.9474060000000009   -0.0190010000000000    0.0000120000000000
    -0.0190640000000000   13.9726510000000008    0.0000380000000000
     0.0000370000000000    0.0000010000000000   14.2489120000000007
   Na   P    S 
    47    16    64
Direct
  0.6700412560422554  0.7516332337514448  0.7498776000652708
  0.9999621164279455  0.2501731151364249  0.2068800013771742
  0.9998073359454779  0.2500819549374054  0.7060728391518339
  0.9997745681148634  0.7501963347433154  0.2126261004098914
  0.9953741823126145  0.7505429287565016  0.7162089636598244
  0.5000132345962028  0.2498351071111073  0.2088713991307888
  0.5002565439879961  0.2500156348644087  0.7084634830458708
  0.5001483341342633  0.7498289212587126  0.2112897673321261
  0.2494582765896048  0.9992182289837001  0.2876503758484982
  0.2474901117853789  0.9985763109514110  0.7857419661347149
  0.2518316860934440  0.5007625140106942  0.2956728908495774
  0.2504970744767491  0.5038174363653886  0.7933981635643979
  0.7482024323079490  0.9991256048713095  0.2949152768197558
  0.7494670185460904  0.9931807544455888  0.7915907372094333
  0.7505084568555641  0.5009250531473057  0.2868211696966171
  0.7532605813206409  0.5048686187347395  0.7840328625306033
  0.2534236016826707  0.9983577725096869  0.0358767101887725
  0.2433315501556319  0.0015329992935719  0.5364683010567566
  0.2471888776675175  0.4991493126106040  0.0457029986866653
  0.2551487733786378  0.5039280257513131  0.5459433774700940
  0.7527111079311489  0.0010421594404809  0.0445377461968060
  0.7449668289388890  0.9966087696778473  0.5443355443160358
  0.7465740452194761  0.5016284178352937  0.0346952406206127
  0.7571676425106839  0.4977660942296907  0.5349024445567574
  0.9999653616598387  0.2495710487866743  0.4562075047152992
  0.9996107993166874  0.2508005465059971  0.9559012112391335
  1.0000628270776453  0.7495654217307517  0.4653720990098004
  0.9999596027096749  0.7508791762648320  0.9613334141736170
  0.5000332696978402  0.2504278567312725  0.4589159860449510
  0.5003563036599535  0.2491886845588377  0.9573006182978080
  0.4998599368577014  0.7505501011049286  0.4794409648042423
  0.4989331533769523  0.7492341585737902  0.9495621492002438
  0.9914201349021019  0.0011598989291519  0.5005703534267137
  0.0011064154892395  0.0063594921108806  0.9998046172787615
  0.0094895626413795  0.4972586220221745  0.4999963261132829
  0.9990923334806722  0.4963219517947240  0.9992051393244242
  0.4941692973911692  0.9988195722152083  0.5003125224844683
  0.5073474916513877  0.9986301705376083  0.0004946411356839
  0.5046701217399882  0.5027436238468114  0.5010075299095221
  0.4920222046659352  0.4988456899207648  0.0013025306543314
  0.2481841235451102  0.2521235276699197  0.2497569426651695
  0.2485850886666208  0.2539235104882908  0.7500014291348259
  0.2520727851382442  0.7478358883563320  0.2498928566727505
  0.3028126872600576  0.7488166597823456  0.7501093858999003
  0.7518237525133353  0.2478883058832904  0.2495932691387478
  0.7514234953635430  0.2460070012239001  0.7500967110773749
  0.7478333313117513  0.7521556926954033  0.2495271067315175
  0.9990434541788856  0.0007372078694159  0.2496915703853708
  0.9984846061092433  0.0027519556070976  0.7504554054111782
  0.0010821542295930  0.4994721985597783  0.2497033417375401
  0.0020628038964497  0.4977283868500921  0.7493921693850549
  0.4998475074331259  0.9999524025371906  0.2504353266556552
  0.4982286009798975  1.0001921421899973  0.7501317868795599
  0.5000830664009811  0.4998180779832881  0.2505245576254766
  0.5006840294361672  0.4995016859205934  0.7506144071306916
  0.2496798017042418  0.2504550159373883  0.0000027635238655
  0.2494468632695290  0.2516045611779536  0.4993466617142110
  0.2506444385631927  0.7473709144333182  0.0008023769613552
  0.2491030077725102  0.7529753370317055  0.4986604610439636
  0.7502800650557828  0.2495356332266851  0.9998168571090918
  0.7505018191056977  0.2483019289522057  0.4992026723560433
  0.7492398367408706  0.7519235129380373  0.0008765305567627
  0.7510630503479943  0.7471966417789766  0.4974818446556306
  0.1552493760972356  0.1729632176854692  0.0824931913694051
  0.1541698124036980  0.1756128118453542  0.5818348338943959
  0.1536317544360740  0.6747503894900100  0.0843589697717437
  0.1574103737236407  0.6775605488083289  0.5849326625689084
  0.6549059687540736  0.1744531045522931  0.0834656779469088
  0.6544715632302636  0.1740607191551980  0.5820862551494560
  0.6544370047607023  0.6750936629059283  0.0829860473760760
  0.6572187284304958  0.6655303334958577  0.5754674843524145
  0.3452316415075776  0.3253908472989125  0.0835051360339545
  0.3454388444866963  0.3260912230069390  0.5821818161565333
  0.3455334711829924  0.8243925508793171  0.0828403168055465
  0.3430713268312137  0.8334742107419917  0.5773800149833108
  0.8446411755637652  0.3271980884707373  0.0823640251118550
  0.8459101150963981  0.3241363712535925  0.5817303054641045
  0.8455707421679968  0.8257693504028061  0.0842118527025506
  0.8425385704589698  0.8232128258590883  0.5831676589607613
  0.1737508210237843  0.3475999939768271  0.4176208225817618
  0.1736143928665714  0.3467502139272686  0.9191856759862378
  0.1707342220169794  0.8429144855040778  0.4125289432531495
  0.1779587250483766  0.8390743232876250  0.9131391669102750
  0.6761089178324605  0.3430642508249084  0.4151014372629278
  0.6755060444600004  0.3431303250590776  0.9155031094762837
  0.6723842148480877  0.8425326260331030  0.4171118845745485
  0.6716863180787546  0.8511958000621399  0.9235003512352564
  0.3240965459859787  0.1569248530045356  0.4153434732989825
  0.3245533822560879  0.1567604334413827  0.9157417310665269
  0.3273869288905008  0.6573918008147097  0.4180115806095118
  0.3272816301540709  0.6479306729758306  0.9234056776985066
  0.8260755061089367  0.1521700098553920  0.4174909004692290
  0.8262838672557677  0.1532212619562538  0.9189815175450479
  0.8294753695797283  0.6572068609964179  0.4113597517668872
  0.8227814528301644  0.6603141753290214  0.9141603230903689
  0.0964013783882381  0.4227765191217311  0.1680725940807452
  0.1005961116825784  0.4223827880582626  0.6698548614480645
  0.0929115545240824  0.9256686878739786  0.1651658719928634
  0.0899965441800551  0.9265785867012766  0.6650803878627225
  0.5935482683964972  0.4247439860559356  0.1654376819016860
  0.5954744326550766  0.4245155773198912  0.6666917709580999
  0.5965569014534595  0.9244864699503694  0.1694922597971523
  0.5902732931793444  0.9229281830666785  0.6662107467491060
  0.4063332598665556  0.0749323421016065  0.1652741707405488
  0.4036164542202371  0.0764949016277084  0.6669246433230294
  0.4032630226547282  0.5753294023464515  0.1695631720447519
  0.4086879040231595  0.5785179717058471  0.6687449522869824
  0.9036012347545062  0.0774569992781508  0.1681986417657712
  0.9000789967575169  0.0769957965560097  0.6697189571910734
  0.9072352884736944  0.5745525547560396  0.1652098523643950
  0.9107030672572386  0.5725596761214033  0.6628247399552190
  0.0759324977525076  0.0948347347735557  0.3328238289199258
  0.0772376576768474  0.0991023831674077  0.8298007005253726
  0.0766529137124792  0.5947245716825545  0.3325282552811696
  0.0737323421476696  0.5925511245262678  0.8352218069326164
  0.5742214943428011  0.0956371234355160  0.3340306484565226
  0.5772646883888850  0.0955966114472721  0.8305228892777902
  0.5763369392024621  0.5946099736971336  0.3326000316886688
  0.5781821051891669  0.5867316684304498  0.8400899452304931
  0.4256123539291534  0.4042445386013530  0.3341923739538670
  0.4226620448443218  0.4028357510820600  0.8305974497610625
  0.4234416477633691  0.9051895800966537  0.3326242543386105
  0.4212116612916917  0.9114503981984454  0.8378809657153878
  0.9241725073421448  0.4052670721286405  0.3327250151389707
  0.9228330175878776  0.4025483257104873  0.8296828103551712
  0.9236064609670658  0.9053943560447567  0.3324660336055394
  0.9266628509662481  0.9090687152600160  0.8372398095153406
 
             NaN             NaN             NaN
             NaN             NaN             NaN
             NaN             NaN             NaN
             NaN             NaN             NaN
             NaN             NaN             NaN
             NaN             NaN             NaN
             NaN             NaN             NaN
             NaN             NaN             NaN
             NaN             NaN             NaN
             NaN             NaN             NaN
             NaN             NaN             NaN
             NaN             NaN             NaN
             NaN             NaN             NaN
             NaN             NaN             NaN
             NaN             NaN             NaN
             NaN             NaN             NaN
             NaN             NaN             NaN
             NaN             NaN             NaN
             NaN             NaN             NaN
             NaN             NaN             NaN
             NaN             NaN             NaN
             NaN             NaN             NaN
             NaN             NaN             NaN
             NaN             NaN             NaN
             NaN             NaN             NaN
             NaN             NaN             NaN
             NaN             NaN             NaN
             NaN             NaN             NaN
             NaN             NaN             NaN
             NaN             NaN             NaN
             NaN             NaN             NaN
             NaN             NaN             NaN
             NaN             NaN             NaN
             NaN             NaN             NaN
             NaN             NaN             NaN
             NaN             NaN             NaN
             NaN             NaN             NaN
             NaN             NaN             NaN
             NaN             NaN             NaN
             NaN             NaN             NaN
             NaN             NaN             NaN
             NaN             NaN             NaN
             NaN             NaN             NaN
             NaN             NaN             NaN
             NaN             NaN             NaN
             NaN             NaN             NaN
             NaN             NaN             NaN
             NaN             NaN             NaN
             NaN             NaN             NaN
             NaN             NaN             NaN
             NaN             NaN             NaN
             NaN             NaN             NaN
             NaN             NaN             NaN
             NaN             NaN             NaN
             NaN             NaN             NaN
             NaN             NaN             NaN
             NaN             NaN             NaN
             NaN             NaN             NaN
             NaN             NaN             NaN
             NaN             NaN             NaN
             NaN             NaN             NaN
             NaN             NaN             NaN
             NaN             NaN             NaN
             NaN             NaN             NaN
             NaN             NaN             NaN
             NaN             NaN             NaN
             NaN             NaN             NaN
             NaN             NaN             NaN
             NaN             NaN             NaN
             NaN             NaN             NaN
             NaN             NaN             NaN
             NaN             NaN             NaN
             NaN             NaN             NaN
             NaN             NaN             NaN
             NaN             NaN             NaN
             NaN             NaN             NaN
             NaN             NaN             NaN
             NaN             NaN             NaN
             NaN             NaN             NaN
             NaN             NaN             NaN
             NaN             NaN             NaN
             NaN             NaN             NaN
             NaN             NaN             NaN
             NaN             NaN             NaN
             NaN             NaN             NaN
             NaN             NaN             NaN
             NaN             NaN             NaN
             NaN             NaN             NaN
             NaN             NaN             NaN
             NaN             NaN             NaN
             NaN             NaN             NaN
             NaN             NaN             NaN
             NaN             NaN             NaN
             NaN             NaN             NaN
             NaN             NaN             NaN
             NaN             NaN             NaN
             NaN             NaN             NaN
             NaN             NaN             NaN
             NaN             NaN             NaN
             NaN             NaN             NaN
             NaN             NaN             NaN
             NaN             NaN             NaN
             NaN             NaN             NaN
             NaN             NaN             NaN
             NaN             NaN             NaN
             NaN             NaN             NaN
             NaN             NaN             NaN
             NaN             NaN             NaN
             NaN             NaN             NaN
             NaN             NaN             NaN
             NaN             NaN             NaN
             NaN             NaN             NaN
             NaN             NaN             NaN
             NaN             NaN             NaN
             NaN             NaN             NaN
             NaN             NaN             NaN
             NaN             NaN             NaN
             NaN             NaN             NaN
             NaN             NaN             NaN
             NaN             NaN             NaN
             NaN             NaN             NaN
             NaN             NaN             NaN
             NaN             NaN             NaN
             NaN             NaN             NaN
             NaN             NaN             NaN
             NaN             NaN             NaN
             NaN             NaN             NaN
