Na47 P16 S64
1.0
13.947406 -0.019001 0.000012
-0.019064 13.972651 0.000038
0.000037 0.000001 14.248912
Na P S
47 16 64
direct
0.670084 0.750462 0.746588 Na
0.999965 0.250148 0.207089 Na
0.999830 0.250062 0.706377 Na
0.999845 0.750144 0.212497 Na
0.996193 0.750497 0.716711 Na
0.500025 0.249853 0.208975 Na
0.500165 0.249940 0.708786 Na
0.500147 0.749859 0.211133 Na
0.249646 0.999140 0.287451 Na
0.247515 0.998414 0.785486 Na
0.251843 0.500805 0.295780 Na
0.250461 0.503879 0.793527 Na
0.748162 0.999074 0.295102 Na
0.749103 0.992475 0.791691 Na
0.750346 0.500984 0.286776 Na
0.752925 0.505226 0.783648 Na
0.253465 0.998251 0.035645 Na
0.243362 1.001799 0.536453 Na
0.247311 0.499113 0.045696 Na
0.254986 0.503927 0.545895 Na
0.752728 1.000919 0.044572 Na
0.744921 0.996371 0.544713 Na
0.746502 0.501720 0.034527 Na
0.756736 0.497898 0.535264 Na
0.999962 0.249644 0.456455 Na
0.999693 0.250736 0.956272 Na
0.999990 0.749613 0.465446 Na
0.999989 0.750827 0.961701 Na
0.500040 0.250352 0.459000 Na
0.500311 0.249263 0.957285 Na
0.500009 0.750385 0.479150 Na
0.500003 0.749167 0.948672 Na
0.991791 1.001286 0.500454 Na
0.000895 0.006231 -0.000208 Na
0.008928 0.497395 0.499948 Na
0.999313 0.495964 0.999283 Na
0.494722 -0.001332 0.500423 Na
0.507563 0.998242 1.000290 Na
0.504561 0.502642 0.500936 Na
0.492243 0.499561 0.000798 Na
0.248121 0.252105 0.249724 Na
0.248577 0.253932 0.750046 Na
0.252047 0.747892 0.249965 Na
0.302478 0.749038 0.750202 Na
0.751874 0.247891 0.249598 Na
0.751412 0.246066 0.750126 Na
0.747941 0.752110 0.249839 Na
0.999159 0.000653 0.249722 P
0.998368 0.002704 0.750309 P
0.000955 0.499512 0.249669 P
0.001945 0.497717 0.749526 P
0.499936 0.999920 0.250413 P
0.498696 0.999938 0.749871 P
0.499951 0.499917 0.250470 P
0.500998 0.499644 0.750657 P
0.249700 0.250351 0.000003 P
0.249354 0.251693 0.499303 P
0.250883 0.747384 0.000602 P
0.249276 0.752808 0.498720 P
0.750301 0.249651 0.999934 P
0.750651 0.248304 0.499158 P
0.749109 0.752618 0.000825 P
0.750724 0.747195 0.498284 P
0.155244 0.172797 0.082436 S
0.154054 0.175720 0.581857 S
0.153908 0.674623 0.084170 S
0.157326 0.677337 0.584625 S
0.654985 0.174506 0.083580 S
0.654565 0.174038 0.582037 S
0.654644 0.675165 0.082993 S
0.657039 0.666171 0.576931 S
0.345185 0.325280 0.083594 S
0.345386 0.326066 0.582156 S
0.345664 0.824439 0.082699 S
0.343051 0.833356 0.577698 S
0.844586 0.327420 0.082425 S
0.846003 0.324172 0.581732 S
0.845769 0.825774 0.084471 S
0.842584 0.823141 0.583862 S
0.173615 0.347731 0.417661 S
0.173644 0.346726 0.919236 S
0.171062 0.842952 0.412642 S
0.177982 0.839078 0.913127 S
0.676195 0.343075 0.415106 S
0.675383 0.343179 0.915609 S
0.672376 0.842595 0.417625 S
0.671747 0.851609 0.923675 S
0.323968 0.157020 0.415261 S
0.324589 0.156701 0.915712 S
0.327605 0.657363 0.418092 S
0.327635 0.648125 0.923134 S
0.826223 0.152166 0.417504 S
0.826384 0.153401 0.919129 S
0.828954 0.657097 0.412174 S
0.822627 0.661190 0.913670 S
0.096357 0.422797 0.168163 S
0.100430 0.422442 0.669897 S
0.092951 0.925477 0.165224 S
0.089883 0.926567 0.664917 S
0.593332 0.424917 0.165265 S
0.595429 0.424292 0.666546 S
0.596813 0.924379 0.169685 S
0.590685 0.922170 0.666686 S
0.406586 0.074871 0.165149 S
0.404068 0.076172 0.666703 S
0.403050 0.575462 0.169694 S
0.408796 0.578501 0.668556 S
0.903725 0.077413 0.168271 S
0.900079 0.077088 0.669736 S
0.907186 0.574679 0.165216 S
0.910644 0.572763 0.663048 S
0.076126 0.094804 0.332759 S
0.077173 0.098844 0.829879 S
0.076484 0.594771 0.332596 S
0.073643 0.592497 0.835398 S
0.574204 0.095690 0.334075 S
0.577353 0.095529 0.830486 S
0.576314 0.594744 0.332546 S
0.578574 0.587253 0.839303 S
0.425674 0.404237 0.334191 S
0.422719 0.403104 0.830602 S
0.423505 0.905127 0.332536 S
0.421295 0.911365 0.837712 S
0.923999 0.405272 0.332649 S
0.922759 0.402530 0.829764 S
0.923697 0.905364 0.332605 S
0.926500 0.908886 0.836991 S
