Mg15 Mn32 O64                           
   1.00000000000000     
    11.6312619999999995    0.0000010000000000    0.0000020000000000
     0.0000010000000000   11.6341520000000003    0.0000000000000000
     0.0000020000000000    0.0000000000000000    9.3717500000000005
   Mg   Mn   O 
    15    32    64
Direct
  0.5000036479653343  0.6310037038677154  0.6283016085458233
  0.5000003323371928  0.2514687433359312  0.7466042105567436
 -0.0000043302017380  0.2494092960219071  0.7489375387074216
  0.0000011284189285  0.7515712961908124  0.7513830018174326
  0.0000042475580704  0.4995245030604146  0.4996790110338167
  0.0000011495119741  0.9987568549660290  0.4997131935398798
  0.5000005617999213  0.9979904689691544  0.5004597238687948
  0.2491756048923428  0.0012780303178277  0.2526596558710718
  0.2527240152115349  0.5000482667374748  0.2485297759832420
  0.7508317332501327  0.0012832063825653  0.2526497930276069
  0.7472650204175060  0.5000538624162724  0.2485277523084569
  0.2485537784920794  0.2469269022650321 -0.0004532583017001
  0.2518618356796073  0.7528353201550410  0.9984578322170387
  0.7514413476538596  0.2469337395281890 -0.0004590058477494
  0.7481370388926154  0.7528345784599880  0.9984509595397445
  0.1255878568135704  0.2510044460378314  0.3764323099030691
  0.1251996296962469  0.7496096104320537  0.3738031009125755
  0.6231191835779007  0.2519481866794438  0.3735385788147577
  0.6248162354272804  0.7504690682306040  0.3740590599243233
  0.3768797312657046  0.2519484341262408  0.3735445986778489
  0.3751952415913172  0.7504627417297473  0.3740647590270922
  0.8744115714110356  0.2510065035939565  0.3764315112429083
  0.8748103545978094  0.7496139645100471  0.3738030636564021
  0.1244669012083905  0.4989727796278668  0.8781038625352693
  0.1252459535817955  0.0001219228852280  0.8737554125744567
  0.6261816074858396  0.4999974758585918  0.8761561045532847
  0.6232743222955004  1.0009579654949636  0.8749357970692342
  0.3738144075014844  0.4999969376720633  0.8761678322596181
  0.3767279072232456  1.0009572002512979  0.8749382113033946
  0.8755194175519126  0.4989753085997751  0.8780962352716936
  0.8747567486146047  0.0001232147183089  0.8737555608283591
  0.4999989335700264  0.1246079596724304  0.1250804866365196
  0.5000004756514939  0.6278182871659334  0.1156172048458483
  0.0000022309658771  0.1248088537638363  0.1260068241225554
 -0.0000055045197504  0.6251618525156319  0.1258099265719013
  0.4999991338964349  0.3721691418468759  0.1216611545929264
  0.5000000778762311  0.8771310157889476  0.1233962204662512
 -0.0000060994476286  0.3747935990658182  0.1277098174831983
  0.0000027272922816  0.8751816047145949  0.1242146281296386
  0.2519794555501006  0.3750562518478163  0.6260570707952456
  0.2526331978842425  0.8728876507903567  0.6267098903349475
  0.7480140746099410  0.3750664400103609  0.6260405469220142
  0.7473735664299829  0.8728972887750515  0.6267009116959755
  0.2502335263149741  0.1240504710594128  0.6239435446646713
  0.2456155473726218  0.6250754536399264  0.6261153073276076
  0.7497626189269567  0.1240610379748584  0.6239425987415662
  0.7543872507376059  0.6250859131307746  0.6261028549753314
  0.1376881776394297  0.2507144940723440  0.6212407782377461
  0.1355918810916471  0.7507947021699057  0.6215891597302883
  0.6374377148371435  0.2513445555056407  0.6212304252350425
  0.6389623308851715  0.7415904036867356  0.6136328691303934
  0.3625609521064496  0.2513338763167514  0.6212400362791763
  0.3610454856546069  0.7415780601318835  0.6136408555587664
  0.8623094846694542  0.2507232698212561  0.6212319223729279
  0.8644162291374344  0.7508073489643396  0.6215789184742941
  0.1371675867837161  0.4975379466245534  0.6300695041068528
  0.1380052689205897 -0.0016083115115678  0.6277022558909171
  0.6348672947751373  0.5054341973188266  0.6660284482689108
  0.6369544624159980  0.9994420815803959  0.6280911882958105
  0.3651292482533779  0.5054246394534504  0.6660148847061496
  0.3630437076266045  0.9994339612827438  0.6280936758146868
  0.8628340377134672  0.4975459790390290  0.6300469543926395
  0.8619948678023710 -0.0015942254807099  0.6277008352061390
  0.5000015557813562  0.1174692412988638  0.8785417945907696
  0.5000005507360245  0.6066059774936353  0.8677588632926937
  0.0000008055214750  0.1133858622029418  0.8781189314058234
 -0.0000026639792563  0.6121851638193647  0.8778886054428037
  0.5000022329798327  0.3891854808460380  0.8777539619192323
  0.5000014910395278  0.8948949199837248  0.8925835744991741
 -0.0000030902727347  0.3861715848485114  0.8791939028676500
  0.0000006413183475  0.8872206367225001  0.8795506710220600
 -0.0000002482073630  0.3633708255221314  0.3714337005220165
  0.0000064556362547  0.8626763731769512  0.3696598849288621
  0.4999997306904083  0.3602178957015885  0.3508215567375861
  0.5000034284997108  0.8646905947832253  0.3679171086790898
 -0.0000011329939504  0.1375311344732736  0.3727710394349155
  0.0000044404485809  0.6366320744253647  0.3712682823690245
  0.4999991342722894  0.1367589682792354  0.3725429295538347
  0.5000081255856622  0.6412438202878801  0.3861419890831416
  0.3860827725201195  1.0016736554403800  0.1247800194815252
  0.3854387892098673  0.5006900084898466  0.0967548455623486
  0.8868851464811270  0.0003823746958673  0.1217202447318331
  0.8865925771072842  0.4996292645598013  0.1217975893666326
  0.1131252902950106  0.0003821816366069  0.1217223865332460
  0.1133906818491652  0.4996278182594353  0.1218008621453391
  0.6139239605511456  1.0016744918420559  0.1247807176947593
  0.6145557727330805  0.5006921432778640  0.0967299070137060
  0.3865231624635700  0.2499378321797211  0.1243380639751342
  0.3877510658859684  0.7485774697200526  0.1286089932993109
  0.8868407563598245  0.2501470318659699  0.1298343408967298
  0.8866546348808956  0.7497541392942433  0.1269488605094036
  0.1131532774520368  0.2501533967098717  0.1298357019088812
  0.1133432343090413  0.7497481703413047  0.1269508755777296
  0.6134713436435285  0.2499433058330939  0.1243357081495048
  0.6122507702511837  0.7485722632689293  0.1286063832021707
  0.2507517220822622  0.3657690417529355  0.3812429393186034
  0.2491339903908698  0.8625916215228385  0.3772098051001360
  0.7492444937271124  0.3657728021760769  0.3812335173243801
  0.7508784088923843  0.8625972870502826  0.3772015361984013
  0.2498449235950385  0.1386621743367386  0.3800396051391559
  0.2489266648175212  0.6350279982342226  0.3783953473683565
  0.7501558076880146  0.1386656963504891  0.3800329203836067
  0.7510807984336687  0.6350325372189333  0.3783927298589484
  0.2489312454470414  0.1134815214978674  0.8685569585441978
  0.2503139666297770  0.6107522583429295  0.8778382944169307
  0.7510698270619989  0.1134849554922142  0.8685569994750139
  0.7496720193208797  0.6107553299653393  0.8778297476230931
  0.2515184022911139  0.3873833694875600  0.8749099026577363
  0.2492893119513830  0.8870000452570863  0.8692733037248830
  0.7484660629627647  0.3873843125273888  0.8748977169090133
  0.7507138363133132  0.8870033188703745  0.8692701323249408
 
             NaN             NaN             NaN
             NaN             NaN             NaN
             NaN             NaN             NaN
             NaN             NaN             NaN
             NaN             NaN             NaN
             NaN             NaN             NaN
             NaN             NaN             NaN
             NaN             NaN             NaN
             NaN             NaN             NaN
             NaN             NaN             NaN
             NaN             NaN             NaN
             NaN             NaN             NaN
             NaN             NaN             NaN
             NaN             NaN             NaN
             NaN             NaN             NaN
             NaN             NaN             NaN
             NaN             NaN             NaN
             NaN             NaN             NaN
             NaN             NaN             NaN
             NaN             NaN             NaN
             NaN             NaN             NaN
             NaN             NaN             NaN
             NaN             NaN             NaN
             NaN             NaN             NaN
             NaN             NaN             NaN
             NaN             NaN             NaN
             NaN             NaN             NaN
             NaN             NaN             NaN
             NaN             NaN             NaN
             NaN             NaN             NaN
             NaN             NaN             NaN
             NaN             NaN             NaN
             NaN             NaN             NaN
             NaN             NaN             NaN
             NaN             NaN             NaN
             NaN             NaN             NaN
             NaN             NaN             NaN
             NaN             NaN             NaN
             NaN             NaN             NaN
             NaN             NaN             NaN
             NaN             NaN             NaN
             NaN             NaN             NaN
             NaN             NaN             NaN
             NaN             NaN             NaN
             NaN             NaN             NaN
             NaN             NaN             NaN
             NaN             NaN             NaN
             NaN             NaN             NaN
             NaN             NaN             NaN
             NaN             NaN             NaN
             NaN             NaN             NaN
             NaN             NaN             NaN
             NaN             NaN             NaN
             NaN             NaN             NaN
             NaN             NaN             NaN
             NaN             NaN             NaN
             NaN             NaN             NaN
             NaN             NaN             NaN
             NaN             NaN             NaN
             NaN             NaN             NaN
             NaN             NaN             NaN
             NaN             NaN             NaN
             NaN             NaN             NaN
             NaN             NaN             NaN
             NaN             NaN             NaN
             NaN             NaN             NaN
             NaN             NaN             NaN
             NaN             NaN             NaN
             NaN             NaN             NaN
             NaN             NaN             NaN
             NaN             NaN             NaN
             NaN             NaN             NaN
             NaN             NaN             NaN
             NaN             NaN             NaN
             NaN             NaN             NaN
             NaN             NaN             NaN
             NaN             NaN             NaN
             NaN             NaN             NaN
             NaN             NaN             NaN
             NaN             NaN             NaN
             NaN             NaN             NaN
             NaN             NaN             NaN
             NaN             NaN             NaN
             NaN             NaN             NaN
             NaN             NaN             NaN
             NaN             NaN             NaN
             NaN             NaN             NaN
             NaN             NaN             NaN
             NaN             NaN             NaN
             NaN             NaN             NaN
             NaN             NaN             NaN
             NaN             NaN             NaN
             NaN             NaN             NaN
             NaN             NaN             NaN
             NaN             NaN             NaN
             NaN             NaN             NaN
             NaN             NaN             NaN
             NaN             NaN             NaN
             NaN             NaN             NaN
             NaN             NaN             NaN
             NaN             NaN             NaN
             NaN             NaN             NaN
             NaN             NaN             NaN
             NaN             NaN             NaN
             NaN             NaN             NaN
             NaN             NaN             NaN
             NaN             NaN             NaN
             NaN             NaN             NaN
             NaN             NaN             NaN
             NaN             NaN             NaN
             NaN             NaN             NaN
