Mg15 Mn32 O64
1.0
11.631262 0.000001 0.000002
0.000001 11.634152 0.000000
0.000002 -0.000000 9.371750
Mg Mn O
15 32 64
direct
0.500000 0.656395 0.653493 Mg
0.500000 0.251553 0.747845 Mg
1.000000 0.249857 0.749162 Mg
1.000000 0.750142 0.749113 Mg
1.000000 0.500165 0.501724 Mg
0.000000 -0.000165 0.499591 Mg
0.500000 0.998302 0.498841 Mg
0.249160 0.000609 0.251410 Mg
0.251687 0.499392 0.250264 Mg
0.750840 1.000609 0.251410 Mg
0.748313 0.499391 0.250264 Mg
0.248851 0.248065 0.000368 Mg
0.249835 0.751935 -0.001175 Mg
0.751149 0.248064 0.000368 Mg
0.750165 0.751935 -0.001175 Mg
0.125343 0.250692 0.376382 Mn
0.125066 0.749309 0.375068 Mn
0.623780 0.250998 0.375124 Mn
0.624856 0.749002 0.372215 Mn
0.376220 0.250998 0.375124 Mn
0.375143 0.749002 0.372215 Mn
0.874657 0.250692 0.376381 Mn
0.874934 0.749308 0.375067 Mn
0.124666 0.499912 0.876825 Mn
0.124864 1.000087 0.873627 Mn
0.625960 0.500366 0.876563 Mn
0.624724 0.999633 0.874067 Mn
0.374040 0.500366 0.876563 Mn
0.375276 0.999633 0.874067 Mn
0.875333 0.499912 0.876825 Mn
0.875136 1.000087 0.873627 Mn
0.500000 0.124619 0.125394 Mn
0.500000 0.626020 0.122667 Mn
-0.000000 0.124950 0.125817 Mn
0.000000 0.624947 0.126195 Mn
0.500000 0.373122 0.124027 Mn
0.500000 0.876241 0.124034 Mn
0.000000 0.375043 0.127051 Mn
1.000000 0.875059 0.124960 Mn
0.251024 0.375517 0.627363 Mn
0.250442 0.874252 0.622936 Mn
0.748976 0.375518 0.627363 Mn
0.749558 0.874252 0.622935 Mn
0.250265 0.124803 0.624103 Mn
0.251202 0.625428 0.626195 Mn
0.749736 0.124803 0.624103 Mn
0.748798 0.625428 0.626196 Mn
0.137314 0.250589 0.621461 O
0.136563 0.749411 0.620599 O
0.637243 0.250320 0.621893 O
0.639060 0.749680 0.613535 O
0.362758 0.250321 0.621894 O
0.360940 0.749679 0.613535 O
0.862686 0.250589 0.621460 O
0.863437 0.749411 0.620599 O
0.137761 0.499919 0.630617 O
0.137088 0.000082 0.628121 O
0.637856 0.500230 0.655575 O
0.636431 -0.000230 0.628293 O
0.362144 0.500230 0.655575 O
0.363570 -0.000231 0.628293 O
0.862238 0.499919 0.630617 O
0.862912 0.000081 0.628121 O
0.500000 0.113044 0.877160 O
0.500000 0.610260 0.893593 O
0.000000 0.113360 0.878462 O
1.000000 0.612936 0.878790 O
0.500000 0.389049 0.879031 O
0.500000 0.887646 0.891723 O
1.000000 0.386819 0.879075 O
0.000000 0.886884 0.878178 O
0.000000 0.363520 0.372370 O
1.000000 0.862686 0.370759 O
0.500000 0.360570 0.358977 O
0.500000 0.864300 0.361179 O
0.000000 0.137409 0.371622 O
0.000000 0.636385 0.371510 O
0.500001 0.136118 0.370964 O
0.500000 0.639013 0.349192 O
0.387056 -0.000310 0.123105 O
0.386341 0.500312 0.109455 O
0.886857 0.000184 0.121052 O
0.886726 0.499816 0.122291 O
0.113143 0.000184 0.121052 O
0.113274 0.499816 0.122292 O
0.612944 0.999688 0.123106 O
0.613658 0.500312 0.109456 O
0.386917 0.249185 0.125404 O
0.388023 0.750816 0.124483 O
0.886969 0.250066 0.129646 O
0.886925 0.749933 0.128022 O
0.113031 0.250066 0.129646 O
0.113075 0.749934 0.128022 O
0.613083 0.249183 0.125404 O
0.611977 0.750816 0.124483 O
0.250431 0.364223 0.380459 O
0.249382 0.862451 0.376647 O
0.749569 0.364223 0.380459 O
0.750618 0.862451 0.376647 O
0.249907 0.137640 0.379324 O
0.249904 0.635687 0.377781 O
0.750093 0.137639 0.379324 O
0.750094 0.635686 0.377781 O
0.250033 0.112907 0.870222 O
0.250658 0.612061 0.876167 O
0.749968 0.112906 0.870222 O
0.749342 0.612061 0.876168 O
0.250827 0.387640 0.876167 O
0.249863 0.887392 0.870223 O
0.749173 0.387640 0.876167 O
0.750137 0.887392 0.870223 O
