Mg8 Sc16 Se32                           
   1.00000000000000     
    11.2470098765125091    0.0000090780954337   -0.0000424494848011
     0.0000092301681879   11.2470018978441111    0.0001280381035515
    -0.0000423421412946    0.0002430489080139   11.2465004327679381
   Mg   Sc   Se
     7    16    32
Direct
  0.3770300197108051  0.3770661222318099  0.3770920326356775
  0.6250154228111798  0.1250014149116170  0.1249991381139001
  0.1249808738931693  0.6249965681701372  0.1250009557772330
  0.1249801410405641  0.1249981851306454  0.6250001906615541
  0.3770323612808330  0.8729363124494030  0.8729125567360074
  0.8729272915714503  0.3770489195628425  0.8728944531261971
  0.8729275919367216  0.8729587223336441  0.3770970432920103
  0.9936442543147654  0.7493025515387401  0.7493364713665793
  0.7493095409843799  0.9934668808428805  0.7493349488514671
  0.7493472189857587  0.7493343472310188  0.9937069801854473
  0.9993420228383277  0.9993440002758650  0.9993465698286280
  0.9993415345097026  0.2506588300299974  0.2506559380071718
  0.2506448193248629  0.9993539001901146  0.2506485066631977
  0.2506465162653598  0.2506455858986213  0.9993475931996029
  0.7493313187444429  0.5006842853929339  0.2562932006135976
  0.7492922591512637  0.2565356034517214  0.5006570585011548
  0.9936118584590727  0.5007090131449218  0.5006757680922742
  0.2565297663725964  0.5006570895156656  0.7494002148909605
  0.2565015548424840  0.7493284178257694  0.5006004026125107
  0.5006318985456633  0.7493815099802389  0.2562485023721699
  0.5006733568715060  0.9936317020067016  0.5006036069860661
  0.5006840583280761  0.2563346826231452  0.7493832370598398
  0.5006395555667270  0.5006209726714347  0.9937487098288686
  0.7578356337587695  0.9930768465246537  0.9931072298501479
  0.9930927215979892  0.7578432573222205  0.9931105111227573
  0.9930791106267876  0.9930706927894364  0.7578334108647372
  0.7584519457257567  0.7583794243633433  0.7584987680737533
  0.2425939526349607  0.0074001757227055  0.0073895317935417
  0.0073953851553845  0.2425958980672819  0.0073826380529076
  0.0073951203163353  0.0074024842613382  0.2426156701273700
  0.2425981459061555  0.2425985273566764  0.2426116040774927
  0.7584292122249007  0.4916318094347510  0.4914989325549580
  0.9930627714871302  0.2569390330946911  0.4921742824900283
  0.9930864620754731  0.4921572894498612  0.2568933592896362
  0.7578344353613389  0.2569282190052529  0.2568918619737743
  0.2407552970973714  0.5071502978669393  0.5071633622908539
  0.0092901151022538  0.7429066555948838  0.5071386883035068
  0.0092964912850946  0.5070982043783534  0.7428631784124131
  0.2407644648914989  0.7428427687516600  0.7428451025054865
  0.2569136026608136  0.9930917050346834  0.4921584476017576
  0.4915970009571746  0.7584529975367622  0.4914753701592285
  0.4921382226704838  0.9931152841306385  0.2568602075452480
  0.2568952633878308  0.7578542361972194  0.2568653031956665
  0.7428521061475722  0.0092857084140760  0.5071349477033664
  0.5070997041481932  0.2407576847723873  0.5071547190156966
  0.5071316583090307  0.0092313941934280  0.7428566939775455
  0.7428772238505413  0.2407050792597201  0.7428535986789526
  0.2568980068080093  0.4921452337661813  0.9931298210902483
  0.4921411816539686  0.2568826430987982  0.9931323968736666
  0.4916181300517868  0.4915316707518776  0.7585255963356202
  0.2569193741037525  0.2568983970691871  0.7578389316902935
  0.7428490302755334  0.5071185184408907  0.0092523013292682
  0.5071106429541684  0.7428467014946947  0.0092372168425636
  0.5070956789419457  0.5071648849417001  0.2407702702236242
  0.7428363696781465  0.7429006613187275  0.2407519759449205
 
  0.00000000E+00  0.00000000E+00  0.00000000E+00
  0.00000000E+00  0.00000000E+00  0.00000000E+00
  0.00000000E+00  0.00000000E+00  0.00000000E+00
  0.00000000E+00  0.00000000E+00  0.00000000E+00
  0.00000000E+00  0.00000000E+00  0.00000000E+00
  0.00000000E+00  0.00000000E+00  0.00000000E+00
  0.00000000E+00  0.00000000E+00  0.00000000E+00
  0.00000000E+00  0.00000000E+00  0.00000000E+00
  0.00000000E+00  0.00000000E+00  0.00000000E+00
  0.00000000E+00  0.00000000E+00  0.00000000E+00
  0.00000000E+00  0.00000000E+00  0.00000000E+00
  0.00000000E+00  0.00000000E+00  0.00000000E+00
  0.00000000E+00  0.00000000E+00  0.00000000E+00
  0.00000000E+00  0.00000000E+00  0.00000000E+00
  0.00000000E+00  0.00000000E+00  0.00000000E+00
  0.00000000E+00  0.00000000E+00  0.00000000E+00
  0.00000000E+00  0.00000000E+00  0.00000000E+00
  0.00000000E+00  0.00000000E+00  0.00000000E+00
  0.00000000E+00  0.00000000E+00  0.00000000E+00
  0.00000000E+00  0.00000000E+00  0.00000000E+00
  0.00000000E+00  0.00000000E+00  0.00000000E+00
  0.00000000E+00  0.00000000E+00  0.00000000E+00
  0.00000000E+00  0.00000000E+00  0.00000000E+00
  0.00000000E+00  0.00000000E+00  0.00000000E+00
  0.00000000E+00  0.00000000E+00  0.00000000E+00
  0.00000000E+00  0.00000000E+00  0.00000000E+00
  0.00000000E+00  0.00000000E+00  0.00000000E+00
  0.00000000E+00  0.00000000E+00  0.00000000E+00
  0.00000000E+00  0.00000000E+00  0.00000000E+00
  0.00000000E+00  0.00000000E+00  0.00000000E+00
  0.00000000E+00  0.00000000E+00  0.00000000E+00
  0.00000000E+00  0.00000000E+00  0.00000000E+00
  0.00000000E+00  0.00000000E+00  0.00000000E+00
  0.00000000E+00  0.00000000E+00  0.00000000E+00
  0.00000000E+00  0.00000000E+00  0.00000000E+00
  0.00000000E+00  0.00000000E+00  0.00000000E+00
  0.00000000E+00  0.00000000E+00  0.00000000E+00
  0.00000000E+00  0.00000000E+00  0.00000000E+00
  0.00000000E+00  0.00000000E+00  0.00000000E+00
  0.00000000E+00  0.00000000E+00  0.00000000E+00
  0.00000000E+00  0.00000000E+00  0.00000000E+00
  0.00000000E+00  0.00000000E+00  0.00000000E+00
  0.00000000E+00  0.00000000E+00  0.00000000E+00
  0.00000000E+00  0.00000000E+00  0.00000000E+00
  0.00000000E+00  0.00000000E+00  0.00000000E+00
  0.00000000E+00  0.00000000E+00  0.00000000E+00
  0.00000000E+00  0.00000000E+00  0.00000000E+00
  0.00000000E+00  0.00000000E+00  0.00000000E+00
  0.00000000E+00  0.00000000E+00  0.00000000E+00
  0.00000000E+00  0.00000000E+00  0.00000000E+00
  0.00000000E+00  0.00000000E+00  0.00000000E+00
  0.00000000E+00  0.00000000E+00  0.00000000E+00
  0.00000000E+00  0.00000000E+00  0.00000000E+00
  0.00000000E+00  0.00000000E+00  0.00000000E+00
  0.00000000E+00  0.00000000E+00  0.00000000E+00
