Mg7 Sc16 Se32
1.0
11.247010 0.000009 -0.000042
0.000009 11.247002 0.000128
-0.000042 0.000243 11.246500
Mg Sc Se
7 16 32
direct
0.377030 0.377066 0.377092 Mg
0.625015 0.125001 0.124999 Mg
0.124981 0.624997 0.125001 Mg
0.124980 0.124998 0.625000 Mg
0.377032 0.872936 0.872913 Mg
0.872927 0.377049 0.872894 Mg
0.872928 0.872959 0.377097 Mg
-0.006356 0.749303 0.749336 Sc
0.749310 -0.006533 0.749335 Sc
0.749347 0.749334 -0.006293 Sc
-0.000658 -0.000656 -0.000653 Sc
-0.000658 0.250659 0.250656 Sc
0.250645 -0.000646 0.250649 Sc
0.250647 0.250646 -0.000652 Sc
0.749331 0.500684 0.256293 Sc
0.749292 0.256536 0.500657 Sc
-0.006388 0.500709 0.500676 Sc
0.256530 0.500657 0.749400 Sc
0.256502 0.749328 0.500600 Sc
0.500632 0.749382 0.256249 Sc
0.500673 -0.006368 0.500604 Sc
0.500684 0.256335 0.749383 Sc
0.500640 0.500621 -0.006251 Sc
0.757836 0.993077 0.993107 Se
0.993093 0.757843 0.993111 Se
0.993079 0.993071 0.757833 Se
0.758452 0.758379 0.758499 Se
0.242594 0.007400 0.007390 Se
0.007395 0.242596 0.007383 Se
0.007395 0.007402 0.242616 Se
0.242598 0.242599 0.242612 Se
0.758429 0.491632 0.491499 Se
0.993063 0.256939 0.492174 Se
0.993086 0.492157 0.256893 Se
0.757834 0.256928 0.256892 Se
0.240755 0.507150 0.507163 Se
0.009290 0.742907 0.507139 Se
0.009296 0.507098 0.742863 Se
0.240764 0.742843 0.742845 Se
0.256914 0.993092 0.492158 Se
0.491597 0.758453 0.491475 Se
0.492138 0.993115 0.256860 Se
0.256895 0.757854 0.256865 Se
0.742852 0.009286 0.507135 Se
0.507100 0.240758 0.507155 Se
0.507132 0.009231 0.742857 Se
0.742877 0.240705 0.742854 Se
0.256898 0.492145 0.993130 Se
0.492141 0.256883 0.993132 Se
0.491618 0.491532 0.758526 Se
0.256919 0.256898 0.757839 Se
0.742849 0.507119 0.009252 Se
0.507111 0.742847 0.009237 Se
0.507096 0.507165 0.240770 Se
0.742836 0.742901 0.240752 Se
