Mg7 Sc16 Se32                           
   1.00000000000000     
    11.2468649999999997    0.0000100000000000   -0.0000380000000000
     0.0000100000000000   11.2468810000000001    0.0001140000000000
    -0.0000380000000000    0.0002050000000000   11.2464189999999995
   Mg   Sc   Se
     7    16    32
Direct
  0.4071316380683647  0.4071507404404720  0.4071396783062484
  0.6261209130575223  0.1264730161990158  0.1264742933972014
  0.1264544732372304  0.6261173302842160  0.1264581576623498
  0.1264673762376794  0.1264844860182302  0.6260994365392170
  0.3773160622878117  0.8728928448210527  0.8728714367405459
  0.8728654830401040  0.3773126572206784  0.8728775156049831
  0.8728636809925560  0.8729100183281703  0.3773200112980202
  0.9942571682807750  0.7502835295069882  0.7502923772964809
  0.7504118383236106  0.9940992793190118  0.7504052208924284
  0.7502929439946479  0.7502777860839841  0.9942210888413425
  0.9992709264755621  0.9992634694266959  0.9992751450749265
  0.0045661553230940  0.2491593972158032  0.2491504418415733
  0.2491154322465294  0.0045894252639406  0.2491457785307382
  0.2491111850186020  0.2491275920030684  0.0045680580009517
  0.7526182608643962  0.5006270852086574  0.2546882615746317
  0.7525977331030903  0.2547143247097072  0.5005966836674866
  0.9909456495855398  0.5000474500726829  0.5000269678610622
  0.2547187265479656  0.5005895965393150  0.7526016601561207
  0.2547171512794424  0.7525949074431975  0.5005523655922977
  0.5005996559430437  0.7526184273966768  0.2546659856890744
  0.5000129680890242  0.9909754777702902  0.4999923896512495
  0.5006334501594175  0.2546711891368926  0.7526147827075826
  0.4999719351636729  0.4999584322922032  0.9909848673872691
  0.7579498744382155  0.9936744365579715  0.9937166409028492
  0.9936854135772700  0.7579526489737883  0.9936909368536652
  0.9937228918331684  0.9936704148916550  0.7579367445403249
  0.7593849764062549  0.7592989350211010  0.7593503559780800
  0.2423906639472198  0.0068989596966605  0.0068875935963630
  0.0068785857373413  0.2424078738599568  0.0068975934489543
  0.0068790753259829  0.0069217670683460  0.2424196193272145
  0.2450796862635007  0.2451093642772601  0.2451096974205488
  0.7569855405082009  0.4906893635777703  0.4906640966782394
  0.9946460996386772  0.2570620147832688  0.4919901406978401
  0.9946524396990810  0.4919848051716064  0.2570356153541524
  0.7603508538380380  0.2570739573009852  0.2570330352543352
  0.2384188990786526  0.5105250382011987  0.5105040543566464
  0.0085630607350537  0.7426373337946033  0.5074485037696337
  0.0085665683308503  0.5074644605706705  0.7426279647077644
  0.2405673759508554  0.7435248474630394  0.7435149800416315
  0.2570250786983190  0.9946598229678689  0.4919724942273828
  0.4906782447296577  0.7570009670075540  0.4906467243861066
  0.4919468881462990  0.9946684440645160  0.2570037789997262
  0.2570411868976388  0.7603689422378476  0.2570153054377086
  0.7426124671975478  0.0085664642917026  0.5074825762740454
  0.5105056346766927  0.2384384439988312  0.5105071124054494
  0.5075068906656846  0.0085427463360569  0.7426100795857051
  0.7435445692347105  0.2405335116915255  0.7435343517148263
  0.2570066499058959  0.4919545101729588  0.9946687935512223
  0.4919421866934028  0.2570084011569108  0.9946829839781179
  0.4906745862507106  0.4906564169513070  0.7570104368922256
  0.2570526859897365  0.2570412705956632  0.7603468077898721
  0.7425916281207192  0.5074629241239861  0.0085535747760322
  0.5074570475519020  0.7425876206439921  0.0085419188539669
  0.5105075063456816  0.5105234677715694  0.2384285203888412
  0.7435285276827022  0.7435549647432691  0.2405478833688608
 
             NaN             NaN             NaN
             NaN             NaN             NaN
             NaN             NaN             NaN
             NaN             NaN             NaN
             NaN             NaN             NaN
             NaN             NaN             NaN
             NaN             NaN             NaN
             NaN             NaN             NaN
             NaN             NaN             NaN
             NaN             NaN             NaN
             NaN             NaN             NaN
             NaN             NaN             NaN
             NaN             NaN             NaN
             NaN             NaN             NaN
             NaN             NaN             NaN
             NaN             NaN             NaN
             NaN             NaN             NaN
             NaN             NaN             NaN
             NaN             NaN             NaN
             NaN             NaN             NaN
             NaN             NaN             NaN
             NaN             NaN             NaN
             NaN             NaN             NaN
             NaN             NaN             NaN
             NaN             NaN             NaN
             NaN             NaN             NaN
             NaN             NaN             NaN
             NaN             NaN             NaN
             NaN             NaN             NaN
             NaN             NaN             NaN
             NaN             NaN             NaN
             NaN             NaN             NaN
             NaN             NaN             NaN
             NaN             NaN             NaN
             NaN             NaN             NaN
             NaN             NaN             NaN
             NaN             NaN             NaN
             NaN             NaN             NaN
             NaN             NaN             NaN
             NaN             NaN             NaN
             NaN             NaN             NaN
             NaN             NaN             NaN
             NaN             NaN             NaN
             NaN             NaN             NaN
             NaN             NaN             NaN
             NaN             NaN             NaN
             NaN             NaN             NaN
             NaN             NaN             NaN
             NaN             NaN             NaN
             NaN             NaN             NaN
             NaN             NaN             NaN
             NaN             NaN             NaN
             NaN             NaN             NaN
             NaN             NaN             NaN
             NaN             NaN             NaN
