Na6 P2 S8                               
   1.00000000000000     
    13.7553288976209096   -0.0170440441139951   -0.0000508104202800
    -0.0171605504580350   13.7853236208296774   -0.0001631367022053
    -0.0000002280946143    0.0000186260248401   14.1363802189564165
   Na   P    S 
    47    16    64
Direct
  0.6923676710174723  0.7514724275945830  0.7497303647883861
  0.0000039395492998  0.2500039642994291  0.2056511050954301
  0.0000043890164506  0.2499982469240261  0.7044408095069224
  0.0000060555437816  0.7500012755244285  0.2100326989940443
  0.0000048328370218  0.7499954821042200  0.7127190532504423
  0.5000005679303009  0.2500000797805269  0.2074396994747851
  0.4999990947120038  0.2499997937538406  0.7067622109278869
  0.5000114558483706  0.7500057309408844  0.2076259846908370
  0.2496607296516007  0.9990265105360242  0.2903875051887541
  0.2474308826208192  0.9982916124364845  0.7878404811969584
  0.2515400414421552  0.5009671417525104  0.2966029152203788
  0.2508610699999499  0.5033530987268582  0.7937455576139824
  0.7484583507534615  0.9990314549388088  0.2966001791694284
  0.7491356929162900  0.9966440149520950  0.7937460489997989
  0.7503356311961319  0.5009712028083790  0.2903883295075573
  0.7525680594882291  0.5017027403240560  0.7878342801648308
  0.2523395485694498  0.9985710483935716  0.0380440090331234
  0.2449043694870120  0.0017321932060181  0.5391782658614791
  0.2481714732971652  0.4993135385247104  0.0462972654327362
  0.2543574894867073  0.5040211964389273  0.5467461729255625
  0.7518327836062521  0.0006853909164395  0.0463014456551689
  0.7456371557500611  0.9959785514943753  0.5467436826127460
  0.7476628717051133  0.5014346082783534  0.0380410159464356
  0.7550901937008693  0.4982654713736474  0.5391721745259661
  0.4999966555487180  0.2500027593358201  0.4583085690960638
  0.4999991349179979  0.2500002663037021  0.9554375339871418
  0.4999970669011107  0.7500059400727584  0.4752679817476195
  0.5000004057381424  0.7499958185425202  0.9437506189025920
  0.9999958638435957  0.2500023158993414  0.4547547099363128
  0.9999996211070542  0.2499971628750267  0.9544924861449027
  0.9999987625884516  0.7500039498757559  0.4623244661058695
  0.0000055106735402  0.7500000012546789  0.9577093928361222
  0.9926460301074139  0.0013020778253495  0.5003147937316448
  0.9995793448466176  0.0043950229194910  0.9993466161343525
  0.0073614258415074  0.4987049026812894  0.5003165859500014
  0.0004164142837938  0.4956006495031382  0.9993461785918036
  0.4957587232771882  0.9963898047414419  0.5013657305324890
  0.5063444059260368  0.9995714556672416  0.0006905454979261
  0.5042288088548029  0.5036212291310151  0.5013525404625699
  0.4936541929955408  0.5004256070169036  0.0006926391735082
  0.2488778934560117  0.2517806963986458  0.2499440771609606
  0.2488421497181495  0.2531186566398998  0.7502262926922629
  0.2520234015108028  0.7483418815453654  0.2495786249623887
  0.3076325103540069  0.7485295699119909  0.7497271267306942
  0.7511329740125382  0.2482152245842762  0.2499396631443124
  0.7511634183434509  0.2468785263769624  0.7502297831993543
  0.7480030093119160  0.7516586710687527  0.2495793624606716
  0.5000279716388157  0.5000492725439538  0.2508057748673645
  0.5010784789243042  0.4996864248644169  0.7504822507346897
  0.4999773971304010  0.9999586578212359  0.2508105212234741
  0.4989217270568665  0.0003096737645325  0.7504822070499149
  0.0008884279631558  0.4995697154336692  0.2495720185913883
  0.0017699551622425  0.4974198936308906  0.7498403262491773
  0.9991027591534672  0.0004306449767071  0.2495628441637927
  0.9982289636805052  0.0025705413646064  0.7498420547613449
  0.2496615166725620  0.2506806868495643  0.0002743740325804
  0.2493332062410341  0.2514051931582325  0.4995225744650822
  0.2507452227485587  0.7473445802054702  0.0001281587453458
  0.2491441017430273  0.7532593117463353  0.4985156811531533
  0.7503407856551262  0.2493196502797179  0.0002683990196057
  0.7506688843901487  0.2485882627324646  0.4995269211756136
  0.7492535412394667  0.7526623755235040  0.0001274474656349
  0.7508585788616144  0.7467424775646009  0.4985165136219888
  0.1541590101248949  0.1738032691694655  0.0827739303058960
  0.1528307478690378  0.1755029705905043  0.5813882518859113
  0.1530374403651812  0.6745223017489389  0.0835305556291115
  0.1560062510936872  0.6777049087784442  0.5839179149575706
  0.6538950796969772  0.1744200838743364  0.0834145321399091
  0.6543467023601207  0.1741883851545016  0.5824746592756201
  0.6537560490115045  0.6755254591665701  0.0820088406421573
  0.6556256927882934  0.6670183398174406  0.5770361532668643
  0.3461057476898211  0.3255814654814276  0.0834186414545023
  0.3456475766482824  0.3258091776874177  0.5824712310290785
  0.3462489226812390  0.8244759484458208  0.0820054962612941
  0.3443651470914001  0.8329811686109936  0.5770414119890994
  0.8458404562486797  0.3261968481958203  0.0827722582670074
  0.8471642540780356  0.3244964412605020  0.5813881478423014
  0.8469661309374682  0.8254818466876088  0.0835310329208066
  0.8439869922221187  0.8222943896324697  0.5839286139484720
  0.1740326090863655  0.3480708941227740  0.4175137907550794
  0.1739848963908324  0.3476802421337249  0.9192906212509750
  0.1710092957077591  0.8445347159304041  0.4128330349904839
  0.1777709107352619  0.8397115268905201  0.9128388988534818
  0.6757771876699002  0.3441126002744788  0.4160429809638738
  0.6757076754317893  0.3443430229657312  0.9167757823952477
  0.6734387943558484  0.8434603285392549  0.4176522670507307
  0.6724550478311939  0.8528093839454923  0.9229940775408474
  0.3242265908349170  0.1558670148973207  0.4160562917612617
  0.3242920604434577  0.1556516501979992  0.9167809498662634
  0.3265676335762287  0.6565378772134979  0.4176554300644516
  0.3275433282393620  0.6471954892182573  0.9229927239668251
  0.8259700369066056  0.1519160294662243  0.4175246812711490
  0.8260174805074001  0.1523118111562971  0.9192922071755646
  0.8289912663736605  0.6554701428582029  0.4128371733900394
  0.8222266094072986  0.6602948035643690  0.9128359052948564
  0.0973418400158044  0.4232150783389207  0.1683081404773470
  0.1007856604178812  0.4227170566812703  0.6695433597125187
  0.0938443936824546  0.9255898333476026  0.1651070331156667
  0.0912687283225176  0.9275731813748002  0.6646704233739745
  0.5947989520969319  0.4249509032283033  0.1663978939655378
  0.5963198631820747  0.4238976729899144  0.6666928989177351
  0.5973965225178778  0.9250542135870679  0.1694234822410336
  0.5925363705421250  0.9223574372895371  0.6686878421558693
  0.4051903793243443  0.0750547144684420  0.1664040411684312
  0.4036788061168887  0.0761006127105884  0.6666985510518617
  0.4026032280950773  0.5749567617668579  0.1694231625067276
  0.4074617124335347  0.5776386373410046  0.6686953295113631
  0.9026502619369955  0.0767832764487285  0.1683069796162963
  0.8992109952541266  0.0772821027612792  0.6695496104672417
  0.9061516979299068  0.5744173962061114  0.1651246173588371
  0.9087319108156059  0.5724279494985731  0.6646716198283468
  0.0757028395325714  0.0956486747391966  0.3323340196927558
  0.0764810901030321  0.0992734801178620  0.8300492980296109
  0.0760658835740611  0.5956443296012325  0.3323327405683641
  0.0739168207301518  0.5925646033218369  0.8353706991687740
  0.5744068219063448  0.0963101277325341  0.3343155726606072
  0.5765982821393306  0.0977929553005809  0.8307977003038574
  0.5758884082199077  0.5959987515949384  0.3325705217879243
  0.5788393777791898  0.5883836355091853  0.8383062368578433
  0.4255904238379097  0.4036935272881746  0.3343120423987743
  0.4234005153056266  0.4022055819046098  0.8307975888519639
  0.4241129712771826  0.9040075304814782  0.3325724064939317
  0.4211611364586846  0.9116139011395075  0.8383012108598252
  0.9242962210279860  0.4043536602260605  0.3323443814402831
  0.9235199919132923  0.4007220186580308  0.8300507371761113
  0.9239322992300028  0.9043590742902965  0.3323319383908506
  0.9260755083302679  0.9074338317241794  0.8353717551575950
