Na47 P16 S64
1.0
13.755329 -0.017044 -0.000051
-0.017161 13.785324 -0.000163
-0.000000 0.000019 14.136380
Na P S
47 16 64
direct
0.692368 0.751472 0.749730 Na
1.000004 0.250004 0.205651 Na
1.000004 0.249998 0.704441 Na
1.000006 0.750001 0.210033 Na
1.000005 0.749995 0.712719 Na
0.500001 0.250000 0.207440 Na
0.499999 0.250000 0.706762 Na
0.500011 0.750006 0.207626 Na
0.249661 0.999027 0.290388 Na
0.247431 0.998292 0.787840 Na
0.251540 0.500967 0.296603 Na
0.250861 0.503353 0.793746 Na
0.748458 0.999031 0.296600 Na
0.749136 0.996644 0.793746 Na
0.750336 0.500971 0.290388 Na
0.752568 0.501703 0.787834 Na
0.252340 0.998571 0.038044 Na
0.244904 1.001732 0.539178 Na
0.248171 0.499314 0.046297 Na
0.254357 0.504021 0.546746 Na
0.751833 1.000685 0.046301 Na
0.745637 0.995979 0.546744 Na
0.747663 0.501435 0.038041 Na
0.755090 0.498265 0.539172 Na
0.499997 0.250003 0.458309 Na
0.499999 0.250000 0.955438 Na
0.499997 0.750006 0.475268 Na
0.500000 0.749996 0.943751 Na
0.999996 0.250002 0.454755 Na
1.000000 0.249997 0.954492 Na
0.999999 0.750004 0.462324 Na
1.000006 0.750000 0.957709 Na
0.992646 1.001302 0.500315 Na
-0.000421 0.004395 -0.000653 Na
0.007361 0.498705 0.500317 Na
1.000416 0.495601 0.999346 Na
0.495759 -0.003610 0.501366 Na
0.506344 0.999571 1.000691 Na
0.504229 0.503621 0.501353 Na
0.493654 0.500426 0.000693 Na
0.248878 0.251781 0.249944 Na
0.248842 0.253119 0.750226 Na
0.252023 0.748342 0.249579 Na
0.307633 0.748530 0.749727 Na
0.751133 0.248215 0.249940 Na
0.751163 0.246879 0.750230 Na
0.748003 0.751659 0.249579 Na
0.500028 0.500049 0.250806 P
0.501078 0.499686 0.750482 P
0.499977 -0.000041 0.250811 P
0.498922 1.000310 0.750482 P
0.000888 0.499570 0.249572 P
0.001770 0.497420 0.749840 P
-0.000897 0.000431 0.249563 P
0.998229 0.002571 0.749842 P
0.249662 0.250681 1.000274 P
0.249333 0.251405 0.499523 P
0.250745 0.747345 0.000128 P
0.249144 0.753259 0.498516 P
0.750341 0.249320 1.000268 P
0.750669 0.248588 0.499527 P
0.749254 0.752662 0.000127 P
0.750859 0.746742 0.498517 P
0.154159 0.173803 0.082774 S
0.152831 0.175503 0.581388 S
0.153037 0.674522 0.083531 S
0.156006 0.677705 0.583918 S
0.653895 0.174420 0.083415 S
0.654347 0.174188 0.582475 S
0.653756 0.675525 0.082009 S
0.655626 0.667018 0.577036 S
0.346106 0.325581 0.083419 S
0.345648 0.325809 0.582471 S
0.346249 0.824476 0.082005 S
0.344365 0.832981 0.577041 S
0.845840 0.326197 0.082772 S
0.847164 0.324496 0.581388 S
0.846966 0.825482 0.083531 S
0.843987 0.822294 0.583929 S
0.174033 0.348071 0.417514 S
0.173985 0.347680 0.919291 S
0.171009 0.844535 0.412833 S
0.177771 0.839712 0.912839 S
0.675777 0.344113 0.416043 S
0.675708 0.344343 0.916776 S
0.673439 0.843460 0.417652 S
0.672455 0.852809 0.922994 S
0.324227 0.155867 0.416056 S
0.324292 0.155652 0.916781 S
0.326568 0.656538 0.417655 S
0.327543 0.647195 0.922993 S
0.825970 0.151916 0.417525 S
0.826017 0.152312 0.919292 S
0.828991 0.655470 0.412837 S
0.822227 0.660295 0.912836 S
0.097342 0.423215 0.168308 S
0.100786 0.422717 0.669543 S
0.093844 0.925590 0.165107 S
0.091269 0.927573 0.664670 S
0.594799 0.424951 0.166398 S
0.596320 0.423898 0.666693 S
0.597397 0.925054 0.169423 S
0.592536 0.922357 0.668688 S
0.405190 0.075055 0.166404 S
0.403679 0.076101 0.666699 S
0.402603 0.574957 0.169423 S
0.407462 0.577639 0.668695 S
0.902650 0.076783 0.168307 S
0.899211 0.077282 0.669550 S
0.906152 0.574417 0.165125 S
0.908732 0.572428 0.664672 S
0.075703 0.095649 0.332334 S
0.076481 0.099273 0.830049 S
0.076066 0.595644 0.332333 S
0.073917 0.592565 0.835371 S
0.574407 0.096310 0.334316 S
0.576598 0.097793 0.830798 S
0.575888 0.595999 0.332571 S
0.578839 0.588384 0.838306 S
0.425590 0.403694 0.334312 S
0.423401 0.402206 0.830798 S
0.424113 0.904008 0.332572 S
0.421161 0.911614 0.838301 S
0.924296 0.404354 0.332344 S
0.923520 0.400722 0.830051 S
0.923932 0.904359 0.332332 S
0.926076 0.907434 0.835372 S
