Li46 P16 O64                            
   1.00000000000000     
    10.4933809999999994   -0.0065320000000000   -0.0257900000000000
    -0.0075830000000000   12.2878910000000001   -0.0125540000000000
    -0.0241680000000000   -0.0101050000000000    9.8840070000000004
   Li   P    O 
    46    16    64
Direct
  0.2237681634731441  0.3012972373446078  0.1618854162309345
  0.6658493174562884  0.2508670558752033  0.5980208382753707
  0.6606954824259943  0.7466426626300290  0.0957315138402553
  0.6639782243664881  0.7508679156917389  0.5992235485868244
  0.1595564577207384  0.5079170557128182  0.1515030971956732
  0.1658779214723452  0.5002596568718932  0.6515739532434550
  0.1653583231653470  0.9946634023272685  0.1518897158256488
  0.1654418162767449  0.9997797335160389  0.6537885516429507
  0.3372707896721164  0.0002434018881528  0.4010234047871692
  0.3392029441684617  0.0007103540294387  0.9072060704794815
  0.3407355129870838  0.4989931569302212  0.3999356031085293
  0.3404737600842839  0.4953315670153975  0.9081725527968878
  0.8323357653835532  0.2492667029670341  0.3417177014231721
  0.8332350018590416  0.2486793809645045  0.8559555322533234
  0.8354386299375018  0.7482599633559621  0.3474870471123062
  0.8362287980503441  0.7489063405043209  0.8474260356104181
  0.3428558736121397  0.2480216385401790  0.4076841338066133
  0.3443515313671713  0.2507059019564885  0.9046298993759235
  0.3379944974578806  0.7488613436571518  0.4006885422234853
  0.3369405243355682  0.7489451094342832  0.9044655521452630
  0.8393027633052297  0.0035793997175646  0.3463166537884272
  0.8373005181117240  0.0025218775645184  0.8467958166175896
  0.8319501652335990  0.4982060324804507  0.3452791806621430
  0.8336529936292535  0.4989726018774019  0.8515639995839743
  0.6531197747446480  0.4860303903527632  0.0924462076608775
  0.6663020385154408  0.5019302323098196  0.5957614233519271
  0.6672650678660543  0.9974130646729493  0.0996564143200032
  0.6648248840225465  0.0010260871242756  0.5966698048008070
  0.1660271171296660  0.2513468571938168  0.6542820801034174
  0.1646449982190415  0.7515884158363330  0.1534177106680486
  0.1651684895737951  0.7520547920382047  0.6517179321986259
  0.9271940186686244  0.3694730950091917  0.1462511917579327
  0.9245120441796014  0.3742207623593139  0.6514921810883143
  0.9227475848887577  0.8756587511813601  0.1488597816668233
  0.9244282623351998  0.8762472742184979  0.6482781545746068
  0.4264112069865110  0.3755113792527000  0.6084653448710500
  0.4286627666143198  0.8737614305391480  0.1017766036019442
  0.4263680863279674  0.8755763582771179  0.6005399080296669
  0.0809170453050872  0.1321355081420904  0.3353082304035013
  0.0800624764248824  0.1271439036371582  0.8619400510085148
  0.0744109993063904  0.6260854915185214  0.3529729340788003
  0.0761817759120935  0.6245487590236573  0.8497171019082701
  0.5774778234708898  0.1291252870523826  0.3869355815447290
  0.5790747517371089  0.1343507826745376  0.9187044046252534
  0.5759817096465114  0.6219793244728449  0.3992952726460326
  0.5737909058460090  0.6208012437436534  0.8981160617935594
  0.9169029064916873  0.1223614249314280  0.0958654281984272
  0.9163291161886267  0.1258908900799394  0.5951339298022255
  0.9088191416633755  0.6251904286444594  0.0954518373087417
  0.9126896210408723  0.6253921746046897  0.5953107937166353
  0.4104752680196498  0.1153420059145159  0.1537783057419442
  0.4139633437046598  0.1224234248899480  0.6554359481228703
  0.4084609341686515  0.6263278137061378  0.1530002581408426
  0.4110712998671721  0.6267282399144555  0.6549964808969392
  0.0901048094654320  0.3780046643658269  0.4048041759786689
  0.0910747421787244  0.3773443321754056  0.9047084400126432
  0.0884844385436616  0.8750599260530549  0.4053715619217911
  0.0883991591302161  0.8736694160398834  0.9043880103351356
  0.5877749702843322  0.3759740786713217  0.3482269923679737
  0.5875869251090675  0.3737628708898686  0.8322808800199845
  0.5909795531071691  0.8732661071960818  0.3459197942658637
  0.5904884686121218  0.8741045613968245  0.8450866792956283
  0.8429154563396724  0.0203257738229838  0.1465139044926679
  0.8447704282327905  0.0227911326466889  0.6438530780087227
  0.8406279060690646  0.5217770066179931  0.1441698794004261
  0.8450637450649306  0.5234339768907712  0.6497925412305395
  0.3416101168276887  0.2115668220222886  0.0907152210490716
  0.3418080689177806  0.2243748761160629  0.6056455268922555
  0.3431519293469927  0.7336224143620542  0.1067112933707183
  0.3423548675803951  0.7302215480936578  0.6033178084695423
  0.1651565416745852  0.2787127934585862  0.3519185042127631
  0.1601808155800232  0.2752006066912423  0.8527341323975719
  0.1581036680491810  0.7718106663036404  0.3552328864255301
  0.1582191146362349  0.7711882750774848  0.8523051396307452
  0.6586724486295318  0.4793143984344396  0.4046075028073749
  0.6549561713924795  0.4761032363707274  0.8921964987714260
  0.6611446751532627  0.9762637784873346  0.3959691964002544
  0.6623917450383685  0.9746387719395044  0.8979053344464748
  0.1580430591215664  0.4820354915809335  0.3542810320919637
  0.1579127549544668  0.4800101602436461  0.8492755250845326
  0.1584611095477775  0.9767264273013163  0.3544063548134066
  0.1596292826157048  0.9758841774582476  0.8551919720491589
  0.6592580979414243  0.2736774156454457  0.4024176772825169
  0.6556374372422510  0.2704577565382085  0.8773334734959121
  0.6597343062280298  0.7709273617887699  0.4002151267902518
  0.6583759344300649  0.7694870885735204  0.8942562190859595
  0.8581986622452196  0.2259778083499063  0.1514914850899927
  0.8467452468437351  0.2277514619764253  0.6472787892587502
  0.8378823911021750  0.7274939287408086  0.1461039064015149
  0.8431000551466119  0.7282661168088833  0.6463384538543067
  0.3398663723348732  0.0090475049186119  0.1102841957451622
  0.3429916761934536  0.0194917255204057  0.6036523457996809
  0.3293703318303877  0.5311754172978417  0.1002583431216617
  0.3409239578985773  0.5255610170508062  0.6005937079190459
  0.5479369174839779  0.1077828238235941  0.1079269318818581
  0.5500623202015871  0.1232083191419033  0.5987197048437443
  0.5454947871119753  0.6236365510661543  0.0978777147640280
  0.5496647889785812  0.6275831017736799  0.6047749405406403
  0.0560845538186912  0.1131660131191993  0.1412328007379087
  0.0536073977770191  0.1245759153014462  0.6509112275568606
  0.0463785725408475  0.6284734899377465  0.1505280141196808
  0.0519267398445410  0.6269903895345884  0.6451018087040261
  0.4510883596721690  0.3745522798008404  0.4084941598793277
  0.4454860761905859  0.3748012233054988  0.8651548047720834
  0.4527357288732952  0.8741794098110568  0.3976415047564831
  0.4523124347345385  0.8737987106384598  0.8964328766338799
  0.9522665465948011  0.3763253962342608  0.3524432503265523
  0.9510277211248335  0.3756791728541619  0.8566950066186210
  0.9500643119656492  0.8737713863914464  0.3527528515980377
  0.9506432884373027  0.8743864921143449  0.8497683713036265
  0.5865508273397256  0.3797318401849183  0.1972464058408026
  0.5982156635997102  0.3798920010083056  0.6760020633058993
  0.5928880206232793  0.8699729200428848  0.1901210303157605
  0.5913124112907144  0.8753388630358634  0.6885041376658344
  0.0962058763553442  0.3811716179355400  0.0608160204101071
  0.0907042936091292  0.3764653007385175  0.5612155750982998
  0.0867216245795074  0.8711250544756208  0.0602335310341550
  0.0889216056638188  0.8751994541489256  0.5617658530030096
  0.4058103342373517  0.1234642652766989  0.3108939145749635
  0.4153190947680457  0.1211743986861696  0.8112463250348965
  0.4119353320076278  0.6255260841949660  0.3098686696976132
  0.4085619450286684  0.6259881824693637  0.8109639481856482
  0.9176573576528105  0.1265681926978003  0.4387973010509273
  0.9111106613757869  0.1229968553796121  0.9386342701273294
  0.9093714097588498  0.6242160198118496  0.4390772616451099
  0.9110847868646993  0.6259463047916144  0.9389630205493213
 
             NaN             NaN             NaN
             NaN             NaN             NaN
             NaN             NaN             NaN
             NaN             NaN             NaN
             NaN             NaN             NaN
             NaN             NaN             NaN
             NaN             NaN             NaN
             NaN             NaN             NaN
             NaN             NaN             NaN
             NaN             NaN             NaN
             NaN             NaN             NaN
             NaN             NaN             NaN
             NaN             NaN             NaN
             NaN             NaN             NaN
             NaN             NaN             NaN
             NaN             NaN             NaN
             NaN             NaN             NaN
             NaN             NaN             NaN
             NaN             NaN             NaN
             NaN             NaN             NaN
             NaN             NaN             NaN
             NaN             NaN             NaN
             NaN             NaN             NaN
             NaN             NaN             NaN
             NaN             NaN             NaN
             NaN             NaN             NaN
             NaN             NaN             NaN
             NaN             NaN             NaN
             NaN             NaN             NaN
             NaN             NaN             NaN
             NaN             NaN             NaN
             NaN             NaN             NaN
             NaN             NaN             NaN
             NaN             NaN             NaN
             NaN             NaN             NaN
             NaN             NaN             NaN
             NaN             NaN             NaN
             NaN             NaN             NaN
             NaN             NaN             NaN
             NaN             NaN             NaN
             NaN             NaN             NaN
             NaN             NaN             NaN
             NaN             NaN             NaN
             NaN             NaN             NaN
             NaN             NaN             NaN
             NaN             NaN             NaN
             NaN             NaN             NaN
             NaN             NaN             NaN
             NaN             NaN             NaN
             NaN             NaN             NaN
             NaN             NaN             NaN
             NaN             NaN             NaN
             NaN             NaN             NaN
             NaN             NaN             NaN
             NaN             NaN             NaN
             NaN             NaN             NaN
             NaN             NaN             NaN
             NaN             NaN             NaN
             NaN             NaN             NaN
             NaN             NaN             NaN
             NaN             NaN             NaN
             NaN             NaN             NaN
             NaN             NaN             NaN
             NaN             NaN             NaN
             NaN             NaN             NaN
             NaN             NaN             NaN
             NaN             NaN             NaN
             NaN             NaN             NaN
             NaN             NaN             NaN
             NaN             NaN             NaN
             NaN             NaN             NaN
             NaN             NaN             NaN
             NaN             NaN             NaN
             NaN             NaN             NaN
             NaN             NaN             NaN
             NaN             NaN             NaN
             NaN             NaN             NaN
             NaN             NaN             NaN
             NaN             NaN             NaN
             NaN             NaN             NaN
             NaN             NaN             NaN
             NaN             NaN             NaN
             NaN             NaN             NaN
             NaN             NaN             NaN
             NaN             NaN             NaN
             NaN             NaN             NaN
             NaN             NaN             NaN
             NaN             NaN             NaN
             NaN             NaN             NaN
             NaN             NaN             NaN
             NaN             NaN             NaN
             NaN             NaN             NaN
             NaN             NaN             NaN
             NaN             NaN             NaN
             NaN             NaN             NaN
             NaN             NaN             NaN
             NaN             NaN             NaN
             NaN             NaN             NaN
             NaN             NaN             NaN
             NaN             NaN             NaN
             NaN             NaN             NaN
             NaN             NaN             NaN
             NaN             NaN             NaN
             NaN             NaN             NaN
             NaN             NaN             NaN
             NaN             NaN             NaN
             NaN             NaN             NaN
             NaN             NaN             NaN
             NaN             NaN             NaN
             NaN             NaN             NaN
             NaN             NaN             NaN
             NaN             NaN             NaN
             NaN             NaN             NaN
             NaN             NaN             NaN
             NaN             NaN             NaN
             NaN             NaN             NaN
             NaN             NaN             NaN
             NaN             NaN             NaN
             NaN             NaN             NaN
             NaN             NaN             NaN
             NaN             NaN             NaN
             NaN             NaN             NaN
             NaN             NaN             NaN
             NaN             NaN             NaN
             NaN             NaN             NaN
             NaN             NaN             NaN
