Li46 P16 O64                            
   1.00000000000000     
    10.4261979999999994    0.0098060000000000   -0.0029230000000000
     0.0107770000000000   12.1794940000000000    0.0028800000000000
    -0.0028900000000000    0.0019620000000000    9.8033999999999999
   Li   P    O 
    46    16    64
Direct
  0.4532509787378112  0.3530415554649484  0.0897403410582303
  0.6632382485701718  0.2497626475058167  0.6029777712725709
  0.6657931976394477  0.7492518385085650  0.0982615772560912
  0.6642458112803821  0.7512886123094636  0.5981698383902926
  0.1696038494747484  0.4906908602697872  0.1538755217621058
  0.1646690974059104  0.5014350749857077  0.6522522718040984
  0.1672957139808582  0.9938628922001675  0.1553596059816234
  0.1635964275663473  0.9984852843252604  0.6523401249083222
  0.3354542376239312  0.9997717592646471  0.4047305941123764
  0.3361912903116773  0.9998699448774669  0.9006915309751862
  0.3375349269718775  0.4996092636801487  0.3993784217658655
  0.3359637740469938  0.4981986806718782  0.9060512312128144
  0.8345189023885338  0.2484646645821214  0.3500694254872891
  0.8356556742282515  0.2492253367411698  0.8505914142505434
  0.8368591729863644  0.7482109163881749  0.3482788062003334
  0.8366429779956248  0.7483152327077193  0.8478027085523389
  0.3360500503446099  0.2497818430879255  0.3970235011066237
  0.3306006470649179  0.2482421819089400  0.9005231433214785
  0.3363873441614284  0.7482057538574211  0.4017934754928367
  0.3362103477638349  0.7478234962012918  0.9027394184574377
  0.8359672415566866  0.0004865779313800  0.3504070794252205
  0.8352303281502693  0.0003175153659470  0.8456681071103880
  0.8352466609396398  0.5011831421126971  0.3479096762117925
  0.8353706984847357  0.5014783689908422  0.8480405095914071
  0.6667045438057725  0.4959411427813446  0.0960750699357459
  0.6643913133924300  0.5026057980514806  0.5998515399495179
  0.6659713020338035  0.9959752848827274  0.0953916317930476
  0.6633569329783475  0.9991789304269229  0.5979938930052940
  0.1618785409382927  0.2502523929716569  0.6466215914611241
  0.1652310567952584  0.7484317291381120  0.1516709603386475
  0.1639495803080242  0.7510336815683415  0.6528187885198751
  0.9257236292432954  0.3749319819551467  0.1499822494436795
  0.9183276241696087  0.3757177028089467  0.6494741387658637
  0.9240063599802005  0.8728003600606750  0.1498607103864376
  0.9234169217777780  0.8749868597125994  0.6486574486004945
  0.4209386320126701  0.3752704677583076  0.5998343331500982
  0.4256474623398687  0.8718462533300911  0.1003693719945769
  0.4236544152512003  0.8746664469662657  0.6017031247775266
  0.0794606498313331  0.1264698240764237  0.3466991244794680
  0.0773614024633383  0.1255181132936427  0.8529222878990399
  0.0777036085625860  0.6225540692210398  0.3501486967678050
  0.0775207804134690  0.6242519968415511  0.8518056806133012
  0.5774174367548638  0.1264613302470603  0.3973575876834523
  0.5789682590480816  0.1272650115639386  0.9032966764191631
  0.5767723684060125  0.6248663441143877  0.4003503295235425
  0.5755096222740825  0.6238639210991760  0.8990179816805004
  0.9126247129155384  0.1207537945964414  0.0952919828897479
  0.9122101408993446  0.1241905351333076  0.5952446386028284
  0.9140200727337647  0.6237093999969088  0.0956343994872391
  0.9122696106990946  0.6258747296904723  0.5954644724641551
  0.4115194138233141  0.1188138785665638  0.1546341215897740
  0.4114491867531738  0.1246240952669475  0.6550316473137118
  0.4135980399501653  0.6236864482292190  0.1543307791671305
  0.4111255890570410  0.6252960061503692  0.6549099916050295
  0.0869080185952077  0.3741744474157883  0.4095036461312350
  0.0857741423764459  0.3760284769895602  0.9020621538211238
  0.0882389861314799  0.8737655649531927  0.4049979708840277
  0.0880741920879694  0.8744889288836909  0.9049986248117993
  0.5909529584111631  0.3762030506256950  0.3501883627680493
  0.5883753721452700  0.3740072667611060  0.8393598790552251
  0.5887393992731895  0.8746408286361284  0.3455558587426503
  0.5886623148936833  0.8741092970752042  0.8450372700694337
  0.8385288469958888  0.0203908970987263  0.1477019048771923
  0.8412568745110943  0.0209577851038149  0.6464026495825925
  0.8427208622541085  0.5213957395253024  0.1477114865127267
  0.8410831507176592  0.5237615399571738  0.6483907714343542
  0.3528024482558888  0.2238819205141591  0.0957544236856902
  0.3411775397649335  0.2280322000422474  0.6031341093774546
  0.3434470145983732  0.7281088211284342  0.1036932830249444
  0.3409652672337779  0.7292470779361293  0.6042506334842285
  0.1562582047805169  0.2673447141111099  0.3730900025318261
  0.1550095418172022  0.2720545416389880  0.8506233781877730
  0.1579595219823266  0.7701138981437375  0.3533100642173795
  0.1584790071316060  0.7711275925246812  0.8537549828252187
  0.6602198520876847  0.4792922038794573  0.4046503757777507
  0.6576812884331770  0.4764042682914288  0.8947350020123340
  0.6583045447031617  0.9781021378226349  0.3972414957210781
  0.6591817451817126  0.9771107656591786  0.8967062239637386
  0.1592121646546396  0.4748392015115129  0.3543505094793262
  0.1585647153871454  0.4778854325064495  0.8491599350252313
  0.1592830045637379  0.9766029062562247  0.3537157209616434
  0.1581527054405212  0.9777524200180132  0.8536107735052492
  0.6598309286069356  0.2724139982914986  0.4030060126350858
  0.6581506068794036  0.2685734883026981  0.8803898857449732
  0.6592759277732668  0.7713408364633885  0.3972416615087744
  0.6588724652767064  0.7705298110449756  0.8965361380458334
  0.8571211269188354  0.2274544040252517  0.1537195921615438
  0.8419995820980236  0.2274761432298367  0.6469881595333002
  0.8442692101048638  0.7276184361920224  0.1474268025915742
  0.8419699172619683  0.7297682714104042  0.6457879771365070
  0.3397765996503561  0.0165943750447355  0.1038545685630667
  0.3410001016609385  0.0211458900596172  0.6037608400736143
  0.3438527620002038  0.5211317839320864  0.1021990668463280
  0.3413810033224241  0.5227982783694163  0.6006840312119238
  0.5497424427522237  0.1153358427749690  0.1022707294729796
  0.5500195034667941  0.1243416050347588  0.6018666760585413
  0.5528203743473119  0.6245035475350204  0.1022275725042880
  0.5504504876865587  0.6268273109393073  0.6040459635642851
  0.0504848631988481  0.1144018912781601  0.1481994019050436
  0.0505545226831284  0.1237035655375278  0.6491658555876035
  0.0532425573680788  0.6224562938573590  0.1471374938307299
  0.0509915219820211  0.6262849091333668  0.6481223666104516
  0.4509597624711041  0.3745821263293766  0.4001650655102023
  0.4496522806242166  0.3717802429354073  0.8927847622249501
  0.4496207732891710  0.8744108881195787  0.3973441221829896
  0.4496783161203780  0.8741102178069041  0.8972669061581513
  0.9487847001366011  0.3738163255577606  0.3544339537991150
  0.9471383330967350  0.3757992989232433  0.8479334339839307
  0.9492737940666472  0.8747309955903730  0.3523885652290344
  0.9489690039974277  0.8747396194461493  0.8530140117684073
  0.5953758080995626  0.3790896993246048  0.1948141442424135
  0.5868295672733573  0.3791159134692029  0.6822664061633679
  0.5902412761550722  0.8742158896098333  0.1881372518622662
  0.5891558159834720  0.8747620364752806  0.6878430952283092
  0.0835904503492670  0.3795099643395918  0.0574080315175632
  0.0835906483047606  0.3801090014206937  0.5668135715259448
  0.0886955286664770  0.8738989964070421  0.0624285077304091
  0.0886383560135277  0.8742022869335323  0.5622115515887223
  0.4091811616818701  0.1221467289923383  0.3112013797198415
  0.4109056285462440  0.1243811098043002  0.8122102030606925
  0.4126592475949774  0.6243956937305347  0.3119085665972477
  0.4095235018760772  0.6232933642791277  0.8122118609714434
  0.9123418461565401  0.1240241895835917  0.4381240699526289
  0.9096329442663823  0.1231321654214328  0.9389958470524099
  0.9122031275322857  0.6244471633390218  0.4381432832318388
  0.9120789737003845  0.6242887910911035  0.9382502527789303
 
             NaN             NaN             NaN
             NaN             NaN             NaN
             NaN             NaN             NaN
             NaN             NaN             NaN
             NaN             NaN             NaN
             NaN             NaN             NaN
             NaN             NaN             NaN
             NaN             NaN             NaN
             NaN             NaN             NaN
             NaN             NaN             NaN
             NaN             NaN             NaN
             NaN             NaN             NaN
             NaN             NaN             NaN
             NaN             NaN             NaN
             NaN             NaN             NaN
             NaN             NaN             NaN
             NaN             NaN             NaN
             NaN             NaN             NaN
             NaN             NaN             NaN
             NaN             NaN             NaN
             NaN             NaN             NaN
             NaN             NaN             NaN
             NaN             NaN             NaN
             NaN             NaN             NaN
             NaN             NaN             NaN
             NaN             NaN             NaN
             NaN             NaN             NaN
             NaN             NaN             NaN
             NaN             NaN             NaN
             NaN             NaN             NaN
             NaN             NaN             NaN
             NaN             NaN             NaN
             NaN             NaN             NaN
             NaN             NaN             NaN
             NaN             NaN             NaN
             NaN             NaN             NaN
             NaN             NaN             NaN
             NaN             NaN             NaN
             NaN             NaN             NaN
             NaN             NaN             NaN
             NaN             NaN             NaN
             NaN             NaN             NaN
             NaN             NaN             NaN
             NaN             NaN             NaN
             NaN             NaN             NaN
             NaN             NaN             NaN
             NaN             NaN             NaN
             NaN             NaN             NaN
             NaN             NaN             NaN
             NaN             NaN             NaN
             NaN             NaN             NaN
             NaN             NaN             NaN
             NaN             NaN             NaN
             NaN             NaN             NaN
             NaN             NaN             NaN
             NaN             NaN             NaN
             NaN             NaN             NaN
             NaN             NaN             NaN
             NaN             NaN             NaN
             NaN             NaN             NaN
             NaN             NaN             NaN
             NaN             NaN             NaN
             NaN             NaN             NaN
             NaN             NaN             NaN
             NaN             NaN             NaN
             NaN             NaN             NaN
             NaN             NaN             NaN
             NaN             NaN             NaN
             NaN             NaN             NaN
             NaN             NaN             NaN
             NaN             NaN             NaN
             NaN             NaN             NaN
             NaN             NaN             NaN
             NaN             NaN             NaN
             NaN             NaN             NaN
             NaN             NaN             NaN
             NaN             NaN             NaN
             NaN             NaN             NaN
             NaN             NaN             NaN
             NaN             NaN             NaN
             NaN             NaN             NaN
             NaN             NaN             NaN
             NaN             NaN             NaN
             NaN             NaN             NaN
             NaN             NaN             NaN
             NaN             NaN             NaN
             NaN             NaN             NaN
             NaN             NaN             NaN
             NaN             NaN             NaN
             NaN             NaN             NaN
             NaN             NaN             NaN
             NaN             NaN             NaN
             NaN             NaN             NaN
             NaN             NaN             NaN
             NaN             NaN             NaN
             NaN             NaN             NaN
             NaN             NaN             NaN
             NaN             NaN             NaN
             NaN             NaN             NaN
             NaN             NaN             NaN
             NaN             NaN             NaN
             NaN             NaN             NaN
             NaN             NaN             NaN
             NaN             NaN             NaN
             NaN             NaN             NaN
             NaN             NaN             NaN
             NaN             NaN             NaN
             NaN             NaN             NaN
             NaN             NaN             NaN
             NaN             NaN             NaN
             NaN             NaN             NaN
             NaN             NaN             NaN
             NaN             NaN             NaN
             NaN             NaN             NaN
             NaN             NaN             NaN
             NaN             NaN             NaN
             NaN             NaN             NaN
             NaN             NaN             NaN
             NaN             NaN             NaN
             NaN             NaN             NaN
             NaN             NaN             NaN
             NaN             NaN             NaN
             NaN             NaN             NaN
             NaN             NaN             NaN
             NaN             NaN             NaN
             NaN             NaN             NaN
