Li17 Co18 O36                           
   1.00000000000000     
     8.0557280000000002   -0.0035030000000000    2.3736009999999998
     3.6800970000000000    7.1672200000000004    2.3705020000000001
    -0.0129210000000000   -0.0041040000000000    9.8886179999999992
   Li   Co   O 
    17    18    36
Direct
  0.2860407004048712  0.5191691269800082  0.5196909717675052
  0.3339775828826383  0.3336853021747695  1.0000317237704228
  0.3321203085559467  0.6674971456979167  0.9991573950987064
  0.3320148786422932  0.9999574573123601  0.5032186024600508
  0.3384038498568164  0.9979117195619789  0.9966336835804301
  0.6609265626017706  0.3375767109148245  0.5068529806533431
  0.6654237435508760  0.3359764134221011  0.9966541134971212
  0.6480132382363901  0.6641748021697556  0.5046842500847037
  0.6655943142991292  0.6696047775829425  0.9976137083841515
  0.6481727364770545  0.0145954260027562  0.5068979504927167
  0.6653390232242758  0.9989159250347561  0.9960718750124244
  0.0153050729362838  0.3339913221408021  0.5036566978658108
  0.0001859514947772  0.3350924947141629  0.9972525492402085
  0.9737855397979612  0.6763777845932780  0.5023239361849264
  0.0009131164779122  0.6655241097012515  0.9979861142824085
  0.0140573389748454  0.9840537046501138  0.5042616803180475
  0.0018866903712441  0.9998642599036381  0.9939493477472224
  0.1642017895749236  0.1695100002860348  0.2465600255879472
  0.1693487936040165  0.1649269591976371  0.7509717074055660
  0.1644164386578264  0.5016309687248132  0.2469524971908218
  0.1672409560511769  0.4951989064359412  0.7583013267451484
  0.1632099581463159  0.8387780994122774  0.2478525429142864
  0.1692204983632625  0.8293492289333430  0.7508005492618063
  0.4944035031470105  0.1719026752257378  0.2499135124821028
  0.5018018335400189  0.1627742178651293  0.7551750502793113
  0.4968755566770273  0.5052082658478244  0.2477956307985879
  0.5016115569182377  0.4987092293586445  0.7552826940021365
  0.4960675076380197  0.8355680110599645  0.2512728061335935
  0.4998582387779654  0.8310386977969606  0.7542567400600844
  0.8294992494006402  0.1716365518525544  0.2497881565282592
  0.8353976563482164  0.1642167283483082  0.7504523564071715
  0.8304950042203922  0.5009980134356803  0.2485207335819724
  0.8343963200642913  0.4982841499965496  0.7524253483403709
  0.8303279895969090  0.8332549983611133  0.2504846155778230
  0.8339987818831708  0.8296576620460716  0.7512889956033768
  0.2491432533809666  0.2552093356653971  0.3543509866669657
  0.2541023064767698  0.2484479697187519  0.8658482579748483
  0.2469891422360721  0.5960818303836789  0.3469148029059733
  0.2539317980379278  0.5851587128906429  0.8649944736811513
  0.2489904036478252  0.9276825642735860  0.3548379195102539
  0.2520854139124058  0.9192174529193341  0.8624873285479040
  0.5915396658476011  0.2573872046432427  0.3562272503898619
  0.5908767234992186  0.2494674491107538  0.8643694946843679
  0.5866750765999558  0.5871728514081855  0.3571133419512123
  0.5891518975882981  0.5840454020258626  0.8649096262139201
  0.5790946977695057  0.9260359384060153  0.3634446638608463
  0.5890992582071125  0.9165906951338120  0.8640559193638394
  0.9142313459457355  0.2543899611533609  0.3564104132473549
  0.9220708736932660  0.2513881314275593  0.8605714434547572
  0.9202363786221599  0.5787878270914197  0.3630775451982741
  0.9195655879939706  0.5846135352804378  0.8634676219840892
  0.9170867996282278  0.9292961074967396  0.3624688372454806
  0.9211555652653578  0.9175745485459744  0.8604205429331957
  0.0687282781750131  0.0855830234119854  0.1390454553516619
  0.0823244384021962  0.0775795393171735  0.6400657913207595
  0.0766105573065033  0.4155170970104743  0.1370438567309415
  0.0814944979460763  0.4148312020138617  0.6433638755145884
  0.0791325059719969  0.7494762393829922  0.1349858065023014
  0.0814502197345064  0.7380436580038283  0.6430059292367993
  0.4117830686345498  0.0824025370339653  0.1392076927472684
  0.4154253096785447  0.0741971418011172  0.6466404645096993
  0.4112962564044266  0.4155372579129906  0.1384235259315915
  0.4190507906024947  0.4050534410363708  0.6539656112476434
  0.4097103559738083  0.7516474346420687  0.1386610305186886
  0.4151542550654775  0.7446391996794897  0.6465811348606192
  0.7443474817135984  0.0929670968816912  0.1386248406141301
  0.7471686932335422  0.0772939911212491  0.6419512059037847
  0.7449215450389829  0.4134448314533005  0.1393225455745825
  0.7476055238864332  0.4116104191677652  0.6422897603465776
  0.7427771372125056  0.7454121923006026  0.1363092300780962
  0.7450964344663813  0.7446992592518752  0.6423734084726419
 
             NaN             NaN             NaN
             NaN             NaN             NaN
             NaN             NaN             NaN
             NaN             NaN             NaN
             NaN             NaN             NaN
             NaN             NaN             NaN
             NaN             NaN             NaN
             NaN             NaN             NaN
             NaN             NaN             NaN
             NaN             NaN             NaN
             NaN             NaN             NaN
             NaN             NaN             NaN
             NaN             NaN             NaN
             NaN             NaN             NaN
             NaN             NaN             NaN
             NaN             NaN             NaN
             NaN             NaN             NaN
             NaN             NaN             NaN
             NaN             NaN             NaN
             NaN             NaN             NaN
             NaN             NaN             NaN
             NaN             NaN             NaN
             NaN             NaN             NaN
             NaN             NaN             NaN
             NaN             NaN             NaN
             NaN             NaN             NaN
             NaN             NaN             NaN
             NaN             NaN             NaN
             NaN             NaN             NaN
             NaN             NaN             NaN
             NaN             NaN             NaN
             NaN             NaN             NaN
             NaN             NaN             NaN
             NaN             NaN             NaN
             NaN             NaN             NaN
             NaN             NaN             NaN
             NaN             NaN             NaN
             NaN             NaN             NaN
             NaN             NaN             NaN
             NaN             NaN             NaN
             NaN             NaN             NaN
             NaN             NaN             NaN
             NaN             NaN             NaN
             NaN             NaN             NaN
             NaN             NaN             NaN
             NaN             NaN             NaN
             NaN             NaN             NaN
             NaN             NaN             NaN
             NaN             NaN             NaN
             NaN             NaN             NaN
             NaN             NaN             NaN
             NaN             NaN             NaN
             NaN             NaN             NaN
             NaN             NaN             NaN
             NaN             NaN             NaN
             NaN             NaN             NaN
             NaN             NaN             NaN
             NaN             NaN             NaN
             NaN             NaN             NaN
             NaN             NaN             NaN
             NaN             NaN             NaN
             NaN             NaN             NaN
             NaN             NaN             NaN
             NaN             NaN             NaN
             NaN             NaN             NaN
             NaN             NaN             NaN
             NaN             NaN             NaN
             NaN             NaN             NaN
             NaN             NaN             NaN
             NaN             NaN             NaN
             NaN             NaN             NaN
