Mg7 Sc16 Se32                           
   1.00000000000000     
    11.3332230000000003    0.0000000000000000    0.0000000000000000
     0.0000000000000000   11.3332180000000005    0.0000000000000000
     0.0000000000000000    0.0000000000000000   11.3332119999999996
   Mg   Sc   Se
     7    16    32
Direct
  0.4390812514252497  0.4390813196986230  0.4390813444505153
  0.6245509819785100  0.1257236417201420  0.1257235106083402
  0.1257236082259513  0.6245510033485607  0.1257235141247481
  0.1257234908926254  0.1257236101855015  0.6245510209352025
  0.3764857105958094  0.8730387418712513  0.8730385921048939
  0.8730385374316139  0.3764857164921639  0.8730386918964157
  0.8730386235043388  0.8730387493565319  0.3764862010836449
  0.9938693936733295  0.7506452477399618  0.7506456799557745
  0.7506455629491315  0.9938695902391742  0.7506454546211768
  0.7506457011080002  0.7506457205417800  0.9938693629816565
  0.0001526501819784  0.0001526659765682  0.0001525516399171
  0.0051796999662894  0.2489484177526565  0.2489486196614501
  0.2489485024539036  0.0051783693687031  0.2489487174616902
  0.2489485355365520  0.2489483565095538  0.0051802163219906
  0.7513089857680114  0.4999116623991292  0.2548570184820024
  0.7513090718120512  0.2548572192062621  0.4999111548960166
  0.9934151222240444  0.4992961328670043  0.4992954799455320
  0.2548570491206814  0.4999116108838631  0.7513090002606280
  0.2548567877819732  0.7513089543955670  0.4999109801141957
  0.4999115310199150  0.7513090102323072  0.2548566758156249
  0.4992955930730255  0.9934150786129502  0.4992957369389514
  0.4999111149258970  0.2548566822642191  0.7513090358755021
  0.4992956151311964  0.4992956943929790  0.9934149707995235
  0.7583153232106569  0.9931828551362162  0.9931828898853398
  0.9931828074442250  0.7583152613381184  0.9931828890934175
  0.9931828248103399  0.9931826604734435  0.7583152238033875
  0.7599486429459776  0.7599485435494465  0.7599485626876497
  0.2422947777264175  0.0067566483965126  0.0067566394388555
  0.0067566774218483  0.2422948534885965  0.0067566092642918
  0.0067566569866428  0.0067565913132082  0.2422949291199974
  0.2404596179533808  0.2404596780832039  0.2404597056567175
  0.7582566762451327  0.4904869535442142  0.4904865851917516
  0.9923640055002542  0.2574492632666719  0.4918549799266729
  0.9923641012133049  0.4918550443536110  0.2574489349861186
  0.7585200626506776  0.2572192070527286  0.2572189853560668
  0.2396420176982522  0.5089920031659811  0.5089919058241552
  0.0094730482068611  0.7416859076329405  0.5079128282920374
  0.0094730127184451  0.5079126755248293  0.7416858229396235
  0.2405785607371843  0.7423426493725230  0.7423425234707314
  0.2574490465170430  0.9923641098504926  0.4918549531353748
  0.4904864783667560  0.7582566472909458  0.4904865423990445
  0.4918549126868986  0.9923641272488065  0.2574489536018241
  0.2572191910716357  0.7585200913947997  0.2572189072432421
  0.7416856467570999  0.0094730639496690  0.5079128245201220
  0.5089920157464637  0.2396420522604438  0.5089918564644100
  0.5079128361435589  0.0094729111395134  0.7416857877399036
  0.7423424823807504  0.2405786258945768  0.7423425050353258
  0.2574492859447267  0.4918550680669722  0.9923640772630981
  0.4918549588605494  0.2574492303464759  0.9923641269942737
  0.4904868822325285  0.4904865830305871  0.7582565519551296
  0.2572190502249647  0.2572192470592305  0.7585199408875883
  0.7416860298926234  0.5079127731448726  0.0094732506871938
  0.5079128850486272  0.7416859615066900  0.0094728596563034
  0.5089920219079296  0.5089920455492564  0.2396419836594148
  0.7423427268763862  0.7423428574374330  0.2405787223752769
 
             NaN             NaN             NaN
             NaN             NaN             NaN
             NaN             NaN             NaN
             NaN             NaN             NaN
             NaN             NaN             NaN
             NaN             NaN             NaN
             NaN             NaN             NaN
             NaN             NaN             NaN
             NaN             NaN             NaN
             NaN             NaN             NaN
             NaN             NaN             NaN
             NaN             NaN             NaN
             NaN             NaN             NaN
             NaN             NaN             NaN
             NaN             NaN             NaN
             NaN             NaN             NaN
             NaN             NaN             NaN
             NaN             NaN             NaN
             NaN             NaN             NaN
             NaN             NaN             NaN
             NaN             NaN             NaN
             NaN             NaN             NaN
             NaN             NaN             NaN
             NaN             NaN             NaN
             NaN             NaN             NaN
             NaN             NaN             NaN
             NaN             NaN             NaN
             NaN             NaN             NaN
             NaN             NaN             NaN
             NaN             NaN             NaN
             NaN             NaN             NaN
             NaN             NaN             NaN
             NaN             NaN             NaN
             NaN             NaN             NaN
             NaN             NaN             NaN
             NaN             NaN             NaN
             NaN             NaN             NaN
             NaN             NaN             NaN
             NaN             NaN             NaN
             NaN             NaN             NaN
             NaN             NaN             NaN
             NaN             NaN             NaN
             NaN             NaN             NaN
             NaN             NaN             NaN
             NaN             NaN             NaN
             NaN             NaN             NaN
             NaN             NaN             NaN
             NaN             NaN             NaN
             NaN             NaN             NaN
             NaN             NaN             NaN
             NaN             NaN             NaN
             NaN             NaN             NaN
             NaN             NaN             NaN
             NaN             NaN             NaN
             NaN             NaN             NaN
