Na47 P16 S64
1.0
13.935035 -0.005311 0.000010
-0.005343 13.942267 0.000152
0.000035 0.000119 14.294064
Na P S
47 16 64
direct
0.570348 0.747287 0.727904 Na
0.999824 0.250888 0.206630 Na
0.999013 0.250354 0.705941 Na
0.999093 0.750858 0.212025 Na
0.977158 0.752985 0.719367 Na
0.500176 0.249111 0.207167 Na
0.500991 0.249640 0.706632 Na
0.500905 0.749144 0.211637 Na
0.249054 0.999591 0.291812 Na
0.248950 0.998610 0.791734 Na
0.251373 0.500396 0.294192 Na
0.250473 0.502052 0.794034 Na
0.748659 0.998872 0.290144 Na
0.746900 0.976091 0.783029 Na
0.750915 0.501144 0.287769 Na
0.753677 0.523245 0.780738 Na
0.252992 0.999273 0.041726 Na
0.243901 0.998746 0.542867 Na
0.247219 0.499992 0.044606 Na
0.255626 0.502892 0.545566 Na
0.752981 1.000196 0.037908 Na
0.743806 0.998910 0.538488 Na
0.746793 0.500557 0.035042 Na
0.756669 0.499443 0.535793 Na
0.999759 0.247894 0.456011 Na
0.998143 0.254412 0.955052 Na
0.999928 0.747686 0.464952 Na
0.999943 0.754979 0.963341 Na
0.500255 0.252107 0.456740 Na
0.501860 0.245584 0.955345 Na
0.500070 0.752313 0.468868 Na
0.500046 0.745019 0.959619 Na
0.993407 0.997185 0.501778 Na
0.004579 0.010089 0.001204 Na
0.010860 0.494934 0.498718 Na
0.996615 0.503089 0.998148 Na
0.490178 0.003941 0.498857 Na
0.505344 0.995248 0.998434 Na
0.505540 0.503939 0.501916 Na
0.493460 0.491559 0.001493 Na
0.249466 0.250605 0.249922 Na
0.249595 0.251129 0.750015 Na
0.250583 0.749398 0.250699 Na
0.264993 0.749729 0.749596 Na
0.750543 0.249395 0.249171 Na
0.750409 0.248876 0.750500 Na
0.749414 0.750600 0.249955 Na
0.999609 0.000985 0.250085 P
0.999220 0.002843 0.752336 P
0.001069 0.500012 0.249745 P
0.002628 0.499662 0.747621 P
0.499188 0.999828 0.249958 P
0.497557 0.999665 0.747719 P
0.500137 0.499180 0.250297 P
0.500600 0.497831 0.752434 P
0.249917 0.250106 0.000231 P
0.249827 0.250485 0.499576 P
0.250236 0.749269 0.001225 P
0.249795 0.750802 0.499805 P
0.750088 0.249903 0.999814 P
0.750214 0.249511 0.498711 P
0.749742 0.750748 0.002563 P
0.750207 0.749196 0.497191 P
0.154595 0.173945 0.082732 S
0.154156 0.174953 0.581809 S
0.153640 0.675404 0.084120 S
0.155786 0.675269 0.583194 S
0.655498 0.173195 0.082991 S
0.654004 0.175102 0.581191 S
0.655659 0.673289 0.085490 S
0.656219 0.669359 0.576632 S
0.345525 0.325516 0.083066 S
0.345695 0.325558 0.581894 S
0.346218 0.824347 0.083706 S
0.344321 0.827788 0.581216 S
0.844379 0.327357 0.082663 S
0.846190 0.324378 0.581101 S
0.844455 0.826981 0.085911 S
0.843668 0.827586 0.578616 S
0.174178 0.346252 0.417292 S
0.174361 0.346075 0.918505 S
0.172210 0.843910 0.415928 S
0.176225 0.844202 0.917425 S
0.675858 0.345482 0.415672 S
0.674708 0.344357 0.916871 S
0.672491 0.843546 0.414687 S
0.670951 0.846247 0.923541 S
0.325140 0.155105 0.416605 S
0.325131 0.154913 0.917493 S
0.327405 0.656177 0.417484 S
0.325366 0.652160 0.920288 S
0.824855 0.153147 0.416359 S
0.825791 0.154668 0.917874 S
0.827886 0.656359 0.413130 S
0.827433 0.657403 0.920682 S
0.096034 0.424045 0.167085 S
0.101386 0.421929 0.670497 S
0.094626 0.925515 0.166920 S
0.090565 0.922703 0.669752 S
0.594695 0.423419 0.166911 S
0.597057 0.425129 0.668631 S
0.594941 0.924285 0.168133 S
0.587812 0.925283 0.659564 S
0.404808 0.075289 0.166224 S
0.399897 0.077671 0.669584 S
0.404227 0.574752 0.168199 S
0.409054 0.578742 0.670789 S
0.904463 0.077245 0.167770 S
0.901655 0.075260 0.669542 S
0.906198 0.575440 0.166856 S
0.912563 0.573264 0.658526 S
0.075650 0.095592 0.333178 S
0.077961 0.100934 0.829439 S
0.076981 0.595107 0.332477 S
0.074282 0.596220 0.831925 S
0.574400 0.095412 0.332880 S
0.578416 0.092174 0.828935 S
0.575909 0.594352 0.332504 S
0.574926 0.586837 0.842144 S
0.424868 0.404134 0.333583 S
0.422008 0.399621 0.829641 S
0.423014 0.904861 0.332458 S
0.424269 0.904877 0.832582 S
0.925090 0.404860 0.332466 S
0.921614 0.407264 0.828729 S
0.924093 0.905677 0.332516 S
0.926521 0.912057 0.841481 S
