Li15 Fe16 P16 O64                       
   1.00000000000000     
    10.4259269999999997   -0.0019540000000000    0.0053230000000000
    -0.0022580000000000   12.1422740000000005    0.0017800000000000
     0.0031890000000000    0.0016470000000000    9.5212070000000004
   Li   Fe   P    O 
    15    16    16    64
Direct
  0.5162155267249181  0.2847761562764085  0.7347105535447064
  0.4975467678954024  0.4990072829756174  0.2462609091992280
  0.4971112644808816  0.0034278776901979  0.2470833444256884
  0.4963308479041230  0.0066170042877131  0.7579083795625565
  1.0005906719801263  0.2528479375120574  0.5033589548245261
  0.0010209433882849  0.2515376806664766  0.0013827991065276
  0.0060602671856190  0.7450819349782524  0.4965848166136345
  0.0005847722643775  0.7466474850333685  0.9950870386692660
  0.4963799465543498  0.2530782281903510  0.2445242028776453
  0.4982925911846582  0.7456695522566222  0.2495822609876727
  0.4958299192758449  0.7372958820030613  0.7601576865214480
  0.0011532266816534  0.0025470289750822  0.9954350507943576
  0.0061922377261010  0.0052593054832900  0.4967107630190509
  0.0014948138694588  0.4991425040554429  0.0007824788181468
  1.0006344947058228  0.4988392830256134  0.5029369131111899
  0.7797631451581565  0.1276820757912196  0.2631349563012066
  0.7814540918570897  0.1258799599502866  0.7645668454992101
  0.7792317459572097  0.6236122474900831  0.2635039400509200
  0.7782985008621522  0.6232667483468850  0.7632091646795165
  0.2827183276275076  0.1266803127959961  0.4868255919536854
  0.2823050605513818  0.1270396839497652  0.9854965803957044
  0.2845171697573982  0.6242521320074897  0.4895315966957761
  0.2824610437140504  0.6233484990088485  0.9857622850700380
  0.2189455099437617  0.3752919897472752  0.2355008827827843
  0.2224905923907950  0.3764638464703158  0.7392836337882638
  0.2207580690650875  0.8750938734246607  0.2364416670817789
  0.2195143279156835  0.8754832234799456  0.7359573098458444
  0.7168975803687655  0.3764815798127052  0.0122501450742223
  0.7187508651108784  0.3788659955778534  0.5125184312784310
  0.7153103933233766  0.8748242241829405  0.0164564715460879
  0.7196053264683774  0.8752838235413160  0.5087742519336519
  0.5957950097450069  0.1245645218564773  0.0419721308379616
  0.5941405411915931  0.1238047802849693  0.5402762454691810
  0.5959659445011023  0.6278824990499610  0.0422981673938957
  0.5949427732728544  0.6286970390916314  0.5384901157134784
  0.0935790284540962  0.1236546073253513  0.2081636054903815
  0.0938238872286068  0.1248690868900105  0.7075739099001295
  0.0934465733795158  0.6269112978109350  0.2092924935839987
  0.0933998428866591  0.6264720641461583  0.7079526464550351
  0.4048262135349776  0.3739994529861952  0.4564147844580020
  0.4045787046316046  0.3758101461510195  0.9601579137494786
  0.4083317483966547  0.8760584621016143  0.4601665636133436
  0.4053516114029215  0.8754044755034646  0.9585034659790000
  0.9074290726879914  0.3749923407636972  0.2918193741855311
  0.9065466629083482  0.3750173704908518  0.7927781118962935
  0.9046915786935708  0.8756107231885527  0.2939273883525670
  0.8992393779817569  0.8749117383860879  0.7922585910340738
  0.5973724839710935  0.1253309166786756  0.3791794229958256
  0.6007536348967852  0.1207985429647257  0.8812132395686512
  0.5964562260872686  0.6277950107137138  0.3764746961381557
  0.6029694833943864  0.6354944819942840  0.8829671108924684
  0.0966587705755266  0.1228021570211359  0.3697981482709737
  0.0956543778349244  0.1231534716701090  0.8689948878156499
  0.0967239684858949  0.6280931885110076  0.3709099454307568
  0.0954978773954821  0.6274121711560340  0.8694477007009838
  0.4025980802408128  0.3750191227529014  0.1230289518206585
  0.3985275973144338  0.3694200292773471  0.6160527144681003
  0.4032964152888198  0.8756594483344122  0.1202263501353275
  0.4027861444797837  0.8767186249679105  0.6203966199887370
  0.9051671527170687  0.3744237704562649  0.1305265267789012
  0.9035143622528961  0.3753544776637461  0.6310242172175416
  0.9013202793786897  0.8753629429575879  0.1338010575251062
  0.8868410730786961  0.8758489786433500  0.6297014086898933
  0.9551301591944327  0.1221209755094726  0.1473276113979127
  0.9557838907068654  0.1231928189990884  0.6452048640834230
  0.9551127319846809  0.6286300642550741  0.1480812597123928
  0.9556306788320804  0.6279131516885186  0.6455663929120413
  0.4573850903535241  0.1248002583860555  0.1030708888245562
  0.4576788602028050  0.1209196526099770  0.6028662857945710
  0.4572889976940691  0.6259644057082862  0.1029851972726837
  0.4588325398899945  0.6327208777293633  0.5992214680992015
  0.0446713523462800  0.3744359632830886  0.3554981854896984
  0.0441091551796403  0.3744440546279763  0.8551136246268161
  0.0415819129233516  0.8757467332320332  0.3568933759855632
  0.0395732748854583  0.8755513591574585  0.8451105133102110
  0.5438121617091464  0.3755402571338167  0.3963200937483395
  0.5429041960847706  0.3735734292772526  0.9029961238767631
  0.5506899413842973  0.8769237832726240  0.4026906732187276
  0.5430962578207542  0.8762784054055344  0.8970786571038841
  0.6654652397241155  0.0233827370475822  0.1131981533012532
  0.6678189829480947  0.0195539132737758  0.6026371631083675
  0.6664085673915388  0.5253317648951306  0.1072095373583486
  0.6759835303597761  0.5322742595311990  0.6002693775475085
  0.1623444152646915  0.2260297876415394  0.1416229684439500
  0.1632493996640267  0.2272878080696705  0.6416607135289403
  0.1652397956037256  0.7279921189898995  0.1418283302438316
  0.1648653457670895  0.7280645937929708  0.6402334625803049
  0.3358364334372597  0.2721967719961630  0.3856682537964086
  0.3331475795114909  0.2736160657457241  0.8944376835123636
  0.3409371498954407  0.7745162931799138  0.3898942988018111
  0.3343503003521372  0.7736548223676945  0.8922022029714928
  0.8372245685104308  0.4772932784802422  0.3576523177197587
  0.8357852690868204  0.4763631052834044  0.8597733222089806
  0.8293268127246156  0.9749050077650955  0.3641274575388735
  0.8316246553191829  0.9767880966897174  0.8609608690742792
  0.3343414477715750  0.4764021488942293  0.3908490498532057
  0.3261708206331277  0.4744789748133814  0.8994795343113535
  0.3407501892421547  0.9774163730129409  0.3892519304487949
  0.3337111043008275  0.9768564910923834  0.8918056581119499
  0.8353613168573580  0.2739197053906904  0.3592676630782407
  0.8351454959894700  0.2730977456713933  0.8584558554412899
  0.8296033729368958  0.7764914571750379  0.3648053768223457
  0.8326314197582025  0.7725666570335764  0.8604400943137838
  0.6662633871313618  0.2266438736213406  0.1077331623401953
  0.6657140660176617  0.2249380386540513  0.6080277031335459
  0.6647274950606521  0.7286825806018581  0.1166056593905500
  0.6663032239194797  0.7353507750731411  0.6008636940504277
  0.1649786534999147  0.0223140963396046  0.1411285246023050
  0.1653338472166407  0.0236199418999618  0.6393607984447740
  0.1618452087821871  0.5243040825351206  0.1433805381446578
  0.1635422321433191  0.5245736121926473  0.6416335986735510
 
             NaN             NaN             NaN
             NaN             NaN             NaN
             NaN             NaN             NaN
             NaN             NaN             NaN
             NaN             NaN             NaN
             NaN             NaN             NaN
             NaN             NaN             NaN
             NaN             NaN             NaN
             NaN             NaN             NaN
             NaN             NaN             NaN
             NaN             NaN             NaN
             NaN             NaN             NaN
             NaN             NaN             NaN
             NaN             NaN             NaN
             NaN             NaN             NaN
             NaN             NaN             NaN
             NaN             NaN             NaN
             NaN             NaN             NaN
             NaN             NaN             NaN
             NaN             NaN             NaN
             NaN             NaN             NaN
             NaN             NaN             NaN
             NaN             NaN             NaN
             NaN             NaN             NaN
             NaN             NaN             NaN
             NaN             NaN             NaN
             NaN             NaN             NaN
             NaN             NaN             NaN
             NaN             NaN             NaN
             NaN             NaN             NaN
             NaN             NaN             NaN
             NaN             NaN             NaN
             NaN             NaN             NaN
             NaN             NaN             NaN
             NaN             NaN             NaN
             NaN             NaN             NaN
             NaN             NaN             NaN
             NaN             NaN             NaN
             NaN             NaN             NaN
             NaN             NaN             NaN
             NaN             NaN             NaN
             NaN             NaN             NaN
             NaN             NaN             NaN
             NaN             NaN             NaN
             NaN             NaN             NaN
             NaN             NaN             NaN
             NaN             NaN             NaN
             NaN             NaN             NaN
             NaN             NaN             NaN
             NaN             NaN             NaN
             NaN             NaN             NaN
             NaN             NaN             NaN
             NaN             NaN             NaN
             NaN             NaN             NaN
             NaN             NaN             NaN
             NaN             NaN             NaN
             NaN             NaN             NaN
             NaN             NaN             NaN
             NaN             NaN             NaN
             NaN             NaN             NaN
             NaN             NaN             NaN
             NaN             NaN             NaN
             NaN             NaN             NaN
             NaN             NaN             NaN
             NaN             NaN             NaN
             NaN             NaN             NaN
             NaN             NaN             NaN
             NaN             NaN             NaN
             NaN             NaN             NaN
             NaN             NaN             NaN
             NaN             NaN             NaN
             NaN             NaN             NaN
             NaN             NaN             NaN
             NaN             NaN             NaN
             NaN             NaN             NaN
             NaN             NaN             NaN
             NaN             NaN             NaN
             NaN             NaN             NaN
             NaN             NaN             NaN
             NaN             NaN             NaN
             NaN             NaN             NaN
             NaN             NaN             NaN
             NaN             NaN             NaN
             NaN             NaN             NaN
             NaN             NaN             NaN
             NaN             NaN             NaN
             NaN             NaN             NaN
             NaN             NaN             NaN
             NaN             NaN             NaN
             NaN             NaN             NaN
             NaN             NaN             NaN
             NaN             NaN             NaN
             NaN             NaN             NaN
             NaN             NaN             NaN
             NaN             NaN             NaN
             NaN             NaN             NaN
             NaN             NaN             NaN
             NaN             NaN             NaN
             NaN             NaN             NaN
             NaN             NaN             NaN
             NaN             NaN             NaN
             NaN             NaN             NaN
             NaN             NaN             NaN
             NaN             NaN             NaN
             NaN             NaN             NaN
             NaN             NaN             NaN
             NaN             NaN             NaN
             NaN             NaN             NaN
             NaN             NaN             NaN
             NaN             NaN             NaN
             NaN             NaN             NaN
