Li7 Mn16 O32                            
   1.00000000000000     
     8.7309610000000006   -0.0269930000000000    0.0256620000000000
    -0.0252790000000000    8.2138860000000005   -0.0343520000000000
     0.0265400000000000   -0.0309240000000000    8.2138139999999993
   Li   Mn   O 
     7    16    32
Direct
  0.1702421228291703  0.5854782575003398  0.6645273767474638
  0.3632963010601022  0.8747539465231101  0.3752498438288375
  0.8654026450009599  0.8708927016005888  0.8729594160635916
  0.1405093743685172  0.1248873282105789  0.1251172407422844
  0.8654039540195009  0.3770404643070253  0.3791130629669228
  0.6341903416364725  0.1247349811492335  0.6255457547066829
  0.6341907541251263  0.6244570396816375  0.1252703719912850
  0.5059320208268431  0.2516488532578923  0.2503073372130701
  0.2509698934006911  0.4980181957254938  0.2478560078434660
  0.2519182749020800  0.2479083217428538  0.5005663081685319
  0.5012305039437611  0.5009887795857083  0.4999199454916741
  0.5012281395365564  0.7500809324708206  0.7490025679410935
  0.7447132228112207  0.4979674630589409  0.7520280067342006
  0.7521663098215245  0.7486370722364427  0.5013648057544541
  0.2509705554711940  0.0021394188531200  0.7519801965595203
  0.2519195238035981  0.7494321458792440  0.0020964595306026
  0.5059330381422127 -0.0003102706387571  0.9983528737208880
  0.7535590625124770  0.9985316427279910  0.2514685276410472
  0.7509338800306773  0.2481320038144591  0.0018705236480695
  0.9957091698002930  0.2454247366570000  0.7497042238165412
  0.9957108009291009  0.5002981998128431  0.0045782877218540
  0.0011599533866943  0.7496112680979112  0.2522543285329993
  0.0011620424336506  0.9977476757633910  0.5003890729385992
  0.7322120141115999  0.0126703051523571  0.0121802183840339
  0.9961271031503496  0.7328414447231908  0.0155280893177165
  0.9955161684232668  0.0114706888140505  0.7351798822677145
  0.7250925854345601  0.7364657179286107  0.7388701035728507
  0.2819447500738516  0.9913653973080576  0.9897754159873122
  0.9779643100521360  0.2579692619837180  0.9920441422008069
  0.0052210614184263  0.9847942053907831  0.2652061952922969
  0.2819417228187499  0.2602193302043183  0.2586313833795599
  0.7250944253349538  0.5111323394284676  0.5135267652899003
  0.9961238720894628  0.2344722678211449  0.5171553310770253
  0.9955209009659539  0.5148201993422413  0.2385327260591300
  0.7322159010466313  0.2378249588803625  0.2373302999940870
  0.2780812400291479  0.4841465694590095  0.4863090960542822
  0.0027593662019614  0.7652252878203931  0.4847791106964738
  0.9974338247233180  0.4800792025876720  0.7699176894884440
  0.2780772230373656  0.7636850709204909  0.7658501171556544
  0.2250960854295063  0.0121209184335500  0.5128360505859738
  0.4992239347009436  0.7364185937981118  0.5135729324603953
  0.5025021993890288  0.0161030972214019  0.2338936086743456
  0.2250924070362624  0.7371658187680911  0.2378873231686084
  0.7768716238804265  0.9872011518057451  0.4882598431984899
  0.5044186076301265  0.2641997916697339  0.4829658284244669
  0.5049191169197451  0.9862391927368348  0.7648129076556089
  0.7688200456712292  0.2593318629646238  0.7669117482680126
  0.2148702910283632  0.5115121842088873  0.0142841215994550
  0.5291668383300560  0.2369637793633268  0.0130280137093750
  0.4970160098772125  0.5194776064897948  0.7305518507254010
  0.2148668906598239  0.2357142767899549  0.7384907897604076
  0.7688195847456460  0.4830857746637512  0.9906683462256348
  0.5044194952146550  0.7670302805368368  0.9858049539619571
  0.5049142638331953  0.4851817357996080  0.2637512610948801
  0.7768741809616269  0.7617385959812744  0.2627956850224321
 
             NaN             NaN             NaN
             NaN             NaN             NaN
             NaN             NaN             NaN
             NaN             NaN             NaN
             NaN             NaN             NaN
             NaN             NaN             NaN
             NaN             NaN             NaN
             NaN             NaN             NaN
             NaN             NaN             NaN
             NaN             NaN             NaN
             NaN             NaN             NaN
             NaN             NaN             NaN
             NaN             NaN             NaN
             NaN             NaN             NaN
             NaN             NaN             NaN
             NaN             NaN             NaN
             NaN             NaN             NaN
             NaN             NaN             NaN
             NaN             NaN             NaN
             NaN             NaN             NaN
             NaN             NaN             NaN
             NaN             NaN             NaN
             NaN             NaN             NaN
             NaN             NaN             NaN
             NaN             NaN             NaN
             NaN             NaN             NaN
             NaN             NaN             NaN
             NaN             NaN             NaN
             NaN             NaN             NaN
             NaN             NaN             NaN
             NaN             NaN             NaN
             NaN             NaN             NaN
             NaN             NaN             NaN
             NaN             NaN             NaN
             NaN             NaN             NaN
             NaN             NaN             NaN
             NaN             NaN             NaN
             NaN             NaN             NaN
             NaN             NaN             NaN
             NaN             NaN             NaN
             NaN             NaN             NaN
             NaN             NaN             NaN
             NaN             NaN             NaN
             NaN             NaN             NaN
             NaN             NaN             NaN
             NaN             NaN             NaN
             NaN             NaN             NaN
             NaN             NaN             NaN
             NaN             NaN             NaN
             NaN             NaN             NaN
             NaN             NaN             NaN
             NaN             NaN             NaN
             NaN             NaN             NaN
             NaN             NaN             NaN
             NaN             NaN             NaN
