Li7 Mn16 O32                            
   1.00000000000000     
     8.7309610000000006   -0.0269930000000000    0.0256620000000000
    -0.0252790000000000    8.2138860000000005   -0.0343520000000000
     0.0265400000000000   -0.0309240000000000    8.2138139999999993
   Li   Mn   O 
     7    16    32
Direct
  0.1703518602325449  0.5852873067527344  0.6647143040096812
  0.3629092414777491  0.8750369198776190  0.3749633283004266
  0.8650715327293658  0.8714323605897307  0.8725807391112594
  0.1401919227905183  0.1252910388062807  0.1247096225614365
  0.8650709097782444  0.3774186094554448  0.3785666206826165
  0.6338303282488345  0.1250149889722002  0.6252022751761112
  0.6338299416521737  0.6247973183821283  0.1249839575321832
  0.5054986373560444  0.2518944683396214  0.2499605323930517
  0.2505954008455583  0.4984230509654743  0.2474576788142183
  0.2515827184512547  0.2484176360576260  0.5003430796046404
  0.5010529470412343  0.5014210995750989  0.4995285885052608
  0.5010529892978217  0.7504762142830292  0.7485820165656177
  0.7444258926707150  0.4984170897612208  0.7515818711620403
  0.7520054283877653  0.7490512845904816  0.5009465907415090
  0.2505958759301747  0.0025417712566262  0.7515766666439031
  0.2515836183916897  0.7496570714447149  1.0015827547197080
  0.5054976190396270  1.0000420339317764  0.9981042055210319
  0.7531829542932023  0.9989836975278379  0.2510168956324935
  0.7503366966146024  0.2484423976349949  0.0015568621417360
  0.9952915032489837  0.2457519496228739  0.7492844792226596
  0.9952910437910321  0.5007157419274804  0.0042460181700587
  0.0009144968214226  0.7500319251026685  0.2517378530421417
  0.0009152754286643  0.9982615881040169  0.4999658598091942
  0.7317193727210435  0.0130686448535471  0.0118036114122488
  0.9957942619929875  0.7332183017499126  0.0150708407609398
  0.9951366264104589  0.0119130646523368  0.7347255688956965
  0.7248684505065295  0.7369026047552126  0.7384603303110284
  0.2815146990983966  0.9916078902135828  0.9893467128747020
  0.9774120971760962  0.2583274623650508  0.9916781716169535
  0.0049388265532889  0.9852695943388928  0.2647289229775794
  0.2815152054566751  0.2606545350666746  0.2583923178051317
  0.7248678811426649  0.5115395318184099  0.5130977615259090
  0.9957930712022154  0.2349268740201521  0.5167801901287267
  0.9951354087156349  0.5152754657119719  0.2380889984364350
  0.7317194587206129  0.2381958249241559  0.2369314167510211
  0.2778510733608767  0.4845875604647009  0.4859974832235869
  0.0025920677787858  0.7657660786177886  0.4842344826346247
  0.9970225352816414  0.4804594162698042  0.7695383463419844
  0.2778498011439933  0.7640046321546963  0.7654119907403497
  0.2248145947556671  0.0126047574920668  0.5125216237569156
  0.4990996479856488  0.7368414113284056  0.5131562731475853
  0.5020226037681358  0.0164039825295968  0.2335978561399713
  0.2248124976829015  0.7374772538026146  0.2373997478161037
  0.7766111937962094  0.9876240863538445  0.4878217680466573
  0.5040689426057257  0.2645782749471499  0.4826683077114442
  0.5046039353746439  0.9866255182044015  0.7645227879863195
  0.7683602718654996  0.2597039609805084  0.7665435988617859
  0.2143997193454931  0.5117478703652387  0.0138228926870446
  0.5286214259206625  0.2372594404939354  0.0127394641150196
  0.4967745233897466  0.5199097577751147  0.7301042591210539
  0.2143979270903110  0.2361760048314225  0.7382528774047447
  0.7683596308954693  0.4834551761974765  0.9902949114412249
  0.5040691681658552  0.7673318288629870  0.9854239201111458
  0.5046029314048843  0.4854762122607380  0.2633740019682403
  0.7766095720574151  0.7621783924598626  0.2623732842534868
 
             NaN             NaN             NaN
             NaN             NaN             NaN
             NaN             NaN             NaN
             NaN             NaN             NaN
             NaN             NaN             NaN
             NaN             NaN             NaN
             NaN             NaN             NaN
             NaN             NaN             NaN
             NaN             NaN             NaN
             NaN             NaN             NaN
             NaN             NaN             NaN
             NaN             NaN             NaN
             NaN             NaN             NaN
             NaN             NaN             NaN
             NaN             NaN             NaN
             NaN             NaN             NaN
             NaN             NaN             NaN
             NaN             NaN             NaN
             NaN             NaN             NaN
             NaN             NaN             NaN
             NaN             NaN             NaN
             NaN             NaN             NaN
             NaN             NaN             NaN
             NaN             NaN             NaN
             NaN             NaN             NaN
             NaN             NaN             NaN
             NaN             NaN             NaN
             NaN             NaN             NaN
             NaN             NaN             NaN
             NaN             NaN             NaN
             NaN             NaN             NaN
             NaN             NaN             NaN
             NaN             NaN             NaN
             NaN             NaN             NaN
             NaN             NaN             NaN
             NaN             NaN             NaN
             NaN             NaN             NaN
             NaN             NaN             NaN
             NaN             NaN             NaN
             NaN             NaN             NaN
             NaN             NaN             NaN
             NaN             NaN             NaN
             NaN             NaN             NaN
             NaN             NaN             NaN
             NaN             NaN             NaN
             NaN             NaN             NaN
             NaN             NaN             NaN
             NaN             NaN             NaN
             NaN             NaN             NaN
             NaN             NaN             NaN
             NaN             NaN             NaN
             NaN             NaN             NaN
             NaN             NaN             NaN
             NaN             NaN             NaN
             NaN             NaN             NaN
