Li47 P16 O64                            
   1.00000000000000     
    10.4042169999999992    0.0000820000000000   -0.0067070000000000
     0.0000940000000000   12.2023290000000006   -0.0005910000000000
    -0.0063600000000000   -0.0004750000000000    9.7911990000000007
   Li   P    O 
    47    16    64
Direct
  0.6209116294967484  0.2603379796242282  0.0869163334816240
  0.6661599155750233  0.2492846794380534  0.5982855089809144
  0.6649707610884993  0.7515160565683477  0.0972470308797189
  0.6648884039973658  0.7517711463877672  0.5986863350401861
  0.1637030566061627  0.4971768669338703  0.1524970027255325
  0.1640546087009897  0.4991346652833596  0.6525776603517529
  0.1614165814088747  0.9974443425874310  0.1534884720669684
  0.1639849685560582  0.9987891882109718  0.6524557301727314
  0.3351916795855556  0.9998540280602886  0.4023579339491001
  0.3352007025941367  0.0006148108629761  0.9027882640403206
  0.3360984026798905  0.5009018862569082  0.4006980133928475
  0.3363975286723397  0.4979400851780901  0.9074185624600732
  0.8348736071160241  0.2493590924934019  0.3455842393825144
  0.8331094384200232  0.2496263661125436  0.8520320077451811
  0.8363507069244963  0.7489422734503711  0.3484003656729548
  0.8364684714871524  0.7489915988580903  0.8475163365274083
  0.3364890237256950  0.2502703098838104  0.3994383317299491
  0.3361739223369957  0.2528486070786294  0.9069764239008350
  0.3356716697324231  0.7499567978541987  0.4019786898177319
  0.3359197403744589  0.7501499534456308  0.9026714792984244
  0.8363493437000922  0.0018719281681023  0.3487992312824583
  0.8369625067420042  0.0012051045950002  0.8475030756680367
  0.8359394233714891  0.5018616707704643  0.3478026029590826
  0.8349417715328211  0.5015896038386010  0.8487287659973878
  0.6588248963671484  0.4993806527077155  0.0959972172394468
  0.6665921782230141  0.5030341335435597  0.5996232269644840
  0.6653787017709003  0.0001835383477424  0.0986402287960076
  0.6645594669903009  0.9993500793093713  0.5977756452995572
  0.1645132491557462  0.2529873642858398  0.1514249477390541
  0.1637363269890136  0.2511450316655671  0.6524139676674477
  0.1626648172843273  0.7516245368730353  0.1524600311625579
  0.1642873401983288  0.7515672278538618  0.6530652938120718
  0.9193028603743060  0.3752913388295068  0.1472693224415234
  0.9221027259491131  0.3748637773904872  0.6496919142236977
  0.9216866445296529  0.8756720049046326  0.1496673062584632
  0.9231910815701971  0.8752684211183994  0.6484187069248601
  0.4212598193148369  0.3757500604426899  0.6102940970342352
  0.4275074027681687  0.8756750050117690  0.1000954794684961
  0.4240306605411643  0.8753416447877604  0.6012582568091223
  0.0767503876926489  0.1256812702136753  0.3511946077818636
  0.0769429572530409  0.1255627393479458  0.8524012597953888
  0.0771227772148882  0.6247458602932724  0.3511578495320521
  0.0774379374631124  0.6247262535573298  0.8523908806694463
  0.5761169694284647  0.1253781252261939  0.3981734917479427
  0.5763028472995314  0.1224603310057714  0.8956652234973972
  0.5767542310479146  0.6262643915060975  0.4012388281591763
  0.5746849675238461  0.6255032385015384  0.8972560348690439
  0.9108550857910384  0.1261798498728386  0.0957204839805654
  0.9124304043365604  0.1251307827257624  0.5957353771594937
  0.9109826017982492  0.6253323665609662  0.0954765852000034
  0.9132475599116688  0.6256925483484008  0.5955885121913073
  0.4074464685601149  0.1194764829503730  0.1542829396178143
  0.4111586890395895  0.1248722061109166  0.6548149726248946
  0.4111458672692788  0.6293127208665728  0.1546334023557865
  0.4109040429623267  0.6262053639735615  0.6552506944653962
  0.0873122477317930  0.3753226508916148  0.4048328421940495
  0.0860641242287130  0.3752772717492904  0.9048911663803477
  0.0873904849381893  0.8749420811577437  0.4052259181546847
  0.0872490582465952  0.8749696783516144  0.9050825597449260
  0.5889918878027657  0.3775275985761123  0.3506673059918066
  0.5859621637417260  0.3761220198245370  0.8373737652359355
  0.5889289197629266  0.8752885678300661  0.3456333490181419
  0.5891683666969055  0.8749657218750974  0.8449689867974440
  0.8417080955842065  0.0225055224512842  0.1482547619610421
  0.8421804484103085  0.0215520212632583  0.6465055299871930
  0.8389275419107167  0.5228467380818487  0.1465630771743177
  0.8432790687155901  0.5229296480861222  0.6485032038911084
  0.3335740285144468  0.2173874154589627  0.0980606655012808
  0.3413775789274954  0.2277425209596941  0.6015543938073409
  0.3433092826035092  0.7353841423091478  0.1071492971532682
  0.3415335315073282  0.7296699326609907  0.6028227111063188
  0.1574611727615887  0.2721637219877247  0.3530422456225872
  0.1562997054420406  0.2722334675120557  0.8530052135532473
  0.1576308284858476  0.7718893884566492  0.3530947310027354
  0.1582620130103511  0.7717737551941286  0.8544217220339810
  0.6593261422710291  0.4803210940665447  0.4035581788483445
  0.6545409484147855  0.4784124793843031  0.8945471928022726
  0.6585402379949304  0.9787668275635047  0.3976003348955186
  0.6599555915904310  0.9776354303254451  0.8973193084602904
  0.1579948294980545  0.4783902862992369  0.3535066366924699
  0.1565326061132044  0.4782923606234413  0.8531735202100765
  0.1572491875130615  0.9783197218892387  0.3538149360451297
  0.1579332971734937  0.9780331524456098  0.8537429660422563
  0.6581993020683545  0.2729371268602328  0.4001025882994834
  0.6516845910406776  0.2721831849935453  0.8937150799498378
  0.6590754199939305  0.7721801839997987  0.3980454932922346
  0.6586532864334474  0.7712737427940871  0.8962532949588308
  0.8408131460985615  0.2292764631339849  0.1464087583926486
  0.8422780671298865  0.2275911150903422  0.6494272238693150
  0.8415125862547562  0.7289855212901786  0.1471578090321758
  0.8425429550562009  0.7288800043649650  0.6467068250251042
  0.3396595520889149  0.0135653696594238  0.1071320755156143
  0.3417694014896382  0.0213000235733983  0.6026504422141944
  0.3329481265932541  0.5336432401644280  0.0980578189111811
  0.3413538306281650  0.5234119123373280  0.6015936784408678
  0.5461694641625301  0.1204561403195199  0.1001853771090160
  0.5510439168125515  0.1249693310873660  0.6037241251361753
  0.5495185810974673  0.6273270506904842  0.1006605390447700
  0.5509833731102415  0.6266909751789822  0.6050554972580912
  0.0508667505763660  0.1253471708961766  0.1470959125926808
  0.0519930352736337  0.1245943287808549  0.6472184582480505
  0.0501624382694246  0.6246292581705526  0.1480577191987794
  0.0526052203268553  0.6259714318383055  0.6474586816801181
  0.4500892266407157  0.3763408055862482  0.4032060817806968
  0.4432793739239915  0.3761516385565681  0.8722161282511934
  0.4495051440048159  0.8749739323047743  0.3970406985258258
  0.4497978250255421  0.8754585364454918  0.8966161371646895
  0.9478512177764741  0.3756766185428411  0.3527686566100925
  0.9464453163251307  0.3754368484555557  0.8529480709647472
  0.9478778530011990  0.8750835532167051  0.3535931582644889
  0.9484477191238400  0.8748584539280504  0.8515492413476898
  0.5909696940974754  0.3803176708408557  0.1947709670054457
  0.5973853689996880  0.3762789528099775  0.6803809908454538
  0.5912928776542815  0.8751698589163932  0.1881952204042286
  0.5901077061167816  0.8755623362802948  0.6875694182040660
  0.0860050022761307  0.3753472882791226  0.0621537439836185
  0.0882996031912922  0.3751709664328703  0.5623842354057488
  0.0865283768886938  0.8748172055357292  0.0624259449608983
  0.0889760093100773  0.8747459392229827  0.5626572116015932
  0.4096264835300430  0.1233613558120819  0.3117829209022192
  0.4092200926987171  0.1249583440407125  0.8121304544740141
  0.4121955823787561  0.6258943247927101  0.3119514381741540
  0.4083937400127059  0.6257104867692519  0.8125211974588669
  0.9106298127857811  0.1262448784350902  0.4382345474524578
  0.9101382840210733  0.1249185102017223  0.9380159607894761
  0.9117064295642764  0.6251428248041533  0.4381190973113988
  0.9105310356471732  0.6254503902623373  0.9379478584959113
 
             NaN             NaN             NaN
             NaN             NaN             NaN
             NaN             NaN             NaN
             NaN             NaN             NaN
             NaN             NaN             NaN
             NaN             NaN             NaN
             NaN             NaN             NaN
             NaN             NaN             NaN
             NaN             NaN             NaN
             NaN             NaN             NaN
             NaN             NaN             NaN
             NaN             NaN             NaN
             NaN             NaN             NaN
             NaN             NaN             NaN
             NaN             NaN             NaN
             NaN             NaN             NaN
             NaN             NaN             NaN
             NaN             NaN             NaN
             NaN             NaN             NaN
             NaN             NaN             NaN
             NaN             NaN             NaN
             NaN             NaN             NaN
             NaN             NaN             NaN
             NaN             NaN             NaN
             NaN             NaN             NaN
             NaN             NaN             NaN
             NaN             NaN             NaN
             NaN             NaN             NaN
             NaN             NaN             NaN
             NaN             NaN             NaN
             NaN             NaN             NaN
             NaN             NaN             NaN
             NaN             NaN             NaN
             NaN             NaN             NaN
             NaN             NaN             NaN
             NaN             NaN             NaN
             NaN             NaN             NaN
             NaN             NaN             NaN
             NaN             NaN             NaN
             NaN             NaN             NaN
             NaN             NaN             NaN
             NaN             NaN             NaN
             NaN             NaN             NaN
             NaN             NaN             NaN
             NaN             NaN             NaN
             NaN             NaN             NaN
             NaN             NaN             NaN
             NaN             NaN             NaN
             NaN             NaN             NaN
             NaN             NaN             NaN
             NaN             NaN             NaN
             NaN             NaN             NaN
             NaN             NaN             NaN
             NaN             NaN             NaN
             NaN             NaN             NaN
             NaN             NaN             NaN
             NaN             NaN             NaN
             NaN             NaN             NaN
             NaN             NaN             NaN
             NaN             NaN             NaN
             NaN             NaN             NaN
             NaN             NaN             NaN
             NaN             NaN             NaN
             NaN             NaN             NaN
             NaN             NaN             NaN
             NaN             NaN             NaN
             NaN             NaN             NaN
             NaN             NaN             NaN
             NaN             NaN             NaN
             NaN             NaN             NaN
             NaN             NaN             NaN
             NaN             NaN             NaN
             NaN             NaN             NaN
             NaN             NaN             NaN
             NaN             NaN             NaN
             NaN             NaN             NaN
             NaN             NaN             NaN
             NaN             NaN             NaN
             NaN             NaN             NaN
             NaN             NaN             NaN
             NaN             NaN             NaN
             NaN             NaN             NaN
             NaN             NaN             NaN
             NaN             NaN             NaN
             NaN             NaN             NaN
             NaN             NaN             NaN
             NaN             NaN             NaN
             NaN             NaN             NaN
             NaN             NaN             NaN
             NaN             NaN             NaN
             NaN             NaN             NaN
             NaN             NaN             NaN
             NaN             NaN             NaN
             NaN             NaN             NaN
             NaN             NaN             NaN
             NaN             NaN             NaN
             NaN             NaN             NaN
             NaN             NaN             NaN
             NaN             NaN             NaN
             NaN             NaN             NaN
             NaN             NaN             NaN
             NaN             NaN             NaN
             NaN             NaN             NaN
             NaN             NaN             NaN
             NaN             NaN             NaN
             NaN             NaN             NaN
             NaN             NaN             NaN
             NaN             NaN             NaN
             NaN             NaN             NaN
             NaN             NaN             NaN
             NaN             NaN             NaN
             NaN             NaN             NaN
             NaN             NaN             NaN
             NaN             NaN             NaN
             NaN             NaN             NaN
             NaN             NaN             NaN
             NaN             NaN             NaN
             NaN             NaN             NaN
             NaN             NaN             NaN
             NaN             NaN             NaN
             NaN             NaN             NaN
             NaN             NaN             NaN
             NaN             NaN             NaN
             NaN             NaN             NaN
             NaN             NaN             NaN
             NaN             NaN             NaN
             NaN             NaN             NaN
