Li47 P16 O64                            
   1.00000000000000     
    10.4042169999999992    0.0000820000000000   -0.0067070000000000
     0.0000940000000000   12.2023290000000006   -0.0005910000000000
    -0.0063600000000000   -0.0004750000000000    9.7911990000000007
   Li   P    O 
    47    16    64
Direct
  0.6202753186830229  0.2605047084634713  0.0866828704668806
  0.6662854465489055  0.2490636235243084  0.5983427118336809
  0.6649176594560454  0.7516471914483437  0.0973554897580954
  0.6648640539743063  0.7518092773170820  0.5986556494308974
  0.1637366658384197  0.4971825809701158  0.1524640698993635
  0.1640499398515346  0.4990771245681148  0.6524765220511066
  0.1614095113392402  0.9976708641540601  0.1535240461623388
  0.1640022408457880  0.9988626791891563  0.6525606542528803
  0.3351666176540724  0.9999680910432134  0.4023690993276240
  0.3352216988266606  0.0007078488655997  0.9028476499685012
  0.3361808503784860  0.5007341229967980  0.4005909359926917
  0.3364447452713676  0.4978542472652666  0.9073506961146585
  0.8348344580741661  0.2491838002650213  0.3455075974632201
  0.8330910882509425  0.2494357306508810  0.8520640911375970
  0.8363354906852921  0.7490073400191377  0.3484223273907632
  0.8364417614702182  0.7490839310634594  0.8476039286436154
  0.3365650284899760  0.2501866993652430  0.3995102955347690
  0.3361417167551713  0.2527226519041984  0.9068929971244827
  0.3357230450443069  0.7500720565829662  0.4018295885821827
  0.3359568937691219  0.7501960828286535  0.9027179626802539
  0.8363998601489488  0.0019369525166333  0.3488014161105374
  0.8369404964060427  0.0013361560787827  0.8474277352765766
  0.8360454242705695  0.5017030246749568  0.3478202340742422
  0.8349978702058970  0.5014914366998653  0.8488194720179618
  0.6588365556577080  0.4992430408945679  0.0961062001271134
  0.6666915710294471  0.5028769189412936  0.5996058872684394
  0.6654474675574592  1.0003539878594676  0.0986747987870258
  0.6646296396439429  0.9993815284799726  0.5977745822835578
  0.1645612034120936  0.2530317893640940  0.1515127534786293
  0.1638246749639162  0.2509805153560805  0.6524288137249263
  0.1627419601949175  0.7516600548043535  0.1525057543874803
  0.1643223881678281  0.7516855224722379  0.6529784664668155
  0.9192061583400174  0.3751837598303319  0.1472792197088129
  0.9221537947996269  0.3747350109430567  0.6497045351728441
  0.9217273133801163  0.8756742100353117  0.1497521131872936
  0.9231775212181005  0.8753039002520396  0.6484118003307417
  0.4214975723422128  0.3756750676705515  0.6102223791261788
  0.4276858753877729  0.8757729712746842  0.1001287805136353
  0.4240640180980459  0.8753798977170359  0.6012150903407314
  0.0768088074365163  0.1257140270991162  0.3512003177173703
  0.0769044557390932  0.1255273092809658  0.8523611891673055
  0.0772033781497595  0.6247568340947075  0.3512345921259901
  0.0775063521773958  0.6247360777706801  0.8523890127458187
  0.5761424836000337  0.1253418926378193  0.3982020188510489
  0.5761793574001828  0.1224789901559577  0.8958171735938959
  0.5769103472769803  0.6261577395974184  0.4011357851793934
  0.5747220537388359  0.6254761225022786  0.8973335762375622
  0.9107152594483756  0.1261944143941370  0.0956890744390760
  0.9125572373549867  0.1250576841913877  0.5957358930528067
  0.9109871177972563  0.6253018833319430  0.0955001703487371
  0.9132896626949155  0.6256766086928476  0.5956435629987538
  0.4074617536640820  0.1195122404527782  0.1542698515093122
  0.4112127890536351  0.1248113029639881  0.6548647077174852
  0.4111934567892208  0.6292556191043970  0.1545670488341853
  0.4109225301892781  0.6261353185584339  0.6552516351079887
  0.0874619205216380  0.3752175747715909  0.4048019432634336
  0.0861555301923220  0.3752033172483450  0.9049379559800977
  0.0874620186651826  0.8749996857362805  0.4052209615149997
  0.0873421895663910  0.8750423817984618  0.9051213348559316
  0.5891345020080527  0.3773928932067971  0.3506941989557409
  0.5860380731703874  0.3759700771399516  0.8371884693856985
  0.5889913467785478  0.8754035897036344  0.3456567045262554
  0.5890737518090204  0.8750064797376957  0.8449850475940015
  0.8417667944687164  0.0223964847532396  0.1481347595309516
  0.8422360049920163  0.0215025530091233  0.6464554721382656
  0.8388847500404553  0.5228418137953663  0.1466064577106584
  0.8434655991921914  0.5228643961527177  0.6486353606349540
  0.3335748622115016  0.2173850563907651  0.0979585372853158
  0.3414468807051022  0.2276793333582353  0.6016031210655151
  0.3434776958173488  0.7353976666015767  0.1071611817577874
  0.3415949785989069  0.7296325723769210  0.6028273653664495
  0.1577489383509647  0.2721018374285187  0.3531232860395566
  0.1563091740111779  0.2721135667668805  0.8530784602706054
  0.1577319776390292  0.7719710236204469  0.3530478222059225
  0.1583530194012947  0.7718710028302924  0.8543855977741537
  0.6595435473095381  0.4801226864794074  0.4036837570391054
  0.6544500556374214  0.4782399309681186  0.8946448037898135
  0.6586076550002268  0.9788741784339775  0.3976167230098553
  0.6597969515312240  0.9777626745383061  0.8971749571943767
  0.1580558581867976  0.4783134961730141  0.3534183071197410
  0.1566401151315730  0.4782016217250755  0.8532021282640924
  0.1572612908063926  0.9783955558850310  0.3537945082936007
  0.1579627441894975  0.9781514967821717  0.8538260056667618
  0.6582659808714749  0.2727464425613296  0.4000355201669375
  0.6516227498836910  0.2719545316462962  0.8934699080190390
  0.6591010233328543  0.7722783922805200  0.3980787524899608
  0.6585497594805405  0.7713571699825204  0.8964509048777088
  0.8403654626493299  0.2291996963250660  0.1461522296283151
  0.8424413231778767  0.2275153084717411  0.6494394041667172
  0.8414965585242985  0.7289521561021718  0.1471707701772816
  0.8425273026537229  0.7288303267152050  0.6468169100940487
  0.3397727104943685  0.0135171568843117  0.1072926215720066
  0.3417521782151905  0.0212493411191087  0.6027920147027290
  0.3329985846526927  0.5337036978510591  0.0976499020643434
  0.3413894659075993  0.5233303608024459  0.6015751010649595
  0.5461551766367856  0.1205484276825405  0.1001114749660152
  0.5510666103485660  0.1248911415251118  0.6036875986726337
  0.5496530748657545  0.6272651512626888  0.1008413056386468
  0.5510284635638406  0.6265327680654108  0.6050643676409574
  0.0506252845392161  0.1256351041796872  0.1473926658021756
  0.0520790438177999  0.1244712380878312  0.6472801023670387
  0.0501741486075147  0.6246069373921715  0.1480791085137128
  0.0526918449087139  0.6260892653966310  0.6474076120882398
  0.4502327122984279  0.3762596669782485  0.4032441731466863
  0.4432700464437082  0.3760430982785024  0.8716744007810463
  0.4495620301206482  0.8751181517530986  0.3970472747349259
  0.4497028091713720  0.8754632880567934  0.8966104005686723
  0.9480259404523289  0.3754414392823130  0.3526431509618604
  0.9465289309906483  0.3752685232457286  0.8530124533314939
  0.9479394659712486  0.8750610542070580  0.3536268285044037
  0.9485150095511162  0.8750068320765195  0.8516264832942305
  0.5911165221637892  0.3802816052102571  0.1948243582656897
  0.5977995943429986  0.3761434510198428  0.6802431160142196
  0.5914315530192857  0.8752935076280369  0.1882310605772133
  0.5901173197231685  0.8755155216795677  0.6875792932624289
  0.0860882360668188  0.3753878558184759  0.0621999305369140
  0.0883748593138318  0.3750794389109494  0.5623546196838615
  0.0866671738259283  0.8748066547682609  0.0624752626613219
  0.0890476208628857  0.8748314676685874  0.5626472853769573
  0.4096795773774525  0.1234174129795661  0.3117635272710620
  0.4093161690843908  0.1249414405175663  0.8121623561763301
  0.4120689389655715  0.6256973021518963  0.3118859875687870
  0.4084050356313383  0.6256893137846820  0.8125281380872716
  0.9107863860186497  0.1261987571851580  0.4382449793818828
  0.9102328661451733  0.1248313402645747  0.9379968834855594
  0.9116776997114796  0.6250812538646423  0.4381634031103090
  0.9106449414755473  0.6254124829585442  0.9379643206861089
 
             NaN             NaN             NaN
             NaN             NaN             NaN
             NaN             NaN             NaN
             NaN             NaN             NaN
             NaN             NaN             NaN
             NaN             NaN             NaN
             NaN             NaN             NaN
             NaN             NaN             NaN
             NaN             NaN             NaN
             NaN             NaN             NaN
             NaN             NaN             NaN
             NaN             NaN             NaN
             NaN             NaN             NaN
             NaN             NaN             NaN
             NaN             NaN             NaN
             NaN             NaN             NaN
             NaN             NaN             NaN
             NaN             NaN             NaN
             NaN             NaN             NaN
             NaN             NaN             NaN
             NaN             NaN             NaN
             NaN             NaN             NaN
             NaN             NaN             NaN
             NaN             NaN             NaN
             NaN             NaN             NaN
             NaN             NaN             NaN
             NaN             NaN             NaN
             NaN             NaN             NaN
             NaN             NaN             NaN
             NaN             NaN             NaN
             NaN             NaN             NaN
             NaN             NaN             NaN
             NaN             NaN             NaN
             NaN             NaN             NaN
             NaN             NaN             NaN
             NaN             NaN             NaN
             NaN             NaN             NaN
             NaN             NaN             NaN
             NaN             NaN             NaN
             NaN             NaN             NaN
             NaN             NaN             NaN
             NaN             NaN             NaN
             NaN             NaN             NaN
             NaN             NaN             NaN
             NaN             NaN             NaN
             NaN             NaN             NaN
             NaN             NaN             NaN
             NaN             NaN             NaN
             NaN             NaN             NaN
             NaN             NaN             NaN
             NaN             NaN             NaN
             NaN             NaN             NaN
             NaN             NaN             NaN
             NaN             NaN             NaN
             NaN             NaN             NaN
             NaN             NaN             NaN
             NaN             NaN             NaN
             NaN             NaN             NaN
             NaN             NaN             NaN
             NaN             NaN             NaN
             NaN             NaN             NaN
             NaN             NaN             NaN
             NaN             NaN             NaN
             NaN             NaN             NaN
             NaN             NaN             NaN
             NaN             NaN             NaN
             NaN             NaN             NaN
             NaN             NaN             NaN
             NaN             NaN             NaN
             NaN             NaN             NaN
             NaN             NaN             NaN
             NaN             NaN             NaN
             NaN             NaN             NaN
             NaN             NaN             NaN
             NaN             NaN             NaN
             NaN             NaN             NaN
             NaN             NaN             NaN
             NaN             NaN             NaN
             NaN             NaN             NaN
             NaN             NaN             NaN
             NaN             NaN             NaN
             NaN             NaN             NaN
             NaN             NaN             NaN
             NaN             NaN             NaN
             NaN             NaN             NaN
             NaN             NaN             NaN
             NaN             NaN             NaN
             NaN             NaN             NaN
             NaN             NaN             NaN
             NaN             NaN             NaN
             NaN             NaN             NaN
             NaN             NaN             NaN
             NaN             NaN             NaN
             NaN             NaN             NaN
             NaN             NaN             NaN
             NaN             NaN             NaN
             NaN             NaN             NaN
             NaN             NaN             NaN
             NaN             NaN             NaN
             NaN             NaN             NaN
             NaN             NaN             NaN
             NaN             NaN             NaN
             NaN             NaN             NaN
             NaN             NaN             NaN
             NaN             NaN             NaN
             NaN             NaN             NaN
             NaN             NaN             NaN
             NaN             NaN             NaN
             NaN             NaN             NaN
             NaN             NaN             NaN
             NaN             NaN             NaN
             NaN             NaN             NaN
             NaN             NaN             NaN
             NaN             NaN             NaN
             NaN             NaN             NaN
             NaN             NaN             NaN
             NaN             NaN             NaN
             NaN             NaN             NaN
             NaN             NaN             NaN
             NaN             NaN             NaN
             NaN             NaN             NaN
             NaN             NaN             NaN
             NaN             NaN             NaN
             NaN             NaN             NaN
             NaN             NaN             NaN
             NaN             NaN             NaN
             NaN             NaN             NaN
