Mg7 Sc16 Se32
1.0
11.246288 0.000012 -0.000020
0.000012 11.246398 0.000058
-0.000020 0.000051 11.246094
Mg Sc Se
7 16 32
direct
0.530564 0.530593 0.530597 Mg
0.623564 0.126432 0.126440 Mg
0.126429 0.623568 0.126437 Mg
0.126427 0.126433 0.623562 Mg
0.375762 0.874225 0.874216 Mg
0.874217 0.375768 0.874210 Mg
0.874218 0.874236 0.375787 Mg
-0.002024 0.749381 0.749392 Sc
0.749390 -0.002097 0.749400 Sc
0.749402 0.749397 -0.002009 Sc
0.000112 0.000112 0.000113 Sc
0.003994 0.250734 0.250721 Sc
0.250732 0.003985 0.250722 Sc
0.250732 0.250732 0.003972 Sc
0.745545 0.499767 0.252846 Sc
0.745517 0.252944 0.499757 Sc
0.001830 0.499777 0.499773 Sc
0.252932 0.499755 0.745563 Sc
0.252927 0.745518 0.499741 Sc
0.499757 0.745513 0.252821 Sc
0.499769 0.001870 0.499746 Sc
0.499774 0.252868 0.745550 Sc
0.499757 0.499738 0.001889 Sc
0.757498 0.992842 0.992857 Se
0.992847 0.757504 0.992856 Se
0.992842 0.992839 0.757498 Se
0.757728 0.757704 0.757746 Se
0.242307 0.007147 0.007132 Se
0.007139 0.242308 0.007131 Se
0.007138 0.007149 0.242320 Se
0.242129 0.242127 0.242116 Se
0.759011 0.492399 0.492349 Se
0.991545 0.257069 0.492600 Se
0.991560 0.492589 0.257048 Se
0.758793 0.257063 0.257047 Se
0.241425 0.507775 0.507799 Se
0.007847 0.742968 0.507588 Se
0.007848 0.507578 0.742961 Se
0.241621 0.742942 0.742953 Se
0.257057 0.991558 0.492591 Se
0.492376 0.759027 0.492337 Se
0.492579 0.991563 0.257037 Se
0.257051 0.758799 0.257039 Se
0.742948 0.007858 0.507586 Se
0.507769 0.241448 0.507793 Se
0.507586 0.007837 0.742957 Se
0.742956 0.241600 0.742955 Se
0.257050 0.492589 0.991572 Se
0.492584 0.257045 0.991573 Se
0.492385 0.492359 0.759053 Se
0.257058 0.257052 0.758794 Se
0.742945 0.507584 0.007835 Se
0.507578 0.742941 0.007827 Se
0.507772 0.507775 0.241433 Se
0.742948 0.742964 0.241620 Se
