Li46 P16 O64                            
   1.00000000000000     
    10.5824789999999993    0.0019340000000000   -0.0057080000000000
     0.0022540000000000   12.3409340000000007   -0.0025230000000000
    -0.0053850000000000   -0.0020550000000000    9.9890039999999996
   Li   P    O 
    46    16    64
Direct
  0.2983612960233767  0.3595997770863953  0.1453012367326972
  0.6652536935357786  0.2478553623559022  0.6028660276278391
  0.6590532810120786  0.7461997540068563  0.0985754867034399
  0.6634865361991259  0.7506554968965513  0.5996340388814579
  0.1533526104034527  0.5107180403682675  0.1506220598834106
  0.1643646787753851  0.5011596037839333  0.6513168730494904
  0.1661110114429909  0.9944837492643627  0.1532594236497995
  0.1635566567126442  0.9995781152503220  0.6515663801491249
  0.3366205497245630  0.9995995793500253  0.4019686853003160
  0.3371915052487913  0.9990299679290487  0.9005608846631048
  0.3368368101949636  0.5018803657713177  0.4040461055901455
  0.3382603683713171  0.4981726743400715  0.9039689117911299
  0.8358325546258601  0.2496956386887187  0.3475276146864329
  0.8371090674924490  0.2499804194407229  0.8550258801462688
  0.8353205790824408  0.7482874878388093  0.3493585475767253
  0.8356282777629133  0.7489721522986796  0.8487508457505022
  0.3381200197300762  0.2445106457699875  0.4065441414384081
  0.3388070649042962  0.2471335378122224  0.8984714143924180
  0.3368678508497377  0.7481334562751014  0.4009343057438567
  0.3357170088537935  0.7472478881375250  0.9013735413120487
  0.8381467577871432  0.0016493046582809  0.3512820962905885
  0.8360531850797462  0.0010716393279063  0.8462811398845388
  0.8354318765321991  0.4991451520161463  0.3456476042679751
  0.8367018282822919  0.4997221935285212  0.8529212496593696
  0.6587583172320173  0.4874537315246414  0.0932454705325701
  0.6666663001214957  0.5021094034953695  0.5976817924823042
  0.6657286629038556  0.9946759130493711  0.0982301340435070
  0.6641514260833354  0.9983606637483512  0.5985751517337278
  0.1638189481849651  0.2519779809050471  0.6508979878612271
  0.1626268146382745  0.7513575029602615  0.1520405668228150
  0.1638956529068630  0.7518413439250777  0.6508747272182485
  0.9368994462942241  0.3726148452698441  0.1448411577875429
  0.9269936251197004  0.3755126288690108  0.6536232088144110
  0.9237426465701106  0.8728366198152128  0.1490920759844811
  0.9254298820147664  0.8753523886066193  0.6483984147366907
  0.4217010338357354  0.3746274196135805  0.6064007646604379
  0.4259001590008089  0.8703388315584141  0.1014293379508776
  0.4258358104370719  0.8742789169924943  0.6013311948875238
  0.0800802215611598  0.1310918647308846  0.3426197313169941
  0.0776861512096580  0.1274855734037064  0.8555369460503685
  0.0730969582953232  0.6262760213745480  0.3545043070860875
  0.0738850979899575  0.6250565984002006  0.8497879272665281
  0.5761509788621485  0.1243308593365819  0.3945111620449717
  0.5776520731952534  0.1271629208045424  0.9067395955548971
  0.5741472990158061  0.6242374196546879  0.3989508221779434
  0.5736602581393413  0.6215722004592066  0.8982402156071754
  0.9132185199900127  0.1211100741750443  0.0965089633548213
  0.9138789744537370  0.1259380382989974  0.5964574669277736
  0.9071602640558049  0.6257781412186842  0.0969930386351691
  0.9113060538458435  0.6251220421707679  0.5969630590777107
  0.4116893027414715  0.1193008014621796  0.1527695428439716
  0.4126807688061666  0.1225223077686917  0.6540708175113273
  0.4079457270903731  0.6209274781249572  0.1534589259279463
  0.4111979222083192  0.6251449471752109  0.6538543906951717
  0.0911621420006782  0.3758730265616663  0.4040428152250438
  0.0940092272814218  0.3772555150640946  0.9049404826173417
  0.0889805153161925  0.8749600574279101  0.4038580414805735
  0.0882047192597555  0.8747665578027570  0.9031533659613404
  0.5870585426508746  0.3743279957967282  0.3490378810690059
  0.5874252284725342  0.3734677250050358  0.8362178867505911
  0.5889806715371665  0.8733803828686878  0.3467837067109374
  0.5888827021699957  0.8729276584188230  0.8469512931326079
  0.8383771817334834  0.0211407894845765  0.1491088063607716
  0.8422001005971120  0.0226744399131451  0.6461676205071631
  0.8401444727324648  0.5206867042680047  0.1460917291373607
  0.8430884285888193  0.5221090722265586  0.6512526458382105
  0.3484643602689266  0.2212744580217463  0.0928490790555482
  0.3421161756278018  0.2262652570340055  0.6044886393081084
  0.3397484552527759  0.7257487576245626  0.1025362489766814
  0.3414644243865156  0.7287378878147110  0.6029244496779825
  0.1646798643886280  0.2732606878881754  0.3600136505015798
  0.1610533022233667  0.2738396464011235  0.8500815241896275
  0.1591585910658098  0.7713311809293548  0.3534762048824163
  0.1582196785693213  0.7714005447779292  0.8520317029974329
  0.6576935854899919  0.4775945428165048  0.4015420662356916
  0.6569521663885838  0.4741676201443313  0.8945851544958877
  0.6595336599079238  0.9767111800787297  0.3969834642334363
  0.6603408323589052  0.9751499580000847  0.8986698331331643
  0.1601788609574812  0.4792631208579964  0.3503960353501974
  0.1601384541147898  0.4804269683729109  0.8468820554759972
  0.1595661293589413  0.9775681602590276  0.3524985919739321
  0.1589077480455505  0.9777944020759638  0.8528864631893593
  0.6576763719244860  0.2714022170790722  0.4009313233686261
  0.6560008172208415  0.2673067766065216  0.8759500223954562
  0.6585390428642363  0.7702703420339155  0.3992776226745864
  0.6575305453202153  0.7686049566325591  0.8972977513058573
  0.8588087031111231  0.2283767863780655  0.1529432472110017
  0.8441892915455734  0.2292334210740287  0.6485766653256313
  0.8350453065831885  0.7280318125831646  0.1479345018101802
  0.8410917419778570  0.7285895069994329  0.6474866232061340
  0.3395948171960734  0.0162400328813453  0.1036252294731105
  0.3415701364852279  0.0200008608662930  0.6018376954703906
  0.3319307619279321  0.5199270865772829  0.1053955647844755
  0.3411690080981934  0.5225773508092569  0.6008520857341310
  0.5485122035087628  0.1127167767136065  0.1002348599931161
  0.5501068939328241  0.1230969822209989  0.5989670778962090
  0.5451768493405890  0.6188040407875292  0.0980586308780236
  0.5498084958145543  0.6255372007529206  0.6020521212616201
  0.0507493011021400  0.1131642565937215  0.1478854057861982
  0.0515798794360580  0.1252230089667033  0.6507542388468376
  0.0446465505862887  0.6298315482527223  0.1523751241745119
  0.0505363803450141  0.6268259719183716  0.6467356272194582
  0.4481730939161699  0.3735753689541241  0.4020595055940902
  0.4461267383738144  0.3727163856283959  0.8758026353542276
  0.4504645716284327  0.8740172220489746  0.3988699926395277
  0.4504193338911577  0.8731859414141313  0.8994806256376093
  0.9532829091838659  0.3742733888838389  0.3496194780097978
  0.9524782874459831  0.3754677917990387  0.8600566578232354
  0.9505401307040584  0.8743555640530101  0.3506822891532318
  0.9497884197055100  0.8750570752935132  0.8504097190685036
  0.5862392189943748  0.3756959397592181  0.1954537512985598
  0.5925106985748991  0.3789316677724959  0.6795857902296520
  0.5890841589709862  0.8716423546480059  0.1904944588545585
  0.5893290362196666  0.8741638843002647  0.6905948631346883
  0.1042703645479221  0.3818505056970840  0.0601728026638499
  0.0885457548234137  0.3790590970719181  0.5605547884582993
  0.0877043967841502  0.8738712897166054  0.0596001835849327
  0.0887795227178992  0.8754266036567236  0.5600881873302033
  0.4095573769706508  0.1231330161116008  0.3085514158235931
  0.4135002414646929  0.1211218738884641  0.8099300488947888
  0.4108113824042807  0.6232747928215719  0.3098805985455462
  0.4101712941929280  0.6239928887401188  0.8100003756346436
  0.9142254393796646  0.1264679117416288  0.4401487463164441
  0.9097381225792993  0.1228192442361618  0.9407989918048690
  0.9084754367764232  0.6233916487190994  0.4405581881377949
  0.9098995216118817  0.6261205724236830  0.9407051398113951
 
             NaN             NaN             NaN
             NaN             NaN             NaN
             NaN             NaN             NaN
             NaN             NaN             NaN
             NaN             NaN             NaN
             NaN             NaN             NaN
             NaN             NaN             NaN
             NaN             NaN             NaN
             NaN             NaN             NaN
             NaN             NaN             NaN
             NaN             NaN             NaN
             NaN             NaN             NaN
             NaN             NaN             NaN
             NaN             NaN             NaN
             NaN             NaN             NaN
             NaN             NaN             NaN
             NaN             NaN             NaN
             NaN             NaN             NaN
             NaN             NaN             NaN
             NaN             NaN             NaN
             NaN             NaN             NaN
             NaN             NaN             NaN
             NaN             NaN             NaN
             NaN             NaN             NaN
             NaN             NaN             NaN
             NaN             NaN             NaN
             NaN             NaN             NaN
             NaN             NaN             NaN
             NaN             NaN             NaN
             NaN             NaN             NaN
             NaN             NaN             NaN
             NaN             NaN             NaN
             NaN             NaN             NaN
             NaN             NaN             NaN
             NaN             NaN             NaN
             NaN             NaN             NaN
             NaN             NaN             NaN
             NaN             NaN             NaN
             NaN             NaN             NaN
             NaN             NaN             NaN
             NaN             NaN             NaN
             NaN             NaN             NaN
             NaN             NaN             NaN
             NaN             NaN             NaN
             NaN             NaN             NaN
             NaN             NaN             NaN
             NaN             NaN             NaN
             NaN             NaN             NaN
             NaN             NaN             NaN
             NaN             NaN             NaN
             NaN             NaN             NaN
             NaN             NaN             NaN
             NaN             NaN             NaN
             NaN             NaN             NaN
             NaN             NaN             NaN
             NaN             NaN             NaN
             NaN             NaN             NaN
             NaN             NaN             NaN
             NaN             NaN             NaN
             NaN             NaN             NaN
             NaN             NaN             NaN
             NaN             NaN             NaN
             NaN             NaN             NaN
             NaN             NaN             NaN
             NaN             NaN             NaN
             NaN             NaN             NaN
             NaN             NaN             NaN
             NaN             NaN             NaN
             NaN             NaN             NaN
             NaN             NaN             NaN
             NaN             NaN             NaN
             NaN             NaN             NaN
             NaN             NaN             NaN
             NaN             NaN             NaN
             NaN             NaN             NaN
             NaN             NaN             NaN
             NaN             NaN             NaN
             NaN             NaN             NaN
             NaN             NaN             NaN
             NaN             NaN             NaN
             NaN             NaN             NaN
             NaN             NaN             NaN
             NaN             NaN             NaN
             NaN             NaN             NaN
             NaN             NaN             NaN
             NaN             NaN             NaN
             NaN             NaN             NaN
             NaN             NaN             NaN
             NaN             NaN             NaN
             NaN             NaN             NaN
             NaN             NaN             NaN
             NaN             NaN             NaN
             NaN             NaN             NaN
             NaN             NaN             NaN
             NaN             NaN             NaN
             NaN             NaN             NaN
             NaN             NaN             NaN
             NaN             NaN             NaN
             NaN             NaN             NaN
             NaN             NaN             NaN
             NaN             NaN             NaN
             NaN             NaN             NaN
             NaN             NaN             NaN
             NaN             NaN             NaN
             NaN             NaN             NaN
             NaN             NaN             NaN
             NaN             NaN             NaN
             NaN             NaN             NaN
             NaN             NaN             NaN
             NaN             NaN             NaN
             NaN             NaN             NaN
             NaN             NaN             NaN
             NaN             NaN             NaN
             NaN             NaN             NaN
             NaN             NaN             NaN
             NaN             NaN             NaN
             NaN             NaN             NaN
             NaN             NaN             NaN
             NaN             NaN             NaN
             NaN             NaN             NaN
             NaN             NaN             NaN
             NaN             NaN             NaN
             NaN             NaN             NaN
             NaN             NaN             NaN
             NaN             NaN             NaN
             NaN             NaN             NaN
