Li46 P16 O64                            
   1.00000000000000     
    10.5824789999999993    0.0019340000000000   -0.0057080000000000
     0.0022540000000000   12.3409340000000007   -0.0025230000000000
    -0.0053850000000000   -0.0020550000000000    9.9890039999999996
   Li   P    O 
    46    16    64
Direct
  0.3424545434276023  0.3638313346941517  0.1529160926075468
  0.6647502866678804  0.2480377730264842  0.6037913125340917
  0.6602293378786855  0.7465111616449631  0.0985550353693529
  0.6635771873663230  0.7508455252049946  0.5998544701577596
  0.1555488138365829  0.5057011252094571  0.1510396016828399
  0.1640118660642542  0.5012696869178019  0.6516163494244460
  0.1657819376045501  0.9943408746951224  0.1529513474127701
  0.1635097951943416  0.9994751780159845  0.6516683080141489
  0.3364280338347459 -0.0006537836149131  0.4020307562234944
  0.3371853499907178 -0.0008964320392645  0.9006807509148461
  0.3353723505888597  0.5034634483440861  0.4059854818272978
  0.3376002251533711  0.4980375624417293  0.9037193938450785
  0.8360888395844664  0.2494842871878288  0.3479509501066799
  0.8365210815238914  0.2499207369726112  0.8538235876377835
  0.8356131573028103  0.7483630813666143  0.3491603090736038
  0.8358223485497465  0.7487408009816784  0.8487703163997499
  0.3364666472180940  0.2436968599243524  0.4075244749490590
  0.3374799928041111  0.2477039056193143  0.8998963940757400
  0.3367418092066380  0.7485801016922813  0.4011821014252422
  0.3358307894409882  0.7475674255431811  0.9012256772548267
  0.8382802663621688  0.0014979701447819  0.3509123739813446
  0.8360893062995473  0.0010524677346219  0.8463256130936081
  0.8349908361666614  0.4994662818079926  0.3460159323319634
  0.8359233785380008  0.4996099499353736  0.8513734529236704
  0.6584852180834343  0.4872058591432026  0.0937618497209583
  0.6659421289726916  0.5020270508519072  0.5963488353834669
  0.6657459880883906  0.9947833424598630  0.0981676741888520
  0.6641280754564894  0.9985932357479189  0.5985085089460348
  0.1632928536627692  0.2517093953820414  0.6510967069871386
  0.1624989722997191  0.7504263251823095  0.1516230249194803
  0.1636696132210889  0.7516299730925694  0.6508969634299292
  0.9348274020317684  0.3724298683219299  0.1464958235782435
  0.9262497596929444  0.3755153400968761  0.6521851530461277
  0.9239628361953621  0.8726059296182570  0.1489137979786121
  0.9254603573027014  0.8752670246243581  0.6482870305220410
  0.4205601906082948  0.3751389857430185  0.6076825067288385
  0.4261739039787428  0.8705790676204571  0.1013679826378411
  0.4259545006871507  0.8744530047357442  0.6015283383728079
  0.0800187633420065  0.1310985011386435  0.3417867961058647
  0.0772804302749968  0.1271919302449364  0.8562226356291326
  0.0729992590296264  0.6258261326495216  0.3532927849465959
  0.0736445501770478  0.6248108161725578  0.8501634722528425
  0.5756919469648168  0.1240916766089218  0.3939982086286251
  0.5774860322424292  0.1275886099714321  0.9071063003226428
  0.5742763873050848  0.6248805423943465  0.3990136070515860
  0.5739908697109145  0.6218025452483386  0.8983678363349041
  0.9127672379953102  0.1212830412837783  0.0965316359230163
  0.9137331909472548  0.1256666553725443  0.5960660066195940
  0.9076497136722163  0.6246738838457361  0.0969437862252526
  0.9110892142466590  0.6252106313699558  0.5965765453435906
  0.4111448346906503  0.1186176490203882  0.1529916850712143
  0.4125234974376478  0.1228223733566199  0.6542671287295698
  0.4089987443760785  0.6218014748483461  0.1537886913092397
  0.4112271629102263  0.6255322033389281  0.6542755814894987
  0.0908887339334245  0.3758828301830616  0.4046878249273889
  0.0913583610318414  0.3772607830834089  0.9038138088112384
  0.0889926691247478  0.8748403531536404  0.4036450080986989
  0.0882339279594346  0.8745079012452235  0.9031748724990771
  0.5845822810147174  0.3749886975666445  0.3480956947766444
  0.5868344908226832  0.3736472595417650  0.8359509917938849
  0.5892009792505185  0.8735477136301539  0.3468462711307249
  0.5890294709565229  0.8732197187880882  0.8469389213070656
  0.8382960508939218  0.0209061972020642  0.1488049902657885
  0.8421511265452958  0.0224577824077720  0.6459849034953951
  0.8393255129014556  0.5202283235231011  0.1464109026939294
  0.8421763624300918  0.5222771548056597  0.6499356129475600
  0.3481562393948817  0.2208672975976930  0.0934734416333669
  0.3417658300329039  0.2265231374464953  0.6047560874103143
  0.3401335959529187  0.7259089319673530  0.1024057439760666
  0.3414129014358707  0.7290867436003998  0.6032752594465352
  0.1635558996735739  0.2726829223114223  0.3617109209248027
  0.1598234869427286  0.2737379748627758  0.8508586665083434
  0.1590430866371383  0.7711733046600097  0.3531112187473325
  0.1582221060486382  0.7711612857084379  0.8519572362779143
  0.6561720138401699  0.4776410650743458  0.3996485168164078
  0.6565426946655536  0.4742052550395326  0.8946203452194205
  0.6595511740321464  0.9770015039460235  0.3969655217017522
  0.6603310283776285  0.9754874742306768  0.8986808790248452
  0.1599265485832714  0.4792780622867989  0.3515838310036971
  0.1596673394932004  0.4800639714580265  0.8472394815082293
  0.1596084052318101  0.9774544376242231  0.3523538394736945
  0.1589317575506215  0.9776019549065560  0.8530055003410681
  0.6559911712687015  0.2719460833734426  0.3979104211375291
  0.6556804694416452  0.2674650316955313  0.8751887691189558
  0.6588904713266529  0.7705471912807473  0.3993923779840157
  0.6578157809495025  0.7689472026681350  0.8973014851637765
  0.8575845565819679  0.2280342724230749  0.1533905961886327
  0.8435752904116038  0.2289926980301943  0.6472494442361736
  0.8363682114820069  0.7274365073704747  0.1480285036146439
  0.8411109298955722  0.7287152562080077  0.6473641497182699
  0.3394903098107586  0.0154468863037137  0.1039827045362043
  0.3415784768666917  0.0202345744275063  0.6019558424020038
  0.3342322219545757  0.5199436656734961  0.1055795005292117
  0.3408359039060486  0.5230157060038344  0.6016144484780744
  0.5482071080268456  0.1124585922442324  0.1008110710971004
  0.5498851087485768  0.1236129171986325  0.5987811488628763
  0.5463375217183225  0.6196188061534105  0.0989277394692110
  0.5496710496675966  0.6258452809127566  0.6020545660719523
  0.0503521386692758  0.1130192426985796  0.1475576090132865
  0.0512442890916950  0.1251877615991325  0.6509597718144071
  0.0454617865711711  0.6276002091308076  0.1515642074107655
  0.0501331873246136  0.6265504005412217  0.6469378069392067
  0.4455261387579852  0.3740198263387280  0.4013309996980851
  0.4458057923987468  0.3728209542731858  0.8767622058233611
  0.4506759048939803  0.8740887526018850  0.3989385849910763
  0.4505430983502893  0.8733679377354886  0.8993757763927951
  0.9527735813398910  0.3745059709365476  0.3507547837922506
  0.9512450045985008  0.3753693707793530  0.8542275818830970
  0.9505506984469358  0.8743520034249205  0.3505596999556638
  0.9498323165358517  0.8749211238445220  0.8503815715334033
  0.5776790415986983  0.3755882526535692  0.1938422398286890
  0.5916667252770420  0.3793176305067218  0.6792147030620439
  0.5894179650872611  0.8716844543286240  0.1905502815859248
  0.5894775763723171  0.8744620606140251  0.6905759835447380
  0.0959915041073292  0.3823246946384528  0.0583628709081273
  0.0886153620312771  0.3790151332737103  0.5612698821408516
  0.0877597076038792  0.8733846487231670  0.0595850621172270
  0.0889012187073894  0.8752836115676305  0.5599078488561807
  0.4090183521254168  0.1228559685186868  0.3089025297311396
  0.4133025508064316  0.1215341218179540  0.8100795207636534
  0.4109365669064807  0.6237933375360194  0.3101805274707479
  0.4103577006427596  0.6242780420585858  0.8104180911389828
  0.9144509495245384  0.1260166793557762  0.4397878001816580
  0.9091696010172701  0.1231952327941106  0.9407647083160298
  0.9086597564534712  0.6237589274899058  0.4401691548377393
  0.9095531837475744  0.6252473547534209  0.9405834640400458
 
             NaN             NaN             NaN
             NaN             NaN             NaN
             NaN             NaN             NaN
             NaN             NaN             NaN
             NaN             NaN             NaN
             NaN             NaN             NaN
             NaN             NaN             NaN
             NaN             NaN             NaN
             NaN             NaN             NaN
             NaN             NaN             NaN
             NaN             NaN             NaN
             NaN             NaN             NaN
             NaN             NaN             NaN
             NaN             NaN             NaN
             NaN             NaN             NaN
             NaN             NaN             NaN
             NaN             NaN             NaN
             NaN             NaN             NaN
             NaN             NaN             NaN
             NaN             NaN             NaN
             NaN             NaN             NaN
             NaN             NaN             NaN
             NaN             NaN             NaN
             NaN             NaN             NaN
             NaN             NaN             NaN
             NaN             NaN             NaN
             NaN             NaN             NaN
             NaN             NaN             NaN
             NaN             NaN             NaN
             NaN             NaN             NaN
             NaN             NaN             NaN
             NaN             NaN             NaN
             NaN             NaN             NaN
             NaN             NaN             NaN
             NaN             NaN             NaN
             NaN             NaN             NaN
             NaN             NaN             NaN
             NaN             NaN             NaN
             NaN             NaN             NaN
             NaN             NaN             NaN
             NaN             NaN             NaN
             NaN             NaN             NaN
             NaN             NaN             NaN
             NaN             NaN             NaN
             NaN             NaN             NaN
             NaN             NaN             NaN
             NaN             NaN             NaN
             NaN             NaN             NaN
             NaN             NaN             NaN
             NaN             NaN             NaN
             NaN             NaN             NaN
             NaN             NaN             NaN
             NaN             NaN             NaN
             NaN             NaN             NaN
             NaN             NaN             NaN
             NaN             NaN             NaN
             NaN             NaN             NaN
             NaN             NaN             NaN
             NaN             NaN             NaN
             NaN             NaN             NaN
             NaN             NaN             NaN
             NaN             NaN             NaN
             NaN             NaN             NaN
             NaN             NaN             NaN
             NaN             NaN             NaN
             NaN             NaN             NaN
             NaN             NaN             NaN
             NaN             NaN             NaN
             NaN             NaN             NaN
             NaN             NaN             NaN
             NaN             NaN             NaN
             NaN             NaN             NaN
             NaN             NaN             NaN
             NaN             NaN             NaN
             NaN             NaN             NaN
             NaN             NaN             NaN
             NaN             NaN             NaN
             NaN             NaN             NaN
             NaN             NaN             NaN
             NaN             NaN             NaN
             NaN             NaN             NaN
             NaN             NaN             NaN
             NaN             NaN             NaN
             NaN             NaN             NaN
             NaN             NaN             NaN
             NaN             NaN             NaN
             NaN             NaN             NaN
             NaN             NaN             NaN
             NaN             NaN             NaN
             NaN             NaN             NaN
             NaN             NaN             NaN
             NaN             NaN             NaN
             NaN             NaN             NaN
             NaN             NaN             NaN
             NaN             NaN             NaN
             NaN             NaN             NaN
             NaN             NaN             NaN
             NaN             NaN             NaN
             NaN             NaN             NaN
             NaN             NaN             NaN
             NaN             NaN             NaN
             NaN             NaN             NaN
             NaN             NaN             NaN
             NaN             NaN             NaN
             NaN             NaN             NaN
             NaN             NaN             NaN
             NaN             NaN             NaN
             NaN             NaN             NaN
             NaN             NaN             NaN
             NaN             NaN             NaN
             NaN             NaN             NaN
             NaN             NaN             NaN
             NaN             NaN             NaN
             NaN             NaN             NaN
             NaN             NaN             NaN
             NaN             NaN             NaN
             NaN             NaN             NaN
             NaN             NaN             NaN
             NaN             NaN             NaN
             NaN             NaN             NaN
             NaN             NaN             NaN
             NaN             NaN             NaN
             NaN             NaN             NaN
             NaN             NaN             NaN
             NaN             NaN             NaN
             NaN             NaN             NaN
