Li46 P16 O64
1.0
10.581311 0.005786 -0.002559
0.006750 12.337631 -0.000003
-0.002433 -0.000025 9.994100
Li P O
46 16 64
direct
0.473788 0.253590 0.117676 Li
0.665690 0.248511 0.601719 Li
0.664030 0.749915 0.099209 Li
0.664118 0.751416 0.599059 Li
0.166209 0.492832 0.152741 Li
0.164337 0.501112 0.651569 Li
0.163368 0.997138 0.152014 Li
0.163841 0.999139 0.651703 Li
0.336450 0.000910 0.401563 Li
0.336272 0.000907 0.899954 Li
0.337937 0.500037 0.398481 Li
0.337173 0.497426 0.907475 Li
0.837009 0.248148 0.349343 Li
0.835388 0.248917 0.850889 Li
0.837048 0.748880 0.349405 Li
0.836870 0.748953 0.849287 Li
0.337603 0.251541 0.394303 Li
0.335609 0.253380 0.905549 Li
0.336563 0.749629 0.400395 Li
0.336527 0.749515 0.901725 Li
0.837330 0.001174 0.349837 Li
0.837119 0.000994 0.848576 Li
0.836532 0.501409 0.348021 Li
0.834517 0.501561 0.849788 Li
0.656849 0.494836 0.097006 Li
0.666249 0.502824 0.597887 Li
0.665765 0.997227 0.097068 Li
0.664433 0.998984 0.599332 Li
0.163267 0.250904 0.647756 Li
0.163066 0.750055 0.151428 Li
0.164154 0.751632 0.651380 Li
0.925243 0.372698 0.149954 Li
0.922040 0.375952 0.649276 Li
0.925126 0.873944 0.149285 Li
0.926113 0.875198 0.649024 Li
0.424307 0.375641 0.608130 Li
0.429249 0.874984 0.100742 Li
0.425957 0.875250 0.600846 Li
0.077005 0.127621 0.346403 Li
0.075590 0.125996 0.854652 Li
0.075134 0.623819 0.350800 Li
0.074966 0.624875 0.852234 Li
0.575352 0.125283 0.399143 Li
0.574213 0.126973 0.899282 Li
0.574324 0.625354 0.399091 Li
0.572551 0.624646 0.898614 Li
0.910897 0.123358 0.097491 P
0.912774 0.124405 0.597183 P
0.910364 0.623883 0.097442 P
0.912073 0.626286 0.597049 P
0.411318 0.120611 0.152821 P
0.411026 0.125149 0.653557 P
0.409628 0.629161 0.152602 P
0.410900 0.625846 0.653428 P
0.088132 0.375016 0.406973 P
0.085716 0.376337 0.901628 P
0.089020 0.874781 0.403569 P
0.088668 0.874662 0.904121 P
0.591632 0.375458 0.350573 P
0.587876 0.375270 0.838786 P
0.589867 0.875197 0.347076 P
0.589337 0.874995 0.845972 P
0.839258 0.020345 0.147778 O
0.842181 0.021242 0.648107 O
0.838624 0.521377 0.147823 O
0.841725 0.523892 0.649712 O
0.341916 0.220042 0.094050 O
0.342022 0.228550 0.601027 O
0.343836 0.736515 0.106234 O
0.341377 0.729464 0.601786 O
0.158156 0.269735 0.365730 O
0.156023 0.272635 0.852176 O
0.158311 0.770981 0.352581 O
0.159111 0.771522 0.852816 O
0.660639 0.479116 0.402688 O
0.655123 0.477288 0.896736 O
0.659594 0.978455 0.398784 O
0.659433 0.978197 0.897230 O
0.159552 0.476535 0.353450 O
0.157092 0.478550 0.849399 O
0.159523 0.977573 0.352080 O
0.158815 0.978027 0.853467 O
0.660415 0.271543 0.402707 O
0.655147 0.270763 0.888907 O
0.659446 0.771687 0.398603 O
0.658877 0.771541 0.897674 O
0.844956 0.227169 0.151097 O
0.842421 0.227452 0.648722 O
0.841099 0.727980 0.148437 O
0.841811 0.729885 0.647368 O
0.341651 0.016421 0.104304 O
0.341271 0.021848 0.601614 O
0.331546 0.534223 0.096073 O
0.341548 0.522940 0.600317 O
0.548748 0.119656 0.098982 O
0.549948 0.124590 0.601976 O
0.547848 0.625983 0.099522 O
0.549834 0.626336 0.602067 O
0.048485 0.118618 0.149884 O
0.050814 0.124533 0.650592 O
0.048634 0.623348 0.150427 O
0.050533 0.626799 0.649076 O
0.453000 0.375526 0.401917 O
0.445461 0.374538 0.872422 O
0.451133 0.875381 0.398513 O
0.450774 0.875535 0.897848 O
0.950299 0.374598 0.352811 O
0.947423 0.375428 0.847887 O
0.950412 0.875130 0.351347 O
0.950343 0.874799 0.851277 O
0.595689 0.374321 0.196284 O
0.598003 0.377429 0.682644 O
0.591582 0.875024 0.190804 O
0.589999 0.875093 0.689815 O
0.082950 0.379158 0.056526 O
0.086132 0.378782 0.563226 O
0.088335 0.873931 0.060253 O
0.089644 0.875265 0.559820 O
0.411448 0.124150 0.308432 O
0.409364 0.125054 0.809523 O
0.411022 0.625542 0.308913 O
0.409236 0.625312 0.809497 O
0.912540 0.124532 0.441087 O
0.909519 0.124678 0.941249 O
0.911345 0.624997 0.440786 O
0.910391 0.624648 0.941020 O
