Mg15 Mn32 O64
1.0
11.638016 0.000005 -0.000001
0.000004 11.627404 -0.000000
-0.000000 -0.000000 9.370601
Mg Mn O
15 32 64
direct
0.500001 0.504528 0.500041 Mg
0.500001 0.250001 0.751650 Mg
1.000000 0.250000 0.748304 Mg
1.000000 0.749999 0.748174 Mg
1.000000 0.500440 0.501740 Mg
0.000000 -0.000441 0.501741 Mg
0.500000 0.995472 0.500039 Mg
0.246951 0.001623 0.250836 Mg
0.246950 0.498377 0.250837 Mg
0.753049 1.001623 0.250836 Mg
0.753050 0.498377 0.250837 Mg
0.249749 0.250000 -0.000404 Mg
0.252372 0.750000 -0.004519 Mg
0.750251 0.250000 -0.000404 Mg
0.747628 0.750000 -0.004519 Mg
0.124780 0.250000 0.376834 Mn
0.124041 0.750000 0.373330 Mn
0.624761 0.250000 0.378777 Mn
0.627632 0.750000 0.371018 Mn
0.375240 0.250000 0.378778 Mn
0.372368 0.750000 0.371019 Mn
0.875221 0.250000 0.376833 Mn
0.875959 0.750000 0.373330 Mn
0.125069 0.499766 0.872941 Mn
0.125069 1.000233 0.872941 Mn
0.624617 0.500977 0.878090 Mn
0.624616 0.999023 0.878089 Mn
0.375383 0.500978 0.878090 Mn
0.375383 0.999023 0.878089 Mn
0.874931 0.499766 0.872942 Mn
0.874930 1.000233 0.872941 Mn
0.500000 0.125566 0.129069 Mn
0.500000 0.623276 0.125442 Mn
-0.000000 0.125254 0.124056 Mn
0.000000 0.625230 0.121772 Mn
0.500000 0.374436 0.129070 Mn
0.500000 0.876725 0.125443 Mn
0.000000 0.374745 0.124056 Mn
1.000000 0.874769 0.121772 Mn
0.251117 0.375694 0.626090 Mn
0.251591 0.873174 0.622974 Mn
0.748884 0.375694 0.626089 Mn
0.748409 0.873174 0.622974 Mn
0.251117 0.124306 0.626089 Mn
0.251591 0.626826 0.622975 Mn
0.748884 0.124306 0.626088 Mn
0.748409 0.626826 0.622975 Mn
0.137865 0.250000 0.621471 O
0.135861 0.750000 0.619173 O
0.636338 0.250000 0.622528 O
0.641184 0.750000 0.600237 O
0.363664 0.250000 0.622529 O
0.358816 0.750000 0.600237 O
0.862137 0.250000 0.621468 O
0.864139 0.750000 0.619173 O
0.137923 0.499783 0.628902 O
0.137924 0.000217 0.628901 O
0.634975 0.500615 0.630893 O
0.634975 -0.000615 0.630890 O
0.365025 0.500615 0.630891 O
0.365025 -0.000615 0.630890 O
0.862077 0.499783 0.628902 O
0.862077 0.000217 0.628901 O
0.500000 0.112315 0.881485 O
0.500000 0.610475 0.920318 O
-0.000001 0.113370 0.877620 O
0.999999 0.612718 0.876862 O
0.500000 0.387686 0.881486 O
0.499999 0.889526 0.920317 O
1.000000 0.386628 0.877620 O
-0.000000 0.887280 0.876861 O
0.000000 0.363304 0.371931 O
1.000000 0.863557 0.369638 O
0.500000 0.363556 0.373929 O
0.500000 0.864669 0.347835 O
0.000000 0.136695 0.371931 O
0.000000 0.636443 0.369638 O
0.500000 0.136445 0.373928 O
0.500000 0.635331 0.347835 O
0.388045 -0.000831 0.128892 O
0.388045 0.500833 0.128892 O
0.887183 0.000491 0.119602 O
0.887184 0.499508 0.119603 O
0.112816 0.000491 0.119602 O
0.112816 0.499508 0.119603 O
0.611954 0.999168 0.128892 O
0.611955 0.500832 0.128892 O
0.386930 0.250002 0.129814 O
0.389880 0.750000 0.127356 O
0.886665 0.249999 0.128893 O
0.886548 0.750000 0.124563 O
0.113334 0.249999 0.128894 O
0.113452 0.750000 0.124563 O
0.613070 0.250000 0.129814 O
0.610120 0.750000 0.127356 O
0.250123 0.362859 0.380011 O
0.248723 0.863099 0.372869 O
0.749877 0.362859 0.380011 O
0.751277 0.863100 0.372869 O
0.250123 0.137141 0.380010 O
0.248723 0.636901 0.372869 O
0.749877 0.137141 0.380009 O
0.751277 0.636900 0.372870 O
0.250892 0.112995 0.871483 O
0.250440 0.612200 0.871484 O
0.749107 0.112994 0.871482 O
0.749560 0.612200 0.871484 O
0.250893 0.387006 0.871483 O
0.250440 0.887800 0.871483 O
0.749108 0.387005 0.871483 O
0.749559 0.887800 0.871483 O
