Mg7 Sc16 Se32
1.0
11.245854 0.000013 -0.000007
0.000013 11.246036 0.000016
-0.000007 -0.000065 11.245850
Mg Sc Se
7 16 32
direct
0.622685 0.622709 0.622700 Mg
0.622693 0.127291 0.127305 Mg
0.127298 0.622711 0.127298 Mg
0.127296 0.127294 0.622699 Mg
0.374999 0.874999 0.874998 Mg
0.874990 0.374999 0.874999 Mg
0.874993 0.875003 0.375002 Mg
0.000575 0.749427 0.749425 Sc
0.749438 0.000564 0.749439 Sc
0.749436 0.749434 0.000561 Sc
0.000574 0.000572 0.000573 Sc
0.006786 0.250779 0.250760 Sc
0.250784 0.006763 0.250767 Sc
0.250783 0.250785 0.006746 Sc
0.743273 0.499216 0.250778 Sc
0.743252 0.250789 0.499217 Sc
0.006761 0.499218 0.499232 Sc
0.250773 0.499214 0.743261 Sc
0.250782 0.743231 0.499225 Sc
0.499233 0.743192 0.250764 Sc
0.499227 0.006813 0.499232 Sc
0.499228 0.250789 0.743250 Sc
0.499228 0.499208 0.006773 Sc
0.757295 0.992701 0.992706 Se
0.992700 0.757301 0.992703 Se
0.992700 0.992700 0.757297 Se
0.757294 0.757299 0.757295 Se
0.242135 0.006996 0.006978 Se
0.006986 0.242136 0.006980 Se
0.006984 0.006998 0.242143 Se
0.241848 0.241845 0.241818 Se
0.759361 0.492859 0.492858 Se
0.990635 0.257147 0.492856 Se
0.990644 0.492847 0.257140 Se
0.759368 0.257144 0.257140 Se
0.241827 0.508150 0.508181 Se
0.006981 0.743005 0.507857 Se
0.006979 0.507866 0.743019 Se
0.242135 0.743002 0.743018 Se
0.257142 0.990637 0.492850 Se
0.492843 0.759371 0.492854 Se
0.492843 0.990631 0.257142 Se
0.257144 0.759365 0.257143 Se
0.743006 0.007001 0.507857 Se
0.508171 0.241862 0.508176 Se
0.507858 0.007000 0.743018 Se
0.743003 0.242136 0.743016 Se
0.257141 0.492855 0.990637 Se
0.492849 0.257143 0.990637 Se
0.492846 0.492855 0.759370 Se
0.257141 0.257144 0.759368 Se
0.743003 0.507863 0.006984 Se
0.507858 0.742998 0.006982 Se
0.508177 0.508141 0.241830 Se
0.743014 0.743002 0.242141 Se
