Li7 Mn16 O32                            
   1.00000000000000     
     8.0353750000000002   -0.0000510000000000   -0.0000430000000000
    -0.0000450000000000    8.0353230000000000    0.0000790000000000
    -0.0000490000000000    0.0000450000000000    8.0323119999999992
   Li   Mn   O 
     7    16    32
Direct
  0.1885941740474458  0.5614316236996552  0.6886079931167077
  0.8761210309823129  0.8738913941187381  0.8743431388995559
  0.1267969417762289  0.1270436810991062  0.1229270340286094
  0.8761293940317866  0.3756675617021776  0.3761124789229293
  0.3742847816031783  0.8738511756394285  0.3761384157078068
  0.6229137362363492  0.1271133467923340  0.6268329986820460
  0.6229300827301817  0.6231583888167554  0.1228920372659879
  0.4998905921168847  0.2500750372557884  0.2479239115895803
  0.2501268447814674  0.4998410148237994  0.2480303721762747
  0.2503646753091480  0.2482462364205814  0.5000541833323580
  0.5017080121269358  0.4995810156672322  0.5000203584684348
  0.5017113207315206  0.7499845209161317  0.7504330315898158
  0.7480128901404456  0.4998407228071703  0.7501421174578815
  0.7518231674394656  0.7500103726955966  0.5000360823673276
  0.2501254839230795  0.0019756721322262  0.7501502436253953
  0.2503687750187076  0.7499686353177993  1.0017261202026333
  0.4999161405746276  0.0020766976963408  0.9999026230203599
  0.7497417880764131  0.9999417338519472  0.2500831114538922
  0.7478942010976614  0.2500297211988517  0.9999588443782514
  0.0000079729099920  0.2482695052277013  0.7504282818672545
 -0.0000191479256036  0.4995937354404088  1.0017001889467492
  0.9999225523113814  0.7500306552505863  0.2518429310716739
  0.9999127291980631  0.9981457257402879  0.4999718829170716
  0.7378209347827298  0.0121861786440874  0.0123745443088060
  0.0124017433215074  0.7376460376024263  0.0135020624568535
  0.0124283283205707  0.0115468144278803  0.7375781688158763
  0.7384926195018500  0.7376056338221548  0.7375710559799923
  0.2629263842274119  0.9883800720968398  0.9877868630946588
  0.9866251700617791  0.2621308169888156  0.9878974766396983
  0.9876335266313130  0.9877687535718095  0.2622070782783696
  0.2629083565564214  0.2622396869339419  0.2615969034910102
  0.7384861085733421  0.5124704737964876  0.5123691176526104
  0.0124186701534564  0.2364397275237847  0.5123328085843007
  0.0124266820949769  0.5124762903318689  0.2384505612506319
  0.7378000638742581  0.2376143082818079  0.2378341875419615
  0.2649021847775498  0.4851364655262780  0.4858959572205525
  0.9869304755648145  0.7631158004527973  0.4869116984017448
  0.9859075876804168  0.4851290456548095  0.7648017909056778
  0.2649214366334703  0.7641419910219934  0.7647940133715266
  0.2375480481604977  0.0115601439833612  0.5123592190202647
  0.5136068445212915  0.7376146558330857  0.5123480482631135
  0.5122810584069118  0.0122079041301486  0.2378308523757946
  0.2375416598566774  0.7376095174538276  0.2384389443523686
  0.7622084016450024  0.9877871337294492  0.4878041759989570
  0.4879230325185227  0.2621162586477110  0.4865642699324316
  0.4878197243595544  0.9883636731861004  0.7628366696605806
  0.7616903833745930  0.2622342242207399  0.7628397189606392
  0.2349250363275114  0.5151437760447535  0.0124203011336365
  0.5142635974365346  0.2358136066377745  0.0141549220981104
  0.5125246536712569  0.5151013547621728  0.7349531592773161
  0.2349364263839928  0.2375150064606375  0.7349289108759923
  0.7616841085644377  0.4871025310731428  0.9878030276651290
  0.4879349517513473  0.7634570105620204  0.9879036951052937
  0.4878021753906405  0.4871285060312718  0.2616278035444747
  0.7622186518358444  0.7622574977516079  0.2622016561440663
 
             NaN             NaN             NaN
             NaN             NaN             NaN
             NaN             NaN             NaN
             NaN             NaN             NaN
             NaN             NaN             NaN
             NaN             NaN             NaN
             NaN             NaN             NaN
             NaN             NaN             NaN
             NaN             NaN             NaN
             NaN             NaN             NaN
             NaN             NaN             NaN
             NaN             NaN             NaN
             NaN             NaN             NaN
             NaN             NaN             NaN
             NaN             NaN             NaN
             NaN             NaN             NaN
             NaN             NaN             NaN
             NaN             NaN             NaN
             NaN             NaN             NaN
             NaN             NaN             NaN
             NaN             NaN             NaN
             NaN             NaN             NaN
             NaN             NaN             NaN
             NaN             NaN             NaN
             NaN             NaN             NaN
             NaN             NaN             NaN
             NaN             NaN             NaN
             NaN             NaN             NaN
             NaN             NaN             NaN
             NaN             NaN             NaN
             NaN             NaN             NaN
             NaN             NaN             NaN
             NaN             NaN             NaN
             NaN             NaN             NaN
             NaN             NaN             NaN
             NaN             NaN             NaN
             NaN             NaN             NaN
             NaN             NaN             NaN
             NaN             NaN             NaN
             NaN             NaN             NaN
             NaN             NaN             NaN
             NaN             NaN             NaN
             NaN             NaN             NaN
             NaN             NaN             NaN
             NaN             NaN             NaN
             NaN             NaN             NaN
             NaN             NaN             NaN
             NaN             NaN             NaN
             NaN             NaN             NaN
             NaN             NaN             NaN
             NaN             NaN             NaN
             NaN             NaN             NaN
             NaN             NaN             NaN
             NaN             NaN             NaN
             NaN             NaN             NaN
