Li7 Mn16 O32
1.0
8.035375 -0.000051 -0.000043
-0.000045 8.035323 0.000079
-0.000049 0.000045 8.032312
Li Mn O
7 16 32
direct
0.188625 0.561408 0.688587 Li
0.875580 0.874431 0.874436 Li
0.126677 0.126651 0.123318 Li
0.875581 0.375572 0.375564 Li
0.374393 0.874417 0.375574 Li
0.623324 0.126701 0.626698 Li
0.623340 0.623300 0.123296 Li
0.499797 0.250126 0.248607 Mn
0.250076 0.499910 0.249070 Mn
0.250070 0.250589 0.501444 Mn
0.499368 0.499894 0.501419 Mn
0.499370 0.748577 0.750129 Mn
0.749069 0.499910 0.750073 Mn
0.750370 0.750055 0.500033 Mn
0.250068 0.000922 0.750071 Mn
0.250070 0.748557 0.999396 Mn
0.499829 0.001402 0.999846 Mn
0.749836 0.999975 0.250065 Mn
0.748543 0.250115 0.999879 Mn
0.001414 0.250604 0.750128 Mn
0.001416 0.499907 0.999359 Mn
0.999873 0.749975 0.250519 Mn
0.999827 0.999514 0.499997 Mn
0.737804 0.012227 0.012451 O
0.012398 0.737655 0.012524 O
0.012398 0.012327 0.737462 O
0.737714 0.737645 0.737435 O
0.262745 0.987449 0.987396 O
0.987444 0.262640 0.987398 O
0.987653 0.987762 0.262213 O
0.262725 0.262627 0.262507 O
0.737701 0.512610 0.512328 O
0.012403 0.237442 0.512320 O
0.012402 0.512572 0.237688 O
0.737780 0.237537 0.237799 O
0.263209 0.486843 0.486958 O
0.987223 0.762770 0.487271 O
0.987008 0.486823 0.763116 O
0.263226 0.763053 0.763109 O
0.237404 0.012350 0.512325 O
0.512566 0.737642 0.512327 O
0.512415 0.012221 0.237811 O
0.237410 0.737634 0.237674 O
0.762175 0.987816 0.487784 O
0.487417 0.262632 0.487393 O
0.487425 0.987437 0.762664 O
0.762608 0.262633 0.762655 O
0.236139 0.513941 0.013883 O
0.513835 0.236226 0.013738 O
0.513984 0.513904 0.736126 O
0.236142 0.236059 0.736107 O
0.762615 0.487299 0.987397 O
0.487427 0.762628 0.987401 O
0.487419 0.487294 0.262529 O
0.762200 0.762286 0.262194 O
