Li16 Co18 O36                           
   1.00000000000000     
     8.1696709999999992   -0.0032140000000000    2.4350679999999998
     3.7251639999999999    7.2721109999999998    2.4306079999999999
     0.0198860000000000    0.0060910000000000    9.9956920000000000
   Li   Co   O 
    16    18    36
Direct
  0.2422955091189173  0.5057643851095119  0.5225466442370649
  0.3345853340215640  0.3319969626536537  0.0014031915630109
  0.3333792072512875  0.6670854006223308  0.9999589297376943
  0.3334422245951398  0.9999922066437102  0.0006835926876641
  0.3325377636172550 -0.0011904952179213  0.5013522055334667
  0.6673024739303224  0.3333189411960719  0.9992550419534614
  0.6513868908202917  0.3419502354698798  0.4993277523942367
  0.6666880162099499  0.6668622605602100  0.0006463858253115
  0.6662247265640415  0.6665319364213498  0.5012122348621768
  0.6665604377849070  0.9996634902666497  0.0008184471988625
  0.6679605918137337  0.9991300779643543  0.5015442650068210
  0.9994094594533870  0.3324401040908652  0.0009303891367424
  0.0091140086085903  0.3436747117167979  0.4999214159276780
  0.9988123628810592  0.6679061964224771  0.0013190190068433
  0.0003090223017413  0.0003765663210659  0.9991006282347243
  0.0177125876410732  0.9647104701772219  0.4998446678286163
  0.1661449949839139  0.1686275459031272  0.2466783624347134
  0.1683864628516627  0.1646055306313650  0.7527566591581254
  0.1658872087555484  0.5011874937638884  0.2463518524834912
  0.1654792503045712  0.4976199873012727  0.7599237489437042
  0.1659131713412932  0.8364019724369587  0.2464449315798548
  0.1684931838112286  0.8311966664697433  0.7521180265230991
  0.4988496228077758  0.1679361053303493  0.2508796359740716
  0.5004134024352430  0.1645445088542668  0.7528226357558142
  0.5013551793455089  0.5011233440742312  0.2463417549555639
  0.5002724951962668  0.4998739305435960  0.7521736216218410
  0.4989499818729199  0.8335748018646633  0.2506139855123705
  0.4998851017388844  0.8314286855742833  0.7558275595350958
  0.8334459785854573  0.1685901245361694  0.2466182671919129
  0.8347594859674431  0.1657938685917025  0.7494965172498788
  0.8338046527617148  0.5010884838160340  0.2460612177859658
  0.8335532015192204  0.5000149929186760  0.7520056033425281
  0.8331078833680882  0.8336624265041871  0.2506537650350807
  0.8339522067539188  0.8312466318088432  0.7520309336505574
  0.2509453800045238  0.2556367491484574  0.3529436236974465
  0.2546937886027000  0.2494051378532047  0.8638954948857541
  0.2562455549507095  0.5929407254214561  0.3395563386166246
  0.2548780165667597  0.5862972067883868  0.8636261607951575
  0.2512201232064339  0.9259353063932839  0.3521261218975510
  0.2516847894165412  0.9193213155145433  0.8630480552977556
  0.5901563401305526  0.2556836166101757  0.3529927089521478
  0.5890939400008036  0.2520962035527132  0.8593814499596205
  0.5911269158151671  0.5859617476974746  0.3520552185367716
  0.5879936580337581  0.5834119654352384  0.8622606173216190
  0.5858801421258192  0.9206285128150847  0.3595356520429957
  0.5879669240674731  0.9194155984136472  0.8630996511169847
  0.9202334215584050  0.2562124328631732  0.3526217473836897
  0.9202162850295653  0.2522374545539660  0.8590653800036986
  0.9201013141836470  0.5859995420887283  0.3521163221857870
  0.9175117443927364  0.5865077986615695  0.8633728580330436
  0.9200265946855485  0.9260573429976278  0.3522293298439650
  0.9205056719482337  0.9203539091761802  0.8591584418611248
  0.0799077179808487  0.0818858004342470  0.1371933977383812
  0.0824515696574081  0.0775821696470775  0.6434468509944850
  0.0805016392191751  0.4146236784481283  0.1365762342262008
  0.0803781454608475  0.4099464061065085  0.6510824076305952
  0.0772340480272971  0.7491958339532950  0.1386767600883352
  0.0805125912865944  0.7405587747316890  0.6515028991773576
  0.4142509014907436  0.0799211321374175  0.1416008323684187
  0.4148578026722534  0.0729778658967192  0.6497895325664372
  0.4144696954967047  0.4118769502497230  0.1389464218354762
  0.4118283984249413  0.4098194735618766  0.6511874377652085
  0.4144276253213320  0.7490507967269755  0.1386521985906994
  0.4150507076574761  0.7463334964720436  0.6495704240880872
  0.7451605376867241  0.0798808535555460  0.1412230570138671
  0.7468836747722772  0.0775771134796376  0.6432752137188127
  0.7473201332240844  0.4144485299223067  0.1366555148784251
  0.7469133672837672  0.4134755803712556  0.6427904067001585
  0.7453307576718293  0.7490653944195381  0.1410950420006821
  0.7413212067825038  0.7463871830522225  0.6495392344144496
 
             NaN             NaN             NaN
             NaN             NaN             NaN
             NaN             NaN             NaN
             NaN             NaN             NaN
             NaN             NaN             NaN
             NaN             NaN             NaN
             NaN             NaN             NaN
             NaN             NaN             NaN
             NaN             NaN             NaN
             NaN             NaN             NaN
             NaN             NaN             NaN
             NaN             NaN             NaN
             NaN             NaN             NaN
             NaN             NaN             NaN
             NaN             NaN             NaN
             NaN             NaN             NaN
             NaN             NaN             NaN
             NaN             NaN             NaN
             NaN             NaN             NaN
             NaN             NaN             NaN
             NaN             NaN             NaN
             NaN             NaN             NaN
             NaN             NaN             NaN
             NaN             NaN             NaN
             NaN             NaN             NaN
             NaN             NaN             NaN
             NaN             NaN             NaN
             NaN             NaN             NaN
             NaN             NaN             NaN
             NaN             NaN             NaN
             NaN             NaN             NaN
             NaN             NaN             NaN
             NaN             NaN             NaN
             NaN             NaN             NaN
             NaN             NaN             NaN
             NaN             NaN             NaN
             NaN             NaN             NaN
             NaN             NaN             NaN
             NaN             NaN             NaN
             NaN             NaN             NaN
             NaN             NaN             NaN
             NaN             NaN             NaN
             NaN             NaN             NaN
             NaN             NaN             NaN
             NaN             NaN             NaN
             NaN             NaN             NaN
             NaN             NaN             NaN
             NaN             NaN             NaN
             NaN             NaN             NaN
             NaN             NaN             NaN
             NaN             NaN             NaN
             NaN             NaN             NaN
             NaN             NaN             NaN
             NaN             NaN             NaN
             NaN             NaN             NaN
             NaN             NaN             NaN
             NaN             NaN             NaN
             NaN             NaN             NaN
             NaN             NaN             NaN
             NaN             NaN             NaN
             NaN             NaN             NaN
             NaN             NaN             NaN
             NaN             NaN             NaN
             NaN             NaN             NaN
             NaN             NaN             NaN
             NaN             NaN             NaN
             NaN             NaN             NaN
             NaN             NaN             NaN
             NaN             NaN             NaN
             NaN             NaN             NaN
