Li16 Co18 O36
1.0
8.169671 -0.003214 2.435068
3.725164 7.272111 2.430608
0.019886 0.006091 9.995692
Li Co O
16 18 36
direct
0.232399 0.499738 0.553124 Li
0.333250 0.333298 0.000035 Li
0.333434 0.666964 0.999674 Li
0.332752 0.999807 0.000445 Li
0.332359 0.004625 0.501411 Li
0.666856 0.334031 0.999505 Li
0.657313 0.336403 0.498565 Li
0.666561 0.666048 0.000367 Li
0.673632 0.665915 0.501046 Li
0.666568 0.999850 1.000143 Li
0.669011 0.997660 0.500336 Li
0.999798 0.333260 0.000235 Li
0.017887 0.353300 0.499238 Li
0.999980 0.666551 0.000046 Li
0.000748 0.000032 0.999624 Li
0.006542 0.981501 0.498813 Li
0.166239 0.167065 0.247951 Co
0.167409 0.166086 0.751924 Co
0.166255 0.500288 0.249632 Co
0.166961 0.500080 0.749920 Co
0.165974 0.833529 0.248612 Co
0.167196 0.832977 0.751966 Co
0.499192 0.166950 0.250564 Co
0.500082 0.166754 0.750140 Co
0.500074 0.499875 0.248141 Co
0.500148 0.500194 0.751388 Co
0.499203 0.832864 0.250695 Co
0.499290 0.832390 0.754693 Co
0.833799 0.167716 0.245945 Co
0.834145 0.166959 0.749243 Co
0.833376 0.500123 0.247314 Co
0.833469 0.500502 0.751286 Co
0.833310 0.832856 0.250519 Co
0.833924 0.832865 0.750077 Co
0.252012 0.253762 0.353834 O
0.254493 0.253463 0.859451 O
0.256371 0.589612 0.346954 O
0.253670 0.586381 0.859905 O
0.251887 0.921852 0.355268 O
0.251993 0.919603 0.862870 O
0.590962 0.253825 0.352516 O
0.588088 0.253059 0.858023 O
0.588227 0.585743 0.354875 O
0.586648 0.585143 0.862017 O
0.586489 0.920173 0.358760 O
0.587560 0.920833 0.860571 O
0.919861 0.254483 0.352824 O
0.919662 0.253043 0.858826 O
0.919317 0.585875 0.352709 O
0.920242 0.587514 0.859279 O
0.919371 0.925897 0.351781 O
0.919650 0.921285 0.858392 O
0.080929 0.080360 0.137913 O
0.081449 0.078885 0.643978 O
0.080354 0.413487 0.139188 O
0.078074 0.409370 0.651547 O
0.078534 0.746748 0.140684 O
0.080218 0.746577 0.648425 O
0.413712 0.078947 0.141992 O
0.413833 0.074511 0.648260 O
0.413228 0.411951 0.140661 O
0.414081 0.412639 0.646905 O
0.413576 0.747220 0.140855 O
0.413600 0.746616 0.647496 O
0.745346 0.079005 0.140666 O
0.746747 0.079152 0.641933 O
0.747013 0.414432 0.137130 O
0.746564 0.414127 0.643334 O
0.745348 0.747538 0.141574 O
0.741005 0.746998 0.648614 O
