Na6 P2 S8                               
   1.00000000000000     
    14.0020345416639884   -0.0000853749465576   -0.0000736434523370
    -0.0001060913519497   14.0020431433343564   -0.0000273590799179
    -0.0000510602217602   -0.0000666589330516   14.4368222152195678
   Na   P    S 
    47    16    64
Direct
  0.5304859561232825  0.7455311218110448  0.7174230976883237
  0.9998146798530674  0.2513082070009370  0.2038436827708057
  0.9990347296746170  0.2501703789817092  0.7033974901588208
  0.9985546316932323  0.7511748872342451  0.2097843434847586
  0.9695168308922534  0.7544665919197163  0.7174217599695969
  0.5001894942311305  0.2486872299879163  0.2038341891501729
  0.5009736982985769  0.2498302617971070  0.7033977454542262
  0.5014469480663226  0.7488254733384236  0.2097838133010502
  0.2486873741136602  0.9998189043385949  0.2961587246762781
  0.2498289848023019  0.9990266580473092  0.7966044956271745
  0.2513093975627966  0.5001902608092538  0.2961599258878740
  0.2501700225127725  0.5009635940661591  0.7966066144582094
  0.7488222202090246  0.9985534561194817  0.2902127831962162
  0.7455296553464066  0.9695087772115526  0.7825733426223708
  0.7511729565346946  0.5014496894266952  0.2902162114797802
  0.7544708262442995  0.5304876922534161  0.7825783389874869
  0.2529581591927692  0.9995706515960592  0.0463697270808964
  0.2442076388871830  0.9971040241555945  0.5479491894688201
  0.2470434495658883  0.5004255665211460  0.0463689532900774
  0.2557917517172837  0.5028988210105206  0.5479513074747600
  0.7532861678783942  0.9998545677827064  0.0380699256185573
  0.7433445659763327  0.9995156012298859  0.5380686626310367
  0.7467186011102585  0.5001468291175331  0.0380742971454512
  0.7566506487246790  0.5004903051853574  0.5380655967511455
  0.9995707541450731  0.2470457428577365  0.4536359967058692
  0.9971026712630421  0.2557899760890416  0.9520546093319933
  0.9998533521538704  0.7467185173462867  0.4619274707643554
  0.9995127677178938  0.7566496673813777  0.9619363880515013
  0.5004278650081196  0.2529558675997887  0.4536312210596736
  0.5028942898890220  0.2442079373755188  0.9520492610838973
  0.5001429436033936  0.7532861386832749  0.4619271500463210
  0.5004893848507301  0.7433479693507506  0.9619358790049394
  0.9933947829902998  0.9944924625100225  0.5024181718186834
  0.0054658825625024  0.0115632846668592  0.0016641961690678
  0.0115616471619606  0.4945308197087453  0.4983373905805843
  0.9944996002263458  0.5065929079058515  0.9975836417286055
  0.4884294357891779  0.0054704759649065  0.4983339770545404
  0.5055076078197511  0.9934039137281400  0.9975812268834834
  0.5065910118829497  0.5055047352787262  0.5024200560538584
  0.4945304577815831  0.4884401162937978  0.0016649760363661
  0.2500054439038188  0.2500081495572139  0.2500006637752698
  0.2500091164816134  0.2499924055383601  0.7500010293946640
  0.2500034267730466  0.7500019462087540  0.2509927211529275
  0.2500064549621844  0.7499934687381272  0.7487135450523087
  0.7499980253668226  0.2500009152548612  0.2490082378430128
  0.7500047299497659  0.2499947766618795  0.7512860250029492
  0.7499995071709166  0.7500055844675165  0.2500008648287393
  0.0001090107804915  0.0014900690847384  0.2501799670132567
  0.9998090312056809  0.0029681751413851  0.7530578586642318
  0.0014865715212599  0.4998844484520796  0.2498203714311344
  0.0029764118757154  0.5001807778800381  0.7469408107297851
  0.4985078717206147  0.0001120789711044  0.2498195767382495
  0.4970292157946359  0.9998131269607562  0.7469422466805425
  0.4998827714360499  0.4985121149040324  0.2501771265734626
  0.5001816538184167  0.4970273012954480  0.7530572694936103
  0.2499980531040572  0.2499966971182190  0.0001102656394832
  0.2500022131580324  0.2500013167768407  0.4998891553012638
  0.2499975078747162  0.7499961796674519  0.0013771741536008
  0.2499967019578993  0.7500007278201718  0.4999685191712088
  0.7499991797953337  0.2499991219079524  0.0000294261555053
  0.7499980484745019  0.2499995943610782  0.4986195692966872
  0.7500020736167864  0.7499976258914653  0.0046086407848761
  0.7499972540222241  0.7500022583289166  0.4953887573772691
  0.1548827866486139  0.1746593685478821  0.0819835218977923
  0.1546761949333560  0.1748671729516255  0.5813078227413202
  0.1537688572179868  0.6762974248863535  0.0833634679181811
  0.1552468985923252  0.6750660391202432  0.5816693138834486
  0.6558446840004954  0.1732764989061696  0.0823567351727173
  0.6540140057796273  0.1761035220885218  0.5802662890874857
  0.6559576565152666  0.6730714863082123  0.0869050678094419
  0.6555383189219595  0.6713171835711085  0.5741568081555544
  0.3451209665162677  0.3253385967353958  0.0819821251837394
  0.3453352032629149  0.3251373888040772  0.5813035290400150
  0.3462340680314633  0.8237032491995860  0.0833616808398799
  0.3447532934138141  0.8249377344017444  0.5816653987959235
  0.8441521537280117  0.3267215577458028  0.0823559370027994
  0.8459911847975744  0.3238972900736751  0.5802574854068636
  0.8440496849792916  0.8269271266713618  0.0869024861905894
  0.8444565235832473  0.8286931323660058  0.5741587467466798
  0.1746585087992863  0.3451215716387410  0.4180206714849526
  0.1748676491638538  0.3453306023854941  0.9186971625928940
  0.1732794545220925  0.8441512462088917  0.4176401105108095
  0.1761068338745125  0.8459832473942464  0.9197315857202354
  0.6762960934573552  0.3462287327104381  0.4166355359854707
  0.6750630038976351  0.3447488157421441  0.9183298529440439
  0.6730686305067179  0.8440513537196662  0.4130904503811165
  0.6713102809763549  0.8444608806169147  0.9258402927471985
  0.3253399235155323  0.1548896482002897  0.4180183624043692
  0.3251329664654342  0.1546671121067252  0.9186993266713790
  0.3267239094355952  0.6558434860350746  0.4176440969091521
  0.3239012343551235  0.6540079468617861  0.9197393546269432
  0.8237017205611488  0.1537630325024377  0.4166355920391513
  0.8249384352166580  0.1552448902515045  0.9183343619372090
  0.8269263176251980  0.6559586541407285  0.4130946401414013
  0.8286904609738759  0.6555410620350480  0.9258378528856066
  0.0963215624597846  0.4245780671128316  0.1677324572812420
  0.1016425021503713  0.4220551440795252  0.6713773763687192
  0.0951587704901212  0.9261954260626776  0.1682015406027439
  0.0909638777694637  0.9217082653384098  0.6723945684460937
  0.5947819248353985  0.4230825425456753  0.1681800875270196
  0.5971385996723751  0.4260499614161703  0.6699147696559945
  0.5933176400111353  0.9252717574432849  0.1679821307606420
  0.5864543309955984  0.9272723003792656  0.6576405360485995
  0.4036798896126757  0.0754210978743624  0.1677306328440034
  0.3983500771811996  0.0779513434989760  0.6713747058738628
  0.4048424891925200  0.5738071668486171  0.1681981180209859
  0.4090340419941883  0.5782943386851533  0.6723985954905866
  0.9052204903431827  0.0769189982442611  0.1681879217789379
  0.9028593698220810  0.0739569889700334  0.6699183462181634
  0.9066849378406125  0.5747264201899971  0.1679785295408098
  0.9135411638481497  0.5727313053312537  0.6576424596999951
  0.0754187932834622  0.0963176857063646  0.3322740174916042
  0.0779490502130973  0.1016435627309973  0.8286274535778748
  0.0769162563422980  0.5947759562975189  0.3318180833727446
  0.0739551875793353  0.5971367571049357  0.8300870001907613
  0.5738065512001230  0.0951601463267187  0.3318007442734102
  0.5782924058875085  0.0909637966837205  0.8276011986161963
  0.5747290771747567  0.5933186620069463  0.3320207746184964
  0.5727327072772951  0.5864596105425506  0.8423581291450396
  0.4245785580486682  0.4036817317121535  0.3322658976421431
  0.4220532466353726  0.3983553761458289  0.8286261724611920
  0.4230785996068367  0.9052229756726059  0.3318181363338911
  0.4260478295194332  0.9028593818980043  0.8300824922386152
  0.9261910428035095  0.4048385006672177  0.3317996391856715
  0.9217091430439573  0.4090347827876331  0.8276032919787905
  0.9252685457653108  0.9066827936470068  0.3320171089744150
  0.9272686863101294  0.9135399344497533  0.8423542448847043
