Na47 P16 S64
1.0
14.002035 -0.000085 -0.000074
-0.000106 14.002043 -0.000027
-0.000051 -0.000067 14.436822
Na P S
47 16 64
direct
0.530486 0.745531 0.717423 Na
0.999815 0.251308 0.203844 Na
0.999035 0.250170 0.703397 Na
0.998555 0.751175 0.209784 Na
0.969517 0.754467 0.717422 Na
0.500189 0.248687 0.203834 Na
0.500974 0.249830 0.703398 Na
0.501447 0.748825 0.209784 Na
0.248687 0.999819 0.296159 Na
0.249829 0.999027 0.796604 Na
0.251309 0.500190 0.296160 Na
0.250170 0.500964 0.796607 Na
0.748822 0.998553 0.290213 Na
0.745530 0.969509 0.782573 Na
0.751173 0.501450 0.290216 Na
0.754471 0.530488 0.782578 Na
0.252958 0.999571 0.046370 Na
0.244208 0.997104 0.547949 Na
0.247043 0.500426 0.046369 Na
0.255792 0.502899 0.547951 Na
0.753286 0.999855 0.038070 Na
0.743345 0.999516 0.538069 Na
0.746719 0.500147 0.038074 Na
0.756651 0.500490 0.538066 Na
0.999571 0.247046 0.453636 Na
0.997103 0.255790 0.952055 Na
0.999853 0.746719 0.461927 Na
0.999513 0.756650 0.961936 Na
0.500428 0.252956 0.453631 Na
0.502894 0.244208 0.952049 Na
0.500143 0.753286 0.461927 Na
0.500489 0.743348 0.961936 Na
0.993395 0.994492 0.502418 Na
0.005466 0.011563 0.001664 Na
0.011562 0.494531 0.498337 Na
0.994500 0.506593 0.997584 Na
0.488429 0.005470 0.498334 Na
0.505508 0.993404 0.997581 Na
0.506591 0.505505 0.502420 Na
0.494530 0.488440 0.001665 Na
0.250005 0.250008 0.250001 Na
0.250009 0.249992 0.750001 Na
0.250003 0.750002 0.250993 Na
0.250006 0.749993 0.748714 Na
0.749998 0.250001 0.249008 Na
0.750005 0.249995 0.751286 Na
0.750000 0.750006 0.250001 Na
0.000109 0.001490 0.250180 P
0.999809 0.002968 0.753058 P
0.001487 0.499884 0.249820 P
0.002976 0.500181 0.746941 P
0.498508 0.000112 0.249820 P
0.497029 0.999813 0.746942 P
0.499883 0.498512 0.250177 P
0.500182 0.497027 0.753057 P
0.249998 0.249997 0.000110 P
0.250002 0.250001 0.499889 P
0.249998 0.749996 0.001377 P
0.249997 0.750001 0.499969 P
0.749999 0.249999 0.000029 P
0.749998 0.250000 0.498620 P
0.750002 0.749998 0.004609 P
0.749997 0.750002 0.495389 P
0.154883 0.174659 0.081984 S
0.154676 0.174867 0.581308 S
0.153769 0.676297 0.083363 S
0.155247 0.675066 0.581669 S
0.655845 0.173276 0.082357 S
0.654014 0.176104 0.580266 S
0.655958 0.673071 0.086905 S
0.655538 0.671317 0.574157 S
0.345121 0.325339 0.081982 S
0.345335 0.325137 0.581304 S
0.346234 0.823703 0.083362 S
0.344753 0.824938 0.581665 S
0.844152 0.326722 0.082356 S
0.845991 0.323897 0.580257 S
0.844050 0.826927 0.086902 S
0.844457 0.828693 0.574159 S
0.174659 0.345122 0.418021 S
0.174868 0.345331 0.918697 S
0.173279 0.844151 0.417640 S
0.176107 0.845983 0.919732 S
0.676296 0.346229 0.416636 S
0.675063 0.344749 0.918330 S
0.673069 0.844051 0.413090 S
0.671310 0.844461 0.925840 S
0.325340 0.154890 0.418018 S
0.325133 0.154667 0.918699 S
0.326724 0.655843 0.417644 S
0.323901 0.654008 0.919739 S
0.823702 0.153763 0.416636 S
0.824938 0.155245 0.918334 S
0.826926 0.655959 0.413095 S
0.828690 0.655541 0.925838 S
0.096322 0.424578 0.167732 S
0.101643 0.422055 0.671377 S
0.095159 0.926195 0.168202 S
0.090964 0.921708 0.672395 S
0.594782 0.423083 0.168180 S
0.597139 0.426050 0.669915 S
0.593318 0.925272 0.167982 S
0.586454 0.927272 0.657641 S
0.403680 0.075421 0.167731 S
0.398350 0.077951 0.671375 S
0.404842 0.573807 0.168198 S
0.409034 0.578294 0.672399 S
0.905220 0.076919 0.168188 S
0.902859 0.073957 0.669918 S
0.906685 0.574726 0.167979 S
0.913541 0.572731 0.657642 S
0.075419 0.096318 0.332274 S
0.077949 0.101644 0.828627 S
0.076916 0.594776 0.331818 S
0.073955 0.597137 0.830087 S
0.573807 0.095160 0.331801 S
0.578292 0.090964 0.827601 S
0.574729 0.593319 0.332021 S
0.572733 0.586460 0.842358 S
0.424579 0.403682 0.332266 S
0.422053 0.398355 0.828626 S
0.423079 0.905223 0.331818 S
0.426048 0.902859 0.830082 S
0.926191 0.404839 0.331800 S
0.921709 0.409035 0.827603 S
0.925269 0.906683 0.332017 S
0.927269 0.913540 0.842354 S
