Li16 Co18 O36                           
   1.00000000000000     
     8.1196009999999994   -0.0054600000000000    2.4126949999999998
     3.6990379999999998    7.2282710000000003    2.4127000000000001
    -0.0267200000000000   -0.0162770000000000   10.0614260000000009
   Li   Co   O 
    16    18    36
Direct
  0.2178089632743338  0.5523475071173340  0.5290683671182012
  0.3351750900935266  0.3316514473071195  0.9970051832049583
  0.3347650612065146  0.6682254596335060  0.9917785471627359
  0.3364154431761516  1.0038245302450708 -0.0069462339855179
  0.3338955847328933  0.0029718089582375  0.5092030927981698
  0.6690472239329297  0.3319110008942227  0.9933368119865356
  0.6487614116513636  0.3420315715435177  0.5078322041063814
  0.6702226218496656  0.6699364124774497 -0.0068973947994619
  0.6694652037447814  0.6674135008492768  0.5091831069671915
  0.6672818223283736  1.0008288930196596  0.9978993753125232
  0.6621533295818942 -0.0042096090851556  0.5124375904321790
  1.0018211566602280  0.3354425710827409 -0.0056245146910079
  0.0132170042289747  0.3468378857638690  0.5034068865721374
  0.9980905944844093  0.6686801569439131 -0.0029654103819961
  0.9983512995307668  0.0026195071914606  0.9933272751896540
  1.0076513723034120  0.9838700068487123  0.5078043846590785
  0.1661433175378595  0.1675926038302628  0.2465778275257500
  0.1677469757627642  0.1666153618045926  0.7526028349058884
  0.1659185153183763  0.4992074126414051  0.2467808893428224
  0.1646203810366496  0.4984376378315443  0.7614306091939765
  0.1652518939384042  0.8360693244265803  0.2473045804081030
  0.1678330495868677  0.8327454512570214  0.7527185205001861
  0.4990832455999096  0.1661626711157093  0.2508987535508158
  0.4990106449196744  0.1666010630034492  0.7528493942035933
  0.5027563106498573  0.4985613798427685  0.2472791294771318
  0.4989290473845652  0.5016413953037206  0.7527348828227164
  0.4993794043949871  0.8326711047876075  0.2506625305027998
  0.4988994054769890  0.8326851664899132  0.7565833268767629
  0.8339606128121086  0.1672123476074433  0.2465461204127578
  0.8337085962526029  0.1675329828283242  0.7502007545079895
  0.8343222283330066  0.4994023678920329  0.2466198130237763
  0.8328242799506204  0.5015385652640730  0.7526090749548185
  0.8328800362457417  0.8323725368185499  0.2509036383418957
  0.8328167299719856  0.8328167747118251  0.7528333652661137
  0.2504546050207727  0.2537632495849674  0.3533011156716863
  0.2534561488610416  0.2503132661348654  0.8660822664469269
  0.2581474717812734  0.5914150770130986  0.3414954435310708
  0.2533237092003333  0.5871297402085811  0.8664114860451712
  0.2495431374261546  0.9224424811386449  0.3517397938489381
  0.2503449355203652  0.9207573545530184  0.8650564395345580
  0.5903348317560646  0.2575842772889735  0.3523070824351142
  0.5875226749946723  0.2532427493237951  0.8614948676869965
  0.5891406702812905  0.5828246148713307  0.3517305796612500
  0.5869850179406478  0.5841251277443985  0.8650776361851780
  0.5858539228724380  0.9191462362001891  0.3599184831691903
  0.5869752087863113  0.9207169272052579  0.8651714299774358
  0.9206693192651605  0.2538622211563890  0.3532533371965165
  0.9195997960431895  0.2533894805918623  0.8614082196770099
  0.9204976289317426  0.5837451786273408  0.3533231137799372
  0.9165554832363207  0.5872373051039770  0.8660775091764613
  0.9242876951860109  0.9235980064126362  0.3523349569019232
  0.9194441858749446  0.9213267801401446  0.8614837749248010
  0.0809533568883537  0.0760785234179332  0.1380368395792692
  0.0813757177114663  0.0798770306402865  0.6419531691519914
  0.0804201247645836  0.4137186585190197  0.1371052078283750
  0.0798810785881422  0.4137020296148144  0.6499039829810566
  0.0791209360239097  0.7495750467113564  0.1403918994459686
  0.0795573755915862  0.7431168287255682  0.6499656043351236
  0.4150527949498495  0.0780603561649942  0.1414483251240461
  0.4145557218027864  0.0746540675650355  0.6480062735762048
  0.4162897076819040  0.4123995863833184  0.1403827061719326
  0.4092100828834949  0.4134176175279237  0.6499672373722414
  0.4127742513878638  0.7460668966576278  0.1401961867348561
  0.4144915214373941  0.7482791772329342  0.6478584006600437
  0.7453429223223719  0.0786272483761932  0.1412587821852204
  0.7461037755552469  0.0799589310126120  0.6417709678312197
  0.7427934703952629  0.4142359874181059  0.1380691774790333
  0.7460303269059859  0.4151850677717577  0.6419792017019305
  0.7447841516931992  0.7482902831541922  0.1414721384150237
  0.7408678509608425  0.7483394321273674  0.6479952145463667
 
             NaN             NaN             NaN
             NaN             NaN             NaN
             NaN             NaN             NaN
             NaN             NaN             NaN
             NaN             NaN             NaN
             NaN             NaN             NaN
             NaN             NaN             NaN
             NaN             NaN             NaN
             NaN             NaN             NaN
             NaN             NaN             NaN
             NaN             NaN             NaN
             NaN             NaN             NaN
             NaN             NaN             NaN
             NaN             NaN             NaN
             NaN             NaN             NaN
             NaN             NaN             NaN
             NaN             NaN             NaN
             NaN             NaN             NaN
             NaN             NaN             NaN
             NaN             NaN             NaN
             NaN             NaN             NaN
             NaN             NaN             NaN
             NaN             NaN             NaN
             NaN             NaN             NaN
             NaN             NaN             NaN
             NaN             NaN             NaN
             NaN             NaN             NaN
             NaN             NaN             NaN
             NaN             NaN             NaN
             NaN             NaN             NaN
             NaN             NaN             NaN
             NaN             NaN             NaN
             NaN             NaN             NaN
             NaN             NaN             NaN
             NaN             NaN             NaN
             NaN             NaN             NaN
             NaN             NaN             NaN
             NaN             NaN             NaN
             NaN             NaN             NaN
             NaN             NaN             NaN
             NaN             NaN             NaN
             NaN             NaN             NaN
             NaN             NaN             NaN
             NaN             NaN             NaN
             NaN             NaN             NaN
             NaN             NaN             NaN
             NaN             NaN             NaN
             NaN             NaN             NaN
             NaN             NaN             NaN
             NaN             NaN             NaN
             NaN             NaN             NaN
             NaN             NaN             NaN
             NaN             NaN             NaN
             NaN             NaN             NaN
             NaN             NaN             NaN
             NaN             NaN             NaN
             NaN             NaN             NaN
             NaN             NaN             NaN
             NaN             NaN             NaN
             NaN             NaN             NaN
             NaN             NaN             NaN
             NaN             NaN             NaN
             NaN             NaN             NaN
             NaN             NaN             NaN
             NaN             NaN             NaN
             NaN             NaN             NaN
             NaN             NaN             NaN
             NaN             NaN             NaN
             NaN             NaN             NaN
             NaN             NaN             NaN
