Li47 P16 O64
1.0
10.582566 0.000011 -0.012843
0.000012 12.410508 -0.000027
-0.012135 -0.000024 10.018259
Li P O
47 16 64
direct
0.164483 0.252369 0.149629 Li
0.653384 0.253886 0.097885 Li
0.666182 0.249683 0.598370 Li
0.662701 0.750075 0.098815 Li
0.663979 0.750510 0.599426 Li
0.164522 0.497604 0.149606 Li
0.165341 0.498417 0.651419 Li
0.164257 -0.001585 0.150989 Li
0.164798 -0.001199 0.651566 Li
0.337557 0.000862 0.399512 Li
0.337003 0.000758 0.903608 Li
0.340339 0.498350 0.395251 Li
0.338821 0.496210 0.908965 Li
0.835599 0.248997 0.348553 Li
0.833674 0.249110 0.850681 Li
0.837085 0.748447 0.349370 Li
0.836842 0.748765 0.849065 Li
0.340324 0.251646 0.395278 Li
0.338817 0.253816 0.908987 Li
0.337560 0.749140 0.399480 Li
0.337016 0.749255 0.903584 Li
0.837068 0.001546 0.349373 Li
0.836835 0.001236 0.849075 Li
0.835608 0.500991 0.348553 Li
0.833691 0.500887 0.850668 Li
0.653391 0.496120 0.097864 Li
0.666188 0.500324 0.598372 Li
0.662675 0.999943 0.098813 Li
0.663967 0.999501 0.599448 Li
0.165334 0.251578 0.651438 Li
0.164265 0.751570 0.150971 Li
0.164811 0.751196 0.651544 Li
0.921288 0.375000 0.148322 Li
0.924403 0.374995 0.649731 Li
0.924292 0.874996 0.149572 Li
0.925987 0.875000 0.649057 Li
0.429958 0.375002 0.606086 Li
0.429442 0.875006 0.102344 Li
0.426520 0.874995 0.600729 Li
0.075605 0.126012 0.350544 Li
0.075568 0.126229 0.852662 Li
0.075618 0.623956 0.350511 Li
0.075583 0.623772 0.852647 Li
0.573963 0.126846 0.399440 Li
0.571562 0.126432 0.899179 Li
0.573981 0.623151 0.399412 Li
0.571583 0.623591 0.899155 Li
0.910076 0.124743 0.097266 P
0.913165 0.124372 0.597395 P
0.910094 0.625246 0.097252 P
0.913180 0.625623 0.597385 P
0.408160 0.120137 0.151909 P
0.410830 0.124457 0.653215 P
0.408180 0.629875 0.151881 P
0.410840 0.625551 0.653188 P
0.088641 0.374988 0.403048 P
0.086135 0.374998 0.903025 P
0.088619 0.874995 0.403733 P
0.088241 0.874999 0.903929 P
0.593302 0.375000 0.349594 P
0.587315 0.375006 0.840004 P
0.590656 0.875001 0.347657 P
0.589642 0.875009 0.845672 P
0.840691 0.021382 0.148129 O
0.842978 0.021356 0.647884 O
0.839027 0.523132 0.147601 O
0.843591 0.523486 0.649839 O
0.330380 0.214469 0.096306 O
0.341898 0.226794 0.599683 O
0.343979 0.737973 0.106955 O
0.341730 0.728909 0.601060 O
0.158608 0.272259 0.352163 O
0.156082 0.272423 0.851778 O
0.158106 0.772175 0.352509 O
0.158476 0.772262 0.853243 O
0.661530 0.478596 0.404277 O
0.654661 0.477709 0.897065 O
0.660032 0.977990 0.399529 O
0.659271 0.977891 0.897340 O
0.158638 0.477695 0.352145 O
0.156085 0.477571 0.851778 O
0.158111 0.977813 0.352517 O
0.158469 0.977745 0.853259 O
0.661523 0.271396 0.404266 O
0.654648 0.272303 0.897080 O
0.660041 0.772011 0.399511 O
0.659283 0.772135 0.897343 O
0.839016 0.226863 0.147613 O
0.843575 0.226510 0.649846 O
0.840721 0.728613 0.148121 O
0.842988 0.728640 0.647869 O
0.343969 0.012036 0.106974 O
0.341724 0.021098 0.601084 O
0.330406 0.535542 0.096270 O
0.341906 0.523214 0.599660 O
0.546851 0.122667 0.099014 O
0.550136 0.123894 0.602989 O
0.546872 0.627353 0.098990 O
0.550144 0.626114 0.602960 O
0.048503 0.124646 0.150023 O
0.051930 0.123952 0.649183 O
0.048524 0.625333 0.150003 O
0.051944 0.626046 0.649174 O
0.454729 0.374998 0.402047 O
0.445223 0.375012 0.871418 O
0.451961 0.874996 0.398843 O
0.450938 0.875010 0.896147 O
0.949919 0.374996 0.350577 O
0.947137 0.374998 0.850820 O
0.949673 0.874999 0.352035 O
0.949893 0.875000 0.850598 O
0.602287 0.375007 0.196629 O
0.602550 0.375003 0.684548 O
0.593272 0.875006 0.191821 O
0.591437 0.875004 0.689627 O
0.085356 0.374995 0.058897 O
0.088736 0.374997 0.559199 O
0.087348 0.874993 0.059772 O
0.089746 0.874996 0.559793 O
0.410882 0.123770 0.308433 O
0.408209 0.124254 0.808984 O
0.410896 0.626233 0.308405 O
0.408223 0.625760 0.808959 O
0.911955 0.124942 0.441379 O
0.910176 0.124514 0.941090 O
0.911974 0.625048 0.441368 O
0.910187 0.625482 0.941076 O
