Mg7 Sc16 Se32                           
   1.00000000000000     
    11.3332139999999999    0.0000000000000000    0.0000000000000000
     0.0000000000000000   11.3332060000000006    0.0000000000000000
     0.0000000000000000    0.0000000000000000   11.3331909999999993
   Mg   Sc   Se
     7    16    32
Direct
  0.5299827908934620  0.5299825658290467  0.5299819184519888
  0.6233882225284580  0.1277121761049053  0.1277121743294904
  0.1277120180174099  0.6233881703044994  0.1277121871036764
  0.1277120472053643  0.1277121876556181  0.6233881600592731
  0.3749106005620583  0.8728428582576008  0.8728427582335531
  0.8728428245679850  0.3749107318836594  0.8728427778259737
  0.8728427472797853  0.8728427735145358  0.3749108096173580
  0.9944423433801099  0.7518808831789885  0.7518809198227979
  0.7518811314692034  0.9944424443868716  0.7518808851660510
  0.7518811279937236  0.7518810949182760  0.9944423375723571
  1.0000926271483552  1.0000928156131883  1.0000926932434251
  0.0057684598436099  0.2490116741737924  0.2490118185889242
  0.2490115628542443  0.0057686563671890  0.2490118800088101
  0.2490117025785874  0.2490117777688633  0.0057686250665964
  0.7471477023165604  0.4999605350544721  0.2499744172619194
  0.7471473024011916  0.2499741049228236  0.4999605562269865
  0.0071574825694998  0.5006283166223267  0.5006284408251438
  0.2499739737667075  0.4999605545445641  0.7471478090362453
  0.2499740274946328  0.7471473734759039  0.4999606440879715
  0.4999607051459272  0.7471472352242805  0.2499742353944110
  0.5006280143196196  0.0071574671951629  0.5006280698532140
  0.4999605918312274  0.2499738259530287  0.7471474633600584
  0.5006279127696401  0.5006280210660978  0.0071580175855353
  0.7579915652300849  0.9938740398892592  0.9938743190301439
  0.9938738476520165  0.7579915489837024  0.9938744020393645
  0.9938739880436056  0.9938741839856564  0.7579913112594816
  0.7600094967311257  0.7600093181009523  0.7600089837802577
  0.2418816798576776  0.0065011215902242  0.0065010172215794
  0.0065014534376138  0.2418816878426006  0.0065010970589331
  0.0065014530472649  0.0065011593297044  0.2418819603011202
  0.2399224286358800  0.2399224096362856  0.2399228935142978
  0.7561527809954455  0.4906485914731753  0.4906488322462699
  0.9917005405474349  0.2590145567583633  0.4922020090193823
  0.9917005446315619  0.4922016404755069  0.2590143215022933
  0.7604360718510819  0.2571545355667246  0.2571542481950097
  0.2474422153170681  0.5092966548387562  0.5092966204520596
  0.0070477529544616  0.7418651588869386  0.5083131132011798
  0.0070479504998491  0.5083134724639886  0.7418653718895500
  0.2393152062395328  0.7427974755507584  0.7427977365145091
  0.2590146772292806  0.9917006070250663  0.4922019688501262
  0.4906484694259661  0.7561528025139043  0.4906487217760292
  0.4922015868026767  0.9917007129958378  0.2590143266552609
  0.2571545307985758  0.7604359875718785  0.2571541535645793
  0.7418649215575578  0.0070474878007113  0.5083131213159329
  0.5092967788122199  0.2474424336297262  0.5092966235963156
  0.5083133748977841  0.0070474153900353  0.7418655147869903
  0.7427971606518753  0.2393151909241631  0.7427977228079898
  0.2590147588939763  0.4922016412794049  0.9917009141996436
  0.4922015843272997  0.2590146712352130  0.9917009117351915
  0.4906486554708299  0.4906485180744844  0.7561525605793316
  0.2571546377518673  0.2571545025730611  0.7604358701495980
  0.7418649041233063  0.5083133805630140  0.0070472534174066
  0.5083132945962717  0.7418653196004619  0.0070470788252639
  0.5092969844012560  0.5092969768488476  0.2474425560773559
  0.7427971141845667  0.7427974442618818  0.2393153229886912
 
             NaN             NaN             NaN
             NaN             NaN             NaN
             NaN             NaN             NaN
             NaN             NaN             NaN
             NaN             NaN             NaN
             NaN             NaN             NaN
             NaN             NaN             NaN
             NaN             NaN             NaN
             NaN             NaN             NaN
             NaN             NaN             NaN
             NaN             NaN             NaN
             NaN             NaN             NaN
             NaN             NaN             NaN
             NaN             NaN             NaN
             NaN             NaN             NaN
             NaN             NaN             NaN
             NaN             NaN             NaN
             NaN             NaN             NaN
             NaN             NaN             NaN
             NaN             NaN             NaN
             NaN             NaN             NaN
             NaN             NaN             NaN
             NaN             NaN             NaN
             NaN             NaN             NaN
             NaN             NaN             NaN
             NaN             NaN             NaN
             NaN             NaN             NaN
             NaN             NaN             NaN
             NaN             NaN             NaN
             NaN             NaN             NaN
             NaN             NaN             NaN
             NaN             NaN             NaN
             NaN             NaN             NaN
             NaN             NaN             NaN
             NaN             NaN             NaN
             NaN             NaN             NaN
             NaN             NaN             NaN
             NaN             NaN             NaN
             NaN             NaN             NaN
             NaN             NaN             NaN
             NaN             NaN             NaN
             NaN             NaN             NaN
             NaN             NaN             NaN
             NaN             NaN             NaN
             NaN             NaN             NaN
             NaN             NaN             NaN
             NaN             NaN             NaN
             NaN             NaN             NaN
             NaN             NaN             NaN
             NaN             NaN             NaN
             NaN             NaN             NaN
             NaN             NaN             NaN
             NaN             NaN             NaN
             NaN             NaN             NaN
             NaN             NaN             NaN
