Mg7 Sc16 Se32
1.0
11.333214 -0.000000 0.000000
-0.000000 11.333206 -0.000000
-0.000000 -0.000000 11.333191
Mg Sc Se
7 16 32
direct
0.530610 0.530610 0.530610 Mg
0.623392 0.126608 0.126608 Mg
0.126608 0.623392 0.126608 Mg
0.126608 0.126608 0.623392 Mg
0.375968 0.874032 0.874032 Mg
0.874032 0.375968 0.874032 Mg
0.874032 0.874032 0.375968 Mg
0.997616 0.750062 0.750062 Sc
0.750062 0.997616 0.750062 Sc
0.750062 0.750062 0.997616 Sc
0.999980 0.999980 0.999980 Sc
0.003887 0.249917 0.249917 Sc
0.249917 0.003887 0.249917 Sc
0.249917 0.249917 0.003888 Sc
0.746155 0.500041 0.252281 Sc
0.746155 0.252281 0.500041 Sc
0.001523 0.500041 0.500041 Sc
0.252281 0.500041 0.746155 Sc
0.252281 0.746155 0.500041 Sc
0.500041 0.746155 0.252281 Sc
0.500041 0.001523 0.500041 Sc
0.500041 0.252281 0.746155 Sc
0.500041 0.500041 0.001523 Sc
0.758055 0.992658 0.992658 Se
0.992658 0.758055 0.992658 Se
0.992658 0.992658 0.758055 Se
0.758393 0.758394 0.758394 Se
0.241650 0.007137 0.007137 Se
0.007137 0.241650 0.007137 Se
0.007137 0.007137 0.241650 Se
0.241049 0.241049 0.241049 Se
0.759667 0.491488 0.491488 Se
0.991384 0.257461 0.491827 Se
0.991384 0.491827 0.257461 Se
0.759329 0.257461 0.257461 Se
0.240273 0.509013 0.509013 Se
0.007912 0.742802 0.508412 Se
0.007912 0.508411 0.742802 Se
0.240875 0.742802 0.742802 Se
0.257461 0.991384 0.491827 Se
0.491488 0.759667 0.491488 Se
0.491827 0.991384 0.257461 Se
0.257461 0.759329 0.257461 Se
0.742802 0.007912 0.508411 Se
0.509013 0.240273 0.509013 Se
0.508411 0.007912 0.742802 Se
0.742802 0.240875 0.742802 Se
0.257461 0.491827 0.991384 Se
0.491827 0.257461 0.991384 Se
0.491488 0.491488 0.759668 Se
0.257461 0.257461 0.759329 Se
0.742802 0.508411 0.007912 Se
0.508411 0.742802 0.007912 Se
0.509013 0.509013 0.240273 Se
0.742802 0.742802 0.240874 Se
