Mg7 Sc16 Se32                           
   1.00000000000000     
    11.2073389999999993    0.0000010000000000    0.0000020000000000
     0.0000010000000000   11.2073380000000000    0.0000000000000000
     0.0000020000000000    0.0000000000000000   11.2073400000000003
   Mg   Sc   Se
     7    16    32
Direct
  0.5914751087148289  0.5914752606776247  0.5914753682378052
  0.6237880377535153  0.1268083953248612  0.1268083803774524
  0.1268083801106290  0.6237879151845654  0.1268082665207916
  0.1268084243961786  0.1268083279975315  0.6237879061341270
  0.3737169605591617  0.8732586192575104  0.8732587520575743
  0.8732587677049345  0.3737169445808194  0.8732587531018517
  0.8732588435620399  0.8732586899272220  0.3737170340081632
  0.9932034602607754  0.7486270529407415  0.7486269626780450
  0.7486270354575343  0.9932035287317412  0.7486266551321761
  0.7486271569423598  0.7486268631057843  0.9932034812430903
  0.9991452391977171  0.9991458120725792  0.9991456520765790
  0.0064239341775724  0.2496042355726490  0.2496045059269950
  0.2496042898627337  0.0064240066635262  0.2496042982052159
  0.2496043379166950  0.2496040963676889  0.0064239449272223
  0.7456518082903878  0.4997505803395911  0.2492108947803909
  0.7456514742698561  0.2492110239008524  0.4997505166857966
  0.0112987401987823  0.4989717364386631  0.4989719355826825
  0.2492105684306242  0.4997503577308874  0.7456516479794455
  0.2492106036743619  0.7456515155921527  0.4997503761950590
  0.4997504570863106  0.7456515798261729  0.2492107090531978
  0.4989718778318752  0.0112984200110640  0.4989718928653631
  0.4997504443992815  0.2492108336444046  0.7456513437189620
  0.4989719941233234  0.4989717522404095  0.0112986248004235
  0.7560769371903732  0.9915759233766642  0.9915756923023760
  0.9915760889796864  0.7560774763083545  0.9915759760827054
  0.9915759589590224  0.9915760615395895  0.7560772397656241
  0.7513514738482158  0.7513513839982692  0.7513514211139390
  0.2413718175601290  0.0063734096609011  0.0063736142025449
  0.0063735890309323  0.2413722534026284  0.0063737837002768
  0.0063735490867394  0.0063735736983680  0.2413721397664466
  0.2435830987137101  0.2435831292833615  0.2435830242483474
  0.7651090287487677  0.4912622096391474  0.4912621204132119
  0.9914222851497436  0.2567801316663620  0.4923750866074863
  0.9914225428398156  0.4923749632534802  0.2567803108829929
  0.7607012147314655  0.2566914129365789  0.2566914769044178
  0.2481547732849221  0.5074396972981987  0.5074398389680800
  0.0069250664078570  0.7418901999534717  0.5062990778666702
  0.0069250735746419  0.5062990958391080  0.7418903131049684
  0.2379899358194592  0.7428549604515647  0.7428549647284396
  0.2567801214009310  0.9914222868738445  0.4923749541025218
  0.4912618256943420  0.7651089194031669  0.4912619261258680
  0.4923749780178144  0.9914223905042350  0.2567801817550651
  0.2566913562478141  0.7607012058200413  0.2566913025610950
  0.7418902916575314  0.0069253232662759  0.5062987998596077
  0.5074397497446345  0.2481546288425139  0.5074396605332325
  0.5062990795392818  0.0069251763969513  0.7418902493178118
  0.7428550137954778  0.2379899646048810  0.7428550433266807
  0.2567801927770670  0.4923748858189659  0.9914223725431149
  0.4923750741656417  0.2567800424125166  0.9914221748406453
  0.4912619025853376  0.4912620556042673  0.7651089447805542
  0.2566913894655663  0.2566911875484650  0.7607011837201427
  0.7418904149291193  0.5062989321085465  0.0069253495141458
  0.5062991487545823  0.7418902219496715  0.0069251794350572
  0.5074400493770725  0.5074398370373965  0.2481546836375958
  0.7428550943412926  0.7428551694185418  0.2379899357345900
 
             NaN             NaN             NaN
             NaN             NaN             NaN
             NaN             NaN             NaN
             NaN             NaN             NaN
             NaN             NaN             NaN
             NaN             NaN             NaN
             NaN             NaN             NaN
             NaN             NaN             NaN
             NaN             NaN             NaN
             NaN             NaN             NaN
             NaN             NaN             NaN
             NaN             NaN             NaN
             NaN             NaN             NaN
             NaN             NaN             NaN
             NaN             NaN             NaN
             NaN             NaN             NaN
             NaN             NaN             NaN
             NaN             NaN             NaN
             NaN             NaN             NaN
             NaN             NaN             NaN
             NaN             NaN             NaN
             NaN             NaN             NaN
             NaN             NaN             NaN
             NaN             NaN             NaN
             NaN             NaN             NaN
             NaN             NaN             NaN
             NaN             NaN             NaN
             NaN             NaN             NaN
             NaN             NaN             NaN
             NaN             NaN             NaN
             NaN             NaN             NaN
             NaN             NaN             NaN
             NaN             NaN             NaN
             NaN             NaN             NaN
             NaN             NaN             NaN
             NaN             NaN             NaN
             NaN             NaN             NaN
             NaN             NaN             NaN
             NaN             NaN             NaN
             NaN             NaN             NaN
             NaN             NaN             NaN
             NaN             NaN             NaN
             NaN             NaN             NaN
             NaN             NaN             NaN
             NaN             NaN             NaN
             NaN             NaN             NaN
             NaN             NaN             NaN
             NaN             NaN             NaN
             NaN             NaN             NaN
             NaN             NaN             NaN
             NaN             NaN             NaN
             NaN             NaN             NaN
             NaN             NaN             NaN
             NaN             NaN             NaN
             NaN             NaN             NaN
