Mg7 Sc16 Se32                           
   1.00000000000000     
    11.2073389999999993    0.0000010000000000    0.0000020000000000
     0.0000010000000000   11.2073380000000000    0.0000000000000000
     0.0000020000000000    0.0000000000000000   11.2073400000000003
   Mg   Sc   Se
     7    16    32
Direct
  0.5929151523971693  0.5929152484208423  0.5929150044332188
  0.6234250759216271  0.1267036431948747  0.1267035798788667
  0.1267036844426388  0.6234250103483083  0.1267036562437590
  0.1267037036957901  0.1267036466064975  0.6234250181778102
  0.3734925712656906  0.8731527321866168  0.8731526804723567
  0.8731528317846058  0.3734925097295018  0.8731527796808445
  0.8731527883379351  0.8731527008251578  0.3734924994144525
  0.9935722090223551  0.7490262288515618  0.7490263636753819
  0.7490265352620702  0.9935721802806411  0.7490262713255859
  0.7490262367509676  0.7490262839896107  0.9935721666178384
  0.9996272469306995  0.9996272268071371  0.9996272194801623
  0.0065482519299578  0.2498429478133372  0.2498428924214539
  0.2498429266841988  0.0065482953263833  0.2498429844362301
  0.2498429278258774  0.2498430284005456  0.0065482676247722
  0.7452714439136430  0.4993854540165303  0.2488603604414227
  0.7452714237121336  0.2488604055039731  0.4993855346470081
  0.0105091055360436  0.4990971499131633  0.4990971500307557
  0.2488604097916511  0.4993855803995320  0.7452715226212495
  0.2488603619098205  0.7452714700351133  0.4993854474594744
  0.4993854724075782  0.7452713755062316  0.2488603970869888
  0.4990972523693266  0.0105090725141902  0.4990972623633709
  0.4993855559300048  0.2488603959959265  0.7452714247302862
  0.4990971810730682  0.4990972294425661  0.0105090530831059
  0.7565509013805013  0.9919047714531130  0.9919047401670474
  0.9919047819504686  0.7565508957631473  0.9919047951740462
  0.9919049430472338  0.9919048094655375  0.7565508993206217
  0.7516120002203608  0.7516120322721841  0.7516120295792795
  0.2418412539579349  0.0066035982923328  0.0066037096718035
  0.0066035856001739  0.2418412529548325  0.0066036909572845
  0.0066036231056675  0.0066036087283437  0.2418412342460252
  0.2437544958406920  0.2437546773727688  0.2437546376378550
  0.7644458670410628  0.4908766329393716  0.4908765652331179
  0.9910514392271645  0.2568756174144126  0.4924989411011713
  0.9910514888187277  0.4924988572933839  0.2568758271269733
  0.7607456124546349  0.2564126268927315  0.2564126991506470
  0.2473735778595547  0.5071106343959590  0.5071107202585969
  0.0065271309993447  0.7420499091869196  0.5065978787441748
  0.0065272410584004  0.5065977096514768  0.7420500402556465
  0.2381861740193016  0.7425953143589383  0.7425952802020648
  0.2568757197392108  0.9910515082404868  0.4924989409296903
  0.4908764639767887  0.7644458646919544  0.4908766441923863
  0.4924988774550423  0.9910515829955738  0.2568758634734970
  0.2564126509097696  0.7607457320857877  0.2564127056754057
  0.7420500212982191  0.0065272624665833  0.5065977343298983
  0.5071106832645084  0.2473735588002510  0.5071107359307945
  0.5065978871173576  0.0065272794888930  0.7420500324831085
  0.7425953066277833  0.2381862210779854  0.7425952589427305
  0.2568757626431396  0.4924989086592717  0.9910514079370309
  0.4924989204057640  0.2568757764256596  0.9910513776625652
  0.4908765154361446  0.4908765869325932  0.7644459963525112
  0.2564127026869653  0.2564126203443775  0.7607456869812947
  0.7420500568563919  0.5065977244761082  0.0065272715895651
  0.5065978068942941  0.7420501106621935  0.0065272763554815
  0.5071108418559598  0.5071108823478977  0.2473735136055237
  0.7425953136773344  0.7425953420129602  0.2381861474587034
 
             NaN             NaN             NaN
             NaN             NaN             NaN
             NaN             NaN             NaN
             NaN             NaN             NaN
             NaN             NaN             NaN
             NaN             NaN             NaN
             NaN             NaN             NaN
             NaN             NaN             NaN
             NaN             NaN             NaN
             NaN             NaN             NaN
             NaN             NaN             NaN
             NaN             NaN             NaN
             NaN             NaN             NaN
             NaN             NaN             NaN
             NaN             NaN             NaN
             NaN             NaN             NaN
             NaN             NaN             NaN
             NaN             NaN             NaN
             NaN             NaN             NaN
             NaN             NaN             NaN
             NaN             NaN             NaN
             NaN             NaN             NaN
             NaN             NaN             NaN
             NaN             NaN             NaN
             NaN             NaN             NaN
             NaN             NaN             NaN
             NaN             NaN             NaN
             NaN             NaN             NaN
             NaN             NaN             NaN
             NaN             NaN             NaN
             NaN             NaN             NaN
             NaN             NaN             NaN
             NaN             NaN             NaN
             NaN             NaN             NaN
             NaN             NaN             NaN
             NaN             NaN             NaN
             NaN             NaN             NaN
             NaN             NaN             NaN
             NaN             NaN             NaN
             NaN             NaN             NaN
             NaN             NaN             NaN
             NaN             NaN             NaN
             NaN             NaN             NaN
             NaN             NaN             NaN
             NaN             NaN             NaN
             NaN             NaN             NaN
             NaN             NaN             NaN
             NaN             NaN             NaN
             NaN             NaN             NaN
             NaN             NaN             NaN
             NaN             NaN             NaN
             NaN             NaN             NaN
             NaN             NaN             NaN
             NaN             NaN             NaN
             NaN             NaN             NaN
