Li17 Co18 O36                           
   1.00000000000000     
     8.0557280000000002   -0.0035030000000000    2.3736009999999998
     3.6800970000000000    7.1672200000000004    2.3705020000000001
    -0.0129210000000000   -0.0041040000000000    9.8886179999999992
   Li   Co   O 
    17    18    36
Direct
  0.3231224978804095  0.6302089326264312  0.5070556960663751
  0.3331019711245883  0.3320365137525154  0.9977405218110436
  0.3316525683078110  0.6665280093316921  0.9965847972057256
  0.3311635468342635  0.0036249714551621  0.5037948381711455
  0.3320763104138166  0.0024180971652898  0.9970116284100030
  0.6627614972193931  0.3298500563933873  0.5057746523300118
  0.6670456457723642  0.3315531553180607  0.9962420211930720
  0.6578407228623925  0.6650708528810036  0.5057684024779696
  0.6675915851029062  0.6679368626141605  0.9968923276466054
  0.6516689637676480  0.0083786534443355  0.5056488083814509
  0.6667873946073017  0.9988713385290168  0.9988898030987046
  0.0118912335292843  0.3313115986690596  0.5034850537091227
  0.0034071513292310  0.3310702275977027  0.9970764898842679
  0.9912708187370899  0.6616233898166395  0.5050997261669955
  0.9993065616039022  0.6662640483296870  0.9993168219951096
  0.0037405713758269  0.9948801344207191  0.5017026550433584
 -0.0000983451330776  0.9992550888321128  0.9977200762430665
  0.1631898907791079  0.1668894351470028  0.2486993055492437
  0.1682917948015774  0.1650025409380414  0.7509002885081828
  0.1635466767757003  0.4986515969955370  0.2505071860620986
  0.1662921659891945  0.4963194483430579  0.7518043830515514
  0.1623202768714445  0.8343482025435888  0.2475991181697055
  0.1673309124984305  0.8305260664384861  0.7516453150552498
  0.4954008632908275  0.1665272129681113  0.2516594933519803
  0.4998084410449959  0.1641136750202857  0.7506048885864469
  0.4960229828917205  0.4990193065812970  0.2506483072853261
  0.4991743311888930  0.4976056812014552  0.7531000142405205
  0.4957352992701586  0.8334456679380087  0.2514914920095270
  0.4993167476399000  0.8307420504081318  0.7540764821055527
  0.8311183171593439  0.1655503202648341  0.2486921919252171
  0.8337873464139298  0.1646851197364379  0.7509923574686258
  0.8297317562801935  0.5001247569421665  0.2505185384749005
  0.8323016071090652  0.4980414232506614  0.7536409537299926
  0.8292744514528866  0.8330751504647373  0.2511223637501501
  0.8332667958542770  0.8302957387823986  0.7511729797789440
  0.2489689533562907  0.2519595016556266  0.3562426288698499
  0.2540239545042239  0.2505643961674265  0.8625535069364892
  0.2544959200510440  0.5874892451604430  0.3534227491478097
  0.2524020966335781  0.5844603321019113  0.8629245328052972
  0.2489485631054981  0.9206176032842398  0.3575759612544720
  0.2525223550375070  0.9179518882247226  0.8630257029166541
  0.5842764386348046  0.2587292828615417  0.3550044056420920
  0.5875959829752856  0.2501384392884498  0.8621699424246527
  0.5816236728985827  0.5847465120511093  0.3601028434076042
  0.5856726236773053  0.5838358009892014  0.8652805916260141
  0.5824927825562302  0.9202741070764909  0.3614248792694147
  0.5876158036760857  0.9175917463395863  0.8630128521854007
  0.9167833588914072  0.2534410584522941  0.3585270196690407
  0.9202916502033343  0.2507992964671623  0.8623342782533741
  0.9171994565300611  0.5858893330122569  0.3603044833565652
  0.9194529780733124  0.5847595126135482  0.8632913424801854
  0.9179844876528395  0.9200907491248823  0.3589795935248787
  0.9201548926568123  0.9178096295404630  0.8607754619245570
  0.0760023587687707  0.0797703248182300  0.1377522347499754
  0.0808548994510876  0.0775244681233385  0.6413673978775968
  0.0753092568193158  0.4145605034779664  0.1398560553276264
  0.0748588821209330  0.4129354580263295  0.6450631914400082
  0.0755137442916416  0.7461222664916248  0.1397390628741494
  0.0802160253082412  0.7426302857995083  0.6411216514756156
  0.4113572960902970  0.0787952208324839  0.1404650580411706
  0.4147956003199271  0.0723292522094230  0.6451851998290637
  0.4109711355931763  0.4130354651361751  0.1408988648314303
  0.4147006398618330  0.4102405130565983  0.6458700870228347
  0.4137629066316980  0.7407009221750893  0.1410169891038641
  0.4133134358574898  0.7439506810088378  0.6435730378874386
  0.7422825400711957  0.0792095230781196  0.1407134131286333
  0.7469643867620009  0.0772285633475726  0.6406099318579622
  0.7373626868147924  0.4169480660974683  0.1414313154427552
  0.7460683073704395  0.4116125303943315  0.6423291149799265
  0.7423392775720522  0.7463912457172097  0.1417601218575199
  0.7452377025772200  0.7441514704855262  0.6424665550549944
 
             NaN             NaN             NaN
             NaN             NaN             NaN
             NaN             NaN             NaN
             NaN             NaN             NaN
             NaN             NaN             NaN
             NaN             NaN             NaN
             NaN             NaN             NaN
             NaN             NaN             NaN
             NaN             NaN             NaN
             NaN             NaN             NaN
             NaN             NaN             NaN
             NaN             NaN             NaN
             NaN             NaN             NaN
             NaN             NaN             NaN
             NaN             NaN             NaN
             NaN             NaN             NaN
             NaN             NaN             NaN
             NaN             NaN             NaN
             NaN             NaN             NaN
             NaN             NaN             NaN
             NaN             NaN             NaN
             NaN             NaN             NaN
             NaN             NaN             NaN
             NaN             NaN             NaN
             NaN             NaN             NaN
             NaN             NaN             NaN
             NaN             NaN             NaN
             NaN             NaN             NaN
             NaN             NaN             NaN
             NaN             NaN             NaN
             NaN             NaN             NaN
             NaN             NaN             NaN
             NaN             NaN             NaN
             NaN             NaN             NaN
             NaN             NaN             NaN
             NaN             NaN             NaN
             NaN             NaN             NaN
             NaN             NaN             NaN
             NaN             NaN             NaN
             NaN             NaN             NaN
             NaN             NaN             NaN
             NaN             NaN             NaN
             NaN             NaN             NaN
             NaN             NaN             NaN
             NaN             NaN             NaN
             NaN             NaN             NaN
             NaN             NaN             NaN
             NaN             NaN             NaN
             NaN             NaN             NaN
             NaN             NaN             NaN
             NaN             NaN             NaN
             NaN             NaN             NaN
             NaN             NaN             NaN
             NaN             NaN             NaN
             NaN             NaN             NaN
             NaN             NaN             NaN
             NaN             NaN             NaN
             NaN             NaN             NaN
             NaN             NaN             NaN
             NaN             NaN             NaN
             NaN             NaN             NaN
             NaN             NaN             NaN
             NaN             NaN             NaN
             NaN             NaN             NaN
             NaN             NaN             NaN
             NaN             NaN             NaN
             NaN             NaN             NaN
             NaN             NaN             NaN
             NaN             NaN             NaN
             NaN             NaN             NaN
             NaN             NaN             NaN
