Na15 V32 O64                            
   1.00000000000000     
     9.2509160000000001   -0.0129720000000000    0.0033240000000000
    -0.0166560000000000   11.8405980000000000    0.0464370000000000
     0.0032650000000000    0.0428470000000000   10.7997910000000008
   Na   V    O 
    15    32    64
Direct
  0.7170749019392312  0.3190073950448212  0.1502903373753132
  0.7081095784536501  0.0510967653210217  0.1480713371320804
  0.7107464809790072  0.7799773406688566  0.1524048701617815
  0.2091483056615303  0.0479865751809600  0.3427888538388121
  0.2125115837865044  0.2992949035783706  0.3523780758944712
  0.2093007867487839  0.5481514457551242  0.3414201758216124
  0.2087163696443142  0.7974719854083763  0.3494415921131270
  0.2249354736995545  0.1752994632564581  0.8449981131831216
  0.2210789590701613  0.4271963915344855  0.8515495645215367
  0.2262444365132520  0.6764970409947719  0.8443900583312637
  0.2217207734343636  0.9263297048455013  0.8499672109323012
  0.7249511305245032  0.1732340278700363  0.6528768280066957
  0.7214341841602405  0.4219471527606282  0.6476534232737909
  0.7226547035097329  0.6722981515859990  0.6517649149532435
  0.7216951825954879  0.9209692858688701  0.6424770060036903
  0.5484678656181895  0.0513481658245417  0.8921937120560837
  0.5475049691738282  0.3006051153661765  0.8970707440217581
  0.5511573008800039  0.5502582843333649  0.8932496115697608
  0.5470901477632557  0.8014177439874787  0.8958859877136303
  0.0485303963016916  0.0471043090598885  0.5993009088449144
  0.0486207185721360  0.2970961746343044  0.6050813345996566
  0.0483160510222752  0.5463502050584462  0.6013279815594418
  0.0506014086524297  0.7969578376478994  0.6024702260200713
  0.3828206348708948  0.1748136768243053  0.1023839106277983
  0.3835219792653031  0.4267399996491472  0.1040853570720646
  0.3845276486027061  0.6752141946365221  0.0999536699268918
  0.3876595902507432  0.9261807029795796  0.1030164690948167
  0.8876294886952921  0.1738087890953949  0.3952092700656689
  0.8856722077257261  0.4238666284366501  0.3947821868897012
  0.8843693869516293  0.6706772852712711  0.3975602453075207
  0.8850506645552225  0.9227209985144659  0.3890030728251663
  0.5302906251397894  0.0533334731502004  0.3859607148243547
  0.5341081173721483  0.2983167555407136  0.3843948045684785
  0.5321511090521702  0.5449864824900310  0.3810347189875432
  0.5297951966377229  0.7988124895587929  0.3829562251087482
  0.0280401899645105  0.0444649729737305  0.1104652969427068
  0.0402356061284645  0.2967965656499774  0.1098423043144081
  0.0189032106897549  0.5579008464485935  0.1087806849868740
  0.0295788712695851  0.7996299981346709  0.1102044548631413
  0.4042488137658988  0.1743536962740831  0.6121737754821756
  0.4005936516621088  0.4223055923295416  0.6103825684959262
  0.4045000628951583  0.6706272516943514  0.6094474101314205
  0.3995939545769220  0.9229648752460516  0.6092338359475380
  0.9054037426589291  0.1730458670965527  0.8857925332413312
  0.9006579894679697  0.4273014588629983  0.8879424030211958
  0.9033777640430800  0.6761141777751493  0.8812217202463604
  0.8981917879090771  0.9258970393878108  0.8836885761159622
  0.7602130705705529  0.0576747941876239  0.8470035988786490
  0.7587907807072823  0.2958188393272928  0.8512408356337480
  0.7617977335232602  0.5551233108268853  0.8448002800914924
  0.7588006879839593  0.7957247194026988  0.8405259206326602
  0.2585398609412036  0.0536055809474966  0.6491378708131559
  0.2607671954344161  0.2925799653645609  0.6481474772622497
  0.2602097873986369  0.5536680368417820  0.6492011438109058
  0.2621519389743509  0.7928573841839256  0.6449281870243115
  0.1828856747914377  0.1671720120167698  0.1478780592846840
  0.1854320175659800  0.4234170779127432  0.1488707901173398
  0.1664228674804527  0.6657846803851002  0.1489170929277007
  0.1717301661112545  0.9306111767359496  0.1499073167115270
  0.6774230597186766  0.1673300600633894  0.3478452002324703
  0.6741089351307651  0.4269630136632819  0.3511587946631955
  0.6696430080606552  0.6734413579775668  0.3551695692800524
  0.6679887046565801  0.9264977931849702  0.3526813884231731
  0.8532788713132266  0.0530381061850108  0.5157237712800828
  0.8536665679838438  0.2943473663718248  0.5179948786891274
  0.8533669676105741  0.5499322386607828  0.5220643331435771
  0.8546176636548175  0.7907993883872884  0.5150650482187392
  0.3550132745182890  0.0537244316905598  0.9791930738044293
  0.3511768459837660  0.2994146851335039  0.9804839365899475
  0.3548082973083191  0.5492118114006530  0.9796242634375325
  0.3499645069539889  0.8012142748275939  0.9786155747375211
  0.0815851263239893  0.1674204156682141  0.4790113718887136
  0.0823937831499257  0.4259422623512782  0.4792650196265580
  0.0812152190728085  0.6663385660762025  0.4791528989923824
  0.0802464439145056  0.9262615110223757  0.4767244628078090
  0.5788916508890394  0.1816501564348413  0.0192647811661087
  0.5750845879884713  0.4199107008889233  0.0192584069469653
  0.5797585657896274  0.6839401205732898  0.0091717859208818
  0.5828969299104124  0.9221269138386693  0.0166477498633162
  0.9446843985461461  0.0525264294189527  0.2770426285972355
  0.9491283524870068  0.2901939880466923  0.2831757597146121
  0.9456273775954064  0.5572538557506809  0.2858834476858008
  0.9414994603035947  0.7945536689277337  0.2790432740410884
  0.4506061009925632  0.0543693943805304  0.2155272722436359
  0.4452835885912952  0.2977103085053479  0.2116193876111186
  0.4438061358524981  0.5472276512394119  0.2150150617181516
  0.4509932651402719  0.7985853864096463  0.2218823908289504
 -0.0107091407280324  0.1700687427620133  0.7178553557299101
 -0.0085232924915665  0.4314194593043352  0.7160555053063774
 -0.0087012106365063  0.6707399077037025  0.7166796436269560
 -0.0120960179335041  0.9317434658347270  0.7112864957332709
  0.4883264597050029  0.1787213021952924  0.7784261737773374
  0.4908450876364105  0.4167776342356370  0.7820474775449893
  0.4886984932582325  0.6765027108853880  0.7749418608335666
  0.4902279165143984  0.9182181650479397  0.7798756230190340
  0.5430727811654817  0.0531147465987036  0.5700489280907244
  0.5425180547740069  0.2936022337837219  0.5684467755040049
  0.5436060062894803  0.5507798818823395  0.5678471696209072
  0.5432739989557765  0.7945230274555050  0.5616753427439058
  0.0450107750004559  0.0523932153010396  0.9269239404169568
  0.0426167915045712  0.2960509040890354  0.9244292386991864
  0.0447581427098406  0.5573886317421936  0.9270972544871718
  0.0406865818075046  0.7978689344065220  0.9228381144282732
  0.3885926668419611  0.1699226214652519  0.4261740377938730
  0.3911627315657643  0.4274540892603853  0.4243625197430040
  0.3912552586491355  0.6695218062801676  0.4236796356467056
  0.3927531618308974  0.9275535150391871  0.4226562640535312
  0.8945062097836993  0.1700610210652913  0.0691512262069046
  0.9035393354654020  0.4288429677960867  0.0748930603846471
  0.8862431294011008  0.6734473204630191  0.0645771110441058
  0.8884369937387114  0.9281208263751428  0.0695456639891154
 
             NaN             NaN             NaN
             NaN             NaN             NaN
             NaN             NaN             NaN
             NaN             NaN             NaN
             NaN             NaN             NaN
             NaN             NaN             NaN
             NaN             NaN             NaN
             NaN             NaN             NaN
             NaN             NaN             NaN
             NaN             NaN             NaN
             NaN             NaN             NaN
             NaN             NaN             NaN
             NaN             NaN             NaN
             NaN             NaN             NaN
             NaN             NaN             NaN
             NaN             NaN             NaN
             NaN             NaN             NaN
             NaN             NaN             NaN
             NaN             NaN             NaN
             NaN             NaN             NaN
             NaN             NaN             NaN
             NaN             NaN             NaN
             NaN             NaN             NaN
             NaN             NaN             NaN
             NaN             NaN             NaN
             NaN             NaN             NaN
             NaN             NaN             NaN
             NaN             NaN             NaN
             NaN             NaN             NaN
             NaN             NaN             NaN
             NaN             NaN             NaN
             NaN             NaN             NaN
             NaN             NaN             NaN
             NaN             NaN             NaN
             NaN             NaN             NaN
             NaN             NaN             NaN
             NaN             NaN             NaN
             NaN             NaN             NaN
             NaN             NaN             NaN
             NaN             NaN             NaN
             NaN             NaN             NaN
             NaN             NaN             NaN
             NaN             NaN             NaN
             NaN             NaN             NaN
             NaN             NaN             NaN
             NaN             NaN             NaN
             NaN             NaN             NaN
             NaN             NaN             NaN
             NaN             NaN             NaN
             NaN             NaN             NaN
             NaN             NaN             NaN
             NaN             NaN             NaN
             NaN             NaN             NaN
             NaN             NaN             NaN
             NaN             NaN             NaN
             NaN             NaN             NaN
             NaN             NaN             NaN
             NaN             NaN             NaN
             NaN             NaN             NaN
             NaN             NaN             NaN
             NaN             NaN             NaN
             NaN             NaN             NaN
             NaN             NaN             NaN
             NaN             NaN             NaN
             NaN             NaN             NaN
             NaN             NaN             NaN
             NaN             NaN             NaN
             NaN             NaN             NaN
             NaN             NaN             NaN
             NaN             NaN             NaN
             NaN             NaN             NaN
             NaN             NaN             NaN
             NaN             NaN             NaN
             NaN             NaN             NaN
             NaN             NaN             NaN
             NaN             NaN             NaN
             NaN             NaN             NaN
             NaN             NaN             NaN
             NaN             NaN             NaN
             NaN             NaN             NaN
             NaN             NaN             NaN
             NaN             NaN             NaN
             NaN             NaN             NaN
             NaN             NaN             NaN
             NaN             NaN             NaN
             NaN             NaN             NaN
             NaN             NaN             NaN
             NaN             NaN             NaN
             NaN             NaN             NaN
             NaN             NaN             NaN
             NaN             NaN             NaN
             NaN             NaN             NaN
             NaN             NaN             NaN
             NaN             NaN             NaN
             NaN             NaN             NaN
             NaN             NaN             NaN
             NaN             NaN             NaN
             NaN             NaN             NaN
             NaN             NaN             NaN
             NaN             NaN             NaN
             NaN             NaN             NaN
             NaN             NaN             NaN
             NaN             NaN             NaN
             NaN             NaN             NaN
             NaN             NaN             NaN
             NaN             NaN             NaN
             NaN             NaN             NaN
             NaN             NaN             NaN
             NaN             NaN             NaN
             NaN             NaN             NaN
             NaN             NaN             NaN
