Na15 V32 O64
1.0
9.250916 -0.012972 0.003324
-0.016656 11.840598 0.046437
0.003265 0.042847 10.799791
Na V O
15 32 64
direct
0.748747 0.385053 0.153088 Na
0.742237 0.066865 0.152656 Na
0.744979 0.797244 0.153494 Na
0.242320 0.063322 0.346848 Na
0.245444 0.313589 0.351545 Na
0.244055 0.562717 0.346514 Na
0.244181 0.812435 0.351263 Na
0.256302 0.188354 0.845206 Na
0.255920 0.439325 0.854530 Na
0.257299 0.688942 0.844718 Na
0.253196 0.939198 0.850859 Na
0.757296 0.187512 0.653448 Na
0.755426 0.436681 0.648102 Na
0.757622 0.687184 0.653218 Na
0.755354 0.936259 0.647112 Na
0.582250 0.063185 0.894812 V
0.580694 0.313226 0.897195 V
0.584520 0.564456 0.898602 V
0.581761 0.814673 0.895700 V
0.081291 0.061680 0.602441 V
0.081715 0.312224 0.605061 V
0.082287 0.561322 0.602968 V
0.080776 0.812860 0.603556 V
0.418174 0.184953 0.101929 V
0.417673 0.438225 0.110161 V
0.417881 0.690243 0.100688 V
0.417739 0.938114 0.104572 V
0.918759 0.188671 0.397194 V
0.918893 0.438004 0.394753 V
0.919049 0.686596 0.396651 V
0.917472 0.937958 0.393110 V
0.563474 0.064786 0.389621 V
0.566270 0.312911 0.386673 V
0.566476 0.563168 0.385412 V
0.566034 0.811693 0.387379 V
0.062184 0.061155 0.112361 V
0.067567 0.309696 0.111609 V
0.057463 0.566324 0.112895 V
0.064893 0.811692 0.111468 V
0.436333 0.187759 0.614078 V
0.434727 0.437699 0.612519 V
0.438354 0.686159 0.612881 V
0.432971 0.935463 0.611117 V
0.937699 0.187244 0.886909 V
0.934279 0.438780 0.888187 V
0.938435 0.687059 0.885566 V
0.931073 0.938285 0.887451 V
0.792300 0.068723 0.847979 O
0.791751 0.307796 0.850645 O
0.794537 0.567947 0.848463 O
0.791287 0.807799 0.846907 O
0.292667 0.066724 0.650218 O
0.294447 0.308332 0.650269 O
0.293475 0.564439 0.651643 O
0.294350 0.810392 0.649488 O
0.208978 0.182851 0.149813 O
0.215148 0.435953 0.149393 O
0.206451 0.683039 0.148739 O
0.205513 0.939634 0.150572 O
0.707201 0.183049 0.353014 O
0.706662 0.438392 0.353626 O
0.708689 0.683929 0.353847 O
0.704942 0.939149 0.349401 O
0.886199 0.065540 0.518499 O
0.886495 0.311033 0.519938 O
0.887452 0.564632 0.520022 O
0.886328 0.811014 0.518423 O
0.385810 0.066571 0.979145 O
0.384883 0.308168 0.983969 O
0.386713 0.567316 0.985121 O
0.383300 0.810086 0.979211 O
0.113510 0.185125 0.481280 O
0.115196 0.439089 0.480551 O
0.114489 0.684837 0.481983 O
0.113905 0.939627 0.478922 O
0.611892 0.190599 0.017645 O
0.605870 0.436591 0.020028 O
0.610287 0.693915 0.016893 O
0.613571 0.936692 0.019429 O
0.977049 0.063678 0.280669 O
0.980486 0.307463 0.284501 O
0.982629 0.564087 0.283140 O
0.977968 0.806632 0.282537 O
0.478595 0.070615 0.217413 O
0.473834 0.310165 0.217916 O
0.472880 0.564489 0.217753 O
0.475006 0.804541 0.216502 O
0.022216 0.185466 0.719143 O
0.023415 0.441268 0.716006 O
0.023016 0.685920 0.718314 O
0.021786 0.941929 0.714777 O
0.520106 0.190027 0.779276 O
0.521911 0.432867 0.785611 O
0.521837 0.687358 0.781559 O
0.520561 0.934231 0.783556 O
0.575556 0.063582 0.573283 O
0.574908 0.309399 0.572262 O
0.577938 0.563838 0.571646 O
0.576036 0.809916 0.571548 O
0.075826 0.066408 0.928191 O
0.076169 0.308336 0.926389 O
0.077834 0.568620 0.927832 O
0.074370 0.809630 0.925867 O
0.421784 0.185626 0.431726 O
0.425905 0.440510 0.427782 O
0.423953 0.685142 0.428960 O
0.424973 0.940844 0.425721 O
0.924010 0.184728 0.070222 O
0.933247 0.438504 0.073061 O
0.922498 0.685883 0.068823 O
0.923709 0.938368 0.072570 O
