Mg15 Mn32 O64                           
   1.00000000000000     
    11.4983540000000009   -0.0000140000000000   -0.0010050000000000
    -0.0000160000000000   11.5147659999999998    0.0000000000000000
    -0.0001820000000000    0.0000030000000000    9.1720249999999997
   Mg   Mn   O 
    15    32    64
Direct
  0.4999316145044799  0.7393705655303068  0.7374094818281768
  0.5000473819103507  0.2443888206774791  0.7382011429589176
  0.0001134436847755  0.2410834539579161  0.7407356079905439
  0.9999385485499018  0.7424945206524231  0.7409722069319692
  0.5000279253342865  0.9919337797240836  0.4908845103071726
  1.0000144410207881  0.9917213335751832  0.4908814134541051
  0.0000513587056096  0.4916548082833914  0.4918746207086764
  0.2504791957634273  0.9919793052700052  0.2440098443508644
  0.2546666669707465  0.4921225638378900  0.2410204853178516
  0.7494134726600992  0.9917450250378776  0.2442721864699207
  0.7455970252557822  0.4915109274516746  0.2407369236409402
  0.2490440373430324  0.2394370716092223  0.9926438081805147
  0.2485104538861583  0.7447824840184548  0.9925736663181333
  0.7513339142176174  0.2390705388761609  0.9925794316882449
  0.7510046754538955  0.7442656836756660  0.9926984485654357
  0.1256945280611187  0.2423165039656067  0.3676694522368322
  0.1252032372762392  0.7412760421474522  0.3677672856971662
  0.6227988292959012  0.2440926713229432  0.3664894608922327
  0.6226402483030462  0.7392446991395442  0.3665866931919692
  0.3772991194770772  0.2441871365983710  0.3664160895760492
  0.3764145948320908  0.7405974421522507  0.3656978120722767
  0.8745727273129874  0.2421821769862497  0.3677078113537420
  0.8742645614186167  0.7411093854778096  0.3676594878481119
  0.1248742031329235  0.9919352086821207  0.8671107691062323
  0.1247714794433396  0.4918709505488249  0.8684783241687476
  0.6245272833112155  0.9917204064193333  0.8655881837418992
  0.6270883066379517  0.4918914942360454  0.8666340495149346
  0.3754720382316927  0.9918232329804397  0.8655859727738404
  0.3734336800479198  0.4926424693109589  0.8667169151872917
  0.8750989309287484  0.9917543915292827  0.8672008318949584
  0.8754766428276867  0.4916743199715105  0.8684927763206441
  1.0000287921480946  0.1166022645470308  0.1179854247710395
  0.9999785984416848  0.6166021932184546  0.1183019985356756
  0.5000973695584816  0.1164069805188690  0.1175215512249633
  0.4996700554355188  0.6197072763520500  0.1128604012368177
  0.0000700590974603  0.3667469097310696  0.1182681486180620
  0.9999408443756722  0.8667626134257159  0.1179610938185864
  0.5006014953020395  0.3649453139780869  0.1123001599589705
  0.4998617056857822  0.8672374006510812  0.1173557471545004
  0.2514953742529278  0.3673842678670847  0.6181674910429551
  0.2499064848189884  0.8666941475212976  0.6165594112479175
  0.7488033870207400  0.3673141064612380  0.6180924771550330
  0.7500404107796381  0.8666537216175286  0.6165081191918030
  0.2499982280209545  0.1167474932904000  0.6165024291844169
  0.2510794781977341  0.6162251837309233  0.6179483490175103
  0.7500400117432030  0.1167165725886301  0.6165344517273905
  0.7488825114759304  0.6161015776896265  0.6180755723231620
  0.1373906827704139  0.2425216241789539  0.6128274018935090
  0.1370112555382498  0.7410239048108148  0.6128436074844126
  0.6377653618084445  0.2422971058839652  0.6132991498489686
  0.6378213476099235  0.7411009162792112  0.6130738813676478
  0.3623608938081217  0.2423835707202369  0.6132752175348930
  0.3620072443468634  0.7412633175317486  0.6130945230668908
  0.8628392894684241  0.2424478753602303  0.6128067145911639
  0.8628105385911345  0.7409665649545512  0.6128089175504863
  0.1380142369749471  0.4916118352295883  0.6225918980170450
  0.1367397959725586  0.9917928594055962  0.6208624129845537
  0.6392170006928148  0.4918548643122184  0.6616945153835889
  0.6371499669796460  0.9916861486510974  0.6204245304759303
  0.3610056803493703  0.4920966110820271  0.6618646995827209
  0.3629030827713283  0.9917641519713385  0.6204232948012616
  0.8621820575943097  0.4916673258436511  0.6226953737771523
  0.8632542190755463  0.9916609573163170  0.6208094933716564
  0.5000420449551465  0.1054664298969728  0.8681958885172830
  0.5004803339366769  0.6017222157194728  0.8687364400264678
 -0.0000440187985885  0.1050892311756314  0.8714199196590438
  0.0000799091203360  0.6046494235296697  0.8703447626586556
  0.4998966861812095  0.3828841375294905  0.8685009214879961
  0.4999797189138384  0.8780279575322033  0.8681921197356574
  1.0001729331963694  0.3787885823574580  0.8703166731615145
  0.0000056907733188  0.8785461589188863  0.8714998790137679
  0.5001781031164416  0.3514209046214279  0.3433447465838253
  0.5001606067057712  0.8559546779409767  0.3615175994011850
  0.0000982064916818  0.3547327633180607  0.3630895864388244
  0.9996572848572814  0.8544080579757007  0.3626483099016141
  0.4999637875448540  0.1279436599141399  0.3614708662389656
  0.4990648567934935  0.6327802920551401  0.3432371957785837
  0.0002074340906140  0.1290222778669929  0.3626453913568568
  0.9998028845770759  0.6286026752749391  0.3631109552007951
  0.3854006827542115  0.4934754886647689  0.0880993298918519
  0.3867360966941525  0.9922756794226524  0.1120551973412774
  0.8865205408493897  0.4916381002225073  0.1134483331272541
  0.8866143957461796  0.9917043948597338  0.1133791268966986
  0.1133336356764301  0.9916833437767053  0.1132627165012111
  0.1136602728108068  0.4917166757601094  0.1135573869849762
  0.6133043802372279  0.9913764886327894  0.1120242945122936
  0.6153631394102269  0.4911328718296005  0.0874787193427984
  0.3875140853420965  0.2421066069381232  0.1156834188342827
  0.3860127299226078  0.7441145568670771  0.1164050306815387
  0.8873423733565466  0.2418298652073006  0.1213983883876315
  0.8870650171808144  0.7415192152487105  0.1213947248594726
  0.1129282069455543  0.2418126438651714  0.1213735324201775
  0.1126003084306981  0.7415621778430382  0.1214581385181388
  0.6134750601039460  0.2404782432763375  0.1159968654858307
  0.6124660386621747  0.7415799142546788  0.1158226906987683
  0.2502394191650777  0.3570612767634128  0.3730243969074327
  0.2496556565187787  0.8540462158035104  0.3717091718515116
  0.7500041556483918  0.3568157129846829  0.3731019828978724
  0.7495391596921864  0.8533088207244566  0.3713796906316594
  0.2504497548488166  0.1301644853485415  0.3713724039325448
  0.2498196636622990  0.6270442603250218  0.3729974054764049
  0.7497884718688014  0.1299474799909583  0.3716894113024948
  0.7496921067796685  0.6264072823923578  0.3729479655523353
  0.2497563246866245  0.1047907735592503  0.8617666043991972
  0.2517125453929670  0.6038947626091878  0.8695996448605898
  0.7503285772115316  0.1045076174292700  0.8616496044681586
  0.7485215478744598  0.6033502530747626  0.8698373684971460
  0.2519803122108572  0.3806345511522358  0.8701385043263240
  0.2495896167782815  0.8792169999108396  0.8615872177072033
  0.7483966122868885  0.3800840141045466  0.8696069415952065
  0.7502744644171743  0.8788675347354231  0.8618390390793914
 
             NaN             NaN             NaN
             NaN             NaN             NaN
             NaN             NaN             NaN
             NaN             NaN             NaN
             NaN             NaN             NaN
             NaN             NaN             NaN
             NaN             NaN             NaN
             NaN             NaN             NaN
             NaN             NaN             NaN
             NaN             NaN             NaN
             NaN             NaN             NaN
             NaN             NaN             NaN
             NaN             NaN             NaN
             NaN             NaN             NaN
             NaN             NaN             NaN
             NaN             NaN             NaN
             NaN             NaN             NaN
             NaN             NaN             NaN
             NaN             NaN             NaN
             NaN             NaN             NaN
             NaN             NaN             NaN
             NaN             NaN             NaN
             NaN             NaN             NaN
             NaN             NaN             NaN
             NaN             NaN             NaN
             NaN             NaN             NaN
             NaN             NaN             NaN
             NaN             NaN             NaN
             NaN             NaN             NaN
             NaN             NaN             NaN
             NaN             NaN             NaN
             NaN             NaN             NaN
             NaN             NaN             NaN
             NaN             NaN             NaN
             NaN             NaN             NaN
             NaN             NaN             NaN
             NaN             NaN             NaN
             NaN             NaN             NaN
             NaN             NaN             NaN
             NaN             NaN             NaN
             NaN             NaN             NaN
             NaN             NaN             NaN
             NaN             NaN             NaN
             NaN             NaN             NaN
             NaN             NaN             NaN
             NaN             NaN             NaN
             NaN             NaN             NaN
             NaN             NaN             NaN
             NaN             NaN             NaN
             NaN             NaN             NaN
             NaN             NaN             NaN
             NaN             NaN             NaN
             NaN             NaN             NaN
             NaN             NaN             NaN
             NaN             NaN             NaN
             NaN             NaN             NaN
             NaN             NaN             NaN
             NaN             NaN             NaN
             NaN             NaN             NaN
             NaN             NaN             NaN
             NaN             NaN             NaN
             NaN             NaN             NaN
             NaN             NaN             NaN
             NaN             NaN             NaN
             NaN             NaN             NaN
             NaN             NaN             NaN
             NaN             NaN             NaN
             NaN             NaN             NaN
             NaN             NaN             NaN
             NaN             NaN             NaN
             NaN             NaN             NaN
             NaN             NaN             NaN
             NaN             NaN             NaN
             NaN             NaN             NaN
             NaN             NaN             NaN
             NaN             NaN             NaN
             NaN             NaN             NaN
             NaN             NaN             NaN
             NaN             NaN             NaN
             NaN             NaN             NaN
             NaN             NaN             NaN
             NaN             NaN             NaN
             NaN             NaN             NaN
             NaN             NaN             NaN
             NaN             NaN             NaN
             NaN             NaN             NaN
             NaN             NaN             NaN
             NaN             NaN             NaN
             NaN             NaN             NaN
             NaN             NaN             NaN
             NaN             NaN             NaN
             NaN             NaN             NaN
             NaN             NaN             NaN
             NaN             NaN             NaN
             NaN             NaN             NaN
             NaN             NaN             NaN
             NaN             NaN             NaN
             NaN             NaN             NaN
             NaN             NaN             NaN
             NaN             NaN             NaN
             NaN             NaN             NaN
             NaN             NaN             NaN
             NaN             NaN             NaN
             NaN             NaN             NaN
             NaN             NaN             NaN
             NaN             NaN             NaN
             NaN             NaN             NaN
             NaN             NaN             NaN
             NaN             NaN             NaN
             NaN             NaN             NaN
             NaN             NaN             NaN
