Li16 Co18 O36                           
   1.00000000000000     
     8.1353039999999996   -0.0015930000000000    2.4116270000000002
     3.7105320000000002    7.2283629999999999    2.4081980000000001
    -0.0225510000000000   -0.0180720000000000   10.0409710000000008
   Li   Co   O 
    16    18    36
Direct
  0.2932202565324576  0.4127151897556398  0.5046316876276924
  0.3356422906487598  0.3321152585282156  0.0031289925776933
  0.3352962650597490  0.6658692309510632  0.9992611319251683
  0.3355355147371506  0.9995821621988503 -0.0004193554741557
  0.3342474846060872  0.9990322140614699  0.5047246736587134
  0.6665722409784579  0.3332062361198684  1.0000454490289228
  0.6597816854116837  0.3418558275574197  0.4973497073106924
  0.6666665169105568  0.6666530205018186  0.0001823907654713
  0.6681170115127597  0.6675430058589978  0.5015368915394565
  0.6666514462993689  0.0011162310178804  0.0006280176136344
  0.6668318289103915  0.9970103732480321  0.5045273432033738
  0.9963699807730741  0.3344574166983099  0.0017510283083685
  0.0013967571196319  0.3438556317248442  0.4964329063487777
  0.9971603991217168  0.6685730091704079  0.0017643810617576
  0.9971884694788102  0.0022094726917433  0.9979714554625576
  0.0129705855087948  0.9724058694364675  0.5018880194018435
  0.1658827756104325  0.1694017211127753  0.2478569616851929
  0.1667548724930474  0.1656976334557253  0.7527500304832796
  0.1650415370673177  0.5023626482744938  0.2471620235564375
  0.1654161925777671  0.5018725162092924  0.7522137766940828
  0.1654329022760186  0.8352962321500961  0.2502528382083103
  0.1676823341056383  0.8328764985788953  0.7524713171962538
  0.4985806876664123  0.1687820979781353  0.2507942804166320
  0.4997750573704492  0.1657271344707617  0.7528380945210341
  0.5008913080848938  0.5024090306437171  0.2469794716544831
  0.4998447237239703  0.5012147098640647  0.7508670384113882
  0.4993134703889948  0.8340470087221650  0.2509290107344547
  0.4986188822549673  0.8328505882243754  0.7558262195089178
  0.8324834030141932  0.1694834879118271  0.2477490665359748
  0.8336710424460541  0.1666658139333349  0.7501408331821514
  0.8335904158325322  0.5017837542001424  0.2460254600710247
  0.8324511121021262  0.5011338662925650  0.7509761530731202
  0.8323472323250128  0.8341824801893857  0.2508888750009250
  0.8318464981977041  0.8328611718352892  0.7526598687766700
  0.2505438407194296  0.2570674766421516  0.3568587283207862
  0.2511810663096741  0.2572608548432630  0.8613736721822230
  0.2540654148120739  0.5944078917222455  0.3457806271934334
  0.2528222709259202  0.5849804588586582  0.8613730020232893
  0.2500922744020995  0.9245277673435975  0.3535708101817043
  0.2500538095627751  0.9208483744153660  0.8644911543560588
  0.5874461069435106  0.2572783986154830  0.3567399918632093
  0.5875618229869762  0.2536083088140745  0.8599996355291651
  0.5915802400491227  0.5865059007319837  0.3533978960895029
  0.5875357561337581  0.5838466799475870  0.8624207546471335
  0.5859872318403914  0.9208494624155316  0.3600495795776799
  0.5866355845206809  0.9208107608863112  0.8645407902543870
  0.9199573650646941  0.2559387014174280  0.3555541344108720
  0.9195959888561749  0.2534778956268510  0.8601649450137067
  0.9190777216392836  0.5864469837326403  0.3536724627272962
  0.9219846191594320  0.5849187458491188  0.8613542588265277
  0.9224174524138753  0.9248263983448076  0.3537752289924916
  0.9196527443700130  0.9206190880357449  0.8612111589501218
  0.0813645308875576  0.0777306753582250  0.1392047889970064
  0.0815134422026738  0.0784808214745310  0.6427246035247342
  0.0815274943653450  0.4144786323851230  0.1360911580991603
  0.0811127236647129  0.4119344793583901  0.6480976705608404
  0.0788534264488323  0.7511423477146413  0.1398092261891990
  0.0784490732731095  0.7420821762147904  0.6526202406465054
  0.4131671096836099  0.0809866584805563  0.1408328183274375
  0.4129813487991654  0.0770791242701664  0.6467697603769998
  0.4131074763078016  0.4142651865143447  0.1383905371816490
  0.4091495218558840  0.4118953132660649  0.6481474370978356
  0.4097680448071663  0.7513184994628895  0.1398436982338278
  0.4139044896203694  0.7483047975352383  0.6478249017519637
  0.7449824992077816  0.0810216712434468  0.1407762656730586
  0.7457409627455931  0.0784303569942936  0.6427269733571713
  0.7464898178572480  0.4146209332241286  0.1359705568715404
  0.7460307696093557  0.4145239786638076  0.6416292004799193
  0.7447224081941205  0.7505016845016999  0.1397027455785646
  0.7401400538368510  0.7482219280976814  0.6478765531794528
 
             NaN             NaN             NaN
             NaN             NaN             NaN
             NaN             NaN             NaN
             NaN             NaN             NaN
             NaN             NaN             NaN
             NaN             NaN             NaN
             NaN             NaN             NaN
             NaN             NaN             NaN
             NaN             NaN             NaN
             NaN             NaN             NaN
             NaN             NaN             NaN
             NaN             NaN             NaN
             NaN             NaN             NaN
             NaN             NaN             NaN
             NaN             NaN             NaN
             NaN             NaN             NaN
             NaN             NaN             NaN
             NaN             NaN             NaN
             NaN             NaN             NaN
             NaN             NaN             NaN
             NaN             NaN             NaN
             NaN             NaN             NaN
             NaN             NaN             NaN
             NaN             NaN             NaN
             NaN             NaN             NaN
             NaN             NaN             NaN
             NaN             NaN             NaN
             NaN             NaN             NaN
             NaN             NaN             NaN
             NaN             NaN             NaN
             NaN             NaN             NaN
             NaN             NaN             NaN
             NaN             NaN             NaN
             NaN             NaN             NaN
             NaN             NaN             NaN
             NaN             NaN             NaN
             NaN             NaN             NaN
             NaN             NaN             NaN
             NaN             NaN             NaN
             NaN             NaN             NaN
             NaN             NaN             NaN
             NaN             NaN             NaN
             NaN             NaN             NaN
             NaN             NaN             NaN
             NaN             NaN             NaN
             NaN             NaN             NaN
             NaN             NaN             NaN
             NaN             NaN             NaN
             NaN             NaN             NaN
             NaN             NaN             NaN
             NaN             NaN             NaN
             NaN             NaN             NaN
             NaN             NaN             NaN
             NaN             NaN             NaN
             NaN             NaN             NaN
             NaN             NaN             NaN
             NaN             NaN             NaN
             NaN             NaN             NaN
             NaN             NaN             NaN
             NaN             NaN             NaN
             NaN             NaN             NaN
             NaN             NaN             NaN
             NaN             NaN             NaN
             NaN             NaN             NaN
             NaN             NaN             NaN
             NaN             NaN             NaN
             NaN             NaN             NaN
             NaN             NaN             NaN
             NaN             NaN             NaN
             NaN             NaN             NaN
