Li16 Co18 O36
1.0
8.135304 -0.001593 2.411627
3.710532 7.228363 2.408198
-0.022551 -0.018072 10.040971
Li Co O
16 18 36
direct
0.292269 0.404709 0.515956 Li
0.336120 0.330975 1.002236 Li
0.336427 0.666815 0.998985 Li
0.336214 0.997724 0.000121 Li
0.334895 -0.006483 0.504156 Li
0.667648 0.332979 0.999135 Li
0.660077 0.341172 0.495827 Li
0.665766 0.666854 0.000643 Li
0.668343 0.667031 0.501084 Li
0.666584 1.000144 1.000234 Li
0.671602 -0.008223 0.503095 Li
0.996469 0.333857 0.000781 Li
0.002896 0.345514 0.497139 Li
0.996628 0.668428 0.000801 Li
0.998054 0.002185 0.997122 Li
1.009042 0.978557 0.500553 Li
0.166593 0.167507 0.248297 Co
0.166714 0.165700 0.751917 Co
0.166156 0.500869 0.248913 Co
0.166648 0.501080 0.747746 Co
0.166490 0.832273 0.251249 Co
0.167393 0.832570 0.751862 Co
0.499732 0.167086 0.250252 Co
0.499969 0.165880 0.751356 Co
0.500960 0.500659 0.247825 Co
0.499966 0.500525 0.749979 Co
0.500079 0.832799 0.250408 Co
0.498846 0.832713 0.754487 Co
0.833558 0.167713 0.247460 Co
0.833645 0.166362 0.749820 Co
0.834286 0.500308 0.246257 Co
0.833044 0.500532 0.750189 Co
0.833425 0.832887 0.250486 Co
0.832509 0.832578 0.751501 Co
0.251870 0.255654 0.356669 O
0.251601 0.257842 0.859213 O
0.255239 0.589541 0.349083 O
0.252550 0.584054 0.859001 O
0.251457 0.922391 0.354658 O
0.250694 0.920359 0.863400 O
0.588660 0.254963 0.356036 O
0.587350 0.253531 0.859064 O
0.591583 0.585482 0.353780 O
0.587366 0.584156 0.861311 O
0.587158 0.919782 0.358967 O
0.586788 0.920596 0.862921 O
0.920602 0.254549 0.355334 O
0.919776 0.253287 0.859518 O
0.920264 0.585192 0.353404 O
0.923773 0.584468 0.859146 O
0.922065 0.923854 0.353682 O
0.919817 0.920259 0.860472 O
0.082213 0.076554 0.139996 O
0.081180 0.078177 0.642858 O
0.082657 0.413567 0.137501 O
0.081262 0.410764 0.646750 O
0.080327 0.747617 0.140823 O
0.078982 0.743446 0.649965 O
0.413403 0.079813 0.140872 O
0.412880 0.077417 0.645362 O
0.412443 0.413353 0.139405 O
0.410505 0.411565 0.645811 O
0.410716 0.748833 0.140613 O
0.413706 0.747495 0.646432 O
0.745774 0.079501 0.140596 O
0.746022 0.078181 0.642432 O
0.746894 0.413738 0.136499 O
0.746179 0.413953 0.641552 O
0.745841 0.748518 0.139627 O
0.740418 0.747671 0.647197 O
