Li47 P16 O64                            
   1.00000000000000     
    10.4642940000000007   -0.0023760000000000   -0.0121860000000000
    -0.0027350000000000   12.2011810000000001   -0.0044160000000000
    -0.0114910000000000   -0.0035500000000000    9.8383810000000000
   Li   P    O 
    47    16    64
Direct
  0.4825718615281151  0.3168459243135761  0.0798486679125740
  0.6639573616336426  0.2522521571505678  0.6016192427097109
  0.6639969651560654  0.7511900135539314  0.0973398852450272
  0.6643661756594036  0.7520831394280790  0.5986147013419043
  0.1656713238478071  0.4977088555734920  0.1520919899128808
  0.1648293409000392  0.4990503940046862  0.6520383060053020
  0.1633320308411731  0.9947937361419364  0.1534975517435809
  0.1642401688580494  0.9985776482081201  0.6523299084438906
  0.3356954874030016  0.0000112630115201  0.4030811514085796
  0.3369863497169830  0.0001047922972409  0.9032557541023937
  0.3382211777947592  0.5000355760187470  0.3972020201436748
  0.3388105138544439  0.4969196478640537  0.9100398891252810
  0.8324513607936183  0.2492314297881568  0.3425687975250187
  0.8354482744955027  0.2488992462499681  0.8546371496815585
  0.8361296850212330  0.7487499429549647  0.3476697027297346
  0.8364678799266333  0.7488927390551936  0.8478094601164617
  0.3366327745005411  0.2501969957195466  0.4004321001892905
  0.3324291194458097  0.2481792031629603  0.8989111651857427
  0.3369439256102931  0.7495607581241758  0.4014413521727882
  0.3367913287275822  0.7488883676706739  0.9042944726807136
  0.8367776347066316  0.0023491423066818  0.3471797347218840
  0.8368770886157265  0.0018181245802170  0.8485843426187825
  0.8339953487786612  0.5007078791565811  0.3483449764953420
  0.8353606659576327  0.5006047918644652  0.8488508705503919
  0.6616112588954383  0.4966361073288604  0.0965839874308797
  0.6639005970961689  0.5024558157782285  0.5994668112449132
  0.6663079518812737  0.0048440936779073  0.1005080747463757
  0.6640604735275136  0.0013127933986032  0.5976750657218800
  0.1640336094523190  0.2508351661532827  0.1506286682582892
  0.1630237866005491  0.2504980700280920  0.6515562768879480
  0.1653463604787301  0.7503632765641322  0.1521896254233010
  0.1642514854479688  0.7508912447632922  0.6529333473929980
  0.9199491930185452  0.3739792683059290  0.1474662843352930
  0.9233601094287981  0.3745452292717797  0.6491025086817633
  0.9233667861496553  0.8756743531062812  0.1491615360559124
  0.9236008489024168  0.8755643705018338  0.6489334762315216
  0.4221586391962107  0.3760832097061212  0.5992744855931422
  0.4278059314022075  0.8750292729426770  0.1007125034714786
  0.4253610958746441  0.8754935497957109  0.6015178396289518
  0.0758375379586368  0.1253562451457897  0.3479349671631853
  0.0764415363928910  0.1243498646889094  0.8524509828960809
  0.0761901752089129  0.6240077561156340  0.3505506969918517
  0.0773712337264990  0.6238135067973526  0.8520307686939250
  0.5762685906163972  0.1290047935913549  0.3949758319993221
  0.5799968182826195  0.1291396678565226  0.9065674242925142
  0.5760767535510126  0.6252225207821845  0.4003171599934848
  0.5747364727607509  0.6241870258113821  0.8990691298082807
  0.9162833416705450  0.1250910369192758  0.0960480000836027
  0.9125830031488615  0.1252739715217754  0.5953213817418676
  0.9117072531680767  0.6253487318786646  0.0954608706274352
  0.9124941866474002  0.6252821006990182  0.5955350087325897
  0.4075699361641368  0.1182721566213538  0.1543546053888586
  0.4117850384407585  0.1246185777076538  0.6549931674236968
  0.4111447740448204  0.6278006690664824  0.1542486059511323
  0.4108095885778462  0.6261083183236090  0.6550879363492547
  0.0873993359603860  0.3755061425821061  0.4047486619582927
  0.0875800013194227  0.3752549003095659  0.9046029078868880
  0.0877084198015396  0.8742129309481229  0.4054461568138704
  0.0882248804704505  0.8739817953307064  0.9047618260243894
  0.5896198174976153  0.3775510223060618  0.3502608827316253
  0.5890625728051961  0.3743826251174621  0.8386627469920581
  0.5897552265953951  0.8760366238463037  0.3455333264398968
  0.5897819721998498  0.8758176587931957  0.8453576028962554
  0.8450826147240640  0.0217716045508640  0.1477842863462528
  0.8421900042451519  0.0218626810324663  0.6464214602503585
  0.8406532222961829  0.5229929342124593  0.1466822159360142
  0.8425792221165893  0.5226299071943046  0.6479949785399327
  0.3368559488309367  0.2199048240027400  0.0986652036301455
  0.3402469983804576  0.2273510336415791  0.6040027379475787
  0.3443559399631643  0.7345357507678659  0.1065754645097735
  0.3413083171083088  0.7300926695738568  0.6042562160943115
  0.1570284342538447  0.2722468541666186  0.3526456457491312
  0.1564063547872774  0.2716420974279705  0.8522293930346934
  0.1578259715942790  0.7711290027641979  0.3538614663481416
  0.1585718269573579  0.7708056863355938  0.8535758143755388
  0.6589556296392233  0.4809349871234422  0.4052736051233562
  0.6575253013672268  0.4777640220199557  0.8938554796486401
  0.6591668039663336  0.9795685122371461  0.3972457545443661
  0.6601316186925210  0.9782375260869012  0.8981048223552823
  0.1582545418965031  0.4784973007737316  0.3537759211927625
  0.1590412348968174  0.4776058573405092  0.8526637936888148
  0.1578480198766302  0.9772998962743781  0.3547234987183306
  0.1589943109932289  0.9768406227749381  0.8535677647492803
  0.6593151450666513  0.2743271917430914  0.4032659652879585
  0.6588926685292615  0.2703370830522976  0.8808970003865688
  0.6597898271874030  0.7729415001024044  0.3979221632009607
  0.6592161958305356  0.7717646926405061  0.8957239926688341
  0.8545431190793346  0.2285360627611710  0.1500903780752983
  0.8436584618883500  0.2280814011876221  0.6482041893581615
  0.8419442384626304  0.7289986901640508  0.1464191984322291
  0.8423470303722088  0.7286379323396572  0.6466799115547531
  0.3380715268907388  0.0136059671776398  0.1064615466737551
  0.3416704079264596  0.0209216922572759  0.6035928342766866
  0.3357040629953776  0.5299552219398633  0.1009803971510556
  0.3409040721172816  0.5239497850469610  0.6006194384816951
  0.5440439054652010  0.1210635842025680  0.1014652433760686
  0.5493873817100249  0.1253169637351583  0.6011556981663949
  0.5495382842998824  0.6268101227499709  0.1007748951198888
  0.5497254262073609  0.6279918244069430  0.6044700244117044
  0.0570386647715536  0.1198830354700427  0.1439736957579254
  0.0513839693740969  0.1238496839092666  0.6476039275278476
  0.0501671694452862  0.6250506331928614  0.1480691185235587
  0.0511127200587758  0.6253797107782186  0.6477931259242380
  0.4507339119595014  0.3752276275406901  0.4030079329118391
  0.4514220282274361  0.3708593856023328  0.8946062916748931
  0.4512260309394606  0.8753940441408765  0.3976486799184817
  0.4510484286375920  0.8750542142625441  0.8964702390101236
  0.9487043087686026  0.3767060043023569  0.3539640950350500
  0.9491247111799477  0.3760930643100752  0.8520841418854894
  0.9491290492881113  0.8744056634215441  0.3532589974487265
  0.9500222878996065  0.8744236826171409  0.8512063311689173
  0.5922358753467672  0.3819499154598659  0.1963378112474736
  0.5858282989688132  0.3804374533656665  0.6822168948236987
  0.5919316309332406  0.8760472400070964  0.1888602020489310
  0.5908168346741284  0.8765767140264175  0.6883688892895448
  0.0880376181795577  0.3753044967116260  0.0610954216827341
  0.0892966514204280  0.3750806212814584  0.5618413502352215
  0.0875532431226415  0.8728412470503656  0.0613586154619072
  0.0885361660688370  0.8740573553614724  0.5623014758896134
  0.4068043587717258  0.1227945130092579  0.3114631591351882
  0.4118154175512937  0.1239798814504175  0.8117710881882163
  0.4126926125168373  0.6267141129678678  0.3115835347411223
  0.4090809497191307  0.6242306653778472  0.8118786589031796
  0.9117195542854866  0.1256120853477842  0.4385441552097037
  0.9132407385419571  0.1236418642590835  0.9386379303612534
  0.9114857228822627  0.6251227606543646  0.4387245478245628
  0.9114637835502648  0.6252924203018936  0.9384469662238646
 
             NaN             NaN             NaN
             NaN             NaN             NaN
             NaN             NaN             NaN
             NaN             NaN             NaN
             NaN             NaN             NaN
             NaN             NaN             NaN
             NaN             NaN             NaN
             NaN             NaN             NaN
             NaN             NaN             NaN
             NaN             NaN             NaN
             NaN             NaN             NaN
             NaN             NaN             NaN
             NaN             NaN             NaN
             NaN             NaN             NaN
             NaN             NaN             NaN
             NaN             NaN             NaN
             NaN             NaN             NaN
             NaN             NaN             NaN
             NaN             NaN             NaN
             NaN             NaN             NaN
             NaN             NaN             NaN
             NaN             NaN             NaN
             NaN             NaN             NaN
             NaN             NaN             NaN
             NaN             NaN             NaN
             NaN             NaN             NaN
             NaN             NaN             NaN
             NaN             NaN             NaN
             NaN             NaN             NaN
             NaN             NaN             NaN
             NaN             NaN             NaN
             NaN             NaN             NaN
             NaN             NaN             NaN
             NaN             NaN             NaN
             NaN             NaN             NaN
             NaN             NaN             NaN
             NaN             NaN             NaN
             NaN             NaN             NaN
             NaN             NaN             NaN
             NaN             NaN             NaN
             NaN             NaN             NaN
             NaN             NaN             NaN
             NaN             NaN             NaN
             NaN             NaN             NaN
             NaN             NaN             NaN
             NaN             NaN             NaN
             NaN             NaN             NaN
             NaN             NaN             NaN
             NaN             NaN             NaN
             NaN             NaN             NaN
             NaN             NaN             NaN
             NaN             NaN             NaN
             NaN             NaN             NaN
             NaN             NaN             NaN
             NaN             NaN             NaN
             NaN             NaN             NaN
             NaN             NaN             NaN
             NaN             NaN             NaN
             NaN             NaN             NaN
             NaN             NaN             NaN
             NaN             NaN             NaN
             NaN             NaN             NaN
             NaN             NaN             NaN
             NaN             NaN             NaN
             NaN             NaN             NaN
             NaN             NaN             NaN
             NaN             NaN             NaN
             NaN             NaN             NaN
             NaN             NaN             NaN
             NaN             NaN             NaN
             NaN             NaN             NaN
             NaN             NaN             NaN
             NaN             NaN             NaN
             NaN             NaN             NaN
             NaN             NaN             NaN
             NaN             NaN             NaN
             NaN             NaN             NaN
             NaN             NaN             NaN
             NaN             NaN             NaN
             NaN             NaN             NaN
             NaN             NaN             NaN
             NaN             NaN             NaN
             NaN             NaN             NaN
             NaN             NaN             NaN
             NaN             NaN             NaN
             NaN             NaN             NaN
             NaN             NaN             NaN
             NaN             NaN             NaN
             NaN             NaN             NaN
             NaN             NaN             NaN
             NaN             NaN             NaN
             NaN             NaN             NaN
             NaN             NaN             NaN
             NaN             NaN             NaN
             NaN             NaN             NaN
             NaN             NaN             NaN
             NaN             NaN             NaN
             NaN             NaN             NaN
             NaN             NaN             NaN
             NaN             NaN             NaN
             NaN             NaN             NaN
             NaN             NaN             NaN
             NaN             NaN             NaN
             NaN             NaN             NaN
             NaN             NaN             NaN
             NaN             NaN             NaN
             NaN             NaN             NaN
             NaN             NaN             NaN
             NaN             NaN             NaN
             NaN             NaN             NaN
             NaN             NaN             NaN
             NaN             NaN             NaN
             NaN             NaN             NaN
             NaN             NaN             NaN
             NaN             NaN             NaN
             NaN             NaN             NaN
             NaN             NaN             NaN
             NaN             NaN             NaN
             NaN             NaN             NaN
             NaN             NaN             NaN
             NaN             NaN             NaN
             NaN             NaN             NaN
             NaN             NaN             NaN
             NaN             NaN             NaN
             NaN             NaN             NaN
             NaN             NaN             NaN
             NaN             NaN             NaN
