Mg15 Mn32 O64                           
   1.00000000000000     
    11.6339629999999996    0.0000030000000000    0.0000010000000000
     0.0000020000000000   11.6314530000000005    0.0000000000000000
     0.0000010000000000    0.0000000000000000    9.3712900000000001
   Mg   Mn   O 
    15    32    64
Direct
  0.4999999833623119  0.6114764171213106  0.5901711718627363
  0.5000000061906246  0.2517270229261082  0.7543132720306112
  0.0000000105309552  0.2508856067915510  0.7476664856080788
  0.0000000218243824  0.7496879435835527  0.7486818811004111
 -0.0000000215229911  0.4995004261406549  0.5006115551497045
  0.0000000417707925  0.9982147476399869  0.5029689683504327
  0.5000000603123265  0.9971930622431038  0.4961131385804389
  0.2466684412072075  0.0013783154537141  0.2513422359182543
  0.2495556786396066  0.4983224843074739  0.2534384776735917
  0.7533316151430627  0.0013783876313988  0.2513422012991930
  0.7504443560621217  0.4983225384776474  0.2534384535336347
  0.2481902800164428  0.2497213938380612 -0.0018339080569818
  0.2512611174339796  0.7504744721863481  0.9958691620395868
  0.7518097881751032  0.2497214577373267 -0.0018339078672747
  0.7487389612754791  0.7504745147648954  0.9958691460206819
  0.1248248353432029  0.2492477847863027  0.3779958578747930
  0.1241600041309681  0.7500811736156973  0.3734676706916722
  0.6246874934268609  0.2505308311199089  0.3739628994170401
  0.6274373452576478  0.7523355064733958  0.3654360760357034
  0.3753125127085513  0.2505307562991105  0.3739627429566313
  0.3725626785579169  0.7523354566210753  0.3654360715363951
  0.8751751712581930  0.2492478261714663  0.3779957368259675
  0.8758399546794245  0.7500812588934407  0.3734673923235485
  0.1247640311673106  0.4994993997226859  0.8750535277633291
  0.1250531645286155 -0.0002710278216294  0.8716154962064198
  0.6253808679468944  0.4995999757559824  0.8810764730046278
  0.6247593743927652  0.9988579394583821  0.8790254875053176
  0.3746191371225661  0.4995999392457823  0.8810765461777194
  0.3752407251076141  0.9988578787885951  0.8790254261313124
  0.8752360416000875  0.4994994255755406  0.8750535173031503
  0.8749469227814314 -0.0002709883103941  0.8716155259267417
  0.5000000553361862  0.1251440457576480  0.1260589624376633
  0.5000000364785210  0.6246849349775166  0.1241037091656968
  0.0000000492823198  0.1249255332598306  0.1240558056081174
  0.0000000437398079  0.6248207344933425  0.1237617296703791
  0.5000000308544019  0.3735510921831257  0.1282275469097801
  0.5000000314849937  0.8779134719381040  0.1252326379547692
  0.0000000390638495  0.3746466943597437  0.1258652129256114
  0.0000000599566764  0.8747872284404276  0.1222637646017133
  0.2536989180140459  0.3762335225467181  0.6258712824397451
  0.2550669681992311  0.8711567696149634  0.6240212307973747
  0.7463011322124382  0.3762336131488490  0.6258714581173650
  0.7449331084669040  0.8711568767027555  0.6240212856460043
  0.2526441944792214  0.1237201439062783  0.6251230618897727
  0.2484753361543103  0.6244138460180146  0.6242688824493891
  0.7473558872488567  0.1237202364605434  0.6251230415602900
  0.7515246666087882  0.6244140136157158  0.6242692609858129
  0.1396800950730542  0.2495300269279533  0.6221101828669406
  0.1375391710961022  0.7510777334121896  0.6206113218071337
  0.6343267408884629  0.2504105308836329  0.6213090635396795
  0.6350510138675693  0.7417516129885739  0.6017649503884910
  0.3656733055574807  0.2504103742779210  0.6213090568087378
  0.3649490212492056  0.7417514022032549  0.6017648469976069
  0.8603199529889496  0.2495300590911332  0.6221101854812161
  0.8624608683969049  0.7510777445437282  0.6206114010810210
  0.1372397832655377  0.4976833089034376  0.6287706624741703
  0.1401874635067060 -0.0019296116229036  0.6282676002962184
  0.6349111085262468  0.5044762733043587  0.6398154067350997
  0.6338429632641773  0.9974402797270236  0.6291649087965590
  0.3650889357792690  0.5044760888781976  0.6398152788041128
  0.3661571221878839  0.9974400962962182  0.6291649007378420
  0.8627602328612926  0.4976833402720998  0.6287707778433603
  0.8598126276230168 -0.0019295875416039  0.6282676223334072
  0.4999999885966401  0.1121914724491284  0.8807832874439120
  0.4999999579904308  0.6049619272581985  0.8898719514851670
  0.0000000188847615  0.1129299468505244  0.8756174455128336
  0.0000000071305714  0.6125981368833584  0.8775216329004450
  0.5000000577438174  0.3809709530298409  0.9050466452115726
  0.5000000978688744  0.8896695057243241  0.9210311271556668
  0.0000000622972442  0.3860040570501685  0.8790810924253539
  0.0000000773791725  0.8870456732117513  0.8764063878195625
 -0.0000000245762965  0.3621000369470138  0.3727728051036638
 -0.0000000270915319  0.8636121008410559  0.3702444190014746
  0.4999999554669552  0.3602285012031739  0.3366343426983565
  0.4999999837440178  0.8707771668726608  0.3427322555137607
  0.0000000401705772  0.1358644754196627  0.3737478389184841
  0.0000000003492180  0.6366393836039007  0.3714739697129624
  0.5000000722781334  0.1374501713072376  0.3711303942438297
  0.5000000561372034  0.6450779550831600  0.3701028126009113
  0.3876570013871239  0.9998884282863415  0.1277930965967137
  0.3886137959805292  0.4970742521385009  0.1270016101517486
  0.8869137646491149  0.0004479274746583  0.1190344156557464
  0.8869645127058885  0.4991651129053197  0.1223179598536837
  0.1130863354895890  0.0004478495413536  0.1190344525138202
  0.1130355531524207  0.4991650266278190  0.1223180351992364
  0.6123430785307363  0.9998883503476975  0.1277931246773263
  0.6113862682149614  0.4970741765250915  0.1270015696660627
  0.3875133042501882  0.2500283028860890  0.1253137335374394
  0.3890357651555698  0.7531536670449024  0.1257065093440337
  0.8866463747780572  0.2492436865148852  0.1295493648448506
  0.8868585622452473  0.7502975654761137  0.1257034479616411
  0.1133537004192389  0.2492436070157377  0.1295494308005154
  0.1131415291468038  0.7502974728581493  0.1257035487151925
  0.6124867791145063  0.2500282404421955  0.1253137667531851
  0.6109642889568894  0.7531535936254552  0.1257064811443989
  0.2500971959311682  0.3618850175775872  0.3805264915317867
  0.2489243619053090  0.8637562882345944  0.3747654527783109
  0.7499027544578514  0.3618850793384911  0.3805264791412734
  0.7510755713096237  0.8637563792786319  0.3747654119154600
  0.2507561974615950  0.1368723290940285  0.3806736502748490
  0.2471885442992727  0.6373828174637481  0.3728628482824780
  0.7492439003729424  0.1368723910112590  0.3806736302506298
  0.7528114970544423  0.6373829213681674  0.3728627325551225
  0.2511964975784295  0.1123874926603046  0.8703795290269035
  0.2479004446785354  0.6126965763622635  0.8737489271657011
  0.7488035163068719  0.1123875540685552  0.8703795513626790
  0.7520995404081047  0.6126966285455203  0.8737489000744754
  0.2502028229573066  0.3865567920485081  0.8725282811666260
  0.2505122581712412  0.8872281348616186  0.8698450957701725
  0.7497972914198540  0.3865568387044924  0.8725282375506690
  0.7494879004953928  0.8872281949222495  0.8698451165876638
 
             NaN             NaN             NaN
             NaN             NaN             NaN
             NaN             NaN             NaN
             NaN             NaN             NaN
             NaN             NaN             NaN
             NaN             NaN             NaN
             NaN             NaN             NaN
             NaN             NaN             NaN
             NaN             NaN             NaN
             NaN             NaN             NaN
             NaN             NaN             NaN
             NaN             NaN             NaN
             NaN             NaN             NaN
             NaN             NaN             NaN
             NaN             NaN             NaN
             NaN             NaN             NaN
             NaN             NaN             NaN
             NaN             NaN             NaN
             NaN             NaN             NaN
             NaN             NaN             NaN
             NaN             NaN             NaN
             NaN             NaN             NaN
             NaN             NaN             NaN
             NaN             NaN             NaN
             NaN             NaN             NaN
             NaN             NaN             NaN
             NaN             NaN             NaN
             NaN             NaN             NaN
             NaN             NaN             NaN
             NaN             NaN             NaN
             NaN             NaN             NaN
             NaN             NaN             NaN
             NaN             NaN             NaN
             NaN             NaN             NaN
             NaN             NaN             NaN
             NaN             NaN             NaN
             NaN             NaN             NaN
             NaN             NaN             NaN
             NaN             NaN             NaN
             NaN             NaN             NaN
             NaN             NaN             NaN
             NaN             NaN             NaN
             NaN             NaN             NaN
             NaN             NaN             NaN
             NaN             NaN             NaN
             NaN             NaN             NaN
             NaN             NaN             NaN
             NaN             NaN             NaN
             NaN             NaN             NaN
             NaN             NaN             NaN
             NaN             NaN             NaN
             NaN             NaN             NaN
             NaN             NaN             NaN
             NaN             NaN             NaN
             NaN             NaN             NaN
             NaN             NaN             NaN
             NaN             NaN             NaN
             NaN             NaN             NaN
             NaN             NaN             NaN
             NaN             NaN             NaN
             NaN             NaN             NaN
             NaN             NaN             NaN
             NaN             NaN             NaN
             NaN             NaN             NaN
             NaN             NaN             NaN
             NaN             NaN             NaN
             NaN             NaN             NaN
             NaN             NaN             NaN
             NaN             NaN             NaN
             NaN             NaN             NaN
             NaN             NaN             NaN
             NaN             NaN             NaN
             NaN             NaN             NaN
             NaN             NaN             NaN
             NaN             NaN             NaN
             NaN             NaN             NaN
             NaN             NaN             NaN
             NaN             NaN             NaN
             NaN             NaN             NaN
             NaN             NaN             NaN
             NaN             NaN             NaN
             NaN             NaN             NaN
             NaN             NaN             NaN
             NaN             NaN             NaN
             NaN             NaN             NaN
             NaN             NaN             NaN
             NaN             NaN             NaN
             NaN             NaN             NaN
             NaN             NaN             NaN
             NaN             NaN             NaN
             NaN             NaN             NaN
             NaN             NaN             NaN
             NaN             NaN             NaN
             NaN             NaN             NaN
             NaN             NaN             NaN
             NaN             NaN             NaN
             NaN             NaN             NaN
             NaN             NaN             NaN
             NaN             NaN             NaN
             NaN             NaN             NaN
             NaN             NaN             NaN
             NaN             NaN             NaN
             NaN             NaN             NaN
             NaN             NaN             NaN
             NaN             NaN             NaN
             NaN             NaN             NaN
             NaN             NaN             NaN
             NaN             NaN             NaN
             NaN             NaN             NaN
             NaN             NaN             NaN
             NaN             NaN             NaN
