Mg15 Mn32 O64
1.0
11.633963 0.000003 0.000001
0.000002 11.631453 -0.000000
0.000001 -0.000000 9.371290
Mg Mn O
15 32 64
direct
0.500000 0.595648 0.592112 Mg
0.500000 0.250932 0.749367 Mg
1.000000 0.249914 0.748819 Mg
1.000000 0.750085 0.748738 Mg
1.000000 0.500275 0.501731 Mg
0.000000 -0.000276 0.500451 Mg
0.500000 0.997170 0.499321 Mg
0.248276 0.001015 0.251180 Mg
0.249792 0.498986 0.250493 Mg
0.751724 1.001014 0.251180 Mg
0.750208 0.498986 0.250493 Mg
0.249210 0.248839 0.000059 Mg
0.250850 0.751161 -0.002513 Mg
0.750790 0.248839 0.000059 Mg
0.749150 0.751161 -0.002513 Mg
0.125118 0.250415 0.376563 Mn
0.124656 0.749585 0.374372 Mn
0.624172 0.250599 0.376586 Mn
0.625966 0.749401 0.371736 Mn
0.375828 0.250599 0.376586 Mn
0.374033 0.749401 0.371736 Mn
0.874882 0.250415 0.376562 Mn
0.875344 0.749585 0.374372 Mn
0.124828 0.499854 0.875271 Mn
0.124946 1.000146 0.873353 Mn
0.625423 0.500611 0.877174 Mn
0.624681 0.999389 0.875676 Mn
0.374577 0.500611 0.877174 Mn
0.375319 0.999389 0.875676 Mn
0.875172 0.499854 0.875272 Mn
0.875054 1.000145 0.873353 Mn
0.500000 0.124998 0.126864 Mn
0.500000 0.624923 0.123777 Mn
-0.000000 0.125072 0.125112 Mn
0.000000 0.625060 0.124426 Mn
0.500000 0.373648 0.126044 Mn
0.500000 0.876435 0.124597 Mn
0.000000 0.374924 0.125853 Mn
1.000000 0.874943 0.123685 Mn
0.251061 0.375588 0.626854 Mn
0.250902 0.873821 0.622951 Mn
0.748939 0.375588 0.626853 Mn
0.749099 0.873821 0.622951 Mn
0.250606 0.124604 0.624898 Mn
0.251357 0.625987 0.624907 Mn
0.749395 0.124604 0.624897 Mn
0.748642 0.625987 0.624908 Mn
0.137535 0.250354 0.621465 O
0.136282 0.749647 0.620029 O
0.636881 0.250192 0.622147 O
0.639910 0.749808 0.608215 O
0.363120 0.250192 0.622148 O
0.360090 0.749808 0.608216 O
0.862466 0.250354 0.621463 O
0.863718 0.749646 0.620029 O
0.137826 0.499864 0.629931 O
0.137423 0.000136 0.628433 O
0.636703 0.500384 0.645702 O
0.635848 -0.000384 0.629332 O
0.363297 0.500384 0.645701 O
0.364152 -0.000384 0.629332 O
0.862174 0.499864 0.629931 O
0.862578 0.000136 0.628433 O
0.500000 0.112752 0.878890 O
0.500000 0.610346 0.904283 O
-0.000000 0.113364 0.878125 O
1.000000 0.612849 0.878019 O
0.500000 0.388504 0.880013 O
0.500000 0.888398 0.903160 O
1.000000 0.386742 0.878493 O
-0.000000 0.887043 0.877651 O
0.000000 0.363433 0.372195 O
1.000000 0.863035 0.370310 O
0.500000 0.361764 0.364958 O
0.500000 0.864448 0.355841 O
0.000000 0.137124 0.371746 O
0.000000 0.636408 0.370761 O
0.500000 0.136248 0.372150 O
0.500000 0.637540 0.348649 O
0.387452 -0.000518 0.125420 O
0.387022 0.500520 0.117230 O
0.886988 0.000307 0.120472 O
0.886909 0.499693 0.121216 O
0.113012 0.000307 0.120472 O
0.113091 0.499693 0.121216 O
0.612548 0.999480 0.125420 O
0.612977 0.500520 0.117231 O
0.386922 0.249512 0.127168 O
0.388766 0.750490 0.125632 O
0.886847 0.250039 0.129345 O
0.886774 0.749960 0.126638 O
0.113153 0.250039 0.129345 O
0.113226 0.749960 0.126638 O
0.613078 0.249510 0.127168 O
0.611234 0.750490 0.125632 O
0.250308 0.363678 0.380280 O
0.249119 0.862710 0.375136 O
0.749692 0.363678 0.380280 O
0.750881 0.862710 0.375136 O
0.249994 0.137440 0.379598 O
0.249432 0.636173 0.375816 O
0.750006 0.137440 0.379598 O
0.750567 0.636172 0.375817 O
0.250376 0.112942 0.870727 O
0.250570 0.612117 0.874294 O
0.749623 0.112941 0.870726 O
0.749429 0.612117 0.874294 O
0.250854 0.387387 0.874293 O
0.250094 0.887555 0.870727 O
0.749147 0.387386 0.874293 O
0.749906 0.887555 0.870727 O
