Li7 Mn16 O32
1.0
8.383155 0.066851 0.003943
0.029446 8.187924 0.020262
-0.017388 -0.008566 8.251507
Li Mn O
7 16 32
direct
0.250168 0.497087 0.747330 Li
0.880393 0.874478 0.879526 Li
0.118318 0.128872 0.123598 Li
0.883631 0.371812 0.379553 Li
0.377712 0.874537 0.380565 Li
0.616463 0.128302 0.625938 Li
0.619922 0.625293 0.118121 Li
0.503137 0.252029 0.248928 Mn
0.255675 0.495383 0.242277 Mn
0.254325 0.249653 0.504051 Mn
0.503367 0.498446 0.497914 Mn
0.498881 0.749790 0.751335 Mn
0.755346 0.499470 0.742822 Mn
0.747004 0.751617 0.496377 Mn
0.243445 1.000624 0.757699 Mn
0.248850 0.749142 1.000181 Mn
0.494756 0.004126 0.003915 Mn
0.746055 0.003798 0.254878 Mn
0.751740 0.250251 -0.000145 Mn
0.000244 0.250064 0.748825 Mn
0.004844 0.496974 0.995874 Mn
0.998800 0.748252 0.250523 Mn
0.996050 0.003106 0.501447 Mn
0.752979 0.013703 0.026325 O
0.017877 0.731721 0.015396 O
0.012270 0.014179 0.738134 O
0.744870 0.735287 0.730485 O
0.238253 0.978580 0.989049 O
0.984020 0.263829 0.980991 O
0.972788 0.003204 0.269837 O
0.276527 0.264450 0.240859 O
0.748422 0.517368 0.509973 O
0.018777 0.240497 0.519791 O
0.027689 0.493937 0.229841 O
0.729464 0.235004 0.260806 O
0.262591 0.484713 0.473357 O
0.974276 0.763557 0.481393 O
0.984891 0.483975 0.760606 O
0.255168 0.766162 0.769219 O
0.252955 0.014985 0.527677 O
0.517811 0.731951 0.509932 O
0.514546 0.017030 0.239713 O
0.244629 0.731129 0.233972 O
0.738580 0.980534 0.486283 O
0.488721 0.265324 0.481519 O
0.472117 0.999654 0.771877 O
0.772462 0.267859 0.740101 O
0.246923 0.516275 0.011925 O
0.522178 0.240520 0.020764 O
0.529071 0.502755 0.729807 O
0.223911 0.230648 0.761403 O
0.759533 0.490763 0.974811 O
0.476241 0.763860 0.990300 O
0.487712 0.486062 0.258801 O
0.752488 0.767371 0.263744 O
