Li7 Mn16 O32                            
   1.00000000000000     
     8.3831550000000004    0.0668510000000000    0.0039430000000000
     0.0294460000000000    8.1879240000000006    0.0202620000000000
    -0.0173880000000000   -0.0085660000000000    8.2515070000000001
   Li   Mn   O 
     7    16    32
Direct
  0.2409870421872583  0.5051490274923099  0.7435527442769965
  0.8811637190371813  0.8730286812003027  0.8786052887726546
  0.1182018721659040  0.1296704798275302  0.1224658382491742
  0.8844670102587608  0.3714198735759807  0.3799711914534153
  0.3770643366492983  0.8736265227588740  0.3808426051133229
  0.6158668102587707  0.1291040533433381  0.6267374983004870
  0.6197523231350694  0.6247581661760191  0.1161270955887143
  0.5037005052055119  0.2519023078726949  0.2471186024417951
  0.2565462577496236  0.4966394742754813  0.2397137869031210
  0.2557264419456547  0.2459451784079878  0.4994583064768177
  0.5048872111168036  0.4972465068186803  0.4965308643016039
  0.5007547491335353  0.7523152246634437  0.7522720192196157
  0.7547062151794991  0.4985592642681869  0.7433618098261483
  0.7477272199071267  0.7530969603304695  0.4968360285901738
  0.2441140632194699  0.0024811204070021  0.7585758398459715
  0.2479017101775144  0.7513428699470890  0.0027438372391593
  0.4957431201581375  0.0063535791478571  0.0029936545311485
  0.7462268023198689  0.0035878711849049  0.2544521296088560
  0.7513677847688752  0.2501268364520063  0.9996602743063066
 -0.0020622218577213  0.2476102406492189  0.7467317242994251
  0.0000022894940720  0.4954199936987818  1.0006582694572626
  0.9978896513658898  0.7475433368940603  0.2522525182303234
  0.9968899603984823  0.0006543103075945  0.5012657524814743
  0.7529008913820824  0.0129741757316974  0.0262757126916632
  0.0169947444703879  0.7324457621247011  0.0194948932154611
  0.0139018616263712  0.0127465595505398  0.7386209478136554
  0.7510536048479515  0.7339231194923456  0.7301516414654780
  0.2393639285550891  0.9813346856203874  0.9887443871714171
  0.9817689668228844  0.2619803657247525  0.9809320277943933
  0.9728153736742006  0.0020963908263585  0.2688518446148191
  0.2758336765113925  0.2652526904723491  0.2405147614090559
  0.7388337103879301  0.5164482334400748  0.5070868178179478
  0.0178971662749052  0.2370515955024335  0.5176388788771795
  0.0306525383770506  0.4949239871292593  0.2385224933166778
  0.7295048279878451  0.2349232467986224  0.2612551750030070
  0.2753367465122640  0.4827110670662491  0.4821870390333399
  0.9725072655839221  0.7641141086132627  0.4800565210694059
  0.9877902047884616  0.4801348188945539  0.7577954965423043
  0.2517591415748462  0.7636126747128357  0.7729510478623257
  0.2539538620387408  0.0138293593173190  0.5270292980415103
  0.5166243869484081  0.7334881397373506  0.5171844911495980
  0.5141241323051986  0.0171694132567992  0.2394822108034306
  0.2471981728994499  0.7307211580864350  0.2356979121661665
  0.7384222628832084  0.9811365262983932  0.4867491553713746
  0.4912291791477655  0.2658171524533871  0.4802903725102546
  0.4718191777318255  1.0013077392108130  0.7703609312101578
  0.7709295178617209  0.2676322298404293  0.7386682880033804
  0.2518193536550223  0.5203178284057451  0.0106910132361090
  0.5240160933980675  0.2404834650500510  0.0214207872629626
  0.5242372170232505  0.5032205504635830  0.7240303188382248
  0.2219446147442873  0.2361759008893759  0.7569216671320236
  0.7516542066419872  0.4909701735397878  0.9712918688414287
  0.4785099754510439  0.7649097868138207  0.9845292269800792
  0.4888497791698509  0.4871895774807111  0.2610433759735575
  0.7493679345162332  0.7677307461827336  0.2642106283488390
 
             NaN             NaN             NaN
             NaN             NaN             NaN
             NaN             NaN             NaN
             NaN             NaN             NaN
             NaN             NaN             NaN
             NaN             NaN             NaN
             NaN             NaN             NaN
             NaN             NaN             NaN
             NaN             NaN             NaN
             NaN             NaN             NaN
             NaN             NaN             NaN
             NaN             NaN             NaN
             NaN             NaN             NaN
             NaN             NaN             NaN
             NaN             NaN             NaN
             NaN             NaN             NaN
             NaN             NaN             NaN
             NaN             NaN             NaN
             NaN             NaN             NaN
             NaN             NaN             NaN
             NaN             NaN             NaN
             NaN             NaN             NaN
             NaN             NaN             NaN
             NaN             NaN             NaN
             NaN             NaN             NaN
             NaN             NaN             NaN
             NaN             NaN             NaN
             NaN             NaN             NaN
             NaN             NaN             NaN
             NaN             NaN             NaN
             NaN             NaN             NaN
             NaN             NaN             NaN
             NaN             NaN             NaN
             NaN             NaN             NaN
             NaN             NaN             NaN
             NaN             NaN             NaN
             NaN             NaN             NaN
             NaN             NaN             NaN
             NaN             NaN             NaN
             NaN             NaN             NaN
             NaN             NaN             NaN
             NaN             NaN             NaN
             NaN             NaN             NaN
             NaN             NaN             NaN
             NaN             NaN             NaN
             NaN             NaN             NaN
             NaN             NaN             NaN
             NaN             NaN             NaN
             NaN             NaN             NaN
             NaN             NaN             NaN
             NaN             NaN             NaN
             NaN             NaN             NaN
             NaN             NaN             NaN
             NaN             NaN             NaN
             NaN             NaN             NaN
