Na15 V32 O64
1.0
9.215492 0.000067 -0.002422
0.000085 11.524215 -0.000062
-0.002809 -0.000058 10.709041
Na V O
15 32 64
direct
0.740822 0.541747 0.153845 Na
0.740856 0.083268 0.153805 Na
0.742055 0.812597 0.150859 Na
0.241831 0.062861 0.348814 Na
0.242165 0.312546 0.347572 Na
0.241802 0.562266 0.348756 Na
0.241589 0.812566 0.348293 Na
0.258635 0.187340 0.848388 Na
0.258670 0.437515 0.848342 Na
0.258290 0.687620 0.849048 Na
0.258295 0.937260 0.848964 Na
0.758288 0.186997 0.650907 Na
0.758338 0.437838 0.651033 Na
0.758323 0.686893 0.650914 Na
0.758365 0.937931 0.651026 Na
0.586125 0.062773 0.895116 V
0.590272 0.312570 0.899873 V
0.586114 0.562225 0.895136 V
0.586984 0.812489 0.896882 V
0.088259 0.062392 0.603837 V
0.086380 0.312499 0.603733 V
0.088284 0.562604 0.603850 V
0.085411 0.812466 0.603827 V
0.412211 0.188549 0.103619 V
0.412092 0.436447 0.103645 V
0.414400 0.687000 0.104169 V
0.414327 0.938061 0.104095 V
0.912593 0.187953 0.395966 V
0.912652 0.437117 0.396006 V
0.912675 0.686985 0.395623 V
0.912741 0.938036 0.395684 V
0.559676 0.062708 0.386628 V
0.564710 0.312502 0.379985 V
0.559645 0.562019 0.386658 V
0.561927 0.812510 0.384778 V
0.061601 0.062297 0.114655 V
0.053332 0.312440 0.115818 V
0.061647 0.563056 0.114614 V
0.060743 0.812482 0.114789 V
0.440192 0.190919 0.614346 V
0.440140 0.433955 0.614353 V
0.438640 0.690147 0.614835 V
0.438605 0.934763 0.614855 V
0.939592 0.187643 0.885003 V
0.939761 0.437379 0.885122 V
0.938671 0.687370 0.885518 V
0.938875 0.937673 0.885558 V
0.793043 0.062536 0.852714 O
0.794325 0.312495 0.852609 O
0.793061 0.562456 0.852768 O
0.793097 0.812469 0.853743 O
0.295162 0.062531 0.645328 O
0.292316 0.312451 0.647568 O
0.295174 0.562487 0.645354 O
0.291172 0.812446 0.647895 O
0.205384 0.187597 0.145939 O
0.205277 0.437496 0.145946 O
0.207320 0.687819 0.146799 O
0.207200 0.937296 0.146882 O
0.706666 0.185580 0.358525 O
0.706711 0.439502 0.358554 O
0.706368 0.687237 0.355077 O
0.706443 0.937731 0.355016 O
0.889832 0.062450 0.520013 O
0.889450 0.312509 0.520163 O
0.889852 0.562590 0.520029 O
0.888931 0.812498 0.519316 O
0.387974 0.062185 0.980123 O
0.387243 0.312491 0.979865 O
0.388014 0.562803 0.980165 O
0.389350 0.812513 0.980916 O
0.111663 0.187456 0.480219 O
0.111716 0.437571 0.480219 O
0.111275 0.687564 0.479946 O
0.111299 0.937451 0.479948 O
0.607815 0.187493 0.016953 O
0.607795 0.437510 0.017030 O
0.611438 0.686502 0.019911 O
0.611494 0.938530 0.019925 O
0.979138 0.062966 0.282474 O
0.980495 0.312486 0.284660 O
0.979159 0.562244 0.282464 O
0.979026 0.812493 0.282707 O
0.479000 0.063271 0.217492 O
0.475794 0.312499 0.217264 O
0.478945 0.561780 0.217516 O
0.480459 0.812500 0.217248 O
0.021070 0.187109 0.716766 O
0.021134 0.437930 0.716809 O
0.020379 0.687449 0.717000 O
0.020432 0.937545 0.717003 O
0.521216 0.188303 0.782459 O
0.521248 0.436598 0.782448 O
0.519721 0.688494 0.782947 O
0.519652 0.936421 0.782932 O
0.575577 0.062080 0.572316 O
0.581549 0.312470 0.568808 O
0.575557 0.562812 0.572331 O
0.580795 0.812467 0.570484 O
0.078898 0.061883 0.928471 O
0.078199 0.312456 0.928394 O
0.078925 0.563238 0.928524 O
0.078205 0.812494 0.929455 O
0.422713 0.188273 0.429297 O
0.422571 0.436610 0.429319 O
0.421535 0.688258 0.429536 O
0.421428 0.936618 0.429568 O
0.925049 0.186957 0.068378 O
0.925305 0.438143 0.068473 O
0.921592 0.687002 0.070478 O
0.921805 0.938134 0.070552 O
