Mg15 Mn32 O64                           
   1.00000000000000     
    11.4347060000000003   -0.0009100000000000    0.0006910000000000
    -0.0006600000000000   11.4189930000000004   -0.0000090000000000
     0.0010060000000000    0.0004090000000000    9.2386199999999992
   Mg   Mn   O 
    15    32    64
Direct
  0.5000952219183219  0.4903486339533586  0.4843139879703949
  0.9993903895663783  0.2361454717128512  0.7332466045350570
  0.0000753269246923  0.7356234426833146  0.7326940617940112
  0.4997243764507375  0.2333527561746564  0.7359902527614367
  0.0001031435683539  0.4866440342512483  0.4872496148785768
  0.9997266945345820  0.9853042952702966  0.4862071212832206
  0.4994382090904791  0.9782909643777108  0.4827342951869033
  0.2468459288442163  0.9867023703865001  0.2354768815043339
  0.2476563914651852  0.4835077199273033  0.2351863553837377
  0.7532481464147290  0.9866216547663367  0.2355005125913607
  0.7526758795245778  0.4834684600608092  0.2351243999074709
  0.2496711499892469  0.2343593023942392  0.9838264405819750
  0.2526189415396981  0.7351449588794294  0.9806632478623495
  0.7504218457490099  0.2342377681090177  0.9836651899832678
  0.7477575765597030  0.7350224620157807  0.9807869756986667
  0.1248936436944526  0.2359765552443251  0.3609540166952537
  0.1242949612249758  0.7357600024741319  0.3589442639362146
  0.6246715857082418  0.2355511050084023  0.3629693870522762
  0.6277220786401371  0.7335141826417835  0.3552527001945880
  0.3753238623887629  0.2355653228586472  0.3629189484652701
  0.3723315444200161  0.7335148015250911  0.3552690017278293
  0.8750598061334280  0.2359256933128721  0.3611105343250036
  0.8758122051696349  0.7357312466276874  0.3588335048683178
  0.1250980194634030  0.9859241452022612  0.8556635839166274
  0.1250028476912675  0.4857167499518038  0.8588551020508401
  0.6245446708685892  0.9810583565692597  0.8606793945361236
  0.6245938125394526  0.4859578024540957  0.8610850135187282
  0.3753905022787334  0.9813068997493484  0.8605504535328979
  0.3755365616096610  0.4860101074166607  0.8612113005465886
  0.8748870320153984  0.9858858302920248  0.8556324201328398
  0.8751060518303950  0.4857005880263458  0.8589092742786478
  0.0000199737414674  0.1110429925264069  0.1096734821718999
  0.0003836741311674  0.6116079983037852  0.1066084237388042
  0.5002645030991046  0.1070279701860089  0.1139794884783966
  0.5001430247323252  0.6060005739300360  0.1088342337565967
  0.0000382213402413  0.3609807824938631  0.1098857273642956
  0.0000567692492679  0.8609083376957242  0.1046019365818336
  0.5000289836956030  0.3561586936464440  0.1114822231110846
  0.5000453464488016  0.8591383804988465  0.1091440626918484
  0.2503861663564249  0.3613353418942727  0.6110262574085324
  0.2526448723288423  0.8585744656675803  0.6057271064794802
  0.7495660962494809  0.3610716407450258  0.6109893085295854
  0.7472648784701330  0.8581230347699529  0.6057156974116533
  0.2504157748340642  0.1105737716382080  0.6103391196987551
  0.2526173583161253  0.6132080477570857  0.6104434626819780
  0.7475741331337860  0.1089947368567880  0.6103345656446262
  0.7474926997855547  0.6130127465890474  0.6103882269453536
  0.1374315296470348  0.2358756923283684  0.6064495617198258
  0.1368776026283526  0.7356060853464050  0.6045697015496199
  0.6365507843067838  0.2353566035415553  0.6071437062024244
  0.6398712988499242  0.7350705686446634  0.5845338832755884
  0.3626880922385891  0.2356475336589693  0.6073268268167196
  0.3601379755409300  0.7355517927996859  0.5846481641655356
  0.8613408686023557  0.2347107150931691  0.6064878546584831
  0.8632488743733947  0.7354380342115560  0.6045800179827293
  0.1383999790892439  0.9854890681762370  0.6124268219645387
  0.1384200143653270  0.4860982231611661  0.6143264805555789
  0.6343078301038007  0.9839669645605832  0.6148993488571294
  0.6355103529663239  0.4857399259366295  0.6160024117993145
  0.3645420001295588  0.9852740612350859  0.6148472861161003
  0.3646456136942813  0.4858706506083736  0.6160194700022144
  0.8608719603131176  0.9851839182103065  0.6123577888315065
  0.8617242681299644  0.4857608148449625  0.6143097154872923
  0.9999426923022668  0.0987909848383865  0.8613358829745277
  0.0001119089687893  0.5986336762403683  0.8622269847467572
  0.5000151566190668  0.0937719182915562  0.8641219503403971
  0.5001558139218106  0.5944818170033073  0.9062280011718935
  0.0000091469930357  0.3729304506904373  0.8628341018533797
  1.0000026913281306  0.8734271080008418  0.8606027042599140
  0.5000277832711687  0.3724935317526724  0.8642659193255813
  0.4999233601020969  0.8719294231277058  0.9068213559988901
  0.9999710505346311  0.3490549552061157  0.3573587771484402
  0.0000558741323066  0.8488455530879828  0.3550177375299808
  0.5000090884245147  0.3483376254734045  0.3585675593589529
  0.5000662413053283  0.8473308430032807  0.3302607327545420
  0.9999672481807059  0.1229349358570357  0.3566855453971174
  0.0000776422080947  0.6227991357892967  0.3552924951301358
  0.4999744610975639  0.1214719751074137  0.3588776860979349
  0.5000252379060338  0.6184545835165298  0.3291546949455315
  0.3885426667810165  0.9810746896910826  0.1145138724846664
  0.3887029842865203  0.4836563535612751  0.1131097333721613
  0.8875035266895491  0.9863235335787660  0.1040431153546102
  0.8877206575753720  0.4858297155434982  0.1049455252059302
  0.1125523476960664  0.9863948498857096  0.1040717704284908
  0.1126922011010838  0.4856358251781001  0.1049481202609320
  0.6117269523293200  0.9809554949871251  0.1143684637751669
  0.6115170458390756  0.4836839917653006  0.1131417288650926
  0.3874939904792168  0.2320369910365936  0.1131449830530144
  0.3903726213906272  0.7328641865153978  0.1110062643832675
  0.8870023309198963  0.2359529082598028  0.1134741587129554
  0.8870214028768753  0.7360237907360361  0.1091011793006506
  0.1130361548207540  0.2359636339255110  0.1135863643940284
  0.1133719515847844  0.7361736129640263  0.1090777380942792
  0.6126803288997484  0.2321245612981840  0.1130758260044494
  0.6097727898108956  0.7329102779329596  0.1109628876462724
  0.2503651784567341  0.3480511364112233  0.3645984487588619
  0.2493785527368009  0.8478494663951852  0.3578782344077444
  0.7496723497713239  0.3480131543066242  0.3645798680800950
  0.7508187841953365  0.8478188348697515  0.3579264822415262
  0.2500191151456470  0.1231021074728043  0.3641568458395996
  0.2488940137099045  0.6222384307962143  0.3579138000726328
  0.7498165169708816  0.1229748705589223  0.3641273365782722
  0.7511757354353911  0.6222476685394371  0.3577588374818875
  0.2516574344756031  0.0970157616282973  0.8556650028421176
  0.2508704071954033  0.5971646952875893  0.8564545952907845
  0.7481485070368101  0.0967975608133372  0.8555459800556205
  0.7493120962118176  0.5970984562072130  0.8564467426421992
  0.2505748066134233  0.3725726170624971  0.8567223390237990
  0.2497584157267267  0.8724686096379634  0.8552400763139131
  0.7495721694476618  0.3724817159826705  0.8566880132175604
  0.7502700755165299  0.8723237670734776  0.8553081502394480
 
             NaN             NaN             NaN
             NaN             NaN             NaN
             NaN             NaN             NaN
             NaN             NaN             NaN
             NaN             NaN             NaN
             NaN             NaN             NaN
             NaN             NaN             NaN
             NaN             NaN             NaN
             NaN             NaN             NaN
             NaN             NaN             NaN
             NaN             NaN             NaN
             NaN             NaN             NaN
             NaN             NaN             NaN
             NaN             NaN             NaN
             NaN             NaN             NaN
             NaN             NaN             NaN
             NaN             NaN             NaN
             NaN             NaN             NaN
             NaN             NaN             NaN
             NaN             NaN             NaN
             NaN             NaN             NaN
             NaN             NaN             NaN
             NaN             NaN             NaN
             NaN             NaN             NaN
             NaN             NaN             NaN
             NaN             NaN             NaN
             NaN             NaN             NaN
             NaN             NaN             NaN
             NaN             NaN             NaN
             NaN             NaN             NaN
             NaN             NaN             NaN
             NaN             NaN             NaN
             NaN             NaN             NaN
             NaN             NaN             NaN
             NaN             NaN             NaN
             NaN             NaN             NaN
             NaN             NaN             NaN
             NaN             NaN             NaN
             NaN             NaN             NaN
             NaN             NaN             NaN
             NaN             NaN             NaN
             NaN             NaN             NaN
             NaN             NaN             NaN
             NaN             NaN             NaN
             NaN             NaN             NaN
             NaN             NaN             NaN
             NaN             NaN             NaN
             NaN             NaN             NaN
             NaN             NaN             NaN
             NaN             NaN             NaN
             NaN             NaN             NaN
             NaN             NaN             NaN
             NaN             NaN             NaN
             NaN             NaN             NaN
             NaN             NaN             NaN
             NaN             NaN             NaN
             NaN             NaN             NaN
             NaN             NaN             NaN
             NaN             NaN             NaN
             NaN             NaN             NaN
             NaN             NaN             NaN
             NaN             NaN             NaN
             NaN             NaN             NaN
             NaN             NaN             NaN
             NaN             NaN             NaN
             NaN             NaN             NaN
             NaN             NaN             NaN
             NaN             NaN             NaN
             NaN             NaN             NaN
             NaN             NaN             NaN
             NaN             NaN             NaN
             NaN             NaN             NaN
             NaN             NaN             NaN
             NaN             NaN             NaN
             NaN             NaN             NaN
             NaN             NaN             NaN
             NaN             NaN             NaN
             NaN             NaN             NaN
             NaN             NaN             NaN
             NaN             NaN             NaN
             NaN             NaN             NaN
             NaN             NaN             NaN
             NaN             NaN             NaN
             NaN             NaN             NaN
             NaN             NaN             NaN
             NaN             NaN             NaN
             NaN             NaN             NaN
             NaN             NaN             NaN
             NaN             NaN             NaN
             NaN             NaN             NaN
             NaN             NaN             NaN
             NaN             NaN             NaN
             NaN             NaN             NaN
             NaN             NaN             NaN
             NaN             NaN             NaN
             NaN             NaN             NaN
             NaN             NaN             NaN
             NaN             NaN             NaN
             NaN             NaN             NaN
             NaN             NaN             NaN
             NaN             NaN             NaN
             NaN             NaN             NaN
             NaN             NaN             NaN
             NaN             NaN             NaN
             NaN             NaN             NaN
             NaN             NaN             NaN
             NaN             NaN             NaN
             NaN             NaN             NaN
             NaN             NaN             NaN
             NaN             NaN             NaN
             NaN             NaN             NaN
