Li18 Co18 O36                           
   1.00000000000000     
     8.1762906849474337   -0.0000367744744574    2.4215973667412465
     3.7351287967528157    7.2775650288223774    2.4032594244502055
     0.0083420244696728   -0.0199868099645895    9.9791063597076448
   Li   Co   O 
    16    18    36
Direct
  0.3100585483434957  0.3794334720005837  0.5004566309852071
  0.3327727358744464  0.3335090161274459  0.0000672327343309
  0.3331363037632250  0.6672881065908542  0.9998322471289323
  0.3334680017486198  0.9995501862227367  0.0002943679559495
  0.3323827464439720  0.9906640867571752  0.5014286780339753
  0.6670782247913720  0.3338170060690647  0.9994095797231499
  0.6573302094193867  0.3426505863677296  0.4985507947206143
  0.6666689388246203  0.6666265320719675  0.9999944292866288
  0.6666404299508675  0.6666621834575978  0.4999936939888066
  0.6662434621380934  0.9994715356257479  0.0005938674529042
  0.6759965770037889  0.9906937702841702  0.5014289936700133
  0.9998680335512123  0.3337103696626191  0.9997052832388087
  0.0009579423704833  0.3426372381551833  0.4985376876033838
  0.0002111769722745  0.6659860879426842  0.0001747090674144
  0.0005704853844360  0.9997743774756582  0.9999380709806972
  0.0232205350049696  0.9538711225676078  0.4995725263848790
  0.1661693265379549  0.1688743321972563  0.2479107744404471
  0.1671551173775907  0.1644696838608018  0.7520572030508520
  0.1658105540987631  0.5020624693512730  0.2482389450946614
  0.1670072271339506  0.4994198448492099  0.7498783557241365
  0.1663267209103027  0.8339100971637342  0.2501315592864828
  0.1675445857159484  0.8312621467899705  0.7517785046851856
  0.4991392187731892  0.1679789533994585  0.2507578385350235
  0.5002890564220496  0.1644991345383864  0.7520764685889131
  0.5000329054299493  0.5020501736666440  0.2482063930946646
  0.5000497779300866  0.4994018423839892  0.7494828330145198
  0.4991783820969091  0.8339520661570463  0.2504820931777526
  0.4993125773823152  0.8315149359316862  0.7546845505871902
  0.8330468793980442  0.1688618853866530  0.2479056119476244
  0.8341983465643094  0.1653405505508729  0.7492656880799429
  0.8340277366814870  0.5018624177880254  0.2452981406708475
  0.8341419197562163  0.4994068041300365  0.7495010802866351
  0.8332759891990363  0.8339417843579056  0.2505415494463946
  0.8333204078749605  0.8312868312710305  0.7518168281184127
  0.2518847430805279  0.2573575036348628  0.3560177677825151
  0.2535471395152700  0.2530649556124345  0.8597855792190443
  0.2563363855953552  0.5893625653350378  0.3470461380661062
  0.2547749746687396  0.5855424241169536  0.8593279992177537
  0.2519380616607609  0.9268425549731756  0.3530245637466704
  0.2519871759944961  0.9193994067470531  0.8630281415668605
  0.5868501441267934  0.2573443656049075  0.3559924138861562
  0.5881989707163445  0.2534021489295988  0.8580111287350902
  0.5923313976516289  0.5874847194472261  0.3513902049804196
  0.5878361629234425  0.5843030490119496  0.8596261846526573
  0.5864420320107092  0.9213743438455321  0.3587112684672463
  0.5865240762886956  0.9194751153059657  0.8629678464800054
  0.9198194301511488  0.2585777770345309  0.3527592282510423
  0.9197746356161398  0.2532989836680094  0.8578384867985342
  0.9193532648692860  0.5874745758688233  0.3514717817661770
  0.9202621284439144  0.5856159483319642  0.8591215485256609
  0.9192304357773980  0.9268360341872598  0.3530692031620401
  0.9197532523968477  0.9209655295021021  0.8594530976933643
  0.0797690622784637  0.0802501855179407  0.1401779558455868
  0.0814139973057460  0.0759825968858325  0.6439662253672586
  0.0813461197784597  0.4139398996499101  0.1369651227826370
  0.0813546860333822  0.4065412508516006  0.6469751736366186
  0.0785298201401047  0.7477708494138616  0.1407112396447391
  0.0770280524342013  0.7439663616599840  0.6529883925450077
  0.4135627052068964  0.0800365075952568  0.1421627232657690
  0.4135179962613966  0.0748181977023543  0.6471931142198952
  0.4136283400737808  0.4123335059277672  0.1405917823835205
  0.4140781315082309  0.4065306492929998  0.6469397260631176
  0.4130794481806461  0.7477212727992636  0.1408773592864234
  0.4140039698092672  0.7458939075073818  0.6485199634797315
  0.7451465431473102  0.0798980954356023  0.1420089022980858
  0.7465058703363739  0.0759787701373361  0.6440113085852548
  0.7468451359572770  0.4138974850338966  0.1370062198619620
  0.7468690279494821  0.4119539898115535  0.6413109353941931
  0.7455131046000955  0.7490654553091497  0.1403635884944968
  0.7409994966430927  0.7459233871581433  0.6485944730629621
 
  0.00000000E+00  0.00000000E+00  0.00000000E+00
  0.00000000E+00  0.00000000E+00  0.00000000E+00
  0.00000000E+00  0.00000000E+00  0.00000000E+00
  0.00000000E+00  0.00000000E+00  0.00000000E+00
  0.00000000E+00  0.00000000E+00  0.00000000E+00
  0.00000000E+00  0.00000000E+00  0.00000000E+00
  0.00000000E+00  0.00000000E+00  0.00000000E+00
  0.00000000E+00  0.00000000E+00  0.00000000E+00
  0.00000000E+00  0.00000000E+00  0.00000000E+00
  0.00000000E+00  0.00000000E+00  0.00000000E+00
  0.00000000E+00  0.00000000E+00  0.00000000E+00
  0.00000000E+00  0.00000000E+00  0.00000000E+00
  0.00000000E+00  0.00000000E+00  0.00000000E+00
  0.00000000E+00  0.00000000E+00  0.00000000E+00
  0.00000000E+00  0.00000000E+00  0.00000000E+00
  0.00000000E+00  0.00000000E+00  0.00000000E+00
  0.00000000E+00  0.00000000E+00  0.00000000E+00
  0.00000000E+00  0.00000000E+00  0.00000000E+00
  0.00000000E+00  0.00000000E+00  0.00000000E+00
  0.00000000E+00  0.00000000E+00  0.00000000E+00
  0.00000000E+00  0.00000000E+00  0.00000000E+00
  0.00000000E+00  0.00000000E+00  0.00000000E+00
  0.00000000E+00  0.00000000E+00  0.00000000E+00
  0.00000000E+00  0.00000000E+00  0.00000000E+00
  0.00000000E+00  0.00000000E+00  0.00000000E+00
  0.00000000E+00  0.00000000E+00  0.00000000E+00
  0.00000000E+00  0.00000000E+00  0.00000000E+00
  0.00000000E+00  0.00000000E+00  0.00000000E+00
  0.00000000E+00  0.00000000E+00  0.00000000E+00
  0.00000000E+00  0.00000000E+00  0.00000000E+00
  0.00000000E+00  0.00000000E+00  0.00000000E+00
  0.00000000E+00  0.00000000E+00  0.00000000E+00
  0.00000000E+00  0.00000000E+00  0.00000000E+00
  0.00000000E+00  0.00000000E+00  0.00000000E+00
  0.00000000E+00  0.00000000E+00  0.00000000E+00
  0.00000000E+00  0.00000000E+00  0.00000000E+00
  0.00000000E+00  0.00000000E+00  0.00000000E+00
  0.00000000E+00  0.00000000E+00  0.00000000E+00
  0.00000000E+00  0.00000000E+00  0.00000000E+00
  0.00000000E+00  0.00000000E+00  0.00000000E+00
  0.00000000E+00  0.00000000E+00  0.00000000E+00
  0.00000000E+00  0.00000000E+00  0.00000000E+00
  0.00000000E+00  0.00000000E+00  0.00000000E+00
  0.00000000E+00  0.00000000E+00  0.00000000E+00
  0.00000000E+00  0.00000000E+00  0.00000000E+00
  0.00000000E+00  0.00000000E+00  0.00000000E+00
  0.00000000E+00  0.00000000E+00  0.00000000E+00
  0.00000000E+00  0.00000000E+00  0.00000000E+00
  0.00000000E+00  0.00000000E+00  0.00000000E+00
  0.00000000E+00  0.00000000E+00  0.00000000E+00
  0.00000000E+00  0.00000000E+00  0.00000000E+00
  0.00000000E+00  0.00000000E+00  0.00000000E+00
  0.00000000E+00  0.00000000E+00  0.00000000E+00
  0.00000000E+00  0.00000000E+00  0.00000000E+00
  0.00000000E+00  0.00000000E+00  0.00000000E+00
  0.00000000E+00  0.00000000E+00  0.00000000E+00
  0.00000000E+00  0.00000000E+00  0.00000000E+00
  0.00000000E+00  0.00000000E+00  0.00000000E+00
  0.00000000E+00  0.00000000E+00  0.00000000E+00
  0.00000000E+00  0.00000000E+00  0.00000000E+00
  0.00000000E+00  0.00000000E+00  0.00000000E+00
  0.00000000E+00  0.00000000E+00  0.00000000E+00
  0.00000000E+00  0.00000000E+00  0.00000000E+00
  0.00000000E+00  0.00000000E+00  0.00000000E+00
  0.00000000E+00  0.00000000E+00  0.00000000E+00
  0.00000000E+00  0.00000000E+00  0.00000000E+00
  0.00000000E+00  0.00000000E+00  0.00000000E+00
  0.00000000E+00  0.00000000E+00  0.00000000E+00
  0.00000000E+00  0.00000000E+00  0.00000000E+00
  0.00000000E+00  0.00000000E+00  0.00000000E+00
