Li16 Co18 O36
1.0
8.176291 -0.000037 2.421597
3.735129 7.277565 2.403259
0.008342 -0.019987 9.979106
Li Co O
16 18 36
direct
0.310059 0.379433 0.500457 Li
0.332773 0.333509 0.000067 Li
0.333136 0.667288 0.999832 Li
0.333468 0.999550 0.000294 Li
0.332383 -0.009336 0.501429 Li
0.667078 0.333817 0.999410 Li
0.657330 0.342651 0.498551 Li
0.666669 0.666627 -0.000006 Li
0.666640 0.666662 0.499994 Li
0.666243 0.999472 1.000594 Li
0.675997 0.990694 0.501429 Li
0.999868 0.333710 -0.000295 Li
0.000958 0.342637 0.498538 Li
1.000211 0.665986 0.000175 Li
0.000570 -0.000226 0.999938 Li
0.023221 0.953871 0.499573 Li
0.166169 0.168874 0.247911 Co
0.167155 0.164470 0.752057 Co
0.165811 0.502062 0.248239 Co
0.167007 0.499420 0.749878 Co
0.166327 0.833910 0.250132 Co
0.167545 0.831262 0.751779 Co
0.499139 0.167979 0.250758 Co
0.500289 0.164499 0.752076 Co
0.500033 0.502050 0.248206 Co
0.500050 0.499402 0.749483 Co
0.499178 0.833952 0.250482 Co
0.499313 0.831515 0.754685 Co
0.833047 0.168862 0.247906 Co
0.834198 0.165341 0.749266 Co
0.834028 0.501862 0.245298 Co
0.834142 0.499407 0.749501 Co
0.833276 0.833942 0.250542 Co
0.833320 0.831287 0.751817 Co
0.251885 0.257358 0.356018 O
0.253547 0.253065 0.859786 O
0.256336 0.589363 0.347046 O
0.254775 0.585542 0.859328 O
0.251938 0.926843 0.353025 O
0.251987 0.919399 0.863028 O
0.586850 0.257344 0.355992 O
0.588199 0.253402 0.858011 O
0.592331 0.587485 0.351390 O
0.587836 0.584303 0.859626 O
0.586442 0.921374 0.358711 O
0.586524 0.919475 0.862968 O
0.919819 0.258578 0.352759 O
0.919775 0.253299 0.857838 O
0.919353 0.587475 0.351472 O
0.920262 0.585616 0.859122 O
0.919230 0.926836 0.353069 O
0.919753 0.920966 0.859453 O
0.079769 0.080250 0.140178 O
0.081414 0.075983 0.643966 O
0.081346 0.413940 0.136965 O
0.081355 0.406541 0.646975 O
0.078530 0.747771 0.140711 O
0.077028 0.743966 0.652988 O
0.413563 0.080037 0.142163 O
0.413518 0.074818 0.647193 O
0.413628 0.412334 0.140592 O
0.414078 0.406531 0.646940 O
0.413079 0.747721 0.140877 O
0.414004 0.745894 0.648520 O
0.745147 0.079898 0.142009 O
0.746506 0.075979 0.644011 O
0.746845 0.413897 0.137006 O
0.746869 0.411954 0.641311 O
0.745513 0.749065 0.140364 O
0.740999 0.745923 0.648594 O
