Mg7 Sc16 Se32                           
   1.00000000000000     
    11.1300209999999993   -0.0000050000000000   -0.0000100000000000
    -0.0000050000000000   11.1300179999999997   -0.0000110000000000
    -0.0000100000000000   -0.0000210000000000   11.1301659999999991
   Mg   Sc   Se
     7    16    32
Direct
  0.5286240601734973  0.5286214097614346  0.5286235465112221
  0.6247241154779667  0.1274751786472231  0.1274725000406962
  0.1274752979135533  0.6247267295072757  0.1274735488414842
  0.1274745527269424  0.1274748164426274  0.6247300649853806
  0.3756021508819357  0.8734643131215366  0.8734656934218038
  0.8734647785144725  0.3756040146617886  0.8734662965102190
  0.8734672501368889  0.8734658678432655  0.3756061985030014
  0.9937516029285518  0.7500953254508016  0.7500962571052726
  0.7500976107117742  0.9937501675114299  0.7500966897085319
  0.7501000325039616  0.7500965699902047  0.9937491618950650
 -0.0000209796178616 -0.0000231143428869 -0.0000218135536871
  0.0062958337758509  0.2500810434155350  0.2500786531405538
  0.2500818233800610  0.0062948663045179  0.2500802320299570
  0.2500835380485426  0.2500810015539519  0.0062968915084901
  0.7481015657309009  0.5009320568053591  0.2520807999921512
  0.7481027854784705  0.2520800085932595  0.5009240924032402
  0.0072183397383412  0.5000215416254116  0.5000246072499934
  0.2520852744991761  0.5009272622953875  0.7480970922980191
  0.2520850624901069  0.7481006735836211  0.5009264249373446
  0.5009341574800985  0.7480957531367638  0.2520795576871010
  0.5000253876811277  0.0072157513767560  0.5000239590943101
  0.5009332721126746  0.2520777657685693  0.7480914137052538
  0.5000235155683778  0.5000217651605473  0.0072099153400679
  0.7567849307682074  0.9936247182043210  0.9936259020203461
  0.9936203379314550  0.7567888512386040  0.9936291996327902
  0.9936210786367579  0.9936234828299763  0.7567844655817713
  0.7557236181080107  0.7557227442453806  0.7557336977630493
  0.2429872497938829  0.0064982827928905  0.0064939434630097
  0.0064944470651360  0.2429908384431305  0.0064969591009934
  0.0064965025877484  0.0064971273113731  0.2429943807829138
  0.2441989184367277  0.2441995284987661  0.2441883509749712
  0.7588630830817884  0.4953899751609827  0.4953951649747116
  0.9928481885903901  0.2577917798456852  0.4935792325228988
  0.9928477840537029  0.4935776645224044  0.2577904957392136
  0.7606029008489982  0.2572452863243507  0.2572399569513298
  0.2524381501519270  0.5070252181829641  0.5070309113972230
  0.0084376015384569  0.7426653961532654  0.5065741593528967
  0.0084381084147105  0.5065750387236260  0.7426700415821762
  0.2398646182082265  0.7439594079615981  0.7439634639631758
  0.2577868066330502  0.9928477792138783  0.4935781711292657
  0.4953887146219972  0.7588600527837104  0.4953956457698324
  0.4935748653091352  0.9928481608538002  0.2577912347312729
  0.2572434763655842  0.7606036889353895  0.2572426464231470
  0.7426639363111891  0.0084393136605170  0.5065730992718001
  0.5070258418717931  0.2524375715213060  0.5070290464735198
  0.5065711286447874  0.0084394961883087  0.7426689087206552
  0.7439584137963896  0.2398655980971851  0.7439634424857758
  0.2577942973029912  0.4935780383870014  0.9928496390021575
  0.4935740016930538  0.2577950438185204  0.9928492272870283
  0.4953896092557231  0.4953922030270401  0.7588622740560693
  0.2572443201188687  0.2572444343483401  0.7606032116490243
  0.7426632670789777  0.5065783743339146  0.0084337521191844
  0.5065733949952040  0.7426652555007252  0.0084363578513265
  0.5070274057994612  0.5070267004968191  0.2524379695472006
  0.7439631622437201  0.7439638511813106  0.2398685132239911
 
             NaN             NaN             NaN
             NaN             NaN             NaN
             NaN             NaN             NaN
             NaN             NaN             NaN
             NaN             NaN             NaN
             NaN             NaN             NaN
             NaN             NaN             NaN
             NaN             NaN             NaN
             NaN             NaN             NaN
             NaN             NaN             NaN
             NaN             NaN             NaN
             NaN             NaN             NaN
             NaN             NaN             NaN
             NaN             NaN             NaN
             NaN             NaN             NaN
             NaN             NaN             NaN
             NaN             NaN             NaN
             NaN             NaN             NaN
             NaN             NaN             NaN
             NaN             NaN             NaN
             NaN             NaN             NaN
             NaN             NaN             NaN
             NaN             NaN             NaN
             NaN             NaN             NaN
             NaN             NaN             NaN
             NaN             NaN             NaN
             NaN             NaN             NaN
             NaN             NaN             NaN
             NaN             NaN             NaN
             NaN             NaN             NaN
             NaN             NaN             NaN
             NaN             NaN             NaN
             NaN             NaN             NaN
             NaN             NaN             NaN
             NaN             NaN             NaN
             NaN             NaN             NaN
             NaN             NaN             NaN
             NaN             NaN             NaN
             NaN             NaN             NaN
             NaN             NaN             NaN
             NaN             NaN             NaN
             NaN             NaN             NaN
             NaN             NaN             NaN
             NaN             NaN             NaN
             NaN             NaN             NaN
             NaN             NaN             NaN
             NaN             NaN             NaN
             NaN             NaN             NaN
             NaN             NaN             NaN
             NaN             NaN             NaN
             NaN             NaN             NaN
             NaN             NaN             NaN
             NaN             NaN             NaN
             NaN             NaN             NaN
             NaN             NaN             NaN
