Mg7 Sc16 Se32                           
   1.00000000000000     
    11.1300209999999993   -0.0000050000000000   -0.0000100000000000
    -0.0000050000000000   11.1300179999999997   -0.0000110000000000
    -0.0000100000000000   -0.0000210000000000   11.1301659999999991
   Mg   Sc   Se
     7    16    32
Direct
  0.5297140236447943  0.5297115578413372  0.5297147566368839
  0.6236347961806166  0.1273480373168516  0.1273459388129711
  0.1273486702633416  0.6236343355490859  0.1273461445860521
  0.1273485112871175  0.1273492057663675  0.6236371671319081
  0.3751627580612111  0.8731898592373800  0.8731898856211338
  0.8731908116691320  0.3751626924175993  0.8731907846857087
  0.8731903989449913  0.8731896417915479  0.3751635666020267
  0.9941764361653821  0.7502603176701271  0.7502604531056396
  0.7502619978631340  0.9941750151453452  0.7502632717928112
  0.7502659924239232  0.7502603103247265  0.9941685002863060
  1.0000927167445730  1.0000908706994394  1.0000907223985567
  0.0063562512381234  0.2501474811607285  0.2501448559464253
  0.2501479200192432  0.0063537757693403  0.2501452460273191
  0.2501504891227909  0.2501454594850913  0.0063563753533021
  0.7468258709314087  0.4997300251176872  0.2512525337651538
  0.7468272950327376  0.2512534866976928  0.4997290456866450
  0.0068001176298594  0.4998743968350734  0.4998741310306371
  0.2512566796362847  0.4997272813655496  0.7468213171840399
  0.2512558756378563  0.7468228158020371  0.4997277980250110
  0.4997314125604784  0.7468179869564232  0.2512492829874827
  0.4998771468953349  0.0068056239915523  0.4998734148866640
  0.4997305105714525  0.2512480777667219  0.7468198115446665
  0.4998764568979787  0.4998735112104790  0.0067950964722462
  0.7569428834733000  0.9939652467460872  0.9939672451916066
  0.9939633808029643  0.7569457418100740  0.9939707426426188
  0.9939648157711957  0.9939657785358628  0.7569408823695259
  0.7558957662194090  0.7558930637711087  0.7559006437820422
  0.2432192793107534  0.0066136437816187  0.0066094053253141
  0.0066098903868673  0.2432225713089101  0.0066125971627780
  0.0066114810402728  0.0066124709599667  0.2432261679821043
  0.2442078742149396  0.2442079455770342  0.2441978484779750
  0.7585207534394864  0.4944882088175654  0.4944923868071621
  0.9919204146390752  0.2576569474420868  0.4935186829107587
  0.9919206562432541  0.4935159595333177  0.2576541289115249
  0.7603762043394148  0.2565622576310052  0.2565604469780411
  0.2517774583513737  0.5060753358403545  0.5060833682911442
  0.0078085440951023  0.7424761896770213  0.5067470335306465
  0.0078086178304024  0.5067484371942610  0.7424813509455334
  0.2398998537911299  0.7432838290344594  0.7432894889665339
  0.2576502550035729  0.9919202965049184  0.4935166311563713
  0.4944849951291519  0.7585186264290638  0.4944927065033002
  0.4935130448338882  0.9919211946309967  0.2576532068610558
  0.2565599079582814  0.7603760157364505  0.2565614450168642
  0.7424743886025905  0.0078115450190070  0.5067458820146233
  0.5060769913828863  0.2517796909922475  0.5060833898224486
  0.5067460844338662  0.0078126665328081  0.7424777526649766
  0.7432823807185266  0.2398999984219854  0.7432913102463187
  0.2576585077513198  0.4935168086541012  0.9919220173576838
  0.4935126858286471  0.2576595283709026  0.9919239168597469
  0.4944853731075254  0.4944902164774072  0.7585216851536642
  0.2565616413388231  0.2565621540932642  0.7603776845947311
  0.7424749214745188  0.5067505385610840  0.0078044040206073
  0.5067471294806459  0.7424765263949581  0.0078078532851600
  0.5060805032005908  0.5060795930750706  0.2517771268417995
  0.7432869906344016  0.7432882109845479  0.2399002421135414
 
             NaN             NaN             NaN
             NaN             NaN             NaN
             NaN             NaN             NaN
             NaN             NaN             NaN
             NaN             NaN             NaN
             NaN             NaN             NaN
             NaN             NaN             NaN
             NaN             NaN             NaN
             NaN             NaN             NaN
             NaN             NaN             NaN
             NaN             NaN             NaN
             NaN             NaN             NaN
             NaN             NaN             NaN
             NaN             NaN             NaN
             NaN             NaN             NaN
             NaN             NaN             NaN
             NaN             NaN             NaN
             NaN             NaN             NaN
             NaN             NaN             NaN
             NaN             NaN             NaN
             NaN             NaN             NaN
             NaN             NaN             NaN
             NaN             NaN             NaN
             NaN             NaN             NaN
             NaN             NaN             NaN
             NaN             NaN             NaN
             NaN             NaN             NaN
             NaN             NaN             NaN
             NaN             NaN             NaN
             NaN             NaN             NaN
             NaN             NaN             NaN
             NaN             NaN             NaN
             NaN             NaN             NaN
             NaN             NaN             NaN
             NaN             NaN             NaN
             NaN             NaN             NaN
             NaN             NaN             NaN
             NaN             NaN             NaN
             NaN             NaN             NaN
             NaN             NaN             NaN
             NaN             NaN             NaN
             NaN             NaN             NaN
             NaN             NaN             NaN
             NaN             NaN             NaN
             NaN             NaN             NaN
             NaN             NaN             NaN
             NaN             NaN             NaN
             NaN             NaN             NaN
             NaN             NaN             NaN
             NaN             NaN             NaN
             NaN             NaN             NaN
             NaN             NaN             NaN
             NaN             NaN             NaN
             NaN             NaN             NaN
             NaN             NaN             NaN
