Mg15 Mn32 O64                           
   1.00000000000000     
    11.4991579999999995   -0.0000120000000000   -0.0001440000000000
    -0.0000210000000000   11.5152699999999992    0.0000000000000000
     0.0000370000000000    0.0000020000000000    9.1710779999999996
   Mg   Mn   O 
    15    32    64
Direct
  0.5019058371311056  0.6263824258877633  0.6258872270662121
  0.4999770700188741  0.2510658393363297  0.7499707974009595
  0.9989425874616823  0.2490438299682137  0.7474535576004937
  0.9990711754974867  0.7495897956573121  0.7491294145277596
  0.5000297083886752  0.9972524969671051  0.4956732359187838
  0.9993419012037296  0.9977360795906981  0.5008994410903985
  1.0000823449060643  0.4974588856358921  0.4985611178563989
  0.2486221521162960 -0.0001233381404365  0.2524690579691387
  0.2520877658488926  0.4991142809145098  0.2464742468121464
  0.7524718059268487  0.0003230772734549  0.2519670920174424
  0.7464742579811646  0.4983548018399563  0.2503615979524552
  0.2499042724503415  0.2479676324698549  0.9980779077206421
  0.2515375802341436  0.7499072674482110  0.9974987360541986
  0.7534319783126410  0.2466818169702265  0.9968769756284480
  0.7491901363615129  0.7496883630205295  0.9970213883774509
  0.1273892595316895  0.2498247119633599  0.3749125297104601
  0.1249270873096167  0.7477780818095089  0.3742080023991313
  0.6251906693459232  0.2500494130798888  0.3686923496486009
  0.6258449894302961  0.7498317086062121  0.3698311862630457
  0.3779742120133762  0.2503013150195167  0.3733211670696980
  0.3745189366182932  0.7500489645836949  0.3704695247139330
  0.8758927208115560  0.2480847264215246  0.3759970299665888
  0.8753200237035828  0.7481310543555859  0.3741204762433421
  0.1251494385249363  0.9981660528632332  0.8739965742874313
  0.1226326392020325  0.4993876161745462  0.8750712656411954
  0.6247268612751852  0.9978253058104776  0.8764135547035135
  0.6239711926996853  0.4981936358056632  0.8744728889373995
  0.3756710762965933  0.9978438884632479  0.8767860073277520
  0.3718909252989412  0.5006970651946161  0.8762569350633449
  0.8752843350010064  0.9979894439916309  0.8725349554419825
  0.8737222400754222  0.4983054711961205  0.8752149333425050
  0.0004438894356776  0.1224587214084521  0.1250906851003217
  0.9997969033429849  0.6223903053805674  0.1250681999838193
  0.5024776051509311  0.1250293054761136  0.1248797880319801
  0.4984781092258554  0.6286260278366653  0.1164596793545269
  0.0000626739074429  0.3724463086038075  0.1250277347898937
  0.0001649113246739  0.8724665926941034  0.1246760472562095
  0.5003315950210410  0.3737950299346151  0.1231016503135457
  0.5006418224290746  0.8789300434103881  0.1253846513533220
  0.2530627551958767  0.3731665272049972  0.6255015379472983
  0.2532544755180982  0.8707669365166480  0.6250903848241086
  0.7460364987519333  0.3770351246062201  0.6214913572152176
  0.7450663553924750  0.8723328723536035  0.6247360190755010
  0.2504706650985347  0.1223293721911200  0.6245955863155856
  0.2471728366440580  0.6229843801847553  0.6231223589783697
  0.7475174986621416  0.1247445751679693  0.6246684278293696
  0.7528945251146043  0.6247543237424406  0.6237556683896458
  0.1382479926700458  0.2486110989796389  0.6207459791222423
  0.1365101915781863  0.7497785313899215  0.6202855182057959
  0.6353583968873709  0.2507819364841118  0.6197313750192252
  0.6354426924645765  0.7440571148537606  0.6069123758527820
  0.3631176777941845  0.2490279614889276  0.6214383538124393
  0.3630825694690873  0.7404869812019517  0.6080193051680803
  0.8606209531369121  0.2504893870428173  0.6204545368785855
  0.8628818494524461  0.7516117061453180  0.6198064117095449
  0.1387136778824823  0.4960794340956127  0.6278190155152404
  0.1387949697413510  0.9968946318024824  0.6281994974416162
  0.6362440733874326  0.5065380457764183  0.6389090434641064
  0.6336244039105541  0.9977713868264598  0.6300823137946241
  0.3661881890213911  0.5026293123001999  0.6646691086739833
  0.3647529614365566  0.9961319734802334  0.6290207866247807
  0.8636240893496345  0.4976025814065532  0.6289454102698601
  0.8599149951218317  0.9983571067173301  0.6278681843876998
  0.5001332869709949  0.1109785854447508  0.8774409212138705
  0.4968542655724708  0.6059823985825602  0.8662161720486286
  0.0003241876992124  0.1114208346837171  0.8768917682166043
  0.9996976221061579  0.6118546006334649  0.8773500761075815
  0.4933134032187789  0.3852948887428538  0.8884141254149536
  0.5001093310379945  0.8886913391213863  0.9187444123069766
  0.9990936448985577  0.3854806665282037  0.8782242863131553
  0.0004953429049033  0.8854903117380950  0.8785561045572514
  0.5008362791562820  0.3585093819873384  0.3428324972641739
  0.5000615299104936  0.8698550298407386  0.3430172112124782
  0.0015092798700707  0.3608783783771429  0.3700915377426230
  1.0002806288884436  0.8614249398630073  0.3697267198957229
  0.5006840278825235  0.1354810286541236  0.3696102568303575
  0.4991723554908192  0.6441264280467653  0.3778828531132969
  0.0019646724401911  0.1353385571010538  0.3715739661014261
  1.0006565970676562  0.6351113128307073  0.3707227041778212
  0.3782831568782754  0.5099251942995175  0.0915732305519610
  0.3883902434487038  0.0001141339347494  0.1260545282090567
  0.8863114937115708  0.4974601895254820  0.1211454457394317
  0.8873012403260127  0.9981369811100264  0.1198132463047131
  0.1137296657258729  0.9978256493080000  0.1199641520760763
  0.1127302878860418  0.4975603290857194  0.1198657286415041
  0.6135035581812242  0.9973886775265343  0.1255332972912002
  0.6080095929358943  0.5015880269629831  0.1190280226406233
  0.3892702184047417  0.2505256908665525  0.1226537937091211
  0.3888895290761799  0.7548491739452529  0.1271832418269117
  0.8883608450119803  0.2472913052253185  0.1285990465666119
  0.8871128689893557  0.7480994671901168  0.1271326325301677
  0.1142281493263880  0.2477062597441478  0.1288226709531425
  0.1137758790971547  0.7475034419245309  0.1274167295669943
  0.6193716512018694  0.2408950440827600  0.1248852203790347
  0.6109668795726249  0.7530182703610151  0.1269404359672911
  0.2525407835097226  0.3642368441361460  0.3802465214629457
  0.2499026790654426  0.8611556849150602  0.3771253130721017
  0.7516489368335518  0.3618722578498341  0.3779435853563283
  0.7498791966704339  0.8615357309675368  0.3760621560556374
  0.2516919684599090  0.1370899228867739  0.3800561210327317
  0.2482993634307250  0.6334634614730109  0.3777808699934151
  0.7507308419969405  0.1360856473669546  0.3812889271435549
  0.7528466666004650  0.6354862834511030  0.3751999300927038
  0.2506482909955579  0.1112423571806264  0.8690765961829086
  0.2490498524250625  0.6115483126675684  0.8712022038387609
  0.7502444207674343  0.1106359181127429  0.8676888961113252
  0.7516011926113307  0.6118913758023354  0.8730410429523510
  0.2496190588838212  0.3879387200963609  0.8734041824166566
  0.2507453761828962  0.8859071494805414  0.8696092622212136
  0.7474159487989857  0.3858666676387211  0.8723253905439459
  0.7496185778451829  0.8860736020911339  0.8696211593097600
 
             NaN             NaN             NaN
             NaN             NaN             NaN
             NaN             NaN             NaN
             NaN             NaN             NaN
             NaN             NaN             NaN
             NaN             NaN             NaN
             NaN             NaN             NaN
             NaN             NaN             NaN
             NaN             NaN             NaN
             NaN             NaN             NaN
             NaN             NaN             NaN
             NaN             NaN             NaN
             NaN             NaN             NaN
             NaN             NaN             NaN
             NaN             NaN             NaN
             NaN             NaN             NaN
             NaN             NaN             NaN
             NaN             NaN             NaN
             NaN             NaN             NaN
             NaN             NaN             NaN
             NaN             NaN             NaN
             NaN             NaN             NaN
             NaN             NaN             NaN
             NaN             NaN             NaN
             NaN             NaN             NaN
             NaN             NaN             NaN
             NaN             NaN             NaN
             NaN             NaN             NaN
             NaN             NaN             NaN
             NaN             NaN             NaN
             NaN             NaN             NaN
             NaN             NaN             NaN
             NaN             NaN             NaN
             NaN             NaN             NaN
             NaN             NaN             NaN
             NaN             NaN             NaN
             NaN             NaN             NaN
             NaN             NaN             NaN
             NaN             NaN             NaN
             NaN             NaN             NaN
             NaN             NaN             NaN
             NaN             NaN             NaN
             NaN             NaN             NaN
             NaN             NaN             NaN
             NaN             NaN             NaN
             NaN             NaN             NaN
             NaN             NaN             NaN
             NaN             NaN             NaN
             NaN             NaN             NaN
             NaN             NaN             NaN
             NaN             NaN             NaN
             NaN             NaN             NaN
             NaN             NaN             NaN
             NaN             NaN             NaN
             NaN             NaN             NaN
             NaN             NaN             NaN
             NaN             NaN             NaN
             NaN             NaN             NaN
             NaN             NaN             NaN
             NaN             NaN             NaN
             NaN             NaN             NaN
             NaN             NaN             NaN
             NaN             NaN             NaN
             NaN             NaN             NaN
             NaN             NaN             NaN
             NaN             NaN             NaN
             NaN             NaN             NaN
             NaN             NaN             NaN
             NaN             NaN             NaN
             NaN             NaN             NaN
             NaN             NaN             NaN
             NaN             NaN             NaN
             NaN             NaN             NaN
             NaN             NaN             NaN
             NaN             NaN             NaN
             NaN             NaN             NaN
             NaN             NaN             NaN
             NaN             NaN             NaN
             NaN             NaN             NaN
             NaN             NaN             NaN
             NaN             NaN             NaN
             NaN             NaN             NaN
             NaN             NaN             NaN
             NaN             NaN             NaN
             NaN             NaN             NaN
             NaN             NaN             NaN
             NaN             NaN             NaN
             NaN             NaN             NaN
             NaN             NaN             NaN
             NaN             NaN             NaN
             NaN             NaN             NaN
             NaN             NaN             NaN
             NaN             NaN             NaN
             NaN             NaN             NaN
             NaN             NaN             NaN
             NaN             NaN             NaN
             NaN             NaN             NaN
             NaN             NaN             NaN
             NaN             NaN             NaN
             NaN             NaN             NaN
             NaN             NaN             NaN
             NaN             NaN             NaN
             NaN             NaN             NaN
             NaN             NaN             NaN
             NaN             NaN             NaN
             NaN             NaN             NaN
             NaN             NaN             NaN
             NaN             NaN             NaN
             NaN             NaN             NaN
             NaN             NaN             NaN
             NaN             NaN             NaN
