Li47 P16 O64                            
   1.00000000000000     
    10.6010639999999992   -0.0012710000000000   -0.0111160000000000
    -0.0014700000000000   12.3825719999999997   -0.0018970000000000
    -0.0104830000000000   -0.0015170000000000   10.0238739999999993
   Li   P    O 
    47    16    64
Direct
  0.5598424120238406  0.2769842769581743  0.0736584228208770
  0.6650172712246771  0.2513753005570720  0.5981378758843192
  0.6630494690878095  0.7513267356445610  0.0989792529642628
  0.6639654919470246  0.7516526240990089  0.5995176389760104
  0.1647540155919103  0.4974935134083367  0.1503649897108232
  0.1647594582216456  0.4988120713729813  0.6512916196648604
  0.1631205295464753  0.9953714961594287  0.1519098369448386
  0.1637549809166927  0.9989916795910858  0.6513622989631429
  0.3364780081470329  0.0002648723198675  0.4015872429796872
  0.3365483501451649  0.0002895716795308  0.9023336460242604
  0.3392817576741294  0.4996596413651915  0.3952833410461878
  0.3383401195032008  0.4968824029273051  0.9107532634119693
  0.8334792969602844  0.2491387803355138  0.3441791511313355
  0.8327604135876783  0.2495741394825188  0.8575530399637969
  0.8369405183601302  0.7487287420661559  0.3491599761522366
  0.8369932990107429  0.7488352075360893  0.8492503671055118
  0.3385275100187712  0.2513373938145094  0.3967182962874887
  0.3350483611015207  0.2521103384136865  0.9043815509050503
  0.3373406521050555  0.7492758803233386  0.3997235228017075
  0.3367397130857697  0.7492802534648959  0.9038508925891620
  0.8373078073092515  0.0023302508377085  0.3488436667098185
  0.8379678221224367  0.0016142589274040  0.8501908611355091
  0.8353146449312163  0.5008455597355379  0.3496268026659948
  0.8355125188423642  0.5010670281376477  0.8502421820343571
  0.6572429597849734  0.4977652337425980  0.0988397943793089
  0.6647920488927355  0.5016988110891774  0.5997370984781583
  0.6654116866441342  0.0041211839488895  0.1013564794861566
  0.6639675151600741  0.0001940640770783  0.5988375544610847
  0.1648752610794944  0.2516418805331710  0.1491419199318145
  0.1636725143541042  0.2509466626339645  0.6509362272636281
  0.1644627839640407  0.7508687968228926  0.1510403978957697
  0.1641758935574202  0.7512157412637919  0.6516633576489923
  0.9212812888879327  0.3738093093642618  0.1477399598805675
  0.9248644561768273  0.3740999973553940  0.6496166557633885
  0.9247223818312875  0.8757166765744842  0.1493253894593707
  0.9256369891444649  0.8754512713171820  0.6491823715742626
  0.4267866816146011  0.3759720502059238  0.6015303085963453
  0.4293372346008866  0.8754222104647198  0.1019437520016311
  0.4266433076317924  0.8751157306499167  0.6013266208567813
  0.0742796731757522  0.1259583371220785  0.3487032524700808
  0.0743287165953745  0.1255839143840589  0.8529996019876833
  0.0747832489621274  0.6238219078007248  0.3504801160266808
  0.0756801699514753  0.6238407281008378  0.8524593313594337
  0.5741667953561773  0.1281581923382120  0.3971472685862238
  0.5763004524535091  0.1233063249681905  0.8969612087313692
  0.5738410631268067  0.6243761372710992  0.4001487854878221
  0.5719944751329322  0.6246164729068724  0.8990593855216602
  0.9147314623344727  0.1252242029250681  0.0982387107487241
  0.9117954130626273  0.1250435165910844  0.5977205054106989
  0.9105130459910455  0.6254408149271100  0.0973291831030778
  0.9125346675020154  0.6255993466977756  0.5974339064302683
  0.4056697656293338  0.1182041665263043  0.1522976457148175
  0.4109068152708346  0.1247191401182803  0.6535865836068453
  0.4088484300698951  0.6299819143533725  0.1521712038850964
  0.4103550384358812  0.6261736867144236  0.6539021860899510
  0.0882296492970980  0.3754055119355897  0.4033939749617943
  0.0868419033694678  0.3750808555681004  0.9029775166311467
  0.0883817523267325  0.8745050006485684  0.4043886071399569
  0.0884492595508775  0.8743243295456509  0.9034510314264352
  0.5908361894959810  0.3771421314701584  0.3506635807709699
  0.5869720429784451  0.3762800155776986  0.8392440547329869
  0.5904073160439509  0.8758704180310559  0.3475575989325463
  0.5901205755125787  0.8752834253666109  0.8462831562690312
  0.8436649243542860  0.0220544925792865  0.1493381720407427
  0.8420324769847127  0.0215544183681828  0.6482008022613144
  0.8393510758884659  0.5232924141922268  0.1478943460819480
  0.8430376677977662  0.5231068014179314  0.6496499153492366
  0.3350927187565844  0.2175325740945411  0.0966961258173740
  0.3408469743522033  0.2270898169558322  0.6012429556310934
  0.3440785062460421  0.7379904404059729  0.1070389499945179
  0.3411673747612269  0.7297287238308527  0.6023144492036110
  0.1578028924291246  0.2724183238738078  0.3517026480709973
  0.1563076518667472  0.2720598841922950  0.8512977622784277
  0.1580606851596329  0.7715615286167008  0.3531333213273484
  0.1587845165361230  0.7715102906755718  0.8526038430322416
  0.6601221953763314  0.4801702087940001  0.4055021345443635
  0.6564322084896048  0.4787881157370606  0.8939619514222272
  0.6596709597584720  0.9791235271856067  0.3992423518215062
  0.6604095581383689  0.9779039100780480  0.8980390612623452
  0.1587441837461867  0.4781839289574350  0.3526022604186636
  0.1571212933421791  0.4775851080640194  0.8512918969217438
  0.1582382106361422  0.9774085491415505  0.3537777332839127
  0.1587163427422595  0.9772066244525490  0.8527719247733572
  0.6597777470217494  0.2733837251541047  0.4030355553537319
  0.6529213435291155  0.2725125352775990  0.8941941502429174
  0.6601498074958414  0.7728083341954459  0.3990992431999487
  0.6595888435997779  0.7720264678319708  0.8971768836480933
  0.8516492679661383  0.2282863755085884  0.1515623934397468
  0.8420615820711035  0.2271382707200900  0.6507761192185129
  0.8410423528895805  0.7290380886615324  0.1478440672722385
  0.8422805325591582  0.7286928075001455  0.6480717769557884
  0.3393535556809866  0.0120250746983643  0.1062339361669729
  0.3415160071071384  0.0211121237946585  0.6022613434621320
  0.3309831970195063  0.5351085093506356  0.0976557863485468
  0.3411546343756342  0.5238550296097060  0.6001847413361219
  0.5432297884953599  0.1212968340206118  0.0978463740823869
  0.5494198762164402  0.1247248777451091  0.6020351016750780
  0.5470871738311871  0.6278040739013164  0.0985551320331695
  0.5492798040981626  0.6272833914721545  0.6034165817862771
  0.0549924585619763  0.1205488318998817  0.1464774698849425
  0.0504217188272946  0.1242561246757461  0.6495126567497991
  0.0486412901962439  0.6252786068169343  0.1501094333387414
  0.0509759199367039  0.6260100151957673  0.6493681908848927
  0.4526997499208392  0.3757753325818953  0.4041447140902434
  0.4480048141639301  0.3744066831496013  0.8848467347303455
  0.4520543263516927  0.8752638626389242  0.3993213544914127
  0.4517457036446189  0.8753805896711597  0.8973502382112812
  0.9496780901886197  0.3763816376278797  0.3524423165926081
  0.9481575554384989  0.3752541590515577  0.8510467213652149
  0.9499464400509012  0.8747190662529007  0.3522618973129212
  0.9504347943775358  0.8746154757552418  0.8500511067262693
  0.5951231171595666  0.3805309719998817  0.1977617120458746
  0.5941326470150088  0.3768101803922903  0.6838561767332152
  0.5925775244479468  0.8764711479642742  0.1918086495930140
  0.5910238253921491  0.8757575861644753  0.6903157681107430
  0.0869789430801902  0.3751301270913387  0.0585830469690407
  0.0894541552427910  0.3749891523708584  0.5595463451967717
  0.0873685587660162  0.8734284955821749  0.0591002373027436
  0.0890378453997158  0.8745396778450996  0.5603342825208912
  0.4085187436936266  0.1224671421560117  0.3084727622760042
  0.4098018788162037  0.1244112854704937  0.8094328442909031
  0.4118613002840235  0.6267978971093271  0.3086359505025484
  0.4082834020295607  0.6255383132649044  0.8096280248137830
  0.9109104466964340  0.1257160438944922  0.4418472065122572
  0.9115563133422597  0.1243093527805854  0.9417270627162964
  0.9115486707480329  0.6252972653092144  0.4415428376467361
  0.9108580723068229  0.6255359677175889  0.9412383582930417
 
             NaN             NaN             NaN
             NaN             NaN             NaN
             NaN             NaN             NaN
             NaN             NaN             NaN
             NaN             NaN             NaN
             NaN             NaN             NaN
             NaN             NaN             NaN
             NaN             NaN             NaN
             NaN             NaN             NaN
             NaN             NaN             NaN
             NaN             NaN             NaN
             NaN             NaN             NaN
             NaN             NaN             NaN
             NaN             NaN             NaN
             NaN             NaN             NaN
             NaN             NaN             NaN
             NaN             NaN             NaN
             NaN             NaN             NaN
             NaN             NaN             NaN
             NaN             NaN             NaN
             NaN             NaN             NaN
             NaN             NaN             NaN
             NaN             NaN             NaN
             NaN             NaN             NaN
             NaN             NaN             NaN
             NaN             NaN             NaN
             NaN             NaN             NaN
             NaN             NaN             NaN
             NaN             NaN             NaN
             NaN             NaN             NaN
             NaN             NaN             NaN
             NaN             NaN             NaN
             NaN             NaN             NaN
             NaN             NaN             NaN
             NaN             NaN             NaN
             NaN             NaN             NaN
             NaN             NaN             NaN
             NaN             NaN             NaN
             NaN             NaN             NaN
             NaN             NaN             NaN
             NaN             NaN             NaN
             NaN             NaN             NaN
             NaN             NaN             NaN
             NaN             NaN             NaN
             NaN             NaN             NaN
             NaN             NaN             NaN
             NaN             NaN             NaN
             NaN             NaN             NaN
             NaN             NaN             NaN
             NaN             NaN             NaN
             NaN             NaN             NaN
             NaN             NaN             NaN
             NaN             NaN             NaN
             NaN             NaN             NaN
             NaN             NaN             NaN
             NaN             NaN             NaN
             NaN             NaN             NaN
             NaN             NaN             NaN
             NaN             NaN             NaN
             NaN             NaN             NaN
             NaN             NaN             NaN
             NaN             NaN             NaN
             NaN             NaN             NaN
             NaN             NaN             NaN
             NaN             NaN             NaN
             NaN             NaN             NaN
             NaN             NaN             NaN
             NaN             NaN             NaN
             NaN             NaN             NaN
             NaN             NaN             NaN
             NaN             NaN             NaN
             NaN             NaN             NaN
             NaN             NaN             NaN
             NaN             NaN             NaN
             NaN             NaN             NaN
             NaN             NaN             NaN
             NaN             NaN             NaN
             NaN             NaN             NaN
             NaN             NaN             NaN
             NaN             NaN             NaN
             NaN             NaN             NaN
             NaN             NaN             NaN
             NaN             NaN             NaN
             NaN             NaN             NaN
             NaN             NaN             NaN
             NaN             NaN             NaN
             NaN             NaN             NaN
             NaN             NaN             NaN
             NaN             NaN             NaN
             NaN             NaN             NaN
             NaN             NaN             NaN
             NaN             NaN             NaN
             NaN             NaN             NaN
             NaN             NaN             NaN
             NaN             NaN             NaN
             NaN             NaN             NaN
             NaN             NaN             NaN
             NaN             NaN             NaN
             NaN             NaN             NaN
             NaN             NaN             NaN
             NaN             NaN             NaN
             NaN             NaN             NaN
             NaN             NaN             NaN
             NaN             NaN             NaN
             NaN             NaN             NaN
             NaN             NaN             NaN
             NaN             NaN             NaN
             NaN             NaN             NaN
             NaN             NaN             NaN
             NaN             NaN             NaN
             NaN             NaN             NaN
             NaN             NaN             NaN
             NaN             NaN             NaN
             NaN             NaN             NaN
             NaN             NaN             NaN
             NaN             NaN             NaN
             NaN             NaN             NaN
             NaN             NaN             NaN
             NaN             NaN             NaN
             NaN             NaN             NaN
             NaN             NaN             NaN
             NaN             NaN             NaN
             NaN             NaN             NaN
             NaN             NaN             NaN
             NaN             NaN             NaN
             NaN             NaN             NaN
             NaN             NaN             NaN
