Mg7 Mn16 O32
1.0
8.173699 0.000003 -0.000137
0.000010 9.357708 -0.000052
-0.000125 -0.000090 8.173921
Mg Mn O
7 16 32
direct
0.620496 0.627222 0.129505 Mg
0.374989 0.374942 0.875003 Mg
0.875008 0.374939 0.374987 Mg
0.874998 0.874988 0.875001 Mg
0.620369 0.122826 0.620376 Mg
0.129496 0.627244 0.620497 Mg
0.129634 0.122805 0.129635 Mg
-0.001212 0.249059 0.751214 Mn
1.002034 0.749365 0.250422 Mn
0.502391 0.249695 0.247599 Mn
0.499566 0.749331 0.747974 Mn
0.250390 1.000708 0.747967 Mn
0.247660 0.500481 0.247662 Mn
0.747961 1.000713 0.250395 Mn
0.751180 0.500857 0.751172 Mn
0.247607 0.249691 0.502385 Mn
0.250425 0.749365 0.002034 Mn
0.751222 0.249061 0.998779 Mn
0.747968 0.749340 0.499564 Mn
0.002018 1.000714 0.499610 Mn
0.998848 0.500875 -0.001155 Mn
0.499606 1.000720 1.002019 Mn
0.502371 0.500412 0.502374 Mn
0.234100 1.036697 0.515904 O
0.236104 0.497450 0.011995 O
0.736994 0.001281 0.013011 O
0.738016 0.497432 0.513906 O
0.011869 0.252372 0.514019 O
0.013084 0.748780 0.013083 O
0.514014 0.252372 0.011868 O
0.515868 0.713075 0.515875 O
0.013000 1.001276 0.736994 O
0.011992 0.497445 0.236101 O
0.515886 0.036735 0.234101 O
0.513918 0.497426 0.738016 O
0.235992 0.252383 0.738098 O
0.234111 0.713324 0.234099 O
0.738105 0.252384 0.235979 O
0.736894 0.748803 0.736890 O
0.761977 -0.003950 0.487161 O
0.762004 0.501181 0.987996 O
0.262841 -0.003934 0.987982 O
0.262625 0.484674 0.487409 O
0.987882 0.753868 0.487182 O
0.988036 0.248848 0.988021 O
0.487191 0.753860 0.987884 O
0.487383 0.265726 0.487370 O
0.987976 -0.003925 0.262845 O
0.988002 0.501189 0.762005 O
0.487164 -0.003946 0.761994 O
0.487405 0.484647 0.262628 O
0.762097 0.753854 0.262832 O
0.761973 0.248858 0.761975 O
0.262830 0.753851 0.762106 O
0.262667 0.265593 0.262657 O
