Mg1 Ti16 S32                            
   1.00000000000000     
     9.9107450000000004    0.0060830000000000    0.0046590000000000
    -0.0028170000000000    9.9112600000000004    0.0004170000000000
    -0.0030880000000000   -0.0014350000000000    9.9141589999999997
   Mg   Ti   S 
     1    16    32
Direct
  0.4386494477735239  0.3113920764496262  0.8085773983422866
  0.2488826705178436  0.7495441688374109 -0.0008987679406249
  0.4987436817124892  0.9920623529415713  0.0075618772021198
  0.7579667789534799  0.2512293567894118  0.0075715964791288
  1.0004638657604872  0.5011011704587695 -0.0009056271938671
  0.5027078931612849  0.2473110646871590  0.2660129305031903
  0.2491061516520454  0.5008856066116488  0.2484298514905836
  0.2394970026634893  0.2505717909137536  0.4891536770360621
  0.4994216425572932  0.5105222358471017  0.4891209464789235
  0.5021742755510853  0.7687748189670115  0.7454413633941585
  0.7584240355034292  0.5103478502788036  0.7480189936603753
  0.7522025823452719  0.7524021241692206  0.4957312732144647
  0.2396543145982731  0.9916147905291597  0.7480351112779666
  0.7517858860436877  0.9982440082214954  0.2490813828001276
  0.9812390630913476  0.2478521515131117  0.7454337324450415
  1.0000958953210981  0.7499049215911467  0.2480834581281769
  0.9975954306203964  0.9977970978544192  0.4957205707648875
  0.7454366475479273  0.0045890094676200  0.0033031765252506
  0.0042078929223743  0.7457979782694658  0.0001687009254702
 -0.0040195054091095  0.0015420444416973  0.7439120467076682
  0.7484830657279745  0.7540386325517165  0.7438934970669053
  0.2515127294334386  0.9949618075584649  0.9957527158106487
  0.9973056857260713  0.2517507187124564  0.9925892719867787
  0.9974469926072234  0.9958874999670357  0.2501838574422416
  0.2550368143287710  0.2518465782751906  0.2501394898649582
  0.7458862330044427  0.5062257852023510  0.5017777879320358
 -0.0041218142936929  0.2463935503322507  0.4994050593475266
  0.0041645027188860  0.5020868954715836  0.2436608425151512
  0.7483654791811233  0.2466489752337776  0.2513046858798621
  0.2517967000415698  0.4982020486059079  0.4930971228874187
  0.9976729015285640  0.7523459885892716  0.4937415273029228
  0.9976896071155831  0.4948127350386801  0.7497544360381048
  0.2551941106468889  0.7523490354136178  0.7497575919891402
  0.2438159181089628  0.0041548444347331  0.5017905610307778
  0.5036219022377946  0.7541566569144958  0.4994047423431216
  0.5033661818317013  0.0016548537459242  0.2513227537490607
  0.2479188671435110  0.7458310311114774  0.2436514915555222
  0.7524036637159311  0.9976178409884583  0.4946859067017319
  0.4907877155547397  0.2592602898713265  0.5069986143841283
  0.4906584771694458  1.0098880146685010  0.7567481159438445
  0.7401309174923414  0.2593713633013680  0.7567423008655269
  0.2487173413959957  0.5013060600867534 -0.0003880168111992
  0.5075060568644958  0.2425037995587032  0.0203597070391121
  0.5079553168817466  0.5230575839396244  0.7398243871307231
  0.2269701427634130  0.2420461579168721  0.7398223787501742
  0.7550572559195701  0.4984802374974672  0.9957468980809450
  0.4982665412881992  0.7527322114112300  0.9925926612188394
  0.4981643486390823  0.4949725484908287  0.2501236900373954
  0.7541163597651279  0.7525847484344871  0.2501783715224601
 
             NaN             NaN             NaN
             NaN             NaN             NaN
             NaN             NaN             NaN
             NaN             NaN             NaN
             NaN             NaN             NaN
             NaN             NaN             NaN
             NaN             NaN             NaN
             NaN             NaN             NaN
             NaN             NaN             NaN
             NaN             NaN             NaN
             NaN             NaN             NaN
             NaN             NaN             NaN
             NaN             NaN             NaN
             NaN             NaN             NaN
             NaN             NaN             NaN
             NaN             NaN             NaN
             NaN             NaN             NaN
             NaN             NaN             NaN
             NaN             NaN             NaN
             NaN             NaN             NaN
             NaN             NaN             NaN
             NaN             NaN             NaN
             NaN             NaN             NaN
             NaN             NaN             NaN
             NaN             NaN             NaN
             NaN             NaN             NaN
             NaN             NaN             NaN
             NaN             NaN             NaN
             NaN             NaN             NaN
             NaN             NaN             NaN
             NaN             NaN             NaN
             NaN             NaN             NaN
             NaN             NaN             NaN
             NaN             NaN             NaN
             NaN             NaN             NaN
             NaN             NaN             NaN
             NaN             NaN             NaN
             NaN             NaN             NaN
             NaN             NaN             NaN
             NaN             NaN             NaN
             NaN             NaN             NaN
             NaN             NaN             NaN
             NaN             NaN             NaN
             NaN             NaN             NaN
             NaN             NaN             NaN
             NaN             NaN             NaN
             NaN             NaN             NaN
             NaN             NaN             NaN
             NaN             NaN             NaN
