Mg1 Ti16 S32
1.0
9.910745 0.006083 0.004659
-0.002817 9.911260 0.000417
-0.003088 -0.001435 9.914159
Mg Ti S
1 16 32
direct
0.437738 0.312289 0.749876 Mg
0.248786 0.751129 0.003079 Ti
0.500345 -0.005663 0.005748 Ti
0.755689 0.249639 0.005654 Ti
0.998707 0.501025 0.002895 Ti
0.500385 0.249717 0.249598 Ti
0.248774 0.501069 0.249438 Ti
0.244687 0.248235 0.492453 Ti
0.501833 0.505582 0.492528 Ti
0.501887 0.751646 0.750127 Ti
0.755874 0.505410 0.750028 Ti
0.751108 0.751021 0.498859 Ti
0.244659 -0.005857 0.750105 Ti
0.750965 -0.000867 0.250693 Ti
0.998380 0.248046 0.749926 Ti
0.999400 0.750541 0.250587 Ti
0.999092 0.998888 0.498818 Ti
0.746851 0.003213 0.004457 S
0.003126 0.746803 0.003775 S
0.001607 0.002887 0.747565 S
0.747116 0.748452 0.747588 S
0.253193 0.996182 0.996644 S
0.998487 0.252707 0.996431 S
0.996853 0.996995 0.253435 S
0.253367 0.252800 0.250751 S
0.747376 0.504292 0.503428 S
0.001495 0.246954 0.503622 S
0.003128 0.503018 0.247436 S
0.746525 0.247432 0.248436 S
0.253690 0.496274 0.495568 S
0.996815 0.753198 0.497186 S
0.998760 0.496052 0.753202 S
0.253931 0.751270 0.753303 S
0.245861 0.002636 0.503510 S
0.503032 0.748652 0.503724 S
0.502687 0.003583 0.248517 S
0.246909 0.746707 0.247537 S
0.752958 0.997165 0.497146 S
0.495542 0.254605 0.495977 S
0.495509 0.996934 0.754411 S
0.753086 0.254551 0.754306 S
0.246560 0.503377 0.003239 S
0.504638 0.245404 0.003265 S
0.504787 0.503773 0.744960 S
0.246272 0.245212 0.744940 S
0.753760 0.496828 0.996549 S
0.497255 0.751552 0.996563 S
0.497095 0.496713 0.250775 S
0.752970 0.753299 0.253443 S
