Mg7 Sc16 Se32
1.0
11.128270 -0.000012 -0.000022
-0.000012 11.128275 -0.000036
-0.000022 -0.000002 11.128446
Mg Sc Se
7 16 32
direct
0.407982 0.407985 0.407978 Mg
0.624721 0.125283 0.125282 Mg
0.125284 0.624720 0.125282 Mg
0.125284 0.125283 0.624719 Mg
0.377014 0.872988 0.872989 Mg
0.872988 0.377013 0.872990 Mg
0.872990 0.872990 0.377012 Mg
0.994513 0.749785 0.749786 Sc
0.749787 0.994512 0.749786 Sc
0.749788 0.749785 0.994510 Sc
1.000039 1.000036 1.000035 Sc
0.000832 0.249989 0.249988 Sc
0.249993 0.000828 0.249989 Sc
0.249993 0.249988 0.000828 Sc
0.748998 0.500190 0.255514 Sc
0.748994 0.255514 0.500190 Sc
-0.004695 0.500186 0.500187 Sc
0.255514 0.500188 0.748994 Sc
0.255514 0.748994 0.500190 Sc
0.500193 0.748995 0.255513 Sc
0.500189 -0.004695 0.500187 Sc
0.500189 0.255512 0.748996 Sc
0.500190 0.500188 -0.004696 Sc
0.757525 0.993284 0.993283 Se
0.993282 0.757526 0.993286 Se
0.993283 0.993283 0.757524 Se
0.755596 0.755594 0.755599 Se
0.243290 0.006582 0.006579 Se
0.006581 0.243291 0.006580 Se
0.006581 0.006583 0.243292 Se
0.243569 0.243570 0.243571 Se
0.755966 0.494387 0.494380 Se
0.992913 0.256734 0.492456 Se
0.992914 0.492453 0.256730 Se
0.757895 0.256736 0.256736 Se
0.240943 0.506578 0.506571 Se
0.009213 0.743274 0.506849 Se
0.009212 0.506848 0.743272 Se
0.240663 0.743266 0.743285 Se
0.256732 0.992915 0.492454 Se
0.494388 0.755964 0.494381 Se
0.492452 0.992916 0.256731 Se
0.256735 0.757898 0.256735 Se
0.743271 0.009215 0.506847 Se
0.506569 0.240942 0.506577 Se
0.506846 0.009211 0.743272 Se
0.743265 0.240663 0.743284 Se
0.256731 0.492453 0.992916 Se
0.492451 0.256734 0.992919 Se
0.494387 0.494387 0.755970 Se
0.256732 0.256734 0.757898 Se
0.743271 0.506850 0.009211 Se
0.506849 0.743272 0.009213 Se
0.506575 0.506576 0.240940 Se
0.743275 0.743275 0.240661 Se
