Li46 P16 O64                            
   1.00000000000000     
    10.4919919999999998   -0.0038560000000000   -0.0156380000000000
    -0.0044680000000000   12.2831399999999995   -0.0056370000000000
    -0.0146340000000000   -0.0045350000000000    9.8875700000000002
   Li   P    O 
    46    16    64
Direct
  0.4208590938483421  0.3657399834688596  0.1024289283747084
  0.6611897266637676  0.2515548265875672  0.6003748452318602
  0.6626066188616552  0.7472525911136773  0.0966125410273710
  0.6627754353151596  0.7511078671243503  0.5988139218836678
  0.1621330130291997  0.4932936069566451  0.1558179350625745
  0.1618254700607459  0.5014079780076105  0.6518330534350918
  0.1654303784334972  0.9956531796641157  0.1513825217376007
  0.1631714120025206  0.0007357296891362  0.6533469399516243
  0.3359822821964281  0.0012122154678603  0.4017407421703189
  0.3379976631055889  0.0012473234559837  0.9057837065172407
  0.3351110083123457  0.4989372183486145  0.4025077232664988
  0.3339789104557064  0.4984289281528781  0.9015828498021509
  0.8326176630978044  0.2479834845529141  0.3437099889561491
  0.8337369634612920  0.2487656540943732  0.8537389424449233
  0.8354598761627271  0.7484615032800578  0.3471668366890361
  0.8360822538384201  0.7482710601515604  0.8483980202803043
  0.3339847325613500  0.2476499488932142  0.4000005284267411
  0.3337502621655402  0.2466767448869389  0.9046210308828154
  0.3362232863636729  0.7481389108736404  0.4015068238126380
  0.3358570453656549  0.7484142711278373  0.9031566459005929
  0.8381263586419391  0.0024756563198368  0.3450445283601646
  0.8360711744577517  0.0019495146363952  0.8474792806755093
  0.8330577707340823  0.4978693032352218  0.3473785916643183
  0.8346983498228305  0.4985776704434726  0.8501641391651792
  0.6613298141992625  0.4891938347912429  0.0956470817728935
  0.6618455385818206  0.5004226655489776  0.5979240465656829
  0.6659142170143386  0.9956583099939693  0.0994963183423945
  0.6632717586959188  0.0004899490890858  0.5968759417809610
  0.1613076862067631  0.2520949113983482  0.6500241970318561
  0.1628148313765430  0.7482450152608213  0.1537092367825985
  0.1629910009831616  0.7515721278641692  0.6515882874577162
  0.9311495303880550  0.3652883782431689  0.1512603062951226
  0.9207347479849475  0.3743983792147795  0.6503581673342795
  0.9240437765375984  0.8756526302603860  0.1486321400970129
  0.9237492733900695  0.8763144011422043  0.6487408099522295
  0.4195594140736606  0.3739696615759607  0.6029639883154142
  0.4250008157966675  0.8748215041167141  0.1016575554304866
  0.4242476349502974  0.8759235771046957  0.6006881128393630
  0.0797416109714706  0.1339698607733776  0.3318784524819821
  0.0770876353152066  0.1284238354746034  0.8631416959374746
  0.0737082533485096  0.6225011667455037  0.3524121910702305
  0.0745976193469866  0.6235192923522309  0.8501583086836513
  0.5763891035110237  0.1276344100252152  0.3866642903506044
  0.5789687974353926  0.1327407351630190  0.9193405542968253
  0.5751918648398719  0.6230118283231965  0.3997310011547742
  0.5745681757987569  0.6212188493826912  0.8992585612743929
  0.9136081609264822  0.1206120619069742  0.0961009525898674
  0.9127401206228010  0.1248605020886622  0.5948761292704191
  0.9101752217037219  0.6232339153144282  0.0968745085602017
  0.9096938403493472  0.6260090291119011  0.5952797625465448
  0.4123485740306403  0.1193045284001328  0.1540059659654462
  0.4126282063426890  0.1234573232848944  0.6553709470807154
  0.4104573931795098  0.6229795651251668  0.1538952176733425
  0.4102265388299993  0.6261893391449526  0.6550335775877315
  0.0867378991292314  0.3750370505145530  0.4105435735998041
  0.0866564843327683  0.3777675463200492  0.9017258079165843
  0.0882989590739561  0.8741641657353710  0.4050639219662789
  0.0885019890284794  0.8730319730353651  0.9044196843440228
  0.5839809715522327  0.3767861163611611  0.3490818979115870
  0.5858277054977573  0.3738021659280556  0.8397482328841721
  0.5889722926486365  0.8726580656102741  0.3456531923629323
  0.5887619927584923  0.8735629234033443  0.8453075549838699
  0.8392004033157441  0.0179525304752329  0.1452540428818899
  0.8419667686049420  0.0215743490168504  0.6450359282740652
  0.8393471661816997  0.5213928820830800  0.1471595904881109
  0.8397080157652623  0.5247248483632841  0.6488497888483866
  0.3526997484789114  0.2212581372050349  0.0943392528358375
  0.3409191138941511  0.2256275767522603  0.6062831027611965
  0.3411196136234847  0.7268095879388455  0.1038802413271327
  0.3411064916216451  0.7295288675613092  0.6040430424029909
  0.1574580117367405  0.2718018845088003  0.3715970027989240
  0.1573142850726812  0.2755118102654310  0.8503178019944776
  0.1571294736881476  0.7699746472720198  0.3556256446438454
  0.1580085837652453  0.7705094257638050  0.8514155479404510
  0.6561523555292249  0.4790295858505782  0.4028574805596845
  0.6563414883974718  0.4760276554379888  0.8946808144118962
  0.6591841724927519  0.9753420333376837  0.3957776956709573
  0.6602371668366623  0.9742489749817939  0.8975300532472744
  0.1568245193029499  0.4777459762592051  0.3571015846913181
  0.1569498653813171  0.4800734906494892  0.8463452091638048
  0.1593593554498486  0.9749857656958881  0.3533927374727928
  0.1588950659843322  0.9755188334784557  0.8546285878004910
  0.6559732153504423  0.2746506504026294  0.3991644417055873
  0.6559379240192186  0.2701842073868440  0.8786032969480053
  0.6582091266341249  0.7702209590042668  0.3993291151207275
  0.6572896741301261  0.7691544062961971  0.8947261152488177
  0.8550192411564004  0.2237425578714954  0.1538859284609669
  0.8414911152942687  0.2268139051687693  0.6451212922451346
  0.8404383885881586  0.7267560929300412  0.1468915018466530
  0.8407403833144504  0.7293963173993964  0.6460652448059713
  0.3387430195218581  0.0156908300045986  0.1058850211341305
  0.3417603283655342  0.0204031247484977  0.6041357302949608
  0.3386500363024569  0.5217563317688577  0.1025081198990523
  0.3394175584124576  0.5248659665954027  0.6023002743971028
  0.5507795063227243  0.1078162005158851  0.1106078347846790
  0.5489752740655566  0.1236820147523557  0.5986042263408154
  0.5481482731007725  0.6229818103035711  0.1006636566286627
  0.5483996537396927  0.6269259004373704  0.6035161343664468
  0.0519472070175937  0.1089916782061013  0.1404555380709752
  0.0494337167828920  0.1244652215994494  0.6516317781762109
  0.0479536857428080  0.6240444698438360  0.1508677223538397
  0.0483348653717548  0.6274271237817869  0.6462697070853278
  0.4473308036773397  0.3750961603122195  0.4075027316355715
  0.4476347883976604  0.3747352382363756  0.8922289451905111
  0.4506774743325276  0.8733104178445095  0.3978283491834188
  0.4505894337688485  0.8730219150615010  0.8974952587071328
  0.9490476559041718  0.3755131895567622  0.3558573216819096
  0.9485600631329494  0.3757334283806162  0.8462640189611549
  0.9499613368199281  0.8734328772296861  0.3525254601122829
  0.9503016306356163  0.8736293522231964  0.8511995543084779
  0.5770150635279802  0.3830294210530436  0.1961095412210503
  0.5841077462801750  0.3806616436079637  0.6831699863373046
  0.5897574844651301  0.8691067334903836  0.1898637748682455
  0.5887969739622602  0.8745600422456692  0.6888210623075871
  0.0840842319473639  0.3842446704898008  0.0548587960888677
  0.0837799232224222  0.3812266458448121  0.5670904789180595
  0.0886815996486828  0.8696921166631235  0.0602428423435467
  0.0884271010048097  0.8749011044399448  0.5615087200523898
  0.4061308509028670  0.1231313737464808  0.3112593047417931
  0.4144543044728222  0.1221267709132645  0.8113643157025667
  0.4105732380344121  0.6237038727012090  0.3104438773017207
  0.4093792525236513  0.6252437975303304  0.8111652126423935
  0.9141531995854886  0.1242767455034227  0.4388106401535901
  0.9072991931691081  0.1231490222600460  0.9388124556384435
  0.9078810241919268  0.6246295348235237  0.4391239135948943
  0.9105757309344914  0.6242646771801966  0.9403103800574411
 
             NaN             NaN             NaN
             NaN             NaN             NaN
             NaN             NaN             NaN
             NaN             NaN             NaN
             NaN             NaN             NaN
             NaN             NaN             NaN
             NaN             NaN             NaN
             NaN             NaN             NaN
             NaN             NaN             NaN
             NaN             NaN             NaN
             NaN             NaN             NaN
             NaN             NaN             NaN
             NaN             NaN             NaN
             NaN             NaN             NaN
             NaN             NaN             NaN
             NaN             NaN             NaN
             NaN             NaN             NaN
             NaN             NaN             NaN
             NaN             NaN             NaN
             NaN             NaN             NaN
             NaN             NaN             NaN
             NaN             NaN             NaN
             NaN             NaN             NaN
             NaN             NaN             NaN
             NaN             NaN             NaN
             NaN             NaN             NaN
             NaN             NaN             NaN
             NaN             NaN             NaN
             NaN             NaN             NaN
             NaN             NaN             NaN
             NaN             NaN             NaN
             NaN             NaN             NaN
             NaN             NaN             NaN
             NaN             NaN             NaN
             NaN             NaN             NaN
             NaN             NaN             NaN
             NaN             NaN             NaN
             NaN             NaN             NaN
             NaN             NaN             NaN
             NaN             NaN             NaN
             NaN             NaN             NaN
             NaN             NaN             NaN
             NaN             NaN             NaN
             NaN             NaN             NaN
             NaN             NaN             NaN
             NaN             NaN             NaN
             NaN             NaN             NaN
             NaN             NaN             NaN
             NaN             NaN             NaN
             NaN             NaN             NaN
             NaN             NaN             NaN
             NaN             NaN             NaN
             NaN             NaN             NaN
             NaN             NaN             NaN
             NaN             NaN             NaN
             NaN             NaN             NaN
             NaN             NaN             NaN
             NaN             NaN             NaN
             NaN             NaN             NaN
             NaN             NaN             NaN
             NaN             NaN             NaN
             NaN             NaN             NaN
             NaN             NaN             NaN
             NaN             NaN             NaN
             NaN             NaN             NaN
             NaN             NaN             NaN
             NaN             NaN             NaN
             NaN             NaN             NaN
             NaN             NaN             NaN
             NaN             NaN             NaN
             NaN             NaN             NaN
             NaN             NaN             NaN
             NaN             NaN             NaN
             NaN             NaN             NaN
             NaN             NaN             NaN
             NaN             NaN             NaN
             NaN             NaN             NaN
             NaN             NaN             NaN
             NaN             NaN             NaN
             NaN             NaN             NaN
             NaN             NaN             NaN
             NaN             NaN             NaN
             NaN             NaN             NaN
             NaN             NaN             NaN
             NaN             NaN             NaN
             NaN             NaN             NaN
             NaN             NaN             NaN
             NaN             NaN             NaN
             NaN             NaN             NaN
             NaN             NaN             NaN
             NaN             NaN             NaN
             NaN             NaN             NaN
             NaN             NaN             NaN
             NaN             NaN             NaN
             NaN             NaN             NaN
             NaN             NaN             NaN
             NaN             NaN             NaN
             NaN             NaN             NaN
             NaN             NaN             NaN
             NaN             NaN             NaN
             NaN             NaN             NaN
             NaN             NaN             NaN
             NaN             NaN             NaN
             NaN             NaN             NaN
             NaN             NaN             NaN
             NaN             NaN             NaN
             NaN             NaN             NaN
             NaN             NaN             NaN
             NaN             NaN             NaN
             NaN             NaN             NaN
             NaN             NaN             NaN
             NaN             NaN             NaN
             NaN             NaN             NaN
             NaN             NaN             NaN
             NaN             NaN             NaN
             NaN             NaN             NaN
             NaN             NaN             NaN
             NaN             NaN             NaN
             NaN             NaN             NaN
             NaN             NaN             NaN
             NaN             NaN             NaN
             NaN             NaN             NaN
             NaN             NaN             NaN
             NaN             NaN             NaN
             NaN             NaN             NaN
             NaN             NaN             NaN
