Mg15 Mn32 O64
1.0
11.627209 -0.000001 0.000003
-0.000001 11.638200 0.000000
0.000003 -0.000000 9.372439
Mg Mn O
15 32 64
direct
0.500000 0.747514 0.745564 Mg
0.500000 0.252485 0.745563 Mg
1.000000 0.249771 0.749677 Mg
1.000000 0.750228 0.749677 Mg
1.000000 0.500000 0.501714 Mg
0.000000 0.000000 0.498301 Mg
0.500000 1.000000 0.498123 Mg
0.250485 0.000001 0.251754 Mg
0.254529 0.500001 0.249920 Mg
0.749515 1.000000 0.251754 Mg
0.745470 0.500000 0.249920 Mg
0.248313 0.246903 0.000831 Mg
0.248313 0.753096 0.000831 Mg
0.751687 0.246903 0.000831 Mg
0.751687 0.753097 0.000832 Mg
0.125681 0.251108 0.376110 Mn
0.125681 0.748894 0.376110 Mn
0.623192 0.251596 0.372933 Mn
0.623191 0.748404 0.372933 Mn
0.376809 0.251596 0.372932 Mn
0.376808 0.748404 0.372933 Mn
0.874319 0.251107 0.376110 Mn
0.874319 0.748893 0.376110 Mn
0.124425 0.500000 0.879154 Mn
0.124741 1.000000 0.874040 Mn
0.626766 0.500000 0.875647 Mn
0.624788 1.000000 0.871654 Mn
0.373233 0.500000 0.875647 Mn
0.375212 0.999999 0.871654 Mn
0.875575 0.500000 0.879155 Mn
0.875260 1.000000 0.874038 Mn
0.500001 0.124050 0.123189 Mn
0.499999 0.627667 0.121001 Mn
0.000000 0.124767 0.126873 Mn
0.000000 0.624778 0.128848 Mn
0.499999 0.372333 0.121001 Mn
0.500000 0.875950 0.123189 Mn
0.000000 0.375222 0.128848 Mn
1.000000 0.875233 0.126873 Mn
0.250969 0.375412 0.628127 Mn
0.249753 0.874898 0.622912 Mn
0.749031 0.375412 0.628127 Mn
0.750247 0.874898 0.622912 Mn
0.249753 0.125102 0.622912 Mn
0.250969 0.624589 0.628128 Mn
0.750247 0.125102 0.622912 Mn
0.749031 0.624589 0.628128 Mn
0.136984 0.250943 0.621454 O
0.136984 0.749057 0.621454 O
0.637786 0.250513 0.621513 O
0.637786 0.749487 0.621514 O
0.362214 0.250513 0.621513 O
0.362214 0.749487 0.621514 O
0.863016 0.250943 0.621455 O
0.863016 0.749057 0.621455 O
0.137664 0.500000 0.631645 O
0.136587 0.000000 0.627653 O
0.639584 0.500000 0.670385 O
0.637305 0.000000 0.626734 O
0.360415 0.500000 0.670385 O
0.362696 0.000000 0.626735 O
0.862336 0.500000 0.631646 O
0.863413 0.000000 0.627652 O
0.500001 0.113481 0.874565 O
0.500000 0.610131 0.877558 O
0.000001 0.113353 0.878967 O
1.000000 0.613066 0.879947 O
0.500000 0.389867 0.877558 O
0.500000 0.886519 0.874566 O
1.000000 0.386933 0.879947 O
0.000001 0.886646 0.878967 O
0.000000 0.363649 0.372634 O
1.000000 0.862164 0.371432 O
0.500000 0.358779 0.350005 O
0.500000 0.864078 0.369186 O
0.000000 0.137838 0.371437 O
0.000000 0.636351 0.372634 O
0.500002 0.135921 0.369186 O
0.499999 0.641222 0.350006 O
0.386463 0.000003 0.119633 O
0.385318 0.500000 0.097793 O
0.886661 0.000000 0.121921 O
0.886451 0.500000 0.123904 O
0.113339 0.000000 0.121922 O
0.113549 0.500000 0.123905 O
0.613538 1.000000 0.119634 O
0.614679 0.499999 0.097795 O
0.386909 0.248694 0.122759 O
0.386908 0.751306 0.122759 O
0.887151 0.250106 0.130097 O
0.887151 0.749894 0.130097 O
0.112849 0.250106 0.130097 O
0.112849 0.749894 0.130098 O
0.613091 0.248693 0.122758 O
0.613091 0.751306 0.122758 O
0.250615 0.365042 0.380728 O
0.249778 0.862062 0.378913 O
0.749385 0.365042 0.380728 O
0.750222 0.862062 0.378913 O
0.249777 0.137939 0.378913 O
0.250613 0.634959 0.380727 O
0.750223 0.137938 0.378913 O
0.749385 0.634958 0.380729 O
0.249517 0.112854 0.869466 O
0.250788 0.611978 0.878977 O
0.750484 0.112854 0.869466 O
0.749211 0.611978 0.878978 O
0.250788 0.388021 0.878977 O
0.249517 0.887146 0.869467 O
0.749212 0.388021 0.878977 O
0.750484 0.887146 0.869466 O
