Li48 P16 O64                            
   1.00000000000000     
    10.4280043477764934   -0.0041087911502373   -0.0128728207326535
    -0.0048580380661348   12.1961131431430641   -0.0040636732953068
    -0.0112505277872766   -0.0040669090520024    9.7836203525693932
   Li   P    O 
    46    16    64
Direct
  0.1643349303922716  0.2534976681116645  0.1511419336159376
  0.6664740503700284  0.2475950137747008  0.6063926259866756
  0.6642710553090064  0.7499103235727355  0.0981275778074507
  0.6646704078577859  0.7521678283568225  0.5993460560583587
  0.1652562042317846  0.4974774143220409  0.1519891582287122
  0.1640016214172137  0.4996652781345101  0.6531749883150205
  0.1629327555126297  0.9943211628257129  0.1546658286385755
  0.1645566170713009  0.9983117917710843  0.6528760434088101
  0.3358790881595870  0.0001129215226386  0.4028809915872344
  0.3366594517754867  0.0008848711936546  0.9016223784117238
  0.3344234024670895  0.5027230436370097  0.4013864387013129
  0.3380037174229563  0.4970143238435872  0.9092127490573536
  0.8374783278916883  0.2485934976147455  0.3455899377337064
  0.8356758572057803  0.2496239073111698  0.8532962607147072
  0.8363383210350868  0.7491339361682823  0.3483045755700653
  0.8361528367971247  0.7490446192574438  0.8483827651550822
  0.3340489703329083  0.2493277988374070  0.4012162113067412
  0.3383095380179012  0.2524905563718327  0.9057072780806353
  0.3362679315741289  0.7501844060674309  0.4014391679098108
  0.3363430219252312  0.7493483347120060  0.9032497245945248
  0.8373288771917161  0.0012537086762079  0.3487548524363236
  0.8369147877432047  0.0015167879147258  0.8481773560051744
  0.8365897550102253  0.5021220697358632  0.3465748558247883
  0.8348270963829213  0.5003115040510598  0.8483589104605991
  0.6580948341502154  0.4932450242071899  0.0927718537236631
  0.6673529672501654  0.5055627840988342  0.5957548955587072
  0.6683400308825492  0.0009025143856510  0.0993966259915442
  0.6646050680410974  0.0002663148485490  0.5983472429271144
  0.1638291156179697  0.2508877923738437  0.6535577403680239
  0.1642198286546986  0.7494151512823386  0.1515565729055376
  0.1644865869345066  0.7510649340686525  0.6530527842298925
  0.9213911404260939  0.3758726875824844  0.1466893241245775
  0.9233515790390814  0.3750961211625181  0.6496569282321214
  0.9226500456070059  0.8741895434084482  0.1491892737288906
  0.9235482490904662  0.8750813537712105  0.6490317577663097
  0.4168265870982696  0.3764719156045818  0.6181131579843098
  0.4283359781191028  0.8736029296013338  0.1009498523239499
  0.4244610949673153  0.8756484567902976  0.6016289144795498
  0.0779722203197278  0.1246231145836379  0.3509037586892645
  0.0787130826997754  0.1252295292446117  0.8531293343422609
  0.0764414125114763  0.6246653759083323  0.3509786775800491
  0.0769389363658135  0.6242144252633878  0.8529131823103759
  0.5759388852347390  0.1242994242429135  0.3955720392274689
  0.5777963090758151  0.1296441702905299  0.9065392491170010
  0.5757628891234073  0.6280605232595196  0.3988317828986099
  0.5753709502676655  0.6247847235640582  0.8991258626997942
  0.9153824666661543  0.1249740729520658  0.0958789758421737
  0.9137383233404661  0.1247753668018943  0.5955416666137491
  0.9099436419475765  0.6241896432861359  0.0954311123699812
  0.9128839554882477  0.6256450221370983  0.5955392816423515
  0.4082507632353902  0.1200734370158032  0.1548708099188997
  0.4119230003107400  0.1250415248553622  0.6548354531027538
  0.4112756690342444  0.6272937225254579  0.1546854259420166
  0.4112820065004095  0.6263458830122192  0.6550643563291000
  0.0873189126975002  0.3755588953455546  0.4051756149147703
  0.0876483565912728  0.3754295213516853  0.9048417188400029
  0.0879516656670967  0.8742617036808866  0.4053219659982028
  0.0879916752180276  0.8743598611324196  0.9051729504894881
  0.5864420823747212  0.3759863944736944  0.3527317977630706
  0.5871060474216528  0.3756202413711627  0.8326394809101445
  0.5898739863994908  0.8756141569445913  0.3456115172964280
  0.5892667047458739  0.8758186758197500  0.8456479738430411
  0.8446147931447998  0.0223133678931406  0.1484675840063898
  0.8425671660143289  0.0218440777868517  0.6467697180222368
  0.8376616655012138  0.5214075595452929  0.1459195071543365
  0.8428721212492141  0.5224919309270433  0.6473624371420381
  0.3332392851364365  0.2163867071196647  0.0960402542880056
  0.3412610351355691  0.2280174319287452  0.6022998524969275
  0.3450221017271645  0.7338449461841474  0.1061782363536198
  0.3418827746923893  0.7300843714221736  0.6035556477282698
  0.1564888829888270  0.2721657340842368  0.3524293578074479
  0.1578188321082271  0.2721660583075192  0.8534731399173233
  0.1580096411176704  0.7712109269324315  0.3531758859866850
  0.1583772462672651  0.7711365004319889  0.8540221811762913
  0.6578244167209586  0.4797541617636303  0.3970195327472065
  0.6549008237348821  0.4764816565841161  0.8941295883658725
  0.6596085252007038  0.9792171540460628  0.3973603671073437
  0.6597429984637837  0.9786814407662140  0.8981711552225163
  0.1577709319784027  0.4785444161138443  0.3537915312915180
  0.1580845001752041  0.4784139363409119  0.8531435367190983
  0.1583312162941942  0.9775613172725074  0.3543266500010840
  0.1588658597276338  0.9775177813274716  0.8544180612895621
  0.6585791332027103  0.2728637104635422  0.3970056864802184
  0.6551429726912470  0.2697729835512208  0.8749096306422192
  0.6596395079314237  0.7726027674853533  0.3986143697954624
  0.6584646289858692  0.7719002545410483  0.8968988043738211
  0.8534829773491037  0.2294221004712060  0.1508869119322419
  0.8440877318400977  0.2280042892787675  0.6474550249269507
  0.8408417118942699  0.7278478986105550  0.1474347577447407
  0.8422412494604242  0.7286285365688505  0.6471491468009665
  0.3402329878518553  0.0139041920780987  0.1071240524749450
  0.3418596914989069  0.0215056690686122  0.6030704640786781
  0.3353043950798362  0.5299803306858409  0.1003392061414331
  0.3407546545470700  0.5238022797243856  0.6015486748154695
  0.5452502363563253  0.1169108236171328  0.1006915375813867
  0.5503798433861674  0.1256404054765496  0.6004722211824982
  0.5506577163958808  0.6243668375590051  0.1029168760818067
  0.5504914087358287  0.6268495113350724  0.6029692404995554
  0.0559290947998332  0.1219430918769206  0.1453383992216432
  0.0526967236514553  0.1241067198278277  0.6478389870621587
  0.0488042984259567  0.6233378238547754  0.1483137397256357
  0.0518934419065542  0.6257200714015669  0.6474630262645535
  0.4481803915243986  0.3761165072532650  0.4020068740581955
  0.4442301113674536  0.3746475434561009  0.8657472600524393
  0.4506248930393849  0.8756163067795716  0.3967791741341209
  0.4500789991821294  0.8757751832848213  0.8969697022406545
  0.9477904983937535  0.3763586492401993  0.3541686814094031
  0.9484447037605724  0.3754445923305794  0.8523274395233489
  0.9488905295194032  0.8746679688178003  0.3530834903693364
  0.9491896737025093  0.8748744982197821  0.8520879773280682
  0.5806183715094266  0.3707817094007714  0.1930969735918562
  0.5963560984062408  0.3808509874719103  0.6745985141464630
  0.5926163379402759  0.8750606914579219  0.1881368503188404
  0.5903142027558379  0.8763122370121997  0.6880228582257562
  0.0872166243912623  0.3756385672339054  0.0621964804150269
  0.0893726510304245  0.3749345003936019  0.5627753277692865
  0.0875532662298665  0.8733864466309019  0.0626916369447218
  0.0889419145414162  0.8742871497854758  0.5628618209614232
  0.4084380270399303  0.1247570315539716  0.3121811890276419
  0.4117837796652621  0.1250173556661837  0.8119796178210432
  0.4117514810869529  0.6259325120864996  0.3126591601455256
  0.4102248806964608  0.6252594703633494  0.8124588703167865
  0.9124799022586717  0.1251784803524511  0.4379168390477631
  0.9123442131124430  0.1246664074855450  0.9383795762894079
  0.9111282101852617  0.6253499715445269  0.4378820631025274
  0.9097053430801271  0.6246337578912398  0.9377970614756252
 
  0.00000000E+00  0.00000000E+00  0.00000000E+00
  0.00000000E+00  0.00000000E+00  0.00000000E+00
  0.00000000E+00  0.00000000E+00  0.00000000E+00
  0.00000000E+00  0.00000000E+00  0.00000000E+00
  0.00000000E+00  0.00000000E+00  0.00000000E+00
  0.00000000E+00  0.00000000E+00  0.00000000E+00
  0.00000000E+00  0.00000000E+00  0.00000000E+00
  0.00000000E+00  0.00000000E+00  0.00000000E+00
  0.00000000E+00  0.00000000E+00  0.00000000E+00
  0.00000000E+00  0.00000000E+00  0.00000000E+00
  0.00000000E+00  0.00000000E+00  0.00000000E+00
  0.00000000E+00  0.00000000E+00  0.00000000E+00
  0.00000000E+00  0.00000000E+00  0.00000000E+00
  0.00000000E+00  0.00000000E+00  0.00000000E+00
  0.00000000E+00  0.00000000E+00  0.00000000E+00
  0.00000000E+00  0.00000000E+00  0.00000000E+00
  0.00000000E+00  0.00000000E+00  0.00000000E+00
  0.00000000E+00  0.00000000E+00  0.00000000E+00
  0.00000000E+00  0.00000000E+00  0.00000000E+00
  0.00000000E+00  0.00000000E+00  0.00000000E+00
  0.00000000E+00  0.00000000E+00  0.00000000E+00
  0.00000000E+00  0.00000000E+00  0.00000000E+00
  0.00000000E+00  0.00000000E+00  0.00000000E+00
  0.00000000E+00  0.00000000E+00  0.00000000E+00
  0.00000000E+00  0.00000000E+00  0.00000000E+00
  0.00000000E+00  0.00000000E+00  0.00000000E+00
  0.00000000E+00  0.00000000E+00  0.00000000E+00
  0.00000000E+00  0.00000000E+00  0.00000000E+00
  0.00000000E+00  0.00000000E+00  0.00000000E+00
  0.00000000E+00  0.00000000E+00  0.00000000E+00
  0.00000000E+00  0.00000000E+00  0.00000000E+00
  0.00000000E+00  0.00000000E+00  0.00000000E+00
  0.00000000E+00  0.00000000E+00  0.00000000E+00
  0.00000000E+00  0.00000000E+00  0.00000000E+00
  0.00000000E+00  0.00000000E+00  0.00000000E+00
  0.00000000E+00  0.00000000E+00  0.00000000E+00
  0.00000000E+00  0.00000000E+00  0.00000000E+00
  0.00000000E+00  0.00000000E+00  0.00000000E+00
  0.00000000E+00  0.00000000E+00  0.00000000E+00
  0.00000000E+00  0.00000000E+00  0.00000000E+00
  0.00000000E+00  0.00000000E+00  0.00000000E+00
  0.00000000E+00  0.00000000E+00  0.00000000E+00
  0.00000000E+00  0.00000000E+00  0.00000000E+00
  0.00000000E+00  0.00000000E+00  0.00000000E+00
  0.00000000E+00  0.00000000E+00  0.00000000E+00
  0.00000000E+00  0.00000000E+00  0.00000000E+00
  0.00000000E+00  0.00000000E+00  0.00000000E+00
  0.00000000E+00  0.00000000E+00  0.00000000E+00
  0.00000000E+00  0.00000000E+00  0.00000000E+00
  0.00000000E+00  0.00000000E+00  0.00000000E+00
  0.00000000E+00  0.00000000E+00  0.00000000E+00
  0.00000000E+00  0.00000000E+00  0.00000000E+00
  0.00000000E+00  0.00000000E+00  0.00000000E+00
  0.00000000E+00  0.00000000E+00  0.00000000E+00
  0.00000000E+00  0.00000000E+00  0.00000000E+00
  0.00000000E+00  0.00000000E+00  0.00000000E+00
  0.00000000E+00  0.00000000E+00  0.00000000E+00
  0.00000000E+00  0.00000000E+00  0.00000000E+00
  0.00000000E+00  0.00000000E+00  0.00000000E+00
  0.00000000E+00  0.00000000E+00  0.00000000E+00
  0.00000000E+00  0.00000000E+00  0.00000000E+00
  0.00000000E+00  0.00000000E+00  0.00000000E+00
  0.00000000E+00  0.00000000E+00  0.00000000E+00
  0.00000000E+00  0.00000000E+00  0.00000000E+00
  0.00000000E+00  0.00000000E+00  0.00000000E+00
  0.00000000E+00  0.00000000E+00  0.00000000E+00
  0.00000000E+00  0.00000000E+00  0.00000000E+00
  0.00000000E+00  0.00000000E+00  0.00000000E+00
  0.00000000E+00  0.00000000E+00  0.00000000E+00
  0.00000000E+00  0.00000000E+00  0.00000000E+00
  0.00000000E+00  0.00000000E+00  0.00000000E+00
  0.00000000E+00  0.00000000E+00  0.00000000E+00
  0.00000000E+00  0.00000000E+00  0.00000000E+00
  0.00000000E+00  0.00000000E+00  0.00000000E+00
  0.00000000E+00  0.00000000E+00  0.00000000E+00
  0.00000000E+00  0.00000000E+00  0.00000000E+00
  0.00000000E+00  0.00000000E+00  0.00000000E+00
  0.00000000E+00  0.00000000E+00  0.00000000E+00
  0.00000000E+00  0.00000000E+00  0.00000000E+00
  0.00000000E+00  0.00000000E+00  0.00000000E+00
  0.00000000E+00  0.00000000E+00  0.00000000E+00
  0.00000000E+00  0.00000000E+00  0.00000000E+00
  0.00000000E+00  0.00000000E+00  0.00000000E+00
  0.00000000E+00  0.00000000E+00  0.00000000E+00
  0.00000000E+00  0.00000000E+00  0.00000000E+00
  0.00000000E+00  0.00000000E+00  0.00000000E+00
  0.00000000E+00  0.00000000E+00  0.00000000E+00
  0.00000000E+00  0.00000000E+00  0.00000000E+00
  0.00000000E+00  0.00000000E+00  0.00000000E+00
  0.00000000E+00  0.00000000E+00  0.00000000E+00
  0.00000000E+00  0.00000000E+00  0.00000000E+00
  0.00000000E+00  0.00000000E+00  0.00000000E+00
  0.00000000E+00  0.00000000E+00  0.00000000E+00
  0.00000000E+00  0.00000000E+00  0.00000000E+00
  0.00000000E+00  0.00000000E+00  0.00000000E+00
  0.00000000E+00  0.00000000E+00  0.00000000E+00
  0.00000000E+00  0.00000000E+00  0.00000000E+00
  0.00000000E+00  0.00000000E+00  0.00000000E+00
  0.00000000E+00  0.00000000E+00  0.00000000E+00
  0.00000000E+00  0.00000000E+00  0.00000000E+00
  0.00000000E+00  0.00000000E+00  0.00000000E+00
  0.00000000E+00  0.00000000E+00  0.00000000E+00
  0.00000000E+00  0.00000000E+00  0.00000000E+00
  0.00000000E+00  0.00000000E+00  0.00000000E+00
  0.00000000E+00  0.00000000E+00  0.00000000E+00
  0.00000000E+00  0.00000000E+00  0.00000000E+00
  0.00000000E+00  0.00000000E+00  0.00000000E+00
  0.00000000E+00  0.00000000E+00  0.00000000E+00
  0.00000000E+00  0.00000000E+00  0.00000000E+00
  0.00000000E+00  0.00000000E+00  0.00000000E+00
  0.00000000E+00  0.00000000E+00  0.00000000E+00
  0.00000000E+00  0.00000000E+00  0.00000000E+00
  0.00000000E+00  0.00000000E+00  0.00000000E+00
  0.00000000E+00  0.00000000E+00  0.00000000E+00
  0.00000000E+00  0.00000000E+00  0.00000000E+00
  0.00000000E+00  0.00000000E+00  0.00000000E+00
  0.00000000E+00  0.00000000E+00  0.00000000E+00
  0.00000000E+00  0.00000000E+00  0.00000000E+00
  0.00000000E+00  0.00000000E+00  0.00000000E+00
  0.00000000E+00  0.00000000E+00  0.00000000E+00
  0.00000000E+00  0.00000000E+00  0.00000000E+00
  0.00000000E+00  0.00000000E+00  0.00000000E+00
  0.00000000E+00  0.00000000E+00  0.00000000E+00
  0.00000000E+00  0.00000000E+00  0.00000000E+00
  0.00000000E+00  0.00000000E+00  0.00000000E+00
  0.00000000E+00  0.00000000E+00  0.00000000E+00
