Li46 P16 O64
1.0
10.428004 -0.004109 -0.012873
-0.004858 12.196113 -0.004064
-0.011251 -0.004067 9.783620
Li P O
46 16 64
direct
0.164335 0.253498 0.151142 Li
0.666474 0.247595 0.606393 Li
0.664271 0.749910 0.098128 Li
0.664670 0.752168 0.599346 Li
0.165256 0.497477 0.151989 Li
0.164002 0.499665 0.653175 Li
0.162933 0.994321 0.154666 Li
0.164557 0.998312 0.652876 Li
0.335879 0.000113 0.402881 Li
0.336659 0.000885 0.901622 Li
0.334423 0.502723 0.401386 Li
0.338004 0.497014 0.909213 Li
0.837478 0.248593 0.345590 Li
0.835676 0.249624 0.853296 Li
0.836338 0.749134 0.348305 Li
0.836153 0.749045 0.848383 Li
0.334049 0.249328 0.401216 Li
0.338310 0.252491 0.905707 Li
0.336268 0.750184 0.401439 Li
0.336343 0.749348 0.903250 Li
0.837329 0.001254 0.348755 Li
0.836915 0.001517 0.848177 Li
0.836590 0.502122 0.346575 Li
0.834827 0.500312 0.848359 Li
0.658095 0.493245 0.092772 Li
0.667353 0.505563 0.595755 Li
0.668340 1.000903 0.099397 Li
0.664605 1.000266 0.598347 Li
0.163829 0.250888 0.653558 Li
0.164220 0.749415 0.151557 Li
0.164487 0.751065 0.653053 Li
0.921391 0.375873 0.146689 Li
0.923352 0.375096 0.649657 Li
0.922650 0.874190 0.149189 Li
0.923548 0.875081 0.649032 Li
0.416827 0.376472 0.618113 Li
0.428336 0.873603 0.100950 Li
0.424461 0.875648 0.601629 Li
0.077972 0.124623 0.350904 Li
0.078713 0.125230 0.853129 Li
0.076441 0.624665 0.350979 Li
0.076939 0.624214 0.852913 Li
0.575939 0.124299 0.395572 Li
0.577796 0.129644 0.906539 Li
0.575763 0.628061 0.398832 Li
0.575371 0.624785 0.899126 Li
0.915382 0.124974 0.095879 P
0.913738 0.124775 0.595542 P
0.909944 0.624190 0.095431 P
0.912884 0.625645 0.595539 P
0.408251 0.120073 0.154871 P
0.411923 0.125042 0.654835 P
0.411276 0.627294 0.154685 P
0.411282 0.626346 0.655064 P
0.087319 0.375559 0.405176 P
0.087648 0.375430 0.904842 P
0.087952 0.874262 0.405322 P
0.087992 0.874360 0.905173 P
0.586442 0.375986 0.352732 P
0.587106 0.375620 0.832639 P
0.589874 0.875614 0.345612 P
0.589267 0.875819 0.845648 P
0.844615 0.022313 0.148468 O
0.842567 0.021844 0.646770 O
0.837662 0.521408 0.145920 O
0.842872 0.522492 0.647362 O
0.333239 0.216387 0.096040 O
0.341261 0.228017 0.602300 O
0.345022 0.733845 0.106178 O
0.341883 0.730084 0.603556 O
0.156489 0.272166 0.352429 O
0.157819 0.272166 0.853473 O
0.158010 0.771211 0.353176 O
0.158377 0.771137 0.854022 O
0.657824 0.479754 0.397020 O
0.654901 0.476482 0.894130 O
0.659609 0.979217 0.397360 O
0.659743 0.978681 0.898171 O
0.157771 0.478544 0.353792 O
0.158085 0.478414 0.853144 O
0.158331 0.977561 0.354327 O
0.158866 0.977518 0.854418 O
0.658579 0.272864 0.397006 O
0.655143 0.269773 0.874910 O
0.659640 0.772603 0.398614 O
0.658465 0.771900 0.896899 O
0.853483 0.229422 0.150887 O
0.844088 0.228004 0.647455 O
0.840842 0.727848 0.147435 O
0.842241 0.728629 0.647149 O
0.340233 0.013904 0.107124 O
0.341860 0.021506 0.603070 O
0.335304 0.529980 0.100339 O
0.340755 0.523802 0.601549 O
0.545250 0.116911 0.100692 O
0.550380 0.125640 0.600472 O
0.550658 0.624367 0.102917 O
0.550491 0.626850 0.602969 O
0.055929 0.121943 0.145338 O
0.052697 0.124107 0.647839 O
0.048804 0.623338 0.148314 O
0.051893 0.625720 0.647463 O
0.448180 0.376117 0.402007 O
0.444230 0.374648 0.865747 O
0.450625 0.875616 0.396779 O
0.450079 0.875775 0.896970 O
0.947790 0.376359 0.354169 O
0.948445 0.375445 0.852327 O
0.948891 0.874668 0.353083 O
0.949190 0.874874 0.852088 O
0.580618 0.370782 0.193097 O
0.596356 0.380851 0.674599 O
0.592616 0.875061 0.188137 O
0.590314 0.876312 0.688023 O
0.087217 0.375639 0.062196 O
0.089373 0.374935 0.562775 O
0.087553 0.873386 0.062692 O
0.088942 0.874287 0.562862 O
0.408438 0.124757 0.312181 O
0.411784 0.125017 0.811980 O
0.411751 0.625933 0.312659 O
0.410225 0.625259 0.812459 O
0.912480 0.125178 0.437917 O
0.912344 0.124666 0.938380 O
0.911128 0.625350 0.437882 O
0.909705 0.624634 0.937797 O
