Mg7 Sc16 Se32                           
   1.00000000000000     
    11.3332080000000008    0.0000000000000000    0.0000000000000000
     0.0000000000000000   11.3331990000000005    0.0000000000000000
     0.0000000000000000    0.0000000000000000   11.3331759999999999
   Mg   Sc   Se
     7    16    32
Direct
  0.5917083168248654  0.5917083808439541  0.5917082596210744
  0.6230322666643611  0.1272373557401231  0.1272371125436005
  0.1272373267936802  0.6230323853608560  0.1272371330249065
  0.1272373183292386  0.1272372241529583  0.6230321242641428
  0.3752855123364718  0.8746156880778012  0.8746155737993798
  0.8746155942737410  0.3752855281959235  0.8746155150894818
  0.8746154247815846  0.8746155154888432  0.3752855201746871
  0.9963507850266090  0.7506514770436047  0.7506515041964433
  0.7506511913017524  0.9963505301655887  0.7506514889542195
  0.7506510957441838  0.7506514230477407  0.9963508934755959
  0.9998627629879978  0.9998629266201012  0.9998628681389458
  0.0061266536433841  0.2495837154733924  0.2495835802486273
  0.2495836664514096  0.0061265352586367  0.2495836860553299
  0.2495837165619052  0.2495836626253667  0.0061262799043903
  0.7443127191111247  0.5001478828334516  0.2485975934197009
  0.7443129901640375  0.2485980838596578  0.5001483470014445
  0.0070571689696063  0.5005605176543001  0.5005605046924710
  0.2485979433858259  0.5001480699112967  0.7443129623647996
  0.2485979502059456  0.7443127262596788  0.5001482060127229
  0.5001482254963363  0.7443126703400379  0.2485979847783118
  0.5005605466004149  0.0070575206233159  0.5005602440936934
  0.5001480515212086  0.2485977457327756  0.7443129324169118
  0.5005604579880554  0.5005606000773740  0.0070567925634079
  0.7576815767950276  0.9928971233916482  0.9928972984287006
  0.9928970744710959  0.7576818497639893  0.9928973658555071
  0.9928970886882413  0.9928972096833233  0.7576815671806035
  0.7572928375087647  0.7572927190189559  0.7572928764881565
  0.2414454574817117  0.0068298937874634  0.0068297244047121
  0.0068298889020414  0.2414456329886185  0.0068297095511348
  0.0068298862846011  0.0068298845949736  0.2414458281802660
  0.2401343158435951  0.2401344457381597  0.2401345422032147
  0.7616150004310550  0.4902717761193037  0.4902717532113957
  0.9903786585247568  0.2581154718144697  0.4921073106791267
  0.9903786317800974  0.4921072009247762  0.2581152083182877
  0.7595345745712497  0.2577692614050570  0.2577692379107097
  0.2405184521093153  0.5096911642277487  0.5096912064912285
  0.0073049749807005  0.7428597908019483  0.5084209726538929
  0.0073049192064915  0.5084211777775148  0.7428599508933932
  0.2414272071278016  0.7429187856825541  0.7429188879844343
  0.2581154815909869  0.9903786388823675  0.4921072323780867
  0.4902715055659383  0.7616150812587749  0.4902718844087474
  0.4921071316529140  0.9903787490276661  0.2581150639960783
  0.2577694615953861  0.7595344923942450  0.2577692817526243
  0.7428597081451865  0.0073051058824215  0.5084209216588544
  0.5096915202953523  0.2405187935508695  0.5096911627672871
  0.5084209520379364  0.0073049910321175  0.7428596242508966
  0.7429188522034506  0.2414270995284934  0.7429190375784240
  0.2581152987725098  0.4921072689060474  0.9903786227968356
  0.4921072086930091  0.2581152901539892  0.9903786352808224
  0.4902715090113627  0.4902715429596022  0.7616147577313976
  0.2577692932225991  0.2577692950167995  0.7595342485934735
  0.7428597311308027  0.5084210725373016  0.0073047517609818
  0.5084208933519271  0.7428596976105900  0.0073050378028545
  0.5096912789707686  0.5096910889009633  0.2405184719332918
  0.7429187096520192  0.7429186088785592  0.2414273522678314
 
             NaN             NaN             NaN
             NaN             NaN             NaN
             NaN             NaN             NaN
             NaN             NaN             NaN
             NaN             NaN             NaN
             NaN             NaN             NaN
             NaN             NaN             NaN
             NaN             NaN             NaN
             NaN             NaN             NaN
             NaN             NaN             NaN
             NaN             NaN             NaN
             NaN             NaN             NaN
             NaN             NaN             NaN
             NaN             NaN             NaN
             NaN             NaN             NaN
             NaN             NaN             NaN
             NaN             NaN             NaN
             NaN             NaN             NaN
             NaN             NaN             NaN
             NaN             NaN             NaN
             NaN             NaN             NaN
             NaN             NaN             NaN
             NaN             NaN             NaN
             NaN             NaN             NaN
             NaN             NaN             NaN
             NaN             NaN             NaN
             NaN             NaN             NaN
             NaN             NaN             NaN
             NaN             NaN             NaN
             NaN             NaN             NaN
             NaN             NaN             NaN
             NaN             NaN             NaN
             NaN             NaN             NaN
             NaN             NaN             NaN
             NaN             NaN             NaN
             NaN             NaN             NaN
             NaN             NaN             NaN
             NaN             NaN             NaN
             NaN             NaN             NaN
             NaN             NaN             NaN
             NaN             NaN             NaN
             NaN             NaN             NaN
             NaN             NaN             NaN
             NaN             NaN             NaN
             NaN             NaN             NaN
             NaN             NaN             NaN
             NaN             NaN             NaN
             NaN             NaN             NaN
             NaN             NaN             NaN
             NaN             NaN             NaN
             NaN             NaN             NaN
             NaN             NaN             NaN
             NaN             NaN             NaN
             NaN             NaN             NaN
             NaN             NaN             NaN
