Li46 P16 O64                            
   1.00000000000000     
    10.4915289999999999   -0.0029650000000000   -0.0122540000000000
    -0.0034290000000000   12.2815569999999994   -0.0033310000000000
    -0.0114560000000000   -0.0026790000000000    9.8887579999999993
   Li   P    O 
    46    16    64
Direct
  0.4727017326142214  0.3286940287413442  0.0819859880567645
  0.6624960304152976  0.2510847706827781  0.6008897337673603
  0.6640639381571674  0.7492262414849004  0.0976767079283535
  0.6634863100229289  0.7512894877935853  0.5988489763161922
  0.1656833785982370  0.4898147325937665  0.1545073285723947
  0.1628616851608407  0.5010604527824980  0.6519557199184955
  0.1660018862469585  0.9951953813498602  0.1516785097851527
  0.1631832155718090  0.0005983713723299  0.6532242743370401
  0.3363532346397259  0.0012216328337427  0.4025887418371364
  0.3375003325841556  0.0012286327043126  0.9048159893313205
  0.3368741632202916  0.4986047150152862  0.3973227028623071
  0.3343916733710804  0.4967239976874725  0.9080825844162840
  0.8338243568985528  0.2473517393124248  0.3442542879134323
  0.8345326345733469  0.2488947819471655  0.8541386922171956
  0.8366858040181769  0.7489156985634794  0.3476720806136209
  0.8369678087983853  0.7482860993142156  0.8487118424177107
  0.3344872928970851  0.2494001713121533  0.3926720797243551
  0.3282260678816116  0.2476914309111466  0.9050619194777823
  0.3368406074477374  0.7488522927650929  0.4016479616091188
  0.3363621129284680  0.7484584938650202  0.9043547915096973
  0.8379693844016178  0.0021888570420856  0.3451339142739147
  0.8369972143348907  0.0014369557162975  0.8481193269715636
  0.8348832388985401  0.4988401745741846  0.3482773302392580
  0.8356664281307569  0.5000728464835938  0.8494414049673196
  0.6631987370170687  0.4952258216232924  0.0965416368845292
  0.6628035100606983  0.5018636100703493  0.5994265801498099
  0.6665054926376391  0.9971620687952933  0.0990317262518093
  0.6636955369484127  0.0003357133298293  0.5981158914596030
  0.1609897945634769  0.2521007462723882  0.6478868823887546
  0.1646886758546071  0.7487105217286496  0.1538005922030125
  0.1634731274392351  0.7514762734612570  0.6521958441516906
  0.9286687462545311  0.3658980985246641  0.1517094243160183
  0.9197928156492651  0.3746711416193367  0.6491827705750524
  0.9251794882113838  0.8758330307225595  0.1492955944739170
  0.9243991474800567  0.8761394678708626  0.6489923669249257
  0.4211619196413897  0.3743012116767811  0.5989731643630181
  0.4274866036764576  0.8753271794929605  0.1013124536612014
  0.4241315436166252  0.8758755478771124  0.6015867258561495
  0.0789269047489746  0.1326070629942408  0.3329414329987965
  0.0760304582295213  0.1281007860835290  0.8611865402638345
  0.0756228920703074  0.6216453756930297  0.3512121240272646
  0.0762160494128505  0.6231685354655009  0.8515258130304835
  0.5767687432985545  0.1277479678189280  0.3921518238228173
  0.5798492961812336  0.1294456148089072  0.9123966749026216
  0.5756710783223897  0.6238391052079078  0.4006140143920038
  0.5735267974364682  0.6226576086469235  0.8994351251039184
  0.9138453304774712  0.1202745147410780  0.0964386481313055
  0.9124834085811169  0.1242137620094346  0.5952066929659316
  0.9118184553291617  0.6241436159783406  0.0976955202029063
  0.9108448506670243  0.6265334538943831  0.5954784394728142
  0.4128802608978284  0.1171213646279771  0.1532705536649675
  0.4119838294238367  0.1246230397261524  0.6552571263681506
  0.4106061453995570  0.6270393136009935  0.1539548435685900
  0.4102468716167491  0.6257576815029032  0.6549699063431628
  0.0865154325659175  0.3743461646578289  0.4106005958917445
  0.0848082273672308  0.3776085374562765  0.9008788748631392
  0.0889516231647447  0.8741803290343841  0.4052703098312988
  0.0889993261925900  0.8730997969453728  0.9047385656811899
  0.5894202735976203  0.3771766457606472  0.3503723579549191
  0.5876851645773576  0.3745436457147787  0.8384943177499107
  0.5897411780950296  0.8738254356318559  0.3471304429499979
  0.5892015632262816  0.8740114669447353  0.8448438623934786
  0.8393104489799942  0.0174742848081605  0.1451448369445902
  0.8420648011602269  0.0209636673740916  0.6459365342645745
  0.8402026490859017  0.5229292989423896  0.1486810425487083
  0.8401221372846145  0.5254859111043274  0.6487126129496824
  0.3517179436513592  0.2187881027795637  0.0941620462413336
  0.3416715901843115  0.2267262506644142  0.6040903164826307
  0.3444130207061716  0.7334032744281958  0.1066951113770108
  0.3411683710539460  0.7292734189983395  0.6042658774278986
  0.1563315672265165  0.2702341774226556  0.3730510948653635
  0.1547632975777090  0.2748997636701789  0.8492655628645081
  0.1575930787110088  0.7700563926682444  0.3557651108871685
  0.1588240708814670  0.7706923619923629  0.8520135107473849
  0.6587231931341324  0.4798541635258555  0.4058392462662469
  0.6567573521510699  0.4772771324459129  0.8933829855244561
  0.6596827330829247  0.9764396320387976  0.3979451303612499
  0.6602254807529299  0.9752761223704284  0.8963961028290491
  0.1575577999370901  0.4761007010056057  0.3561469277408971
  0.1569551247757255  0.4791843833303091  0.8463905697966764
  0.1601405133629619  0.9750948379314686  0.3537142688048860
  0.1589865253107548  0.9757412900016538  0.8544843208655281
  0.6587324919305021  0.2744950946690713  0.4028900226058817
  0.6566283853565188  0.2710835082172655  0.8813387074309581
  0.6592505601955444  0.7711530797216681  0.3997284513142296
  0.6580900369524754  0.7701941495821401  0.8951951830764688
  0.8547041234192551  0.2230626939051628  0.1544688100039664
  0.8413122640276296  0.2260313069747159  0.6460398269847151
  0.8421836477066826  0.7279306740053996  0.1473702439628628
  0.8415502305949318  0.7299056570701414  0.6459906310336857
  0.3402180000661280  0.0135523571654484  0.1059834688768452
  0.3416717208886650  0.0213003449861132  0.6042759807650803
  0.3354597105973923  0.5298428161277029  0.1005361477682745
  0.3407382606099548  0.5244094317437670  0.6003259782321811
  0.5510117226271684  0.1102043949134375  0.1063547533038455
  0.5493646632921464  0.1240030259711531  0.6008150912223397
  0.5487988141816371  0.6255886264340994  0.1006569268401210
  0.5489400830975883  0.6273821332669138  0.6045307338278220
  0.0520097892903196  0.1084317991040487  0.1411230224646242
  0.0493853586281043  0.1239565318632568  0.6511843888732644
  0.0496236335928684  0.6242810435244690  0.1508488387742511
  0.0490715361238178  0.6275661211013279  0.6474294622594730
  0.4508641727938749  0.3753116550283995  0.4028859269866946
  0.4499373334191453  0.3732878306557535  0.8924833640005433
  0.4515544911661850  0.8740683495416930  0.3994503927183549
  0.4509839564984215  0.8737432224663209  0.8965250791275784
  0.9487305693246854  0.3751823812981499  0.3561926100451690
  0.9471162035612740  0.3763740055060337  0.8443546536945428
  0.9506065294881014  0.8739834831370610  0.3529456412538723
  0.9508312067280266  0.8735160166363286  0.8515141973714080
  0.5919016157972866  0.3825373925999414  0.1971396485018098
  0.5858471128107290  0.3801005999318408  0.6824315501836392
  0.5910665368599752  0.8715494389297044  0.1912724350909293
  0.5893921298058172  0.8745442067953982  0.6885139858461302
  0.0806734496523528  0.3835947143172082  0.0538399794183366
  0.0832553551758839  0.3815232114097766  0.5670300516606646
  0.0891705488265390  0.8700588614958518  0.0604550073374409
  0.0890970307651209  0.8748786300269276  0.5617115782110925
  0.4089262174475625  0.1216383253401676  0.3103805299301495
  0.4123827134256318  0.1238800130966880  0.8113335200695362
  0.4121599458476265  0.6257298725308140  0.3107236867548032
  0.4084649654034435  0.6241772914482976  0.8110923245742730
  0.9134443820611974  0.1236093489095148  0.4392257745857454
  0.9074640964369506  0.1230875001428557  0.9391370114960342
  0.9099442943698723  0.6252347530149676  0.4393583449685279
  0.9114579331732920  0.6247092986541262  0.9410633293822295
 
             NaN             NaN             NaN
             NaN             NaN             NaN
             NaN             NaN             NaN
             NaN             NaN             NaN
             NaN             NaN             NaN
             NaN             NaN             NaN
             NaN             NaN             NaN
             NaN             NaN             NaN
             NaN             NaN             NaN
             NaN             NaN             NaN
             NaN             NaN             NaN
             NaN             NaN             NaN
             NaN             NaN             NaN
             NaN             NaN             NaN
             NaN             NaN             NaN
             NaN             NaN             NaN
             NaN             NaN             NaN
             NaN             NaN             NaN
             NaN             NaN             NaN
             NaN             NaN             NaN
             NaN             NaN             NaN
             NaN             NaN             NaN
             NaN             NaN             NaN
             NaN             NaN             NaN
             NaN             NaN             NaN
             NaN             NaN             NaN
             NaN             NaN             NaN
             NaN             NaN             NaN
             NaN             NaN             NaN
             NaN             NaN             NaN
             NaN             NaN             NaN
             NaN             NaN             NaN
             NaN             NaN             NaN
             NaN             NaN             NaN
             NaN             NaN             NaN
             NaN             NaN             NaN
             NaN             NaN             NaN
             NaN             NaN             NaN
             NaN             NaN             NaN
             NaN             NaN             NaN
             NaN             NaN             NaN
             NaN             NaN             NaN
             NaN             NaN             NaN
             NaN             NaN             NaN
             NaN             NaN             NaN
             NaN             NaN             NaN
             NaN             NaN             NaN
             NaN             NaN             NaN
             NaN             NaN             NaN
             NaN             NaN             NaN
             NaN             NaN             NaN
             NaN             NaN             NaN
             NaN             NaN             NaN
             NaN             NaN             NaN
             NaN             NaN             NaN
             NaN             NaN             NaN
             NaN             NaN             NaN
             NaN             NaN             NaN
             NaN             NaN             NaN
             NaN             NaN             NaN
             NaN             NaN             NaN
             NaN             NaN             NaN
             NaN             NaN             NaN
             NaN             NaN             NaN
             NaN             NaN             NaN
             NaN             NaN             NaN
             NaN             NaN             NaN
             NaN             NaN             NaN
             NaN             NaN             NaN
             NaN             NaN             NaN
             NaN             NaN             NaN
             NaN             NaN             NaN
             NaN             NaN             NaN
             NaN             NaN             NaN
             NaN             NaN             NaN
             NaN             NaN             NaN
             NaN             NaN             NaN
             NaN             NaN             NaN
             NaN             NaN             NaN
             NaN             NaN             NaN
             NaN             NaN             NaN
             NaN             NaN             NaN
             NaN             NaN             NaN
             NaN             NaN             NaN
             NaN             NaN             NaN
             NaN             NaN             NaN
             NaN             NaN             NaN
             NaN             NaN             NaN
             NaN             NaN             NaN
             NaN             NaN             NaN
             NaN             NaN             NaN
             NaN             NaN             NaN
             NaN             NaN             NaN
             NaN             NaN             NaN
             NaN             NaN             NaN
             NaN             NaN             NaN
             NaN             NaN             NaN
             NaN             NaN             NaN
             NaN             NaN             NaN
             NaN             NaN             NaN
             NaN             NaN             NaN
             NaN             NaN             NaN
             NaN             NaN             NaN
             NaN             NaN             NaN
             NaN             NaN             NaN
             NaN             NaN             NaN
             NaN             NaN             NaN
             NaN             NaN             NaN
             NaN             NaN             NaN
             NaN             NaN             NaN
             NaN             NaN             NaN
             NaN             NaN             NaN
             NaN             NaN             NaN
             NaN             NaN             NaN
             NaN             NaN             NaN
             NaN             NaN             NaN
             NaN             NaN             NaN
             NaN             NaN             NaN
             NaN             NaN             NaN
             NaN             NaN             NaN
             NaN             NaN             NaN
             NaN             NaN             NaN
             NaN             NaN             NaN
             NaN             NaN             NaN
             NaN             NaN             NaN
             NaN             NaN             NaN
