Mg1 Ti16 S32                            
   1.00000000000000     
     9.8251039999999996   -0.0006290000000000   -0.0001240000000000
    -0.0001000000000000    9.8249940000000002    0.0001530000000000
    -0.0001540000000000    0.0001310000000000    9.8249410000000008
   Mg   Ti   S 
     1    16    32
Direct
  0.4024309612056988  0.3475904113063378  0.8450531679300041
  0.2483181241360123  0.7524824598290779 -0.0007367226333196
  0.5002163629699120  0.9893010277102458  0.0079774844633133
  0.7606351922778588  0.2497133775907930  0.0080172826646315
  0.9974835366092452  0.5016151474209488 -0.0008107955672673
  0.5033751715788871  0.2465850573226124  0.2680468554606998
  0.2480166521537116  0.5019718764313222  0.2513131826184594
  0.2401594384074413  0.2483262392927459  0.4869516525844269
  0.5016324866386415  0.5098278468274956  0.4869013469523988
  0.5041374722252941  0.7698366513388014  0.7438216946334504
  0.7618766229429074  0.5097330982002479  0.7465653322281093
  0.7528367805213313  0.7521100387007258  0.4945341786430758
  0.2402518944691304  0.9881307660766606  0.7465637137686103
  0.7524611076801020  0.9975283331370052  0.2492155783468583
  0.9801508088740906  0.2458450690685477  0.7438432291671523
  0.9989861611379327  0.7509848570168830  0.2473677676729051
  0.9978356670420606  0.9971647215315982  0.4944950326788961
  0.7467997301967171  0.0032107726737210  0.0028655600071167
  0.0040775923500956  0.7459319426454746 -0.0014358586452781
 -0.0039086434568495 -0.0001846004678941  0.7433804773226776
  0.7501983447896551  0.7539259385676800  0.7433730929616914
  0.2517869752295562  0.9952482159651759  0.9952816634371096
  0.9991691862007717  0.2515244164295861  0.9924500991034386
  0.9982078966442292  0.9960737100566452  0.2486616962982532
  0.2551420877566897  0.2517704668883089  0.2487645172298867
  0.7476667138892608  0.5054988527227496  0.5001397950451741
 -0.0037129003338710  0.2460838183132520  0.4977557569760429
  0.0037253163601775  0.5018904420025679  0.2436207822703579
  0.7496502790539086  0.2463928133401635  0.2515867002446700
  0.2523168125263887  0.4977120687483955  0.4936142549126752
  0.9983753254790023  0.7516523894308387  0.4927817267682766
  0.9999472155371001  0.4943960564998941  0.7491291431548379
  0.2556121397563629  0.7500658876443841  0.7491236679555238
  0.2445186684051485  0.0023614627601280  0.5001409927709660
  0.5039503901347846  0.7537526564665671  0.4977460907622425
  0.5036160846484830  0.0003372127215791  0.2516045142242178
  0.2481037745626929  0.7462973069342350  0.2436232380585085
  0.7525654832503286  0.9974658366403579  0.4946224065633217
  0.4917039618573275  0.2583265906424317  0.5053588578197731
  0.4914142754621514  1.0071387053110392  0.7561266702133912
  0.7428754877478856  0.2586025831639977  0.7561029476499096
  0.2492011634058587  0.5008170776522178 -0.0008672857070251
  0.5111247139480168  0.2388638653568736  0.0202202636905317
  0.5121215321925146  0.5221625580738523  0.7364605437809041
  0.2278426603777796  0.2378951393629605  0.7364742203373497
  0.7547796561086253  0.4982222178089717  0.9952764273301684
  0.4984814077618896  0.7508307196157296  0.9924433247283296
  0.4982400045186809  0.4948576933213129  0.2487588010874218
  0.7539377857413034  0.7517869675133616  0.2486574073435943
 
             NaN             NaN             NaN
             NaN             NaN             NaN
             NaN             NaN             NaN
             NaN             NaN             NaN
             NaN             NaN             NaN
             NaN             NaN             NaN
             NaN             NaN             NaN
             NaN             NaN             NaN
             NaN             NaN             NaN
             NaN             NaN             NaN
             NaN             NaN             NaN
             NaN             NaN             NaN
             NaN             NaN             NaN
             NaN             NaN             NaN
             NaN             NaN             NaN
             NaN             NaN             NaN
             NaN             NaN             NaN
             NaN             NaN             NaN
             NaN             NaN             NaN
             NaN             NaN             NaN
             NaN             NaN             NaN
             NaN             NaN             NaN
             NaN             NaN             NaN
             NaN             NaN             NaN
             NaN             NaN             NaN
             NaN             NaN             NaN
             NaN             NaN             NaN
             NaN             NaN             NaN
             NaN             NaN             NaN
             NaN             NaN             NaN
             NaN             NaN             NaN
             NaN             NaN             NaN
             NaN             NaN             NaN
             NaN             NaN             NaN
             NaN             NaN             NaN
             NaN             NaN             NaN
             NaN             NaN             NaN
             NaN             NaN             NaN
             NaN             NaN             NaN
             NaN             NaN             NaN
             NaN             NaN             NaN
             NaN             NaN             NaN
             NaN             NaN             NaN
             NaN             NaN             NaN
             NaN             NaN             NaN
             NaN             NaN             NaN
             NaN             NaN             NaN
             NaN             NaN             NaN
             NaN             NaN             NaN
