Mg1 Ti16 S32
1.0
9.825104 -0.000629 -0.000124
-0.000100 9.824994 0.000153
-0.000154 0.000131 9.824941
Mg Ti S
1 16 32
direct
0.406283 0.343721 0.749835 Mg
0.248408 0.753203 0.005257 Ti
0.500949 -0.005559 0.006793 Ti
0.755542 0.249021 0.006815 Ti
0.996770 0.501564 0.005234 Ti
0.500995 0.248999 0.249939 Ti
0.248337 0.501652 0.249854 Ti
0.244198 0.246451 0.490862 Ti
0.503493 0.505755 0.490849 Ti
0.503424 0.753458 0.750056 Ti
0.755712 0.505694 0.750036 Ti
0.751892 0.751264 0.497514 Ti
0.244304 -0.005716 0.750041 Ti
0.751677 -0.001684 0.250189 Ti
0.996538 0.246574 0.750059 Ti
0.998964 0.751024 0.250137 Ti
0.998685 0.998055 0.497507 Ti
0.747358 0.002658 0.003890 S
0.002537 0.747482 0.003545 S
0.001072 1.001730 0.747566 S
0.748274 0.748940 0.747551 S
0.252850 -0.002663 0.997132 S
0.998408 0.252658 0.997126 S
0.997554 0.997317 0.252295 S
0.252828 0.252662 0.249911 S
0.748273 0.503754 0.503001 S
0.001044 0.246635 0.502977 S
0.002532 0.502727 0.248776 S
0.747353 0.247286 0.249301 S
0.253756 0.496252 0.495574 S
0.997530 0.752474 0.497090 S
0.998378 0.496230 0.753572 S
0.253774 0.751630 0.753564 S
0.246257 1.001734 0.503000 S
0.503376 0.748970 0.502980 S
0.502726 0.002657 0.249307 S
0.247270 0.747481 0.248769 S
0.752783 0.997232 0.497013 S
0.495820 0.254185 0.495520 S
0.495825 -0.002790 0.754116 S
0.752799 0.254184 0.754108 S
0.246141 0.503880 0.003728 S
0.504304 0.245717 0.004016 S
0.504802 0.504651 0.745057 S
0.245353 0.245204 0.745042 S
0.752693 0.497172 0.997131 S
0.497358 0.751610 0.997127 S
0.497346 0.497185 0.249923 S
0.752686 0.752445 0.252280 S
