Mg7 Sc16 Se32                           
   1.00000000000000     
    11.1304580000000009   -0.0000030000000000   -0.0000070000000000
    -0.0000030000000000   11.1304540000000003   -0.0000040000000000
    -0.0000070000000000   -0.0000260000000000   11.1305969999999999
   Mg   Sc   Se
     7    16    32
Direct
  0.5608357487040271  0.5608359240555177  0.5608429417052608
  0.6231631755731054  0.1272022931542116  0.1272001380907835
  0.1272024706710309  0.6231634359210302  0.1271996840569922
  0.1272029134398115  0.1272038881581835  0.6231659937931698
  0.3746799000419614  0.8734481201317583  0.8734489126368000
  0.8734483458301352  0.3746802515850557  0.8734490569077101
  0.8734477094741508  0.8734473036829529  0.3746788388816191
  0.9941784649619723  0.7501242257739810  0.7501239029261578
  0.7501271727207610  0.9941773615540075  0.7501251421196370
  0.7501270176494362  0.7501222686543245  0.9941765770845922
  1.0000616785195346  1.0000592112549709  1.0000597881011231
  0.0061968047326527  0.2502012858293908  0.2501992712159306
  0.2502036974609280  0.0061952498696491  0.2502006419439179
  0.2502039572559070  0.2502004067416396  0.0061978218498613
  0.7457588618152221  0.4995934521322184  0.2498609864394924
  0.7457598428774871  0.2498621253387510  0.4995906529185236
  0.0102052394213782  0.4995962262251742  0.4995985559590848
  0.2498685948164974  0.4995911680576959  0.7457525748665474
  0.2498659526913502  0.7457587990500086  0.4995903785234099
  0.4995941499929620  0.7457523209151855  0.2498582568871793
  0.4995998328749171  0.0102060157598290  0.4995950493947323
  0.4995935725330190  0.2498621382662060  0.7457491774795418
  0.4995997293236158  0.4995943100808628  0.0102071597084370
  0.7568665999642624  0.9936992528735697  0.9937009774812744
  0.9936961627534155  0.7568702034892429  0.9937041765780028
  0.9936975668849092  0.9937003416489232  0.7568645837469034
  0.7549419720243533  0.7549406887016279  0.7549458571534815
  0.2428743024506841  0.0065591780574264  0.0065537503871040
  0.0065558291930298  0.2428781147049863  0.0065573118058033
  0.0065569266991876  0.0065584535828441  0.2428808505830976
  0.2441680822579697  0.2441681386076751  0.2441578954707805
  0.7632950478191017  0.4927081670473178  0.4927118882043640
  0.9914463435424536  0.2571871623387920  0.4932760872041869
  0.9914466766761224  0.4932733147319941  0.2571833823712407
  0.7601183830151234  0.2563637715203864  0.2563619309889072
  0.2492215209463202  0.5062546220081536  0.5062624001578994
  0.0068830166986356  0.7427468352592820  0.5068734269942086
  0.0068828767400848  0.5068763339170808  0.7427491297599985
  0.2399084175518391  0.7431632831117666  0.7431683289660653
  0.2571816816717976  0.9914465566914051  0.4932740164432299
  0.4927053859454503  0.7632932837203684  0.4927103312289516
  0.4932700256059395  0.9914453830863390  0.2571834645524936
  0.2563595615934865  0.7601181521876871  0.2563620114329400
  0.7427449931875523  0.0068850125242624  0.5068734695309076
  0.5062569955098670  0.2492195627881824  0.5062620586910042
  0.5068733502946290  0.0068836811186503  0.7427494508391386
  0.7431608353310503  0.2399089574226303  0.7431698607784432
  0.2571868170821763  0.4932737168793409  0.9914467699902964
  0.4932708079082760  0.2571876648487745  0.9914479285029887
  0.4927057214971110  0.4927065155224635  0.7632985569439964
  0.2563628932734718  0.2563634532405084  0.7601187112630157
  0.7427434410903777  0.5068786761865637  0.0068810415246963
  0.5068746102000361  0.7427459702078052  0.0068823710070541
  0.5062571271347470  0.5062538516432542  0.2492159969374164
  0.7431637323581481  0.7431665027228100  0.2399072799126127
 
             NaN             NaN             NaN
             NaN             NaN             NaN
             NaN             NaN             NaN
             NaN             NaN             NaN
             NaN             NaN             NaN
             NaN             NaN             NaN
             NaN             NaN             NaN
             NaN             NaN             NaN
             NaN             NaN             NaN
             NaN             NaN             NaN
             NaN             NaN             NaN
             NaN             NaN             NaN
             NaN             NaN             NaN
             NaN             NaN             NaN
             NaN             NaN             NaN
             NaN             NaN             NaN
             NaN             NaN             NaN
             NaN             NaN             NaN
             NaN             NaN             NaN
             NaN             NaN             NaN
             NaN             NaN             NaN
             NaN             NaN             NaN
             NaN             NaN             NaN
             NaN             NaN             NaN
             NaN             NaN             NaN
             NaN             NaN             NaN
             NaN             NaN             NaN
             NaN             NaN             NaN
             NaN             NaN             NaN
             NaN             NaN             NaN
             NaN             NaN             NaN
             NaN             NaN             NaN
             NaN             NaN             NaN
             NaN             NaN             NaN
             NaN             NaN             NaN
             NaN             NaN             NaN
             NaN             NaN             NaN
             NaN             NaN             NaN
             NaN             NaN             NaN
             NaN             NaN             NaN
             NaN             NaN             NaN
             NaN             NaN             NaN
             NaN             NaN             NaN
             NaN             NaN             NaN
             NaN             NaN             NaN
             NaN             NaN             NaN
             NaN             NaN             NaN
             NaN             NaN             NaN
             NaN             NaN             NaN
             NaN             NaN             NaN
             NaN             NaN             NaN
             NaN             NaN             NaN
             NaN             NaN             NaN
             NaN             NaN             NaN
             NaN             NaN             NaN
