Mg7 Sc16 Se32
1.0
11.130458 -0.000003 -0.000007
-0.000003 11.130454 -0.000004
-0.000007 -0.000026 11.130597
Mg Sc Se
7 16 32
direct
0.561388 0.561389 0.561388 Mg
0.623313 0.126688 0.126686 Mg
0.126688 0.623312 0.126685 Mg
0.126688 0.126688 0.623315 Mg
0.375576 0.874425 0.874425 Mg
0.874425 0.375575 0.874426 Mg
0.874427 0.874426 0.375575 Mg
0.998390 0.749982 0.749985 Sc
0.749984 0.998390 0.749982 Sc
0.749984 0.749981 0.998388 Sc
0.999969 0.999967 0.999964 Sc
0.004721 0.250180 0.250177 Sc
0.250182 0.004719 0.250178 Sc
0.250183 0.250178 0.004720 Sc
0.745232 0.499872 0.251757 Sc
0.745230 0.251757 0.499873 Sc
0.003142 0.499870 0.499872 Sc
0.251760 0.499872 0.745230 Sc
0.251760 0.745231 0.499873 Sc
0.499874 0.745230 0.251755 Sc
0.499873 0.003142 0.499873 Sc
0.499873 0.251758 0.745228 Sc
0.499873 0.499870 0.003143 Sc
0.756847 0.993382 0.993384 Se
0.993381 0.756849 0.993385 Se
0.993381 0.993383 0.756847 Se
0.756295 0.756297 0.756297 Se
0.242560 0.006685 0.006680 Se
0.006684 0.242562 0.006682 Se
0.006683 0.006683 0.242561 Se
0.244226 0.244225 0.244221 Se
0.758520 0.493588 0.493587 Se
0.991160 0.256733 0.493037 Se
0.991161 0.493034 0.256731 Se
0.759071 0.256733 0.256732 Se
0.243476 0.505816 0.505820 Se
0.007435 0.743276 0.507478 Se
0.007435 0.507477 0.743277 Se
0.241809 0.743272 0.743282 Se
0.256730 0.991161 0.493036 Se
0.493587 0.758520 0.493587 Se
0.493033 0.991161 0.256731 Se
0.256731 0.759071 0.256732 Se
0.743273 0.007436 0.507477 Se
0.505816 0.243475 0.505822 Se
0.507476 0.007436 0.743276 Se
0.743270 0.241811 0.743281 Se
0.256732 0.493034 0.991160 Se
0.493033 0.256733 0.991161 Se
0.493586 0.493587 0.758522 Se
0.256732 0.256733 0.759073 Se
0.743271 0.507478 0.007432 Se
0.507477 0.743274 0.007434 Se
0.505818 0.505816 0.243469 Se
0.743275 0.743276 0.241811 Se
