Li15 Fe16 P16 O64
1.0
10.241489 0.002013 0.023503
0.001522 11.964842 -0.005138
0.011777 -0.006530 9.372565
Li Fe P O
15 16 16 64
direct
0.505853 0.465175 0.748694 Li
0.501896 0.000640 0.251194 Li
0.499502 0.009392 0.752629 Li
0.499783 0.500536 0.251605 Li
0.997398 0.249554 0.496101 Li
0.996714 0.247128 0.001561 Li
0.999505 0.749410 0.500775 Li
0.999392 0.751568 0.002094 Li
0.501364 0.247928 0.252632 Li
0.500065 0.750520 0.248691 Li
0.499953 0.749924 0.748498 Li
0.998084 0.500099 0.496545 Li
0.996691 0.502378 0.001703 Li
0.999238 0.001327 0.500642 Li
0.999228 0.999611 0.001848 Li
0.779717 0.124180 0.266240 Fe
0.778028 0.125157 0.761466 Fe
0.780687 0.625206 0.264323 Fe
0.780706 0.625148 0.763569 Fe
0.282029 0.124986 0.485483 Fe
0.281995 0.124815 0.985011 Fe
0.281338 0.625005 0.485858 Fe
0.281023 0.625547 0.986157 Fe
0.217719 0.375118 0.231720 Fe
0.224826 0.374456 0.744755 Fe
0.219085 0.875030 0.236178 Fe
0.219265 0.875116 0.736096 Fe
0.719810 0.374224 0.011670 Fe
0.718391 0.373551 0.516963 Fe
0.718636 0.875123 0.014323 Fe
0.717993 0.875344 0.515091 Fe
0.595527 0.123365 0.041869 P
0.592785 0.126116 0.541394 P
0.594598 0.624316 0.041636 P
0.593604 0.623984 0.542513 P
0.093449 0.124605 0.208368 P
0.094353 0.127913 0.710668 P
0.093330 0.625465 0.207805 P
0.094009 0.622445 0.710649 P
0.398029 0.376269 0.457983 P
0.407888 0.374657 0.957343 P
0.405614 0.874425 0.456898 P
0.407126 0.874659 0.956950 P
0.906069 0.375307 0.289266 P
0.910646 0.375219 0.788661 P
0.906887 0.874874 0.293730 P
0.907437 0.875410 0.792715 P
0.594833 0.125747 0.378064 O
0.600946 0.118043 0.881531 O
0.595373 0.623528 0.380269 O
0.597448 0.625210 0.879839 O
0.095156 0.125772 0.370640 O
0.094732 0.126670 0.872461 O
0.094873 0.624128 0.369968 O
0.094160 0.624013 0.872382 O
0.403391 0.375224 0.119348 O
0.383004 0.380320 0.619491 O
0.404983 0.874482 0.118966 O
0.402309 0.873738 0.618812 O
0.905998 0.375777 0.126881 O
0.908231 0.375305 0.627111 O
0.905481 0.874779 0.131545 O
0.906719 0.874920 0.630647 O
0.955004 0.124554 0.145973 O
0.957708 0.127221 0.644848 O
0.954958 0.625475 0.145191 O
0.957171 0.623385 0.644884 O
0.455849 0.126040 0.103194 O
0.454075 0.125297 0.599998 O
0.455489 0.623272 0.103885 O
0.455006 0.623060 0.604818 O
0.044391 0.375863 0.352266 O
0.052480 0.375585 0.848660 O
0.045152 0.874336 0.356853 O
0.045984 0.874809 0.855602 O
0.539312 0.375183 0.405035 O
0.545008 0.377915 0.897778 O
0.544231 0.874450 0.394087 O
0.545256 0.874143 0.893610 O
0.664310 0.021465 0.113441 O
0.662631 0.022115 0.606923 O
0.666726 0.522584 0.107732 O
0.667310 0.523007 0.608628 O
0.164811 0.226215 0.140544 O
0.165486 0.233390 0.648030 O
0.164491 0.727680 0.142177 O
0.168507 0.722420 0.643570 O
0.329524 0.273865 0.390290 O
0.325097 0.277696 0.892287 O
0.334619 0.772122 0.390133 O
0.334891 0.772518 0.891157 O
0.833934 0.476743 0.356687 O
0.841849 0.477392 0.857159 O
0.836085 0.977077 0.360411 O
0.836732 0.977881 0.858678 O
0.331331 0.478541 0.386594 O
0.330481 0.474998 0.888337 O
0.333516 0.976049 0.390527 O
0.334985 0.976727 0.891349 O
0.835305 0.273277 0.355517 O
0.841997 0.273622 0.857543 O
0.834854 0.772882 0.359773 O
0.835783 0.773193 0.858715 O
0.667045 0.226114 0.106873 O
0.673419 0.224167 0.602914 O
0.664574 0.726750 0.109114 O
0.664357 0.726589 0.608398 O
0.164879 0.022501 0.142324 O
0.168781 0.027709 0.643818 O
0.164907 0.524004 0.139254 O
0.164799 0.516991 0.647900 O
