Mg1 Ti16 S32
1.0
10.032865 -0.022069 0.021111
-0.022073 10.034510 -0.020991
0.021049 -0.020773 10.057724
Mg Ti S
1 16 32
direct
0.249656 0.500342 0.749748 Mg
0.248774 0.756293 0.007496 Ti
0.501569 0.000842 0.001590 Ti
0.749193 0.248425 0.001561 Ti
0.993687 0.501211 0.007453 Ti
0.501807 0.248204 0.250852 Ti
0.250000 0.499986 0.249751 Ti
0.250991 0.244046 0.492447 Ti
0.505958 0.499024 0.492490 Ti
0.506433 0.756739 0.749985 Ti
0.749661 0.499929 0.750057 Ti
0.750688 0.751559 0.498722 Ti
0.250069 0.000338 0.750062 Ti
0.749953 0.000049 0.250308 Ti
0.993267 0.243557 0.749973 Ti
0.998146 0.751842 0.249377 Ti
0.998444 0.999271 0.498698 Ti
0.746557 0.003436 0.003877 S
0.002629 0.747322 0.004416 S
0.003806 0.001667 0.746422 S
0.748332 0.746199 0.746446 S
0.253427 0.999152 0.994544 S
0.994557 0.254707 0.995429 S
0.995697 0.997428 0.254224 S
0.255946 0.248743 0.253740 S
0.748788 0.503471 0.505579 S
0.004520 0.244704 0.504521 S
0.998680 0.505911 0.246220 S
0.747470 0.245794 0.246081 S
0.257161 0.492831 0.501664 S
0.995972 0.754004 0.495289 S
0.995316 0.494866 0.754762 S
0.255115 0.754693 0.754728 S
0.246561 0.001195 0.505575 S
0.505266 0.745503 0.504527 S
0.504200 0.002631 0.246106 S
0.244009 0.751248 0.246175 S
0.753401 0.996605 0.496659 S
0.497111 0.252934 0.495767 S
0.496281 0.998676 0.753774 S
0.751317 0.253711 0.753748 S
0.242482 0.507513 0.997899 S
0.503949 0.246074 0.004959 S
0.504092 0.505370 0.745186 S
0.244648 0.245892 0.745222 S
0.750853 0.496545 0.994532 S
0.495271 0.755466 0.995438 S
0.501306 0.494134 0.253702 S
0.752473 0.754314 0.254236 S
